ECHO = NONE
SPC = 100
OUTPUT
BCRESULTS(TRACTION,FORCE,PLOT) = ALL
DISPLACEMENT(PLOT,REAL) = ALL
FORCE(PLOT,REAL,CENTER) = ALL
OLOAD(PLOT,REAL) = ALL
SPCFORCES(PLOT,REAL) = ALL
STRESS(PLOT,REAL,VONMISES,CENTER) = ALL
PARAM,BAILOUT,0
SUBCASE 1
  LABEL = Subcase - Static Loads 1
GRID,1,0,401.3185,0.0,4.470326,0
GRID,2,0,394.5627,0.0,4.39506,0
GRID,3,0,387.8068,0.0,4.319794,0
GRID,4,0,381.051,0.0,4.244528,0
GRID,5,0,374.2952,0.0,4.169263,0
GRID,6,0,367.5393,0.0,4.093997,0
GRID,7,0,360.7835,0.0,4.018731,0
GRID,8,0,354.0276,0.0,3.943465,0
GRID,9,0,347.2718,0.0,3.868199,0
GRID,10,0,340.516,0.0,3.792933,0
GRID,11,0,333.7601,0.0,3.717668,0
GRID,12,0,327.0043,0.0,3.642402,0
GRID,13,0,320.2485,0.0,3.567136,0
GRID,14,0,313.4926,0.0,3.49187,0
GRID,15,0,306.7368,0.0,3.416604,0
GRID,16,0,401.2437,0.0,8.940099,0
GRID,17,0,394.4891,0.0,8.789576,0
GRID,18,0,387.7345,0.0,8.639054,0
GRID,19,0,380.9799,0.0,8.488532,0
GRID,20,0,374.2253,0.0,8.33801,0
GRID,21,0,367.4708,0.0,8.187487,0
GRID,22,0,360.7162,0.0,8.036965,0
GRID,23,0,353.9616,0.0,7.886443,0
GRID,24,0,347.207,0.0,7.73592,0
GRID,25,0,340.4524,0.0,7.585398,0
GRID,26,0,333.6978,0.0,7.434876,0
GRID,27,0,326.9433,0.0,7.284354,0
GRID,28,0,320.1887,0.0,7.133831,0
GRID,29,0,313.4341,0.0,6.983309,0
GRID,30,0,306.6795,0.0,6.832787,0
GRID,31,0,401.1192,0.0,13.40876,0
GRID,32,0,394.3667,0.0,13.183,0
GRID,33,0,387.6142,0.0,12.95724,0
GRID,34,0,380.8617,0.0,12.73148,0
GRID,35,0,374.1093,0.0,12.50572,0
GRID,36,0,367.3568,0.0,12.27996,0
GRID,37,0,360.6043,0.0,12.0542,0
GRID,38,0,353.8518,0.0,11.82844,0
GRID,39,0,347.0993,0.0,11.60268,0
GRID,40,0,340.3468,0.0,11.37692,0
GRID,41,0,333.5943,0.0,11.15116,0
GRID,42,0,326.8418,0.0,10.9254,0
GRID,43,0,320.0893,0.0,10.69964,0
GRID,44,0,313.3368,0.0,10.47388,0
GRID,45,0,306.5844,0.0,10.24812,0
GRID,46,0,400.9451,0.0,17.87577,0
GRID,47,0,394.1956,0.0,17.5748,0
GRID,48,0,387.446,0.0,17.27383,0
GRID,49,0,380.6964,0.0,16.97286,0
GRID,50,0,373.9469,0.0,16.67189,0
GRID,51,0,367.1973,0.0,16.37092,0
GRID,52,0,360.4478,0.0,16.06995,0
GRID,53,0,353.6982,0.0,15.76898,0
GRID,54,0,346.9486,0.0,15.46801,0
GRID,55,0,340.1991,0.0,15.16704,0
GRID,56,0,333.4495,0.0,14.86607,0
GRID,57,0,326.7,0.0,14.5651,0
GRID,58,0,319.9504,0.0,14.26413,0
GRID,59,0,313.2009,0.0,13.96316,0
GRID,60,0,306.4513,0.0,13.66219,0
GRID,61,0,400.7213,0.0,22.34055,0
GRID,62,0,393.9755,0.0,21.96441,0
GRID,63,0,387.2297,0.0,21.58827,0
GRID,64,0,380.4839,0.0,21.21212,0
GRID,65,0,373.7382,0.0,20.83598,0
GRID,66,0,366.9924,0.0,20.45984,0
GRID,67,0,360.2466,0.0,20.0837,0
GRID,68,0,353.5008,0.0,19.70756,0
GRID,69,0,346.755,0.0,19.33141,0
GRID,70,0,340.0092,0.0,18.95527,0
GRID,71,0,333.2634,0.0,18.57913,0
GRID,72,0,326.5177,0.0,18.20299,0
GRID,73,0,319.7719,0.0,17.82684,0
GRID,74,0,313.0261,0.0,17.4507,0
GRID,75,0,306.2803,0.0,17.07456,0
GRID,76,0,400.4477,0.0,26.80256,0
GRID,77,0,393.7066,0.0,26.35129,0
GRID,78,0,386.9654,0.0,25.90003,0
GRID,79,0,380.2242,0.0,25.44876,0
GRID,80,0,373.483,0.0,24.99749,0
GRID,81,0,366.7419,0.0,24.54622,0
GRID,82,0,360.0007,0.0,24.09496,0
GRID,83,0,353.2595,0.0,23.64369,0
GRID,84,0,346.5184,0.0,23.19242,0
GRID,85,0,339.7772,0.0,22.74115,0
GRID,86,0,333.036,0.0,22.28988,0
GRID,87,0,326.2948,0.0,21.83862,0
GRID,88,0,319.5537,0.0,21.38735,0
GRID,89,0,312.8125,0.0,20.93608,0
GRID,90,0,306.0713,0.0,20.48481,0
GRID,91,0,400.1244,0.0,31.26125,0
GRID,92,0,393.3887,0.0,30.73491,0
GRID,93,0,386.653,0.0,30.20857,0
GRID,94,0,379.9172,0.0,29.68223,0
GRID,95,0,373.1815,0.0,29.1559,0
GRID,96,0,366.4458,0.0,28.62956,0
GRID,97,0,359.7101,0.0,28.10322,0
GRID,98,0,352.9744,0.0,27.57688,0
GRID,99,0,346.2386,0.0,27.05055,0
GRID,100,0,339.5029,0.0,26.52421,0
GRID,101,0,332.7672,0.0,25.99787,0
GRID,102,0,326.0315,0.0,25.47154,0
GRID,103,0,319.2958,0.0,24.9452,0
GRID,104,0,312.56,0.0,24.41886,0
GRID,105,0,305.8243,0.0,23.89252,0
GRID,106,0,399.7514,0.0,35.71605,0
GRID,107,0,393.0219,0.0,35.11471,0
GRID,108,0,386.2925,0.0,34.51337,0
GRID,109,0,379.5631,0.0,33.91203,0
GRID,110,0,372.8336,0.0,33.31068,0
GRID,111,0,366.1042,0.0,32.70934,0
GRID,112,0,359.3748,0.0,32.108,0
GRID,113,0,352.6453,0.0,31.50666,0
GRID,114,0,345.9159,0.0,30.90532,0
GRID,115,0,339.1865,0.0,30.30398,0
GRID,116,0,332.457,0.0,29.70263,0
GRID,117,0,325.7276,0.0,29.10129,0
GRID,118,0,318.9982,0.0,28.49995,0
GRID,119,0,312.2687,0.0,27.89861,0
GRID,120,0,305.5393,0.0,27.29727,0
GRID,121,0,399.3287,0.0,40.16643,0
GRID,122,0,392.6064,0.0,39.49015,0
GRID,123,0,385.8841,0.0,38.81388,0
GRID,124,0,379.1618,0.0,38.13761,0
GRID,125,0,372.4395,0.0,37.46134,0
GRID,126,0,365.7171,0.0,36.78507,0
GRID,127,0,358.9948,0.0,36.1088,0
GRID,128,0,352.2725,0.0,35.43253,0
GRID,129,0,345.5502,0.0,34.75625,0
GRID,130,0,338.8279,0.0,34.07998,0
GRID,131,0,332.1056,0.0,33.40371,0
GRID,132,0,325.3832,0.0,32.72744,0
GRID,133,0,318.6609,0.0,32.05117,0
GRID,134,0,311.9386,0.0,31.3749,0
GRID,135,0,305.2163,0.0,30.69863,0
GRID,136,0,398.8566,0.0,44.61182,0
GRID,137,0,392.1422,0.0,43.8607,0
GRID,138,0,385.4278,0.0,43.10958,0
GRID,139,0,378.7135,0.0,42.35847,0
GRID,140,0,371.9991,0.0,41.60735,0
GRID,141,0,365.2847,0.0,40.85623,0
GRID,142,0,358.5704,0.0,40.10511,0
GRID,143,0,351.856,0.0,39.354,0
GRID,144,0,345.1416,0.0,38.60288,0
GRID,145,0,338.4273,0.0,37.85176,0
GRID,146,0,331.7129,0.0,37.10064,0
GRID,147,0,324.9985,0.0,36.34953,0
GRID,148,0,318.2842,0.0,35.59841,0
GRID,149,0,311.5698,0.0,34.84729,0
GRID,150,0,304.8554,0.0,34.09617,0
GRID,151,0,398.3349,0.0,49.05168,0
GRID,152,0,391.6293,0.0,48.22581,0
GRID,153,0,384.9238,0.0,47.39994,0
GRID,154,0,378.2182,0.0,46.57407,0
GRID,155,0,371.5126,0.0,45.7482,0
GRID,156,0,364.807,0.0,44.92233,0
GRID,157,0,358.1014,0.0,44.09646,0
GRID,158,0,351.3958,0.0,43.27059,0
GRID,159,0,344.6902,0.0,42.44471,0
GRID,160,0,337.9847,0.0,41.61884,0
GRID,161,0,331.2791,0.0,40.79297,0
GRID,162,0,324.5735,0.0,39.9671,0
GRID,163,0,317.8679,0.0,39.14123,0
GRID,164,0,311.1623,0.0,38.31536,0
GRID,165,0,304.4567,0.0,37.48949,0
GRID,166,0,397.7639,0.0,53.48545,0
GRID,167,0,391.0679,0.0,52.58493,0
GRID,168,0,384.3719,0.0,51.68441,0
GRID,169,0,377.676,0.0,50.78389,0
GRID,170,0,370.98,0.0,49.88337,0
GRID,171,0,364.284,0.0,48.98285,0
GRID,172,0,357.5881,0.0,48.08233,0
GRID,173,0,350.8921,0.0,47.18181,0
GRID,174,0,344.1961,0.0,46.28129,0
GRID,175,0,337.5001,0.0,45.38077,0
GRID,176,0,330.8042,0.0,44.48025,0
GRID,177,0,324.1082,0.0,43.57973,0
GRID,178,0,317.4122,0.0,42.67921,0
GRID,179,0,310.7163,0.0,41.77869,0
GRID,180,0,304.0203,0.0,40.87817,0
GRID,181,0,397.1435,0.0,57.91259,0
GRID,182,0,390.4579,0.0,56.93753,0
GRID,183,0,383.7724,0.0,55.96247,0
GRID,184,0,377.0869,0.0,54.98741,0
GRID,185,0,370.4014,0.0,54.01235,0
GRID,186,0,363.7159,0.0,53.03729,0
GRID,187,0,357.0303,0.0,52.06223,0
GRID,188,0,350.3448,0.0,51.08718,0
GRID,189,0,343.6593,0.0,50.11212,0
GRID,190,0,336.9738,0.0,49.13706,0
GRID,191,0,330.2882,0.0,48.162,0
GRID,192,0,323.6027,0.0,47.18694,0
GRID,193,0,316.9172,0.0,46.21188,0
GRID,194,0,310.2317,0.0,45.23682,0
GRID,195,0,303.5461,0.0,44.26177,0
GRID,196,0,396.4738,0.0,62.33254,0
GRID,197,0,389.7995,0.0,61.28306,0
GRID,198,0,383.1253,0.0,60.23359,0
GRID,199,0,376.451,0.0,59.18411,0
GRID,200,0,369.7768,0.0,58.13463,0
GRID,201,0,363.1026,0.0,57.08516,0
GRID,202,0,356.4283,0.0,56.03568,0
GRID,203,0,349.7541,0.0,54.98621,0
GRID,204,0,343.0798,0.0,53.93673,0
GRID,205,0,336.4056,0.0,52.88725,0
GRID,206,0,329.7313,0.0,51.83778,0
GRID,207,0,323.0571,0.0,50.7883,0
GRID,208,0,316.3828,0.0,49.73883,0
GRID,209,0,309.7086,0.0,48.68935,0
GRID,210,0,303.0344,0.0,47.63988,0
GRID,211,0,395.7549,0.0,66.74475,0
GRID,212,0,389.0927,0.0,65.62099,0
GRID,213,0,382.4306,0.0,64.49723,0
GRID,214,0,375.7685,0.0,63.37346,0
GRID,215,0,369.1063,0.0,62.2497,0
GRID,216,0,362.4442,0.0,61.12594,0
GRID,217,0,355.7821,0.0,60.00218,0
GRID,218,0,349.1199,0.0,58.87841,0
GRID,219,0,342.4578,0.0,57.75465,0
GRID,220,0,335.7956,0.0,56.63089,0
GRID,221,0,329.1335,0.0,55.50713,0
GRID,222,0,322.4714,0.0,54.38336,0
GRID,223,0,315.8092,0.0,53.2596,0
GRID,224,0,309.1471,0.0,52.13584,0
GRID,225,0,302.485,0.0,51.01208,0
GRID,226,0,394.9869,0.0,71.14869,0
GRID,227,0,388.3377,0.0,69.95078,0
GRID,228,0,381.6885,0.0,68.75287,0
GRID,229,0,375.0393,0.0,67.55496,0
GRID,230,0,368.3901,0.0,66.35705,0
GRID,231,0,361.7409,0.0,65.15914,0
GRID,232,0,355.0917,0.0,63.96123,0
GRID,233,0,348.4425,0.0,62.76332,0
GRID,234,0,341.7933,0.0,61.56541,0
GRID,235,0,335.1441,0.0,60.3675,0
GRID,236,0,328.4949,0.0,59.16959,0
GRID,237,0,321.8457,0.0,57.97168,0
GRID,238,0,315.1964,0.0,56.77377,0
GRID,239,0,308.5472,0.0,55.57586,0
GRID,240,0,301.898,0.0,54.37795,0
GRID,241,0,394.1699,0.0,75.54379,0
GRID,242,0,387.5344,0.0,74.27189,0
GRID,243,0,380.899,0.0,72.99998,0
GRID,244,0,374.2636,0.0,71.72807,0
GRID,245,0,367.6281,0.0,70.45616,0
GRID,246,0,360.9927,0.0,69.18425,0
GRID,247,0,354.3572,0.0,67.91234,0
GRID,248,0,347.7218,0.0,66.64043,0
GRID,249,0,341.0863,0.0,65.36852,0
GRID,250,0,334.4509,0.0,64.09661,0
GRID,251,0,327.8154,0.0,62.82471,0
GRID,252,0,321.18,0.0,61.5528,0
GRID,253,0,314.5445,0.0,60.28089,0
GRID,254,0,307.9091,0.0,59.00898,0
GRID,255,0,301.2737,0.0,57.73707,0
GRID,256,0,393.304,0.0,79.92953,0
GRID,257,0,386.6831,0.0,78.58378,0
GRID,258,0,380.0623,0.0,77.23803,0
GRID,259,0,373.4414,0.0,75.89228,0
GRID,260,0,366.8205,0.0,74.54653,0
GRID,261,0,360.1997,0.0,73.20078,0
GRID,262,0,353.5788,0.0,71.85503,0
GRID,263,0,346.9579,0.0,70.50928,0
GRID,264,0,340.3371,0.0,69.16353,0
GRID,265,0,333.7162,0.0,67.81778,0
GRID,266,0,327.0954,0.0,66.47203,0
GRID,267,0,320.4745,0.0,65.12628,0
GRID,268,0,313.8536,0.0,63.78053,0
GRID,269,0,307.2328,0.0,62.43478,0
GRID,270,0,300.6119,0.0,61.08903,0
GRID,271,0,392.3893,0.0,84.30535,0
GRID,272,0,385.7839,0.0,82.88593,0
GRID,273,0,379.1784,0.0,81.46651,0
GRID,274,0,372.5729,0.0,80.04708,0
GRID,275,0,365.9675,0.0,78.62766,0
GRID,276,0,359.362,0.0,77.20823,0
GRID,277,0,352.7566,0.0,75.78881,0
GRID,278,0,346.1511,0.0,74.36938,0
GRID,279,0,339.5456,0.0,72.94996,0
GRID,280,0,332.9402,0.0,71.53053,0
GRID,281,0,326.3347,0.0,70.11111,0
GRID,282,0,319.7292,0.0,68.69168,0
GRID,283,0,313.1238,0.0,67.27226,0
GRID,284,0,306.5183,0.0,65.85284,0
GRID,285,0,299.9128,0.0,64.43341,0
GRID,286,0,391.426,0.0,88.67072,0
GRID,287,0,384.8367,0.0,87.17779,0
GRID,288,0,378.2475,0.0,85.68487,0
GRID,289,0,371.6583,0.0,84.19195,0
GRID,290,0,365.069,0.0,82.69903,0
GRID,291,0,358.4798,0.0,81.2061,0
GRID,292,0,351.8905,0.0,79.71318,0
GRID,293,0,345.3013,0.0,78.22026,0
GRID,294,0,338.712,0.0,76.72734,0
GRID,295,0,332.1228,0.0,75.23441,0
GRID,296,0,325.5336,0.0,73.74149,0
GRID,297,0,318.9443,0.0,72.24857,0
GRID,298,0,312.3551,0.0,70.75565,0
GRID,299,0,305.7658,0.0,69.26272,0
GRID,300,0,299.1766,0.0,67.7698,0
GRID,301,0,390.414,0.0,93.02508,0
GRID,302,0,383.8418,0.0,91.45884,0
GRID,303,0,377.2696,0.0,89.89261,0
GRID,304,0,370.6974,0.0,88.32637,0
GRID,305,0,364.1252,0.0,86.76014,0
GRID,306,0,357.553,0.0,85.1939,0
GRID,307,0,350.9808,0.0,83.62767,0
GRID,308,0,344.4086,0.0,82.06143,0
GRID,309,0,337.8364,0.0,80.4952,0
GRID,310,0,331.2642,0.0,78.92896,0
GRID,311,0,324.692,0.0,77.36273,0
GRID,312,0,318.1198,0.0,75.79649,0
GRID,313,0,311.5476,0.0,74.23026,0
GRID,314,0,304.9754,0.0,72.66402,0
GRID,315,0,298.4032,0.0,71.09779,0
GRID,316,0,389.3537,0.0,97.36789,0
GRID,317,0,382.7993,0.0,95.72854,0
GRID,318,0,376.245,0.0,94.08919,0
GRID,319,0,369.6906,0.0,92.44983,0
GRID,320,0,363.1363,0.0,90.81048,0
GRID,321,0,356.5819,0.0,89.17113,0
GRID,322,0,350.0276,0.0,87.53178,0
GRID,323,0,343.4733,0.0,85.89242,0
GRID,324,0,336.9189,0.0,84.25307,0
GRID,325,0,330.3646,0.0,82.61372,0
GRID,326,0,323.8102,0.0,80.97436,0
GRID,327,0,317.2559,0.0,79.33501,0
GRID,328,0,310.7015,0.0,77.69566,0
GRID,329,0,304.1472,0.0,76.05631,0
GRID,330,0,297.5929,0.0,74.41695,0
GRID,331,0,388.245,0.0,101.6986,0
GRID,332,0,381.7093,0.0,99.98636,0
GRID,333,0,375.1736,0.0,98.27409,0
GRID,334,0,368.638,0.0,96.56183,0
GRID,335,0,362.1023,0.0,94.84956,0
GRID,336,0,355.5666,0.0,93.13729,0
GRID,337,0,349.031,0.0,91.42503,0
GRID,338,0,342.4953,0.0,89.71276,0
GRID,339,0,335.9596,0.0,88.00049,0
GRID,340,0,329.4239,0.0,86.28822,0
GRID,341,0,322.8883,0.0,84.57596,0
GRID,342,0,316.3526,0.0,82.86369,0
GRID,343,0,309.8169,0.0,81.15142,0
GRID,344,0,303.2812,0.0,79.43916,0
GRID,345,0,296.7456,0.0,77.72689,0
GRID,346,0,387.0881,0.0,106.0167,0
GRID,347,0,380.572,0.0,104.2318,0
GRID,348,0,374.0558,0.0,102.4468,0
GRID,349,0,367.5396,0.0,100.6618,0
GRID,350,0,361.0234,0.0,98.87687,0
GRID,351,0,354.5072,0.0,97.0919,0
GRID,352,0,347.991,0.0,95.30693,0
GRID,353,0,341.4748,0.0,93.52196,0
GRID,354,0,334.9586,0.0,91.73699,0
GRID,355,0,328.4424,0.0,89.95202,0
GRID,356,0,321.9262,0.0,88.16705,0
GRID,357,0,315.41,0.0,86.38209,0
GRID,358,0,308.8938,0.0,84.59712,0
GRID,359,0,302.3776,0.0,82.81215,0
GRID,360,0,295.8615,0.0,81.02718,0
GRID,361,0,385.8833,0.0,110.3217,0
GRID,362,0,379.3874,0.0,108.4643,0
GRID,363,0,372.8915,0.0,106.6068,0
GRID,364,0,366.3956,0.0,104.7494,0
GRID,365,0,359.8997,0.0,102.8919,0
GRID,366,0,353.4038,0.0,101.0345,0
GRID,367,0,346.9079,0.0,99.17701,0
GRID,368,0,340.412,0.0,97.31956,0
GRID,369,0,333.916,0.0,95.46211,0
GRID,370,0,327.4201,0.0,93.60466,0
GRID,371,0,320.9242,0.0,91.74721,0
GRID,372,0,314.4283,0.0,89.88976,0
GRID,373,0,307.9324,0.0,88.03231,0
GRID,374,0,301.4365,0.0,86.17486,0
GRID,375,0,294.9406,0.0,84.31741,0
GRID,376,0,384.6306,0.0,114.613,0
GRID,377,0,378.1557,0.0,112.6833,0
GRID,378,0,371.6809,0.0,110.7536,0
GRID,379,0,365.2061,0.0,108.8239,0
GRID,380,0,358.7313,0.0,106.8942,0
GRID,381,0,352.2565,0.0,104.9645,0
GRID,382,0,345.7817,0.0,103.0348,0
GRID,383,0,339.3069,0.0,101.1051,0
GRID,384,0,332.8321,0.0,99.17539,0
GRID,385,0,326.3572,0.0,97.24569,0
GRID,386,0,319.8824,0.0,95.31599,0
GRID,387,0,313.4076,0.0,93.38628,0
GRID,388,0,306.9328,0.0,91.45658,0
GRID,389,0,300.458,0.0,89.52688,0
GRID,390,0,293.9832,0.0,87.59718,0
GRID,391,0,383.3301,0.0,118.8901,0
GRID,392,0,376.8772,0.0,116.8884,0
GRID,393,0,370.4243,0.0,114.8866,0
GRID,394,0,363.9714,0.0,112.8849,0
GRID,395,0,357.5184,0.0,110.8832,0
GRID,396,0,351.0655,0.0,108.8815,0
GRID,397,0,344.6126,0.0,106.8798,0
GRID,398,0,338.1597,0.0,104.8781,0
GRID,399,0,331.7068,0.0,102.8764,0
GRID,400,0,325.2539,0.0,100.8746,0
GRID,401,0,318.801,0.0,98.87294,0
GRID,402,0,312.348,0.0,96.87122,0
GRID,403,0,305.8951,0.0,94.86951,0
GRID,404,0,299.4422,0.0,92.8678,0
GRID,405,0,292.9893,0.0,90.86609,0
GRID,406,0,381.9821,0.0,123.1524,0
GRID,407,0,375.5518,0.0,121.0789,0
GRID,408,0,369.1216,0.0,119.0054,0
GRID,409,0,362.6914,0.0,116.9319,0
GRID,410,0,356.2612,0.0,114.8585,0
GRID,411,0,349.831,0.0,112.785,0
GRID,412,0,343.4008,0.0,110.7115,0
GRID,413,0,336.9706,0.0,108.638,0
GRID,414,0,330.5403,0.0,106.5646,0
GRID,415,0,324.1101,0.0,104.4911,0
GRID,416,0,317.6799,0.0,102.4176,0
GRID,417,0,311.2497,0.0,100.3441,0
GRID,418,0,304.8195,0.0,98.27067,0
GRID,419,0,298.3893,0.0,96.1972,0
GRID,420,0,291.9591,0.0,94.12372,0
GRID,421,0,380.5866,0.0,127.3994,0
GRID,422,0,374.1799,0.0,125.2544,0
GRID,423,0,367.7732,0.0,123.1094,0
GRID,424,0,361.3665,0.0,120.9645,0
GRID,425,0,354.9598,0.0,118.8195,0
GRID,426,0,348.5531,0.0,116.6745,0
GRID,427,0,342.1463,0.0,114.5295,0
GRID,428,0,335.7396,0.0,112.3845,0
GRID,429,0,329.3329,0.0,110.2396,0
GRID,430,0,322.9262,0.0,108.0946,0
GRID,431,0,316.5195,0.0,105.9496,0
GRID,432,0,310.1128,0.0,103.8046,0
GRID,433,0,303.7061,0.0,101.6596,0
GRID,434,0,297.2993,0.0,99.51466,0
GRID,435,0,290.8926,0.0,97.36968,0
GRID,436,0,379.144,0.0,131.6306,0
GRID,437,0,372.7616,0.0,129.4144,0
GRID,438,0,366.3791,0.0,127.1982,0
GRID,439,0,359.9967,0.0,124.982,0
GRID,440,0,353.6143,0.0,122.7657,0
GRID,441,0,347.2319,0.0,120.5495,0
GRID,442,0,340.8495,0.0,118.3333,0
GRID,443,0,334.467,0.0,116.1171,0
GRID,444,0,328.0846,0.0,113.9009,0
GRID,445,0,321.7022,0.0,111.6847,0
GRID,446,0,315.3198,0.0,109.4684,0
GRID,447,0,308.9374,0.0,107.2522,0
GRID,448,0,302.5549,0.0,105.036,0
GRID,449,0,296.1725,0.0,102.8198,0
GRID,450,0,289.7901,0.0,100.6036,0
GRID,451,0,377.6543,0.0,135.8455,0
GRID,452,0,371.297,0.0,133.5583,0
GRID,453,0,364.9396,0.0,131.2711,0
GRID,454,0,358.5823,0.0,128.984,0
GRID,455,0,352.225,0.0,126.6968,0
GRID,456,0,345.8676,0.0,124.4096,0
GRID,457,0,339.5103,0.0,122.1224,0
GRID,458,0,333.153,0.0,119.8352,0
GRID,459,0,326.7956,0.0,117.5481,0
GRID,460,0,320.4383,0.0,115.2609,0
GRID,461,0,314.081,0.0,112.9737,0
GRID,462,0,307.7236,0.0,110.6865,0
GRID,463,0,301.3663,0.0,108.3993,0
GRID,464,0,295.009,0.0,106.1122,0
GRID,465,0,288.6516,0.0,103.825,0
GRID,466,0,376.1178,0.0,140.0435,0
GRID,467,0,369.7863,0.0,137.6857,0
GRID,468,0,363.4549,0.0,135.3278,0
GRID,469,0,357.1234,0.0,132.97,0
GRID,470,0,350.7919,0.0,130.6121,0
GRID,471,0,344.4605,0.0,128.2542,0
GRID,472,0,338.129,0.0,125.8964,0
GRID,473,0,331.7976,0.0,123.5385,0
GRID,474,0,325.4661,0.0,121.1807,0
GRID,475,0,319.1346,0.0,118.8228,0
GRID,476,0,312.8032,0.0,116.4649,0
GRID,477,0,306.4717,0.0,114.1071,0
GRID,478,0,300.1403,0.0,111.7492,0
GRID,479,0,293.8088,0.0,109.3914,0
GRID,480,0,287.4773,0.0,107.0335,0
GRID,481,0,374.5346,0.0,144.2242,0
GRID,482,0,368.2298,0.0,141.796,0
GRID,483,0,361.925,0.0,139.3677,0
GRID,484,0,355.6202,0.0,136.9395,0
GRID,485,0,349.3154,0.0,134.5112,0
GRID,486,0,343.0106,0.0,132.083,0
GRID,487,0,336.7058,0.0,129.6547,0
GRID,488,0,330.401,0.0,127.2265,0
GRID,489,0,324.0962,0.0,124.7982,0
GRID,490,0,317.7914,0.0,122.37,0
GRID,491,0,311.4866,0.0,119.9417,0
GRID,492,0,305.1818,0.0,117.5135,0
GRID,493,0,298.877,0.0,115.0852,0
GRID,494,0,292.5722,0.0,112.657,0
GRID,495,0,286.2674,0.0,110.2287,0
GRID,496,0,372.9049,0.0,148.387,0
GRID,497,0,366.6276,0.0,145.8886,0
GRID,498,0,360.3502,0.0,143.3903,0
GRID,499,0,354.0729,0.0,140.892,0
GRID,500,0,347.7955,0.0,138.3936,0
GRID,501,0,341.5181,0.0,135.8953,0
GRID,502,0,335.2408,0.0,133.397,0
GRID,503,0,328.9634,0.0,130.8986,0
GRID,504,0,322.6861,0.0,128.4003,0
GRID,505,0,316.4087,0.0,125.902,0
GRID,506,0,310.1313,0.0,123.4036,0
GRID,507,0,303.854,0.0,120.9053,0
GRID,508,0,297.5766,0.0,118.407,0
GRID,509,0,291.2992,0.0,115.9086,0
GRID,510,0,285.0219,0.0,113.4103,0
GRID,511,0,371.229,0.0,152.5313,0
GRID,512,0,364.9799,0.0,149.9632,0
GRID,513,0,358.7307,0.0,147.3951,0
GRID,514,0,352.4816,0.0,144.827,0
GRID,515,0,346.2324,0.0,142.2589,0
GRID,516,0,339.9833,0.0,139.6908,0
GRID,517,0,333.7342,0.0,137.1227,0
GRID,518,0,327.485,0.0,134.5546,0
GRID,519,0,321.2359,0.0,131.9865,0
GRID,520,0,314.9867,0.0,129.4183,0
GRID,521,0,308.7376,0.0,126.8502,0
GRID,522,0,302.4885,0.0,124.2821,0
GRID,523,0,296.2393,0.0,121.714,0
GRID,524,0,289.9902,0.0,119.1459,0
GRID,525,0,283.7411,0.0,116.5778,0
GRID,526,0,369.507,0.0,156.6568,0
GRID,527,0,363.2869,0.0,154.0192,0
GRID,528,0,357.0667,0.0,151.3816,0
GRID,529,0,350.8466,0.0,148.7441,0
GRID,530,0,344.6264,0.0,146.1065,0
GRID,531,0,338.4063,0.0,143.4689,0
GRID,532,0,332.1862,0.0,140.8314,0
GRID,533,0,325.966,0.0,138.1938,0
GRID,534,0,319.7459,0.0,135.5562,0
GRID,535,0,313.5257,0.0,132.9187,0
GRID,536,0,307.3056,0.0,130.2811,0
GRID,537,0,301.0855,0.0,127.6435,0
GRID,538,0,294.8653,0.0,125.006,0
GRID,539,0,288.6452,0.0,122.3684,0
GRID,540,0,282.425,0.0,119.7308,0
GRID,541,0,367.7392,0.0,160.7628,0
GRID,542,0,361.5488,0.0,158.0561,0
GRID,543,0,355.3584,0.0,155.3494,0
GRID,544,0,349.1681,0.0,152.6427,0
GRID,545,0,342.9777,0.0,149.936,0
GRID,546,0,336.7873,0.0,147.2293,0
GRID,547,0,330.597,0.0,144.5226,0
GRID,548,0,324.4066,0.0,141.8159,0
GRID,549,0,318.2162,0.0,139.1092,0
GRID,550,0,312.0258,0.0,136.4025,0
GRID,551,0,305.8355,0.0,133.6958,0
GRID,552,0,299.6451,0.0,130.9891,0
GRID,553,0,293.4547,0.0,128.2824,0
GRID,554,0,287.2644,0.0,125.5757,0
GRID,555,0,281.074,0.0,122.869,0
GRID,556,0,365.9257,0.0,164.8488,0
GRID,557,0,359.7659,0.0,162.0733,0
GRID,558,0,353.6061,0.0,159.2979,0
GRID,559,0,347.4462,0.0,156.5224,0
GRID,560,0,341.2864,0.0,153.7469,0
GRID,561,0,335.1266,0.0,150.9714,0
GRID,562,0,328.9667,0.0,148.1959,0
GRID,563,0,322.8069,0.0,145.4204,0
GRID,564,0,316.6471,0.0,142.6449,0
GRID,565,0,310.4872,0.0,139.8694,0
GRID,566,0,304.3274,0.0,137.0939,0
GRID,567,0,298.1676,0.0,134.3184,0
GRID,568,0,292.0077,0.0,131.5429,0
GRID,569,0,285.8479,0.0,128.7675,0
GRID,570,0,279.6881,0.0,125.992,0
GRID,571,0,364.0669,0.0,168.9144,0
GRID,572,0,357.9384,0.0,166.0705,0
GRID,573,0,351.8098,0.0,163.2266,0
GRID,574,0,345.6813,0.0,160.3826,0
GRID,575,0,339.5528,0.0,157.5387,0
GRID,576,0,333.4242,0.0,154.6947,0
GRID,577,0,327.2957,0.0,151.8508,0
GRID,578,0,321.1672,0.0,149.0069,0
GRID,579,0,315.0386,0.0,146.1629,0
GRID,580,0,308.9101,0.0,143.319,0
GRID,581,0,302.7816,0.0,140.475,0
GRID,582,0,296.653,0.0,137.6311,0
GRID,583,0,290.5245,0.0,134.7872,0
GRID,584,0,284.396,0.0,131.9432,0
GRID,585,0,278.2675,0.0,129.0993,0
GRID,586,0,362.1629,0.0,172.9591,0
GRID,587,0,356.0664,0.0,170.0471,0
GRID,588,0,349.9699,0.0,167.135,0
GRID,589,0,343.8735,0.0,164.223,0
GRID,590,0,337.777,0.0,161.3109,0
GRID,591,0,331.6805,0.0,158.3989,0
GRID,592,0,325.5841,0.0,155.4869,0
GRID,593,0,319.4876,0.0,152.5748,0
GRID,594,0,313.3911,0.0,149.6628,0
GRID,595,0,307.2947,0.0,146.7508,0
GRID,596,0,301.1982,0.0,143.8387,0
GRID,597,0,295.1017,0.0,140.9267,0
GRID,598,0,289.0052,0.0,138.0146,0
GRID,599,0,282.9088,0.0,135.1026,0
GRID,600,0,276.8123,0.0,132.1906,0
GRID,601,0,360.2139,0.0,176.9823,0
GRID,602,0,354.1503,0.0,174.0025,0
GRID,603,0,348.0866,0.0,171.0227,0
GRID,604,0,342.023,0.0,168.043,0
GRID,605,0,335.9593,0.0,165.0632,0
GRID,606,0,329.8957,0.0,162.0834,0
GRID,607,0,323.832,0.0,159.1036,0
GRID,608,0,317.7684,0.0,156.1239,0
GRID,609,0,311.7047,0.0,153.1441,0
GRID,610,0,305.6411,0.0,150.1643,0
GRID,611,0,299.5774,0.0,147.1846,0
GRID,612,0,293.5138,0.0,144.2048,0
GRID,613,0,287.4501,0.0,141.225,0
GRID,614,0,281.3864,0.0,138.2452,0
GRID,615,0,275.3228,0.0,135.2655,0
GRID,616,0,358.2203,0.0,180.9835,0
GRID,617,0,352.1902,0.0,177.9364,0
GRID,618,0,346.1601,0.0,174.8892,0
GRID,619,0,340.13,0.0,171.8421,0
GRID,620,0,334.0999,0.0,168.7949,0
GRID,621,0,328.0699,0.0,165.7478,0
GRID,622,0,322.0398,0.0,162.7007,0
GRID,623,0,316.0097,0.0,159.6535,0
GRID,624,0,309.9796,0.0,156.6064,0
GRID,625,0,303.9495,0.0,153.5593,0
GRID,626,0,297.9195,0.0,150.5121,0
GRID,627,0,291.8894,0.0,147.465,0
GRID,628,0,285.8593,0.0,144.4178,0
GRID,629,0,279.8292,0.0,141.3707,0
GRID,630,0,273.7991,0.0,138.3236,0
GRID,631,0,356.1822,0.0,184.9623,0
GRID,632,0,350.1864,0.0,181.8481,0
GRID,633,0,344.1906,0.0,178.734,0
GRID,634,0,338.1949,0.0,175.6199,0
GRID,635,0,332.1991,0.0,172.5058,0
GRID,636,0,326.2034,0.0,169.3916,0
GRID,637,0,320.2076,0.0,166.2775,0
GRID,638,0,314.2118,0.0,163.1634,0
GRID,639,0,308.2161,0.0,160.0493,0
GRID,640,0,302.2203,0.0,156.9351,0
GRID,641,0,296.2246,0.0,153.821,0
GRID,642,0,290.2288,0.0,150.7069,0
GRID,643,0,284.233,0.0,147.5928,0
GRID,644,0,278.2373,0.0,144.4786,0
GRID,645,0,272.2415,0.0,141.3645,0
GRID,646,0,354.0999,0.0,188.9181,0
GRID,647,0,348.1392,0.0,185.7374,0
GRID,648,0,342.1785,0.0,182.5566,0
GRID,649,0,336.2178,0.0,179.3759,0
GRID,650,0,330.2571,0.0,176.1952,0
GRID,651,0,324.2964,0.0,173.0145,0
GRID,652,0,318.3357,0.0,169.8337,0
GRID,653,0,312.375,0.0,166.653,0
GRID,654,0,306.4143,0.0,163.4723,0
GRID,655,0,300.4536,0.0,160.2916,0
GRID,656,0,294.4929,0.0,157.1108,0
GRID,657,0,288.5322,0.0,153.9301,0
GRID,658,0,282.5715,0.0,150.7494,0
GRID,659,0,276.6108,0.0,147.5687,0
GRID,660,0,270.6501,0.0,144.3879,0
GRID,661,0,351.9737,0.0,192.8505,0
GRID,662,0,346.0488,0.0,189.6035,0
GRID,663,0,340.1239,0.0,186.3566,0
GRID,664,0,334.199,0.0,183.1097,0
GRID,665,0,328.2741,0.0,179.8628,0
GRID,666,0,322.3492,0.0,176.6158,0
GRID,667,0,316.4243,0.0,173.3689,0
GRID,668,0,310.4994,0.0,170.122,0
GRID,669,0,304.5745,0.0,166.875,0
GRID,670,0,298.6496,0.0,163.6281,0
GRID,671,0,292.7248,0.0,160.3812,0
GRID,672,0,286.7999,0.0,157.1342,0
GRID,673,0,280.875,0.0,153.8873,0
GRID,674,0,274.9501,0.0,150.6404,0
GRID,675,0,269.0252,0.0,147.3935,0
GRID,676,0,349.8038,0.0,196.7589,0
GRID,677,0,343.9155,0.0,193.4462,0
GRID,678,0,338.0271,0.0,190.1335,0
GRID,679,0,332.1388,0.0,186.8207,0
GRID,680,0,326.2504,0.0,183.508,0
GRID,681,0,320.362,0.0,180.1953,0
GRID,682,0,314.4737,0.0,176.8825,0
GRID,683,0,308.5853,0.0,173.5698,0
GRID,684,0,302.697,0.0,170.2571,0
GRID,685,0,296.8086,0.0,166.9443,0
GRID,686,0,290.9203,0.0,163.6316,0
GRID,687,0,285.0319,0.0,160.3189,0
GRID,688,0,279.1436,0.0,157.0061,0
GRID,689,0,273.2552,0.0,153.6934,0
GRID,690,0,267.3669,0.0,150.3807,0
GRID,691,0,347.5905,0.0,200.643,0
GRID,692,0,341.7395,0.0,197.2649,0
GRID,693,0,335.8884,0.0,193.8868,0
GRID,694,0,330.0373,0.0,190.5086,0
GRID,695,0,324.1862,0.0,187.1305,0
GRID,696,0,318.3351,0.0,183.7524,0
GRID,697,0,312.484,0.0,180.3743,0
GRID,698,0,306.633,0.0,176.9961,0
GRID,699,0,300.7819,0.0,173.618,0
GRID,700,0,294.9308,0.0,170.2399,0
GRID,701,0,289.0797,0.0,166.8618,0
GRID,702,0,283.2286,0.0,163.4836,0
GRID,703,0,277.3775,0.0,160.1055,0
GRID,704,0,271.5264,0.0,156.7274,0
GRID,705,0,265.6754,0.0,153.3493,0
GRID,706,0,345.3341,0.0,204.5022,0
GRID,707,0,339.521,0.0,201.0591,0
GRID,708,0,333.708,0.0,197.616,0
GRID,709,0,327.8949,0.0,194.1729,0
GRID,710,0,322.0818,0.0,190.7298,0
GRID,711,0,316.2687,0.0,187.2867,0
GRID,712,0,310.4556,0.0,183.8436,0
GRID,713,0,304.6425,0.0,180.4005,0
GRID,714,0,298.8294,0.0,176.9574,0
GRID,715,0,293.0163,0.0,173.5143,0
GRID,716,0,287.2032,0.0,170.0712,0
GRID,717,0,281.3902,0.0,166.6281,0
GRID,718,0,275.5771,0.0,163.185,0
GRID,719,0,269.764,0.0,159.7419,0
GRID,720,0,263.9509,0.0,156.2988,0
GRID,721,0,343.0349,0.0,208.3359,0
GRID,722,0,337.2605,0.0,204.8283,0
GRID,723,0,331.4861,0.0,201.3206,0
GRID,724,0,325.7118,0.0,197.813,0
GRID,725,0,319.9374,0.0,194.3054,0
GRID,726,0,314.163,0.0,190.7977,0
GRID,727,0,308.3886,0.0,187.2901,0
GRID,728,0,302.6143,0.0,183.7824,0
GRID,729,0,296.8399,0.0,180.2748,0
GRID,730,0,291.0655,0.0,176.7671,0
GRID,731,0,285.2912,0.0,173.2595,0
GRID,732,0,279.5168,0.0,169.7519,0
GRID,733,0,273.7424,0.0,166.2442,0
GRID,734,0,267.968,0.0,162.7366,0
GRID,735,0,262.1937,0.0,159.2289,0
GRID,736,0,340.6931,0.0,212.1439,0
GRID,737,0,334.9581,0.0,208.5721,0
GRID,738,0,329.2232,0.0,205.0004,0
GRID,739,0,323.4882,0.0,201.4286,0
GRID,740,0,317.7533,0.0,197.8569,0
GRID,741,0,312.0184,0.0,194.2851,0
GRID,742,0,306.2834,0.0,190.7133,0
GRID,743,0,300.5485,0.0,187.1416,0
GRID,744,0,294.8136,0.0,183.5698,0
GRID,745,0,289.0786,0.0,179.9981,0
GRID,746,0,283.3437,0.0,176.4263,0
GRID,747,0,277.6087,0.0,172.8546,0
GRID,748,0,271.8738,0.0,169.2828,0
GRID,749,0,266.1389,0.0,165.7111,0
GRID,750,0,260.4039,0.0,162.1393,0
GRID,751,0,338.309,0.0,215.9255,0
GRID,752,0,332.6142,0.0,212.2901,0
GRID,753,0,326.9194,0.0,208.6546,0
GRID,754,0,321.2246,0.0,205.0192,0
GRID,755,0,315.5298,0.0,201.3838,0
GRID,756,0,309.835,0.0,197.7484,0
GRID,757,0,304.1402,0.0,194.113,0
GRID,758,0,298.4454,0.0,190.4775,0
GRID,759,0,292.7506,0.0,186.8421,0
GRID,760,0,287.0559,0.0,183.2067,0
GRID,761,0,281.3611,0.0,179.5713,0
GRID,762,0,275.6663,0.0,175.9359,0
GRID,763,0,269.9715,0.0,172.3004,0
GRID,764,0,264.2767,0.0,168.665,0
GRID,765,0,258.5819,0.0,165.0296,0
GRID,766,0,335.8829,0.0,219.6803,0
GRID,767,0,330.229,0.0,215.9817,0
GRID,768,0,324.5751,0.0,212.283,0
GRID,769,0,318.9211,0.0,208.5844,0
GRID,770,0,313.2672,0.0,204.8858,0
GRID,771,0,307.6132,0.0,201.1871,0
GRID,772,0,301.9593,0.0,197.4885,0
GRID,773,0,296.3054,0.0,193.7899,0
GRID,774,0,290.6514,0.0,190.0912,0
GRID,775,0,284.9975,0.0,186.3926,0
GRID,776,0,279.3435,0.0,182.694,0
GRID,777,0,273.6896,0.0,178.9953,0
GRID,778,0,268.0357,0.0,175.2967,0
GRID,779,0,262.3817,0.0,171.5981,0
GRID,780,0,256.7278,0.0,167.8994,0
GRID,781,0,333.4152,0.0,223.4079,0
GRID,782,0,327.8028,0.0,219.6465,0
GRID,783,0,322.1905,0.0,215.8851,0
GRID,784,0,316.5781,0.0,212.1237,0
GRID,785,0,310.9657,0.0,208.3623,0
GRID,786,0,305.3533,0.0,204.6009,0
GRID,787,0,299.7409,0.0,200.8395,0
GRID,788,0,294.1285,0.0,197.0782,0
GRID,789,0,288.5161,0.0,193.3168,0
GRID,790,0,282.9038,0.0,189.5554,0
GRID,791,0,277.2914,0.0,185.794,0
GRID,792,0,271.679,0.0,182.0326,0
GRID,793,0,266.0666,0.0,178.2712,0
GRID,794,0,260.4542,0.0,174.5098,0
GRID,795,0,254.8418,0.0,170.7484,0
GRID,796,0,330.9061,0.0,227.1078,0
GRID,797,0,325.336,0.0,223.2841,0
GRID,798,0,319.7659,0.0,219.4604,0
GRID,799,0,314.1957,0.0,215.6367,0
GRID,800,0,308.6256,0.0,211.813,0
GRID,801,0,303.0555,0.0,207.9894,0
GRID,802,0,297.4853,0.0,204.1657,0
GRID,803,0,291.9152,0.0,200.342,0
GRID,804,0,286.3451,0.0,196.5183,0
GRID,805,0,280.7749,0.0,192.6946,0
GRID,806,0,275.2048,0.0,188.8709,0
GRID,807,0,269.6347,0.0,185.0473,0
GRID,808,0,264.0645,0.0,181.2236,0
GRID,809,0,258.4944,0.0,177.3999,0
GRID,810,0,252.9243,0.0,173.5762,0
GRID,811,0,328.356,0.0,230.7794,0
GRID,812,0,322.8288,0.0,226.8939,0
GRID,813,0,317.3016,0.0,223.0084,0
GRID,814,0,311.7744,0.0,219.1229,0
GRID,815,0,306.2472,0.0,215.2374,0
GRID,816,0,300.72,0.0,211.352,0
GRID,817,0,295.1928,0.0,207.4665,0
GRID,818,0,289.6657,0.0,203.581,0
GRID,819,0,284.1385,0.0,199.6955,0
GRID,820,0,278.6113,0.0,195.81,0
GRID,821,0,273.0841,0.0,191.9245,0
GRID,822,0,267.5569,0.0,188.039,0
GRID,823,0,262.0297,0.0,184.1535,0
GRID,824,0,256.5025,0.0,180.268,0
GRID,825,0,250.9753,0.0,176.3825,0
GRID,826,0,325.7651,0.0,234.4225,0
GRID,827,0,320.2815,0.0,230.4756,0
GRID,828,0,314.798,0.0,226.5288,0
GRID,829,0,309.3144,0.0,222.582,0
GRID,830,0,303.8308,0.0,218.6352,0
GRID,831,0,298.3473,0.0,214.6883,0
GRID,832,0,292.8637,0.0,210.7415,0
GRID,833,0,287.3802,0.0,206.7947,0
GRID,834,0,281.8966,0.0,202.8478,0
GRID,835,0,276.413,0.0,198.901,0
GRID,836,0,270.9295,0.0,194.9542,0
GRID,837,0,265.4459,0.0,191.0074,0
GRID,838,0,259.9623,0.0,187.0605,0
GRID,839,0,254.4788,0.0,183.1137,0
GRID,840,0,248.9952,0.0,179.1669,0
GRID,841,0,323.1338,0.0,238.0364,0
GRID,842,0,317.6945,0.0,234.0287,0
GRID,843,0,312.2553,0.0,230.0211,0
GRID,844,0,306.816,0.0,226.0134,0
GRID,845,0,301.3768,0.0,222.0057,0
GRID,846,0,295.9375,0.0,217.9981,0
GRID,847,0,290.4983,0.0,213.9904,0
GRID,848,0,285.059,0.0,209.9827,0
GRID,849,0,279.6198,0.0,205.9751,0
GRID,850,0,274.1805,0.0,201.9674,0
GRID,851,0,268.7412,0.0,197.9597,0
GRID,852,0,263.302,0.0,193.952,0
GRID,853,0,257.8627,0.0,189.9444,0
GRID,854,0,252.4235,0.0,185.9367,0
GRID,855,0,246.9842,0.0,181.929,0
GRID,856,0,320.4624,0.0,241.6208,0
GRID,857,0,315.0681,0.0,237.5528,0
GRID,858,0,309.6739,0.0,233.4848,0
GRID,859,0,304.2796,0.0,229.4168,0
GRID,860,0,298.8853,0.0,225.3488,0
GRID,861,0,293.491,0.0,221.2808,0
GRID,862,0,288.0968,0.0,217.2127,0
GRID,863,0,282.7025,0.0,213.1447,0
GRID,864,0,277.3082,0.0,209.0767,0
GRID,865,0,271.914,0.0,205.0087,0
GRID,866,0,266.5197,0.0,200.9407,0
GRID,867,0,261.1254,0.0,196.8727,0
GRID,868,0,255.7311,0.0,192.8046,0
GRID,869,0,250.3369,0.0,188.7366,0
GRID,870,0,244.9426,0.0,184.6686,0
GRID,871,0,317.7513,0.0,245.1753,0
GRID,872,0,312.4026,0.0,241.0474,0
GRID,873,0,307.054,0.0,236.9196,0
GRID,874,0,301.7054,0.0,232.7917,0
GRID,875,0,296.3568,0.0,228.6639,0
GRID,876,0,291.0082,0.0,224.536,0
GRID,877,0,285.6595,0.0,220.4082,0
GRID,878,0,280.3109,0.0,216.2803,0
GRID,879,0,274.9623,0.0,212.1524,0
GRID,880,0,269.6137,0.0,208.0246,0
GRID,881,0,264.2651,0.0,203.8967,0
GRID,882,0,258.9164,0.0,199.7689,0
GRID,883,0,253.5678,0.0,195.641,0
GRID,884,0,248.2192,0.0,191.5132,0
GRID,885,0,242.8706,0.0,187.3853,0
GRID,886,0,315.0007,0.0,248.6993,0
GRID,887,0,309.6984,0.0,244.5122,0
GRID,888,0,304.3961,0.0,240.325,0
GRID,889,0,299.0938,0.0,236.1378,0
GRID,890,0,293.7915,0.0,231.9506,0
GRID,891,0,288.4892,0.0,227.7634,0
GRID,892,0,283.1869,0.0,223.5762,0
GRID,893,0,277.8846,0.0,219.389,0
GRID,894,0,272.5823,0.0,215.2019,0
GRID,895,0,267.28,0.0,211.0147,0
GRID,896,0,261.9777,0.0,206.8275,0
GRID,897,0,256.6754,0.0,202.6403,0
GRID,898,0,251.3731,0.0,198.4531,0
GRID,899,0,246.0708,0.0,194.2659,0
GRID,900,0,240.7685,0.0,190.0787,0
GRID,901,0,312.211,0.0,252.1925,0
GRID,902,0,306.9557,0.0,247.9465,0
GRID,903,0,301.7004,0.0,243.7005,0
GRID,904,0,296.4451,0.0,239.4545,0
GRID,905,0,291.1897,0.0,235.2085,0
GRID,906,0,285.9344,0.0,230.9625,0
GRID,907,0,280.6791,0.0,226.7166,0
GRID,908,0,275.4238,0.0,222.4706,0
GRID,909,0,270.1684,0.0,218.2246,0
GRID,910,0,264.9131,0.0,213.9786,0
GRID,911,0,259.6578,0.0,209.7326,0
GRID,912,0,254.4024,0.0,205.4866,0
GRID,913,0,249.1471,0.0,201.2406,0
GRID,914,0,243.8918,0.0,196.9946,0
GRID,915,0,238.6365,0.0,192.7486,0
GRID,916,0,309.3826,0.0,255.6544,0
GRID,917,0,304.1749,0.0,251.3501,0
GRID,918,0,298.9672,0.0,247.0458,0
GRID,919,0,293.7595,0.0,242.7416,0
GRID,920,0,288.5519,0.0,238.4373,0
GRID,921,0,283.3442,0.0,234.133,0
GRID,922,0,278.1365,0.0,229.8287,0
GRID,923,0,272.9288,0.0,225.5245,0
GRID,924,0,267.7211,0.0,221.2202,0
GRID,925,0,262.5134,0.0,216.9159,0
GRID,926,0,257.3057,0.0,212.6116,0
GRID,927,0,252.098,0.0,208.3074,0
GRID,928,0,246.8903,0.0,204.0031,0
GRID,929,0,241.6826,0.0,199.6988,0
GRID,930,0,236.4749,0.0,195.3945,0
GRID,931,0,306.5159,0.0,259.0846,0
GRID,932,0,301.3564,0.0,254.7225,0
GRID,933,0,296.197,0.0,250.3605,0
GRID,934,0,291.0376,0.0,245.9985,0
GRID,935,0,285.8782,0.0,241.6365,0
GRID,936,0,280.7187,0.0,237.2745,0
GRID,937,0,275.5593,0.0,232.9124,0
GRID,938,0,270.3999,0.0,228.5504,0
GRID,939,0,265.2405,0.0,224.1884,0
GRID,940,0,260.081,0.0,219.8264,0
GRID,941,0,254.9216,0.0,215.4643,0
GRID,942,0,249.7622,0.0,211.1023,0
GRID,943,0,244.6028,0.0,206.7403,0
GRID,944,0,239.4434,0.0,202.3783,0
GRID,945,0,234.2839,0.0,198.0163,0
GRID,946,0,303.6111,0.0,262.4826,0
GRID,947,0,298.5005,0.0,258.0634,0
GRID,948,0,293.39,0.0,253.6441,0
GRID,949,0,288.2795,0.0,249.2249,0
GRID,950,0,283.169,0.0,244.8057,0
GRID,951,0,278.0585,0.0,240.3864,0
GRID,952,0,272.948,0.0,235.9672,0
GRID,953,0,267.8375,0.0,231.548,0
GRID,954,0,262.727,0.0,227.1288,0
GRID,955,0,257.6165,0.0,222.7095,0
GRID,956,0,252.506,0.0,218.2903,0
GRID,957,0,247.3954,0.0,213.8711,0
GRID,958,0,242.2849,0.0,209.4518,0
GRID,959,0,237.1744,0.0,205.0326,0
GRID,960,0,232.0639,0.0,200.6134,0
GRID,961,0,300.6686,0.0,265.848,0
GRID,962,0,295.6076,0.0,261.3722,0
GRID,963,0,290.5467,0.0,256.8963,0
GRID,964,0,285.4857,0.0,252.4204,0
GRID,965,0,280.4247,0.0,247.9445,0
GRID,966,0,275.3638,0.0,243.4686,0
GRID,967,0,270.3028,0.0,238.9927,0
GRID,968,0,265.2418,0.0,234.5168,0
GRID,969,0,260.1809,0.0,230.0409,0
GRID,970,0,255.1199,0.0,225.5651,0
GRID,971,0,250.059,0.0,221.0892,0
GRID,972,0,244.998,0.0,216.6133,0
GRID,973,0,239.937,0.0,212.1374,0
GRID,974,0,234.8761,0.0,207.6615,0
GRID,975,0,229.8151,0.0,203.1856,0
GRID,976,0,297.6888,0.0,269.1805,0
GRID,977,0,292.678,0.0,264.6485,0
GRID,978,0,287.6672,0.0,260.1165,0
GRID,979,0,282.6565,0.0,255.5846,0
GRID,980,0,277.6457,0.0,251.0526,0
GRID,981,0,272.6349,0.0,246.5206,0
GRID,982,0,267.6241,0.0,241.9886,0
GRID,983,0,262.6133,0.0,237.4566,0
GRID,984,0,257.6025,0.0,232.9246,0
GRID,985,0,252.5917,0.0,228.3926,0
GRID,986,0,247.5809,0.0,223.8606,0
GRID,987,0,242.5702,0.0,219.3286,0
GRID,988,0,237.5594,0.0,214.7966,0
GRID,989,0,232.5486,0.0,210.2647,0
GRID,990,0,227.5378,0.0,205.7327,0
GRID,991,0,294.6721,0.0,272.4796,0
GRID,992,0,289.7121,0.0,267.8921,0
GRID,993,0,284.7521,0.0,263.3046,0
GRID,994,0,279.7921,0.0,258.717,0
GRID,995,0,274.8322,0.0,254.1295,0
GRID,996,0,269.8722,0.0,249.542,0
GRID,997,0,264.9122,0.0,244.9544,0
GRID,998,0,259.9522,0.0,240.3669,0
GRID,999,0,254.9922,0.0,235.7794,0
GRID,1000,0,250.0322,0.0,231.1918,0
GRID,1001,0,245.0722,0.0,226.6043,0
GRID,1002,0,240.1122,0.0,222.0168,0
GRID,1003,0,235.1522,0.0,217.4292,0
GRID,1004,0,230.1922,0.0,212.8417,0
GRID,1005,0,225.2323,0.0,208.2542,0
GRID,1006,0,291.6189,0.0,275.7449,0
GRID,1007,0,286.7103,0.0,271.1024,0
GRID,1008,0,281.8017,0.0,266.4599,0
GRID,1009,0,276.8931,0.0,261.8174,0
GRID,1010,0,271.9845,0.0,257.1749,0
GRID,1011,0,267.076,0.0,252.5324,0
GRID,1012,0,262.1674,0.0,247.8899,0
GRID,1013,0,257.2588,0.0,243.2474,0
GRID,1014,0,252.3502,0.0,238.6049,0
GRID,1015,0,247.4417,0.0,233.9624,0
GRID,1016,0,242.5331,0.0,229.3199,0
GRID,1017,0,237.6245,0.0,224.6774,0
GRID,1018,0,232.7159,0.0,220.0349,0
GRID,1019,0,227.8074,0.0,215.3924,0
GRID,1020,0,222.8988,0.0,210.7499,0
GRID,1021,0,288.5294,0.0,278.9759,0
GRID,1022,0,283.6728,0.0,274.279,0
GRID,1023,0,278.8163,0.0,269.5822,0
GRID,1024,0,273.9597,0.0,264.8853,0
GRID,1025,0,269.1032,0.0,260.1884,0
GRID,1026,0,264.2466,0.0,255.4915,0
GRID,1027,0,259.3901,0.0,250.7946,0
GRID,1028,0,254.5335,0.0,246.0977,0
GRID,1029,0,249.677,0.0,241.4008,0
GRID,1030,0,244.8204,0.0,236.7039,0
GRID,1031,0,239.9639,0.0,232.007,0
GRID,1032,0,235.1073,0.0,227.3101,0
GRID,1033,0,230.2508,0.0,222.6132,0
GRID,1034,0,225.3942,0.0,217.9163,0
GRID,1035,0,220.5377,0.0,213.2194,0
GRID,1036,0,285.4041,0.0,282.1724,0
GRID,1037,0,280.6002,0.0,277.4217,0
GRID,1038,0,275.7963,0.0,272.671,0
GRID,1039,0,270.9924,0.0,267.9203,0
GRID,1040,0,266.1884,0.0,263.1696,0
GRID,1041,0,261.3845,0.0,258.4189,0
GRID,1042,0,256.5806,0.0,253.6682,0
GRID,1043,0,251.7767,0.0,248.9175,0
GRID,1044,0,246.9727,0.0,244.1668,0
GRID,1045,0,242.1688,0.0,239.4161,0
GRID,1046,0,237.3649,0.0,234.6653,0
GRID,1047,0,232.561,0.0,229.9146,0
GRID,1048,0,227.757,0.0,225.1639,0
GRID,1049,0,222.9531,0.0,220.4132,0
GRID,1050,0,218.1492,0.0,215.6625,0
GRID,1051,0,282.2435,0.0,285.3338,0
GRID,1052,0,277.4928,0.0,280.5299,0
GRID,1053,0,272.7421,0.0,275.726,0
GRID,1054,0,267.9914,0.0,270.922,0
GRID,1055,0,263.2407,0.0,266.1181,0
GRID,1056,0,258.49,0.0,261.3142,0
GRID,1057,0,253.7393,0.0,256.5103,0
GRID,1058,0,248.9886,0.0,251.7063,0
GRID,1059,0,244.2379,0.0,246.9024,0
GRID,1060,0,239.4872,0.0,242.0985,0
GRID,1061,0,234.7365,0.0,237.2946,0
GRID,1062,0,229.9857,0.0,232.4906,0
GRID,1063,0,225.235,0.0,227.6867,0
GRID,1064,0,220.4843,0.0,222.8828,0
GRID,1065,0,215.7336,0.0,218.0789,0
GRID,1066,0,279.0478,0.0,288.4599,0
GRID,1067,0,274.3509,0.0,283.6033,0
GRID,1068,0,269.654,0.0,278.7468,0
GRID,1069,0,264.9571,0.0,273.8902,0
GRID,1070,0,260.2602,0.0,269.0337,0
GRID,1071,0,255.5634,0.0,264.1771,0
GRID,1072,0,250.8665,0.0,259.3206,0
GRID,1073,0,246.1696,0.0,254.464,0
GRID,1074,0,241.4727,0.0,249.6075,0
GRID,1075,0,236.7758,0.0,244.7509,0
GRID,1076,0,232.0789,0.0,239.8944,0
GRID,1077,0,227.382,0.0,235.0378,0
GRID,1078,0,222.6851,0.0,230.1812,0
GRID,1079,0,217.9882,0.0,225.3247,0
GRID,1080,0,213.2913,0.0,220.4681,0
GRID,1081,0,275.8175,0.0,291.5501,0
GRID,1082,0,271.175,0.0,286.6416,0
GRID,1083,0,266.5325,0.0,281.733,0
GRID,1084,0,261.89,0.0,276.8244,0
GRID,1085,0,257.2475,0.0,271.9158,0
GRID,1086,0,252.605,0.0,267.0073,0
GRID,1087,0,247.9625,0.0,262.0987,0
GRID,1088,0,243.32,0.0,257.1901,0
GRID,1089,0,238.6775,0.0,252.2815,0
GRID,1090,0,234.035,0.0,247.3729,0
GRID,1091,0,229.3925,0.0,242.4644,0
GRID,1092,0,224.75,0.0,237.5558,0
GRID,1093,0,220.1075,0.0,232.6472,0
GRID,1094,0,215.465,0.0,227.7386,0
GRID,1095,0,210.8225,0.0,222.8301,0
GRID,1096,0,272.553,0.0,294.6042,0
GRID,1097,0,267.9655,0.0,289.6442,0
GRID,1098,0,263.378,0.0,284.6842,0
GRID,1099,0,258.7904,0.0,279.7242,0
GRID,1100,0,254.2029,0.0,274.7643,0
GRID,1101,0,249.6154,0.0,269.8043,0
GRID,1102,0,245.0278,0.0,264.8443,0
GRID,1103,0,240.4403,0.0,259.8843,0
GRID,1104,0,235.8528,0.0,254.9243,0
GRID,1105,0,231.2653,0.0,249.9643,0
GRID,1106,0,226.6777,0.0,245.0043,0
GRID,1107,0,222.0902,0.0,240.0443,0
GRID,1108,0,217.5027,0.0,235.0843,0
GRID,1109,0,212.9151,0.0,230.1243,0
GRID,1110,0,208.3276,0.0,225.1644,0
GRID,1111,0,269.2547,0.0,297.6217,0
GRID,1112,0,264.7227,0.0,292.611,0
GRID,1113,0,260.1907,0.0,287.6002,0
GRID,1114,0,255.6587,0.0,282.5894,0
GRID,1115,0,251.1267,0.0,277.5786,0
GRID,1116,0,246.5947,0.0,272.5678,0
GRID,1117,0,242.0628,0.0,267.557,0
GRID,1118,0,237.5308,0.0,262.5462,0
GRID,1119,0,232.9988,0.0,257.5354,0
GRID,1120,0,228.4668,0.0,252.5246,0
GRID,1121,0,223.9348,0.0,247.5139,0
GRID,1122,0,219.4028,0.0,242.5031,0
GRID,1123,0,214.8708,0.0,237.4923,0
GRID,1124,0,210.3388,0.0,232.4815,0
GRID,1125,0,205.8068,0.0,227.4707,0
GRID,1126,0,265.923,0.0,300.6023,0
GRID,1127,0,261.4471,0.0,295.5414,0
GRID,1128,0,256.9712,0.0,290.4804,0
GRID,1129,0,252.4953,0.0,285.4194,0
GRID,1130,0,248.0194,0.0,280.3585,0
GRID,1131,0,243.5435,0.0,275.2975,0
GRID,1132,0,239.0676,0.0,270.2366,0
GRID,1133,0,234.5917,0.0,265.1756,0
GRID,1134,0,230.1159,0.0,260.1146,0
GRID,1135,0,225.64,0.0,255.0537,0
GRID,1136,0,221.1641,0.0,249.9927,0
GRID,1137,0,216.6882,0.0,244.9317,0
GRID,1138,0,212.2123,0.0,239.8708,0
GRID,1139,0,207.7364,0.0,234.8098,0
GRID,1140,0,203.2605,0.0,229.7489,0
GRID,1141,0,262.5582,0.0,303.5456,0
GRID,1142,0,258.139,0.0,298.4351,0
GRID,1143,0,253.7198,0.0,293.3246,0
GRID,1144,0,249.3005,0.0,288.2141,0
GRID,1145,0,244.8813,0.0,283.1036,0
GRID,1146,0,240.4621,0.0,277.9931,0
GRID,1147,0,236.0429,0.0,272.8826,0
GRID,1148,0,231.6236,0.0,267.7721,0
GRID,1149,0,227.2044,0.0,262.6616,0
GRID,1150,0,222.7852,0.0,257.5511,0
GRID,1151,0,218.3659,0.0,252.4405,0
GRID,1152,0,213.9467,0.0,247.33,0
GRID,1153,0,209.5275,0.0,242.2195,0
GRID,1154,0,205.1083,0.0,237.109,0
GRID,1155,0,200.689,0.0,231.9985,0
GRID,1156,0,259.1609,0.0,306.4513,0
GRID,1157,0,254.7989,0.0,301.2919,0
GRID,1158,0,250.4369,0.0,296.1324,0
GRID,1159,0,246.0749,0.0,290.973,0
GRID,1160,0,241.7128,0.0,285.8136,0
GRID,1161,0,237.3508,0.0,280.6542,0
GRID,1162,0,232.9888,0.0,275.4948,0
GRID,1163,0,228.6268,0.0,270.3353,0
GRID,1164,0,224.2648,0.0,265.1759,0
GRID,1165,0,219.9027,0.0,260.0165,0
GRID,1166,0,215.5407,0.0,254.8571,0
GRID,1167,0,211.1787,0.0,249.6976,0
GRID,1168,0,206.8167,0.0,244.5382,0
GRID,1169,0,202.4546,0.0,239.3788,0
GRID,1170,0,198.0926,0.0,234.2194,0
GRID,1171,0,255.7315,0.0,309.3189,0
GRID,1172,0,251.4272,0.0,304.1112,0
GRID,1173,0,247.1229,0.0,298.9035,0
GRID,1174,0,242.8187,0.0,293.6958,0
GRID,1175,0,238.5144,0.0,288.4881,0
GRID,1176,0,234.2101,0.0,283.2804,0
GRID,1177,0,229.9058,0.0,278.0727,0
GRID,1178,0,225.6016,0.0,272.865,0
GRID,1179,0,221.2973,0.0,267.6574,0
GRID,1180,0,216.993,0.0,262.4497,0
GRID,1181,0,212.6887,0.0,257.242,0
GRID,1182,0,208.3845,0.0,252.0343,0
GRID,1183,0,204.0802,0.0,246.8266,0
GRID,1184,0,199.7759,0.0,241.6189,0
GRID,1185,0,195.4716,0.0,236.4112,0
GRID,1186,0,252.2703,0.0,312.1482,0
GRID,1187,0,248.0243,0.0,306.8929,0
GRID,1188,0,243.7783,0.0,301.6375,0
GRID,1189,0,239.5323,0.0,296.3822,0
GRID,1190,0,235.2863,0.0,291.1269,0
GRID,1191,0,231.0403,0.0,285.8716,0
GRID,1192,0,226.7943,0.0,280.6162,0
GRID,1193,0,222.5483,0.0,275.3609,0
GRID,1194,0,218.3024,0.0,270.1056,0
GRID,1195,0,214.0564,0.0,264.8503,0
GRID,1196,0,209.8104,0.0,259.5949,0
GRID,1197,0,205.5644,0.0,254.3396,0
GRID,1198,0,201.3184,0.0,249.0843,0
GRID,1199,0,197.0724,0.0,243.8289,0
GRID,1200,0,192.8264,0.0,238.5736,0
GRID,1201,0,248.7778,0.0,314.9387,0
GRID,1202,0,244.5906,0.0,309.6364,0
GRID,1203,0,240.4035,0.0,304.3341,0
GRID,1204,0,236.2163,0.0,299.0318,0
GRID,1205,0,232.0291,0.0,293.7295,0
GRID,1206,0,227.8419,0.0,288.4272,0
GRID,1207,0,223.6547,0.0,283.1249,0
GRID,1208,0,219.4675,0.0,277.8226,0
GRID,1209,0,215.2803,0.0,272.5203,0
GRID,1210,0,211.0931,0.0,267.218,0
GRID,1211,0,206.906,0.0,261.9157,0
GRID,1212,0,202.7188,0.0,256.6134,0
GRID,1213,0,198.5316,0.0,251.3111,0
GRID,1214,0,194.3444,0.0,246.0088,0
GRID,1215,0,190.1572,0.0,240.7065,0
GRID,1216,0,245.2545,0.0,317.6902,0
GRID,1217,0,241.1266,0.0,312.3415,0
GRID,1218,0,236.9988,0.0,306.9929,0
GRID,1219,0,232.8709,0.0,301.6443,0
GRID,1220,0,228.743,0.0,296.2957,0
GRID,1221,0,224.6152,0.0,290.9471,0
GRID,1222,0,220.4873,0.0,285.5984,0
GRID,1223,0,216.3595,0.0,280.2498,0
GRID,1224,0,212.2316,0.0,274.9012,0
GRID,1225,0,208.1037,0.0,269.5526,0
GRID,1226,0,203.9759,0.0,264.204,0
GRID,1227,0,199.848,0.0,258.8553,0
GRID,1228,0,195.7202,0.0,253.5067,0
GRID,1229,0,191.5923,0.0,248.1581,0
GRID,1230,0,187.4645,0.0,242.8095,0
GRID,1231,0,241.7007,0.0,320.4022,0
GRID,1232,0,237.6327,0.0,315.0079,0
GRID,1233,0,233.5647,0.0,309.6136,0
GRID,1234,0,229.4966,0.0,304.2194,0
GRID,1235,0,225.4286,0.0,298.8251,0
GRID,1236,0,221.3606,0.0,293.4308,0
GRID,1237,0,217.2926,0.0,288.0366,0
GRID,1238,0,213.2246,0.0,282.6423,0
GRID,1239,0,209.1566,0.0,277.248,0
GRID,1240,0,205.0885,0.0,271.8537,0
GRID,1241,0,201.0205,0.0,266.4595,0
GRID,1242,0,196.9525,0.0,261.0652,0
GRID,1243,0,192.8845,0.0,255.6709,0
GRID,1244,0,188.8165,0.0,250.2767,0
GRID,1245,0,184.7485,0.0,244.8824,0
GRID,1246,0,238.1169,0.0,323.0745,0
GRID,1247,0,234.1093,0.0,317.6352,0
GRID,1248,0,230.1016,0.0,312.196,0
GRID,1249,0,226.0939,0.0,306.7567,0
GRID,1250,0,222.0862,0.0,301.3174,0
GRID,1251,0,218.0786,0.0,295.8782,0
GRID,1252,0,214.0709,0.0,290.4389,0
GRID,1253,0,210.0632,0.0,284.9997,0
GRID,1254,0,206.0556,0.0,279.5604,0
GRID,1255,0,202.0479,0.0,274.1212,0
GRID,1256,0,198.0402,0.0,268.6819,0
GRID,1257,0,194.0325,0.0,263.2427,0
GRID,1258,0,190.0249,0.0,257.8034,0
GRID,1259,0,186.0172,0.0,252.3642,0
GRID,1260,0,182.0095,0.0,246.9249,0
GRID,1261,0,234.5036,0.0,325.7067,0
GRID,1262,0,230.5568,0.0,320.2231,0
GRID,1263,0,226.61,0.0,314.7395,0
GRID,1264,0,222.6631,0.0,309.256,0
GRID,1265,0,218.7163,0.0,303.7724,0
GRID,1266,0,214.7695,0.0,298.2889,0
GRID,1267,0,210.8227,0.0,292.8053,0
GRID,1268,0,206.8758,0.0,287.3217,0
GRID,1269,0,202.929,0.0,281.8382,0
GRID,1270,0,198.9822,0.0,276.3546,0
GRID,1271,0,195.0353,0.0,270.871,0
GRID,1272,0,191.0885,0.0,265.3875,0
GRID,1273,0,187.1417,0.0,259.9039,0
GRID,1274,0,183.1949,0.0,254.4204,0
GRID,1275,0,179.248,0.0,248.9368,0
GRID,1276,0,230.8612,0.0,328.2985,0
GRID,1277,0,226.9757,0.0,322.7713,0
GRID,1278,0,223.0902,0.0,317.2441,0
GRID,1279,0,219.2047,0.0,311.7169,0
GRID,1280,0,215.3193,0.0,306.1897,0
GRID,1281,0,211.4338,0.0,300.6625,0
GRID,1282,0,207.5483,0.0,295.1353,0
GRID,1283,0,203.6628,0.0,289.6081,0
GRID,1284,0,199.7773,0.0,284.0809,0
GRID,1285,0,195.8918,0.0,278.5538,0
GRID,1286,0,192.0063,0.0,273.0266,0
GRID,1287,0,188.1208,0.0,267.4994,0
GRID,1288,0,184.2353,0.0,261.9722,0
GRID,1289,0,180.3498,0.0,256.445,0
GRID,1290,0,176.4643,0.0,250.9178,0
GRID,1291,0,227.1902,0.0,330.8495,0
GRID,1292,0,223.3665,0.0,325.2794,0
GRID,1293,0,219.5428,0.0,319.7093,0
GRID,1294,0,215.7192,0.0,314.1391,0
GRID,1295,0,211.8955,0.0,308.569,0
GRID,1296,0,208.0718,0.0,302.9989,0
GRID,1297,0,204.2481,0.0,297.4287,0
GRID,1298,0,200.4244,0.0,291.8586,0
GRID,1299,0,196.6008,0.0,286.2885,0
GRID,1300,0,192.7771,0.0,280.7183,0
GRID,1301,0,188.9534,0.0,275.1482,0
GRID,1302,0,185.1297,0.0,269.5781,0
GRID,1303,0,181.306,0.0,264.0079,0
GRID,1304,0,177.4824,0.0,258.4378,0
GRID,1305,0,173.6587,0.0,252.8677,0
GRID,1306,0,223.491,0.0,333.3595,0
GRID,1307,0,219.7296,0.0,327.7472,0
GRID,1308,0,215.9682,0.0,322.1348,0
GRID,1309,0,212.2068,0.0,316.5224,0
GRID,1310,0,208.4454,0.0,310.91,0
GRID,1311,0,204.684,0.0,305.2976,0
GRID,1312,0,200.9226,0.0,299.6852,0
GRID,1313,0,197.1612,0.0,294.0728,0
GRID,1314,0,193.3998,0.0,288.4605,0
GRID,1315,0,189.6384,0.0,282.8481,0
GRID,1316,0,185.8771,0.0,277.2357,0
GRID,1317,0,182.1157,0.0,271.6233,0
GRID,1318,0,178.3543,0.0,266.0109,0
GRID,1319,0,174.5929,0.0,260.3985,0
GRID,1320,0,170.8315,0.0,254.7862,0
GRID,1321,0,219.764,0.0,335.8282,0
GRID,1322,0,216.0654,0.0,330.1742,0
GRID,1323,0,212.3667,0.0,324.5203,0
GRID,1324,0,208.6681,0.0,318.8664,0
GRID,1325,0,204.9695,0.0,313.2124,0
GRID,1326,0,201.2708,0.0,307.5585,0
GRID,1327,0,197.5722,0.0,301.9045,0
GRID,1328,0,193.8736,0.0,296.2506,0
GRID,1329,0,190.1749,0.0,290.5967,0
GRID,1330,0,186.4763,0.0,284.9427,0
GRID,1331,0,182.7776,0.0,279.2888,0
GRID,1332,0,179.079,0.0,273.6349,0
GRID,1333,0,175.3804,0.0,267.9809,0
GRID,1334,0,171.6817,0.0,262.327,0
GRID,1335,0,167.9831,0.0,256.673,0
GRID,1336,0,216.0098,0.0,338.2552,0
GRID,1337,0,212.3743,0.0,332.5604,0
GRID,1338,0,208.7389,0.0,326.8656,0
GRID,1339,0,205.1035,0.0,321.1708,0
GRID,1340,0,201.4681,0.0,315.476,0
GRID,1341,0,197.8327,0.0,309.7812,0
GRID,1342,0,194.1973,0.0,304.0864,0
GRID,1343,0,190.5618,0.0,298.3916,0
GRID,1344,0,186.9264,0.0,292.6968,0
GRID,1345,0,183.291,0.0,287.002,0
GRID,1346,0,179.6556,0.0,281.3072,0
GRID,1347,0,176.0202,0.0,275.6125,0
GRID,1348,0,172.3847,0.0,269.9177,0
GRID,1349,0,168.7493,0.0,264.2229,0
GRID,1350,0,165.1139,0.0,258.5281,0
GRID,1351,0,212.2287,0.0,340.6402,0
GRID,1352,0,208.657,0.0,334.9052,0
GRID,1353,0,205.0852,0.0,329.1703,0
GRID,1354,0,201.5135,0.0,323.4354,0
GRID,1355,0,197.9417,0.0,317.7004,0
GRID,1356,0,194.37,0.0,311.9655,0
GRID,1357,0,190.7982,0.0,306.2306,0
GRID,1358,0,187.2265,0.0,300.4956,0
GRID,1359,0,183.6547,0.0,294.7607,0
GRID,1360,0,180.083,0.0,289.0257,0
GRID,1361,0,176.5112,0.0,283.2908,0
GRID,1362,0,172.9395,0.0,277.5559,0
GRID,1363,0,169.3677,0.0,271.8209,0
GRID,1364,0,165.796,0.0,266.086,0
GRID,1365,0,162.2242,0.0,260.3511,0
GRID,1366,0,208.4214,0.0,342.983,0
GRID,1367,0,204.9138,0.0,337.2086,0
GRID,1368,0,201.4061,0.0,331.4342,0
GRID,1369,0,197.8985,0.0,325.6598,0
GRID,1370,0,194.3908,0.0,319.8855,0
GRID,1371,0,190.8832,0.0,314.1111,0
GRID,1372,0,187.3755,0.0,308.3367,0
GRID,1373,0,183.8679,0.0,302.5623,0
GRID,1374,0,180.3603,0.0,296.788,0
GRID,1375,0,176.8526,0.0,291.0136,0
GRID,1376,0,173.345,0.0,285.2392,0
GRID,1377,0,169.8373,0.0,279.4649,0
GRID,1378,0,166.3297,0.0,273.6905,0
GRID,1379,0,162.822,0.0,267.9161,0
GRID,1380,0,159.3144,0.0,262.1417,0
GRID,1381,0,204.5882,0.0,345.2832,0
GRID,1382,0,201.1451,0.0,339.4701,0
GRID,1383,0,197.702,0.0,333.657,0
GRID,1384,0,194.2589,0.0,327.8439,0
GRID,1385,0,190.8158,0.0,322.0308,0
GRID,1386,0,187.3727,0.0,316.2177,0
GRID,1387,0,183.9296,0.0,310.4046,0
GRID,1388,0,180.4865,0.0,304.5915,0
GRID,1389,0,177.0434,0.0,298.7785,0
GRID,1390,0,173.6003,0.0,292.9654,0
GRID,1391,0,170.1572,0.0,287.1523,0
GRID,1392,0,166.7141,0.0,281.3392,0
GRID,1393,0,163.271,0.0,275.5261,0
GRID,1394,0,159.8279,0.0,269.713,0
GRID,1395,0,156.3848,0.0,263.8999,0
GRID,1396,0,200.7296,0.0,347.5405,0
GRID,1397,0,197.3515,0.0,341.6895,0
GRID,1398,0,193.9734,0.0,335.8384,0
GRID,1399,0,190.5952,0.0,329.9873,0
GRID,1400,0,187.2171,0.0,324.1362,0
GRID,1401,0,183.839,0.0,318.2851,0
GRID,1402,0,180.4609,0.0,312.434,0
GRID,1403,0,177.0827,0.0,306.5829,0
GRID,1404,0,173.7046,0.0,300.7319,0
GRID,1405,0,170.3265,0.0,294.8808,0
GRID,1406,0,166.9484,0.0,289.0297,0
GRID,1407,0,163.5702,0.0,283.1786,0
GRID,1408,0,160.1921,0.0,277.3275,0
GRID,1409,0,156.814,0.0,271.4764,0
GRID,1410,0,153.4359,0.0,265.6254,0
GRID,1411,0,196.8461,0.0,349.7548,0
GRID,1412,0,193.5334,0.0,343.8664,0
GRID,1413,0,190.2206,0.0,337.9781,0
GRID,1414,0,186.9079,0.0,332.0897,0
GRID,1415,0,183.5952,0.0,326.2014,0
GRID,1416,0,180.2824,0.0,320.313,0
GRID,1417,0,176.9697,0.0,314.4247,0
GRID,1418,0,173.657,0.0,308.5363,0
GRID,1419,0,170.3442,0.0,302.6479,0
GRID,1420,0,167.0315,0.0,296.7596,0
GRID,1421,0,163.7188,0.0,290.8712,0
GRID,1422,0,160.406,0.0,284.9829,0
GRID,1423,0,157.0933,0.0,279.0945,0
GRID,1424,0,153.7806,0.0,273.2062,0
GRID,1425,0,150.4678,0.0,267.3178,0
GRID,1426,0,192.9382,0.0,351.9256,0
GRID,1427,0,189.6912,0.0,346.0007,0
GRID,1428,0,186.4443,0.0,340.0758,0
GRID,1429,0,183.1974,0.0,334.1509,0
GRID,1430,0,179.9505,0.0,328.2261,0
GRID,1431,0,176.7035,0.0,322.3012,0
GRID,1432,0,173.4566,0.0,316.3763,0
GRID,1433,0,170.2097,0.0,310.4514,0
GRID,1434,0,166.9627,0.0,304.5265,0
GRID,1435,0,163.7158,0.0,298.6016,0
GRID,1436,0,160.4689,0.0,292.6767,0
GRID,1437,0,157.2219,0.0,286.7518,0
GRID,1438,0,153.975,0.0,280.8269,0
GRID,1439,0,150.7281,0.0,274.902,0
GRID,1440,0,147.4811,0.0,268.9771,0
GRID,1441,0,189.0063,0.0,354.0528,0
GRID,1442,0,185.8256,0.0,348.0921,0
GRID,1443,0,182.6449,0.0,342.1314,0
GRID,1444,0,179.4641,0.0,336.1707,0
GRID,1445,0,176.2834,0.0,330.21,0
GRID,1446,0,173.1027,0.0,324.2493,0
GRID,1447,0,169.922,0.0,318.2886,0
GRID,1448,0,166.7412,0.0,312.3279,0
GRID,1449,0,163.5605,0.0,306.3672,0
GRID,1450,0,160.3798,0.0,300.4065,0
GRID,1451,0,157.1991,0.0,294.4458,0
GRID,1452,0,154.0183,0.0,288.4851,0
GRID,1453,0,150.8376,0.0,282.5244,0
GRID,1454,0,147.6569,0.0,276.5637,0
GRID,1455,0,144.4762,0.0,270.603,0
GRID,1456,0,185.051,0.0,356.1361,0
GRID,1457,0,181.9369,0.0,350.1403,0
GRID,1458,0,178.8228,0.0,344.1446,0
GRID,1459,0,175.7086,0.0,338.1488,0
GRID,1460,0,172.5945,0.0,332.153,0
GRID,1461,0,169.4804,0.0,326.1573,0
GRID,1462,0,166.3663,0.0,320.1615,0
GRID,1463,0,163.2521,0.0,314.1657,0
GRID,1464,0,160.138,0.0,308.17,0
GRID,1465,0,157.0239,0.0,302.1742,0
GRID,1466,0,153.9098,0.0,296.1785,0
GRID,1467,0,150.7956,0.0,290.1827,0
GRID,1468,0,147.6815,0.0,284.1869,0
GRID,1469,0,144.5674,0.0,278.1912,0
GRID,1470,0,141.4533,0.0,272.1954,0
GRID,1471,0,181.0727,0.0,358.1752,0
GRID,1472,0,178.0256,0.0,352.1451,0
GRID,1473,0,174.9785,0.0,346.115,0
GRID,1474,0,171.9313,0.0,340.0849,0
GRID,1475,0,168.8842,0.0,334.0548,0
GRID,1476,0,165.8371,0.0,328.0248,0
GRID,1477,0,162.7899,0.0,321.9947,0
GRID,1478,0,159.7428,0.0,315.9646,0
GRID,1479,0,156.6956,0.0,309.9345,0
GRID,1480,0,153.6485,0.0,303.9044,0
GRID,1481,0,150.6014,0.0,297.8744,0
GRID,1482,0,147.5542,0.0,291.8443,0
GRID,1483,0,144.5071,0.0,285.8142,0
GRID,1484,0,141.46,0.0,279.7841,0
GRID,1485,0,138.4128,0.0,273.754,0
GRID,1486,0,177.072,0.0,360.1698,0
GRID,1487,0,174.0922,0.0,354.1062,0
GRID,1488,0,171.1125,0.0,348.0425,0
GRID,1489,0,168.1327,0.0,341.9789,0
GRID,1490,0,165.1529,0.0,335.9152,0
GRID,1491,0,162.1732,0.0,329.8516,0
GRID,1492,0,159.1934,0.0,323.7879,0
GRID,1493,0,156.2136,0.0,317.7243,0
GRID,1494,0,153.2338,0.0,311.6606,0
GRID,1495,0,150.2541,0.0,305.5969,0
GRID,1496,0,147.2743,0.0,299.5333,0
GRID,1497,0,144.2945,0.0,293.4696,0
GRID,1498,0,141.3148,0.0,287.406,0
GRID,1499,0,138.335,0.0,281.3423,0
GRID,1500,0,135.3552,0.0,275.2787,0
GRID,1501,0,173.0493,0.0,362.1198,0
GRID,1502,0,170.1373,0.0,356.0233,0
GRID,1503,0,167.2252,0.0,349.9268,0
GRID,1504,0,164.3132,0.0,343.8304,0
GRID,1505,0,161.4012,0.0,337.7339,0
GRID,1506,0,158.4891,0.0,331.6374,0
GRID,1507,0,155.5771,0.0,325.541,0
GRID,1508,0,152.6651,0.0,319.4445,0
GRID,1509,0,149.753,0.0,313.348,0
GRID,1510,0,146.841,0.0,307.2515,0
GRID,1511,0,143.929,0.0,301.1551,0
GRID,1512,0,141.0169,0.0,295.0586,0
GRID,1513,0,138.1049,0.0,288.9621,0
GRID,1514,0,135.1928,0.0,282.8657,0
GRID,1515,0,132.2808,0.0,276.7692,0
GRID,1516,0,169.0051,0.0,364.0248,0
GRID,1517,0,166.1612,0.0,357.8963,0
GRID,1518,0,163.3173,0.0,351.7677,0
GRID,1519,0,160.4733,0.0,345.6392,0
GRID,1520,0,157.6294,0.0,339.5107,0
GRID,1521,0,154.7854,0.0,333.3821,0
GRID,1522,0,151.9415,0.0,327.2536,0
GRID,1523,0,149.0976,0.0,321.1251,0
GRID,1524,0,146.2536,0.0,314.9965,0
GRID,1525,0,143.4097,0.0,308.868,0
GRID,1526,0,140.5657,0.0,302.7395,0
GRID,1527,0,137.7218,0.0,296.611,0
GRID,1528,0,134.8779,0.0,290.4824,0
GRID,1529,0,132.0339,0.0,284.3539,0
GRID,1530,0,129.19,0.0,278.2254,0
GRID,1531,0,164.94,0.0,365.8846,0
GRID,1532,0,162.1645,0.0,359.7248,0
GRID,1533,0,159.389,0.0,353.565,0
GRID,1534,0,156.6135,0.0,347.4051,0
GRID,1535,0,153.838,0.0,341.2453,0
GRID,1536,0,151.0625,0.0,335.0855,0
GRID,1537,0,148.2871,0.0,328.9256,0
GRID,1538,0,145.5116,0.0,322.7658,0
GRID,1539,0,142.7361,0.0,316.606,0
GRID,1540,0,139.9606,0.0,310.4462,0
GRID,1541,0,137.1851,0.0,304.2863,0
GRID,1542,0,134.4096,0.0,298.1265,0
GRID,1543,0,131.6341,0.0,291.9667,0
GRID,1544,0,128.8586,0.0,285.8068,0
GRID,1545,0,126.0831,0.0,279.647,0
GRID,1546,0,160.8544,0.0,367.6991,0
GRID,1547,0,158.1477,0.0,361.5087,0
GRID,1548,0,155.441,0.0,355.3184,0
GRID,1549,0,152.7343,0.0,349.128,0
GRID,1550,0,150.0276,0.0,342.9376,0
GRID,1551,0,147.3209,0.0,336.7473,0
GRID,1552,0,144.6142,0.0,330.5569,0
GRID,1553,0,141.9075,0.0,324.3665,0
GRID,1554,0,139.2008,0.0,318.1761,0
GRID,1555,0,136.4941,0.0,311.9858,0
GRID,1556,0,133.7874,0.0,305.7954,0
GRID,1557,0,131.0807,0.0,299.605,0
GRID,1558,0,128.374,0.0,293.4147,0
GRID,1559,0,125.6673,0.0,287.2243,0
GRID,1560,0,122.9606,0.0,281.0339,0
GRID,1561,0,156.7488,0.0,369.468,0
GRID,1562,0,154.1113,0.0,363.2478,0
GRID,1563,0,151.4737,0.0,357.0277,0
GRID,1564,0,148.8361,0.0,350.8075,0
GRID,1565,0,146.1986,0.0,344.5874,0
GRID,1566,0,143.561,0.0,338.3673,0
GRID,1567,0,140.9234,0.0,332.1471,0
GRID,1568,0,138.2859,0.0,325.927,0
GRID,1569,0,135.6483,0.0,319.7068,0
GRID,1570,0,133.0107,0.0,313.4867,0
GRID,1571,0,130.3732,0.0,307.2666,0
GRID,1572,0,127.7356,0.0,301.0464,0
GRID,1573,0,125.098,0.0,294.8263,0
GRID,1574,0,122.4605,0.0,288.6061,0
GRID,1575,0,119.8229,0.0,282.386,0
GRID,1576,0,152.6238,0.0,371.191,0
GRID,1577,0,150.0557,0.0,364.9418,0
GRID,1578,0,147.4876,0.0,358.6927,0
GRID,1579,0,144.9195,0.0,352.4436,0
GRID,1580,0,142.3514,0.0,346.1944,0
GRID,1581,0,139.7833,0.0,339.9453,0
GRID,1582,0,137.2152,0.0,333.6962,0
GRID,1583,0,134.6471,0.0,327.447,0
GRID,1584,0,132.0789,0.0,321.1979,0
GRID,1585,0,129.5108,0.0,314.9487,0
GRID,1586,0,126.9427,0.0,308.6996,0
GRID,1587,0,124.3746,0.0,302.4505,0
GRID,1588,0,121.8065,0.0,296.2013,0
GRID,1589,0,119.2384,0.0,289.9522,0
GRID,1590,0,116.6703,0.0,283.703,0
GRID,1591,0,148.4799,0.0,372.868,0
GRID,1592,0,145.9816,0.0,366.5906,0
GRID,1593,0,143.4832,0.0,360.3132,0
GRID,1594,0,140.9849,0.0,354.0359,0
GRID,1595,0,138.4866,0.0,347.7585,0
GRID,1596,0,135.9882,0.0,341.4812,0
GRID,1597,0,133.4899,0.0,335.2038,0
GRID,1598,0,130.9915,0.0,328.9264,0
GRID,1599,0,128.4932,0.0,322.6491,0
GRID,1600,0,125.9949,0.0,316.3717,0
GRID,1601,0,123.4965,0.0,310.0943,0
GRID,1602,0,120.9982,0.0,303.817,0
GRID,1603,0,118.4999,0.0,297.5396,0
GRID,1604,0,116.0015,0.0,291.2623,0
GRID,1605,0,113.5032,0.0,284.9849,0
GRID,1606,0,144.3175,0.0,374.4987,0
GRID,1607,0,141.8893,0.0,368.1938,0
GRID,1608,0,139.461,0.0,361.889,0
GRID,1609,0,137.0328,0.0,355.5842,0
GRID,1610,0,134.6045,0.0,349.2794,0
GRID,1611,0,132.1763,0.0,342.9746,0
GRID,1612,0,129.748,0.0,336.6698,0
GRID,1613,0,127.3198,0.0,330.365,0
GRID,1614,0,124.8915,0.0,324.0602,0
GRID,1615,0,122.4633,0.0,317.7554,0
GRID,1616,0,120.035,0.0,311.4506,0
GRID,1617,0,117.6068,0.0,305.1458,0
GRID,1618,0,115.1785,0.0,298.841,0
GRID,1619,0,112.7503,0.0,292.5362,0
GRID,1620,0,110.322,0.0,286.2314,0
GRID,1621,0,140.1373,0.0,376.0829,0
GRID,1622,0,137.7794,0.0,369.7514,0
GRID,1623,0,135.4215,0.0,363.42,0
GRID,1624,0,133.0637,0.0,357.0885,0
GRID,1625,0,130.7058,0.0,350.757,0
GRID,1626,0,128.348,0.0,344.4256,0
GRID,1627,0,125.9901,0.0,338.0941,0
GRID,1628,0,123.6322,0.0,331.7627,0
GRID,1629,0,121.2744,0.0,325.4312,0
GRID,1630,0,118.9165,0.0,319.0997,0
GRID,1631,0,116.5586,0.0,312.7683,0
GRID,1632,0,114.2008,0.0,306.4368,0
GRID,1633,0,111.8429,0.0,300.1053,0
GRID,1634,0,109.4851,0.0,293.7739,0
GRID,1635,0,107.1272,0.0,287.4424,0
GRID,1636,0,135.9396,0.0,377.6204,0
GRID,1637,0,133.6524,0.0,371.2631,0
GRID,1638,0,131.3652,0.0,364.9058,0
GRID,1639,0,129.0781,0.0,358.5484,0
GRID,1640,0,126.7909,0.0,352.1911,0
GRID,1641,0,124.5037,0.0,345.8338,0
GRID,1642,0,122.2165,0.0,339.4764,0
GRID,1643,0,119.9293,0.0,333.1191,0
GRID,1644,0,117.6422,0.0,326.7618,0
GRID,1645,0,115.355,0.0,320.4044,0
GRID,1646,0,113.0678,0.0,314.0471,0
GRID,1647,0,110.7806,0.0,307.6898,0
GRID,1648,0,108.4934,0.0,301.3324,0
GRID,1649,0,106.2062,0.0,294.9751,0
GRID,1650,0,103.9191,0.0,288.6178,0
GRID,1651,0,131.7251,0.0,379.1112,0
GRID,1652,0,129.5089,0.0,372.7287,0
GRID,1653,0,127.2926,0.0,366.3463,0
GRID,1654,0,125.0764,0.0,359.9639,0
GRID,1655,0,122.8602,0.0,353.5815,0
GRID,1656,0,120.644,0.0,347.1991,0
GRID,1657,0,118.4278,0.0,340.8166,0
GRID,1658,0,116.2116,0.0,334.4342,0
GRID,1659,0,113.9953,0.0,328.0518,0
GRID,1660,0,111.7791,0.0,321.6694,0
GRID,1661,0,109.5629,0.0,315.287,0
GRID,1662,0,107.3467,0.0,308.9045,0
GRID,1663,0,105.1305,0.0,302.5221,0
GRID,1664,0,102.9142,0.0,296.1397,0
GRID,1665,0,100.698,0.0,289.7573,0
GRID,1666,0,127.4942,0.0,380.5549,0
GRID,1667,0,125.3492,0.0,374.1481,0
GRID,1668,0,123.2043,0.0,367.7414,0
GRID,1669,0,121.0593,0.0,361.3347,0
GRID,1670,0,118.9143,0.0,354.928,0
GRID,1671,0,116.7693,0.0,348.5213,0
GRID,1672,0,114.6243,0.0,342.1146,0
GRID,1673,0,112.4794,0.0,335.7079,0
GRID,1674,0,110.3344,0.0,329.3011,0
GRID,1675,0,108.1894,0.0,322.8944,0
GRID,1676,0,106.0444,0.0,316.4877,0
GRID,1677,0,103.8994,0.0,310.081,0
GRID,1678,0,101.7545,0.0,303.6743,0
GRID,1679,0,99.60948,0.0,297.2676,0
GRID,1680,0,97.4645,0.0,290.8609,0
GRID,1681,0,123.2475,0.0,381.9513,0
GRID,1682,0,121.1741,0.0,375.5211,0
GRID,1683,0,119.1006,0.0,369.0909,0
GRID,1684,0,117.0271,0.0,362.6607,0
GRID,1685,0,114.9536,0.0,356.2305,0
GRID,1686,0,112.8802,0.0,349.8003,0
GRID,1687,0,110.8067,0.0,343.3701,0
GRID,1688,0,108.7332,0.0,336.9398,0
GRID,1689,0,106.6597,0.0,330.5096,0
GRID,1690,0,104.5863,0.0,324.0794,0
GRID,1691,0,102.5128,0.0,317.6492,0
GRID,1692,0,100.4393,0.0,311.219,0
GRID,1693,0,98.36584,0.0,304.7888,0
GRID,1694,0,96.29236,0.0,298.3586,0
GRID,1695,0,94.21889,0.0,291.9284,0
GRID,1696,0,118.9856,0.0,383.3004,0
GRID,1697,0,116.9839,0.0,376.8475,0
GRID,1698,0,114.9821,0.0,370.3946,0
GRID,1699,0,112.9804,0.0,363.9417,0
GRID,1700,0,110.9787,0.0,357.4888,0
GRID,1701,0,108.977,0.0,351.0359,0
GRID,1702,0,106.9753,0.0,344.583,0
GRID,1703,0,104.9736,0.0,338.13,0
GRID,1704,0,102.9719,0.0,331.6771,0
GRID,1705,0,100.9702,0.0,325.2242,0
GRID,1706,0,98.96844,0.0,318.7713,0
GRID,1707,0,96.96673,0.0,312.3184,0
GRID,1708,0,94.96501,0.0,305.8655,0
GRID,1709,0,92.9633,0.0,299.4126,0
GRID,1710,0,90.96159,0.0,292.9596,0
GRID,1711,0,114.7088,0.0,384.602,0
GRID,1712,0,112.7791,0.0,378.1272,0
GRID,1713,0,110.8494,0.0,371.6523,0
GRID,1714,0,108.9197,0.0,365.1775,0
GRID,1715,0,106.99,0.0,358.7027,0
GRID,1716,0,105.0603,0.0,352.2279,0
GRID,1717,0,103.1306,0.0,345.7531,0
GRID,1718,0,101.2009,0.0,339.2783,0
GRID,1719,0,99.27122,0.0,332.8035,0
GRID,1720,0,97.34151,0.0,326.3287,0
GRID,1721,0,95.41181,0.0,319.8538,0
GRID,1722,0,93.48211,0.0,313.379,0
GRID,1723,0,91.55241,0.0,306.9042,0
GRID,1724,0,89.62271,0.0,300.4294,0
GRID,1725,0,87.69301,0.0,293.9546,0
GRID,1726,0,110.4179,0.0,385.8558,0
GRID,1727,0,108.5604,0.0,379.3599,0
GRID,1728,0,106.703,0.0,372.864,0
GRID,1729,0,104.8455,0.0,366.3681,0
GRID,1730,0,102.9881,0.0,359.8721,0
GRID,1731,0,101.1306,0.0,353.3762,0
GRID,1732,0,99.27315,0.0,346.8803,0
GRID,1733,0,97.4157,0.0,340.3844,0
GRID,1734,0,95.55825,0.0,333.8885,0
GRID,1735,0,93.7008,0.0,327.3926,0
GRID,1736,0,91.84335,0.0,320.8967,0
GRID,1737,0,89.9859,0.0,314.4008,0
GRID,1738,0,88.12845,0.0,307.9049,0
GRID,1739,0,86.271,0.0,301.409,0
GRID,1740,0,84.41355,0.0,294.9131,0
GRID,1741,0,106.1132,0.0,387.0617,0
GRID,1742,0,104.3282,0.0,380.5455,0
GRID,1743,0,102.5433,0.0,374.0293,0
GRID,1744,0,100.7583,0.0,367.5131,0
GRID,1745,0,98.97331,0.0,360.9969,0
GRID,1746,0,97.18834,0.0,354.4807,0
GRID,1747,0,95.40337,0.0,347.9645,0
GRID,1748,0,93.6184,0.0,341.4484,0
GRID,1749,0,91.83343,0.0,334.9322,0
GRID,1750,0,90.04846,0.0,328.416,0
GRID,1751,0,88.26349,0.0,321.8998,0
GRID,1752,0,86.47852,0.0,315.3836,0
GRID,1753,0,84.69356,0.0,308.8674,0
GRID,1754,0,82.90859,0.0,302.3512,0
GRID,1755,0,81.12362,0.0,295.835,0
GRID,1756,0,101.7954,0.0,388.2196,0
GRID,1757,0,100.0831,0.0,381.684,0
GRID,1758,0,98.37083,0.0,375.1483,0
GRID,1759,0,96.65856,0.0,368.6126,0
GRID,1760,0,94.94629,0.0,362.0769,0
GRID,1761,0,93.23402,0.0,355.5413,0
GRID,1762,0,91.52176,0.0,349.0056,0
GRID,1763,0,89.80949,0.0,342.4699,0
GRID,1764,0,88.09722,0.0,335.9342,0
GRID,1765,0,86.38495,0.0,329.3986,0
GRID,1766,0,84.67269,0.0,322.8629,0
GRID,1767,0,82.96042,0.0,316.3272,0
GRID,1768,0,81.24815,0.0,309.7915,0
GRID,1769,0,79.53588,0.0,303.2559,0
GRID,1770,0,77.82362,0.0,296.7202,0
GRID,1771,0,97.4649,0.0,389.3294,0
GRID,1772,0,95.82555,0.0,382.7751,0
GRID,1773,0,94.1862,0.0,376.2207,0
GRID,1774,0,92.54684,0.0,369.6664,0
GRID,1775,0,90.90749,0.0,363.112,0
GRID,1776,0,89.26814,0.0,356.5577,0
GRID,1777,0,87.62878,0.0,350.0033,0
GRID,1778,0,85.98943,0.0,343.449,0
GRID,1779,0,84.35008,0.0,336.8946,0
GRID,1780,0,82.71072,0.0,330.3403,0
GRID,1781,0,81.07137,0.0,323.7859,0
GRID,1782,0,79.43202,0.0,317.2316,0
GRID,1783,0,77.79267,0.0,310.6773,0
GRID,1784,0,76.15331,0.0,304.1229,0
GRID,1785,0,74.51396,0.0,297.5686,0
GRID,1786,0,93.12235,0.0,390.3909,0
GRID,1787,0,91.55612,0.0,383.8187,0
GRID,1788,0,89.98988,0.0,377.2465,0
GRID,1789,0,88.42365,0.0,370.6743,0
GRID,1790,0,86.85741,0.0,364.1021,0
GRID,1791,0,85.29118,0.0,357.5298,0
GRID,1792,0,83.72494,0.0,350.9576,0
GRID,1793,0,82.1587,0.0,344.3854,0
GRID,1794,0,80.59247,0.0,337.8132,0
GRID,1795,0,79.02623,0.0,331.241,0
GRID,1796,0,77.46,0.0,324.6688,0
GRID,1797,0,75.89376,0.0,318.0966,0
GRID,1798,0,74.32753,0.0,311.5244,0
GRID,1799,0,72.76129,0.0,304.9522,0
GRID,1800,0,71.19506,0.0,298.38,0
GRID,1801,0,88.76825,0.0,391.4039,0
GRID,1802,0,87.27532,0.0,384.8146,0
GRID,1803,0,85.7824,0.0,378.2254,0
GRID,1804,0,84.28948,0.0,371.6362,0
GRID,1805,0,82.79655,0.0,365.0469,0
GRID,1806,0,81.30363,0.0,358.4577,0
GRID,1807,0,79.81071,0.0,351.8684,0
GRID,1808,0,78.31779,0.0,345.2792,0
GRID,1809,0,76.82486,0.0,338.6899,0
GRID,1810,0,75.33194,0.0,332.1007,0
GRID,1811,0,73.83902,0.0,325.5114,0
GRID,1812,0,72.34609,0.0,318.9222,0
GRID,1813,0,70.85317,0.0,312.333,0
GRID,1814,0,69.36025,0.0,305.7437,0
GRID,1815,0,67.86733,0.0,299.1545,0
GRID,1816,0,84.40312,0.0,392.3683,0
GRID,1817,0,82.9837,0.0,385.7629,0
GRID,1818,0,81.56427,0.0,379.1574,0
GRID,1819,0,80.14485,0.0,372.5519,0
GRID,1820,0,78.72542,0.0,365.9465,0
GRID,1821,0,77.306,0.0,359.341,0
GRID,1822,0,75.88657,0.0,352.7355,0
GRID,1823,0,74.46715,0.0,346.1301,0
GRID,1824,0,73.04773,0.0,339.5246,0
GRID,1825,0,71.6283,0.0,332.9191,0
GRID,1826,0,70.20888,0.0,326.3137,0
GRID,1827,0,68.78945,0.0,319.7082,0
GRID,1828,0,67.37003,0.0,313.1027,0
GRID,1829,0,65.9506,0.0,306.4973,0
GRID,1830,0,64.53118,0.0,299.8918,0
GRID,1831,0,80.02753,0.0,393.2841,0
GRID,1832,0,78.68178,0.0,386.6632,0
GRID,1833,0,77.33603,0.0,380.0424,0
GRID,1834,0,75.99028,0.0,373.4215,0
GRID,1835,0,74.64453,0.0,366.8006,0
GRID,1836,0,73.29878,0.0,360.1798,0
GRID,1837,0,71.95303,0.0,353.5589,0
GRID,1838,0,70.60728,0.0,346.938,0
GRID,1839,0,69.26153,0.0,340.3172,0
GRID,1840,0,67.91578,0.0,333.6963,0
GRID,1841,0,66.57002,0.0,327.0754,0
GRID,1842,0,65.22427,0.0,320.4546,0
GRID,1843,0,63.87852,0.0,313.8337,0
GRID,1844,0,62.53277,0.0,307.2128,0
GRID,1845,0,61.18702,0.0,300.592,0
GRID,1846,0,75.64201,0.0,394.1511,0
GRID,1847,0,74.3701,0.0,387.5156,0
GRID,1848,0,73.09819,0.0,380.8802,0
GRID,1849,0,71.82628,0.0,374.2447,0
GRID,1850,0,70.55437,0.0,367.6093,0
GRID,1851,0,69.28246,0.0,360.9738,0
GRID,1852,0,68.01055,0.0,354.3384,0
GRID,1853,0,66.73864,0.0,347.7029,0
GRID,1854,0,65.46673,0.0,341.0675,0
GRID,1855,0,64.19483,0.0,334.4321,0
GRID,1856,0,62.92292,0.0,327.7966,0
GRID,1857,0,61.65101,0.0,321.1612,0
GRID,1858,0,60.3791,0.0,314.5257,0
GRID,1859,0,59.10719,0.0,307.8903,0
GRID,1860,0,57.83528,0.0,301.2548,0
GRID,1861,0,71.2471,0.0,394.9691,0
GRID,1862,0,70.04919,0.0,388.3199,0
GRID,1863,0,68.85128,0.0,381.6707,0
GRID,1864,0,67.65337,0.0,375.0215,0
GRID,1865,0,66.45546,0.0,368.3723,0
GRID,1866,0,65.25755,0.0,361.7231,0
GRID,1867,0,64.05964,0.0,355.0739,0
GRID,1868,0,62.86173,0.0,348.4247,0
GRID,1869,0,61.66382,0.0,341.7755,0
GRID,1870,0,60.46591,0.0,335.1263,0
GRID,1871,0,59.268,0.0,328.4771,0
GRID,1872,0,58.07009,0.0,321.8279,0
GRID,1873,0,56.87218,0.0,315.1787,0
GRID,1874,0,55.67427,0.0,308.5295,0
GRID,1875,0,54.47636,0.0,301.8803,0
GRID,1876,0,66.84336,0.0,395.7382,0
GRID,1877,0,65.71959,0.0,389.0761,0
GRID,1878,0,64.59583,0.0,382.414,0
GRID,1879,0,63.47207,0.0,375.7518,0
GRID,1880,0,62.34831,0.0,369.0897,0
GRID,1881,0,61.22455,0.0,362.4276,0
GRID,1882,0,60.10078,0.0,355.7654,0
GRID,1883,0,58.97702,0.0,349.1033,0
GRID,1884,0,57.85326,0.0,342.4411,0
GRID,1885,0,56.7295,0.0,335.779,0
GRID,1886,0,55.60573,0.0,329.1169,0
GRID,1887,0,54.48197,0.0,322.4547,0
GRID,1888,0,53.35821,0.0,315.7926,0
GRID,1889,0,52.23445,0.0,309.1305,0
GRID,1890,0,51.11068,0.0,302.4683,0
GRID,1891,0,62.43132,0.0,396.4582,0
GRID,1892,0,61.38184,0.0,389.784,0
GRID,1893,0,60.33237,0.0,383.1097,0
GRID,1894,0,59.28289,0.0,376.4355,0
GRID,1895,0,58.23342,0.0,369.7612,0
GRID,1896,0,57.18394,0.0,363.087,0
GRID,1897,0,56.13447,0.0,356.4128,0
GRID,1898,0,55.08499,0.0,349.7385,0
GRID,1899,0,54.03552,0.0,343.0643,0
GRID,1900,0,52.98604,0.0,336.39,0
GRID,1901,0,51.93656,0.0,329.7158,0
GRID,1902,0,50.88709,0.0,323.0415,0
GRID,1903,0,49.83761,0.0,316.3673,0
GRID,1904,0,48.78814,0.0,309.6931,0
GRID,1905,0,47.73866,0.0,303.0188,0
GRID,1906,0,58.01154,0.0,397.129,0
GRID,1907,0,57.03648,0.0,390.4435,0
GRID,1908,0,56.06142,0.0,383.758,0
GRID,1909,0,55.08636,0.0,377.0724,0
GRID,1910,0,54.1113,0.0,370.3869,0
GRID,1911,0,53.13624,0.0,363.7014,0
GRID,1912,0,52.16119,0.0,357.0159,0
GRID,1913,0,51.18613,0.0,350.3304,0
GRID,1914,0,50.21107,0.0,343.6448,0
GRID,1915,0,49.23601,0.0,336.9593,0
GRID,1916,0,48.26095,0.0,330.2738,0
GRID,1917,0,47.28589,0.0,323.5883,0
GRID,1918,0,46.31084,0.0,316.9028,0
GRID,1919,0,45.33578,0.0,310.2172,0
GRID,1920,0,44.36072,0.0,303.5317,0
GRID,1921,0,53.58455,0.0,397.7505,0
GRID,1922,0,52.68403,0.0,391.0546,0
GRID,1923,0,51.78351,0.0,384.3586,0
GRID,1924,0,50.88299,0.0,377.6626,0
GRID,1925,0,49.98247,0.0,370.9666,0
GRID,1926,0,49.08195,0.0,364.2707,0
GRID,1927,0,48.18143,0.0,357.5747,0
GRID,1928,0,47.28091,0.0,350.8787,0
GRID,1929,0,46.38039,0.0,344.1828,0
GRID,1930,0,45.47987,0.0,337.4868,0
GRID,1931,0,44.57935,0.0,330.7908,0
GRID,1932,0,43.67883,0.0,324.0949,0
GRID,1933,0,42.77831,0.0,317.3989,0
GRID,1934,0,41.87779,0.0,310.7029,0
GRID,1935,0,40.97727,0.0,304.007,0
GRID,1936,0,49.15092,0.0,398.3227,0
GRID,1937,0,48.32505,0.0,391.6171,0
GRID,1938,0,47.49918,0.0,384.9115,0
GRID,1939,0,46.67331,0.0,378.2059,0
GRID,1940,0,45.84744,0.0,371.5004,0
GRID,1941,0,45.02157,0.0,364.7948,0
GRID,1942,0,44.1957,0.0,358.0892,0
GRID,1943,0,43.36983,0.0,351.3836,0
GRID,1944,0,42.54396,0.0,344.678,0
GRID,1945,0,41.71809,0.0,337.9724,0
GRID,1946,0,40.89222,0.0,331.2668,0
GRID,1947,0,40.06635,0.0,324.5613,0
GRID,1948,0,39.24048,0.0,317.8557,0
GRID,1949,0,38.41461,0.0,311.1501,0
GRID,1950,0,37.58874,0.0,304.4445,0
GRID,1951,0,44.7112,0.0,398.8454,0
GRID,1952,0,43.96008,0.0,392.1311,0
GRID,1953,0,43.20896,0.0,385.4167,0
GRID,1954,0,42.45784,0.0,378.7023,0
GRID,1955,0,41.70673,0.0,371.988,0
GRID,1956,0,40.95561,0.0,365.2736,0
GRID,1957,0,40.20449,0.0,358.5592,0
GRID,1958,0,39.45338,0.0,351.8449,0
GRID,1959,0,38.70226,0.0,345.1305,0
GRID,1960,0,37.95114,0.0,338.4161,0
GRID,1961,0,37.20002,0.0,331.7018,0
GRID,1962,0,36.44891,0.0,324.9874,0
GRID,1963,0,35.69779,0.0,318.273,0
GRID,1964,0,34.94667,0.0,311.5587,0
GRID,1965,0,34.19555,0.0,304.8443,0
GRID,1966,0,40.26592,0.0,399.3187,0
GRID,1967,0,39.58965,0.0,392.5964,0
GRID,1968,0,38.91338,0.0,385.8741,0
GRID,1969,0,38.23711,0.0,379.1518,0
GRID,1970,0,37.56084,0.0,372.4294,0
GRID,1971,0,36.88457,0.0,365.7071,0
GRID,1972,0,36.20829,0.0,358.9848,0
GRID,1973,0,35.53202,0.0,352.2625,0
GRID,1974,0,34.85575,0.0,345.5402,0
GRID,1975,0,34.17948,0.0,338.8179,0
GRID,1976,0,33.50321,0.0,332.0955,0
GRID,1977,0,32.82694,0.0,325.3732,0
GRID,1978,0,32.15067,0.0,318.6509,0
GRID,1979,0,31.47439,0.0,311.9286,0
GRID,1980,0,30.79812,0.0,305.2063,0
GRID,1981,0,35.81565,0.0,399.7425,0
GRID,1982,0,35.21431,0.0,393.013,0
GRID,1983,0,34.61297,0.0,386.2836,0
GRID,1984,0,34.01163,0.0,379.5542,0
GRID,1985,0,33.41029,0.0,372.8247,0
GRID,1986,0,32.80895,0.0,366.0953,0
GRID,1987,0,32.2076,0.0,359.3659,0
GRID,1988,0,31.60626,0.0,352.6364,0
GRID,1989,0,31.00492,0.0,345.907,0
GRID,1990,0,30.40358,0.0,339.1775,0
GRID,1991,0,29.80224,0.0,332.4481,0
GRID,1992,0,29.2009,0.0,325.7187,0
GRID,1993,0,28.59955,0.0,318.9892,0
GRID,1994,0,27.99821,0.0,312.2598,0
GRID,1995,0,27.39687,0.0,305.5304,0
GRID,1996,0,31.36094,0.0,400.1166,0
GRID,1997,0,30.8346,0.0,393.3809,0
GRID,1998,0,30.30827,0.0,386.6452,0
GRID,1999,0,29.78193,0.0,379.9094,0
GRID,2000,0,29.25559,0.0,373.1737,0
GRID,2001,0,28.72926,0.0,366.438,0
GRID,2002,0,28.20292,0.0,359.7023,0
GRID,2003,0,27.67658,0.0,352.9666,0
GRID,2004,0,27.15024,0.0,346.2308,0
GRID,2005,0,26.62391,0.0,339.4951,0
GRID,2006,0,26.09757,0.0,332.7594,0
GRID,2007,0,25.57123,0.0,326.0237,0
GRID,2008,0,25.04489,0.0,319.288,0
GRID,2009,0,24.51856,0.0,312.5522,0
GRID,2010,0,23.99222,0.0,305.8165,0
GRID,2011,0,26.90234,0.0,400.4411,0
GRID,2012,0,26.45107,0.0,393.6999,0
GRID,2013,0,25.9998,0.0,386.9587,0
GRID,2014,0,25.54853,0.0,380.2175,0
GRID,2015,0,25.09727,0.0,373.4764,0
GRID,2016,0,24.646,0.0,366.7352,0
GRID,2017,0,24.19473,0.0,359.994,0
GRID,2018,0,23.74346,0.0,353.2528,0
GRID,2019,0,23.2922,0.0,346.5117,0
GRID,2020,0,22.84093,0.0,339.7705,0
GRID,2021,0,22.38966,0.0,333.0293,0
GRID,2022,0,21.93839,0.0,326.2881,0
GRID,2023,0,21.48713,0.0,319.547,0
GRID,2024,0,21.03586,0.0,312.8058,0
GRID,2025,0,20.58459,0.0,306.0646,0
GRID,2026,0,22.44039,0.0,400.7157,0
GRID,2027,0,22.06425,0.0,393.9699,0
GRID,2028,0,21.68811,0.0,387.2241,0
GRID,2029,0,21.31197,0.0,380.4784,0
GRID,2030,0,20.93583,0.0,373.7326,0
GRID,2031,0,20.55968,0.0,366.9868,0
GRID,2032,0,20.18354,0.0,360.241,0
GRID,2033,0,19.8074,0.0,353.4952,0
GRID,2034,0,19.43126,0.0,346.7494,0
GRID,2035,0,19.05512,0.0,340.0036,0
GRID,2036,0,18.67897,0.0,333.2579,0
GRID,2037,0,18.30283,0.0,326.5121,0
GRID,2038,0,17.92669,0.0,319.7663,0
GRID,2039,0,17.55055,0.0,313.0205,0
GRID,2040,0,17.1744,0.0,306.2747,0
GRID,2041,0,17.97567,0.0,400.9406,0
GRID,2042,0,17.6747,0.0,394.1911,0
GRID,2043,0,17.37373,0.0,387.4415,0
GRID,2044,0,17.07276,0.0,380.692,0
GRID,2045,0,16.77179,0.0,373.9424,0
GRID,2046,0,16.47082,0.0,367.1929,0
GRID,2047,0,16.16985,0.0,360.4433,0
GRID,2048,0,15.86888,0.0,353.6937,0
GRID,2049,0,15.56791,0.0,346.9442,0
GRID,2050,0,15.26694,0.0,340.1946,0
GRID,2051,0,14.96597,0.0,333.4451,0
GRID,2052,0,14.665,0.0,326.6955,0
GRID,2053,0,14.36403,0.0,319.9459,0
GRID,2054,0,14.06306,0.0,313.1964,0
GRID,2055,0,13.76209,0.0,306.4468,0
GRID,2056,0,13.50871,0.0,401.1159,0
GRID,2057,0,13.28295,0.0,394.3634,0
GRID,2058,0,13.05719,0.0,387.6109,0
GRID,2059,0,12.83143,0.0,380.8584,0
GRID,2060,0,12.60567,0.0,374.1059,0
GRID,2061,0,12.37991,0.0,367.3534,0
GRID,2062,0,12.15415,0.0,360.6009,0
GRID,2063,0,11.92839,0.0,353.8484,0
GRID,2064,0,11.70263,0.0,347.0959,0
GRID,2065,0,11.47687,0.0,340.3434,0
GRID,2066,0,11.25111,0.0,333.591,0
GRID,2067,0,11.02535,0.0,326.8385,0
GRID,2068,0,10.79959,0.0,320.086,0
GRID,2069,0,10.57383,0.0,313.3335,0
GRID,2070,0,10.34807,0.0,306.581,0
GRID,2071,0,9.040074,0.0,401.2414,0
GRID,2072,0,8.889551,0.0,394.4868,0
GRID,2073,0,8.739029,0.0,387.7323,0
GRID,2074,0,8.588507,0.0,380.9777,0
GRID,2075,0,8.437984,0.0,374.2231,0
GRID,2076,0,8.287462,0.0,367.4685,0
GRID,2077,0,8.13694,0.0,360.7139,0
GRID,2078,0,7.986418,0.0,353.9593,0
GRID,2079,0,7.835895,0.0,347.2048,0
GRID,2080,0,7.685373,0.0,340.4502,0
GRID,2081,0,7.534851,0.0,333.6956,0
GRID,2082,0,7.384328,0.0,326.941,0
GRID,2083,0,7.233806,0.0,320.1864,0
GRID,2084,0,7.083284,0.0,313.4318,0
GRID,2085,0,6.932761,0.0,306.6773,0
GRID,2086,0,4.570319,0.0,401.3174,0
GRID,2087,0,4.495054,0.0,394.5615,0
GRID,2088,0,4.419788,0.0,387.8057,0
GRID,2089,0,4.344522,0.0,381.0499,0
GRID,2090,0,4.269256,0.0,374.294,0
GRID,2091,0,4.19399,0.0,367.5382,0
GRID,2092,0,4.118724,0.0,360.7823,0
GRID,2093,0,4.043459,0.0,354.0265,0
GRID,2094,0,3.968193,0.0,347.2707,0
GRID,2095,0,3.892927,0.0,340.5148,0
GRID,2096,0,3.817661,0.0,333.759,0
GRID,2097,0,3.742395,0.0,327.0032,0
GRID,2098,0,3.667129,0.0,320.2473,0
GRID,2099,0,3.591864,0.0,313.4915,0
GRID,2100,0,3.516598,0.0,306.7357,0
GRID,2101,0,480.2983,0.0,-1195.0,0
GRID,2102,0,473.7067,0.0,-1195.0,0
GRID,2103,0,467.115,0.0,-1195.0,0
GRID,2104,0,460.5233,0.0,-1195.0,0
GRID,2105,0,453.9317,0.0,-1195.0,0
GRID,2106,0,447.34,0.0,-1195.0,0
GRID,2107,0,440.7483,0.0,-1195.0,0
GRID,2108,0,434.1567,0.0,-1195.0,0
GRID,2109,0,427.565,0.0,-1195.0,0
GRID,2110,0,420.9733,0.0,-1195.0,0
GRID,2111,0,414.3817,0.0,-1195.0,0
GRID,2112,0,480.2983,0.0,-1190.0,0
GRID,2113,0,473.7067,0.0,-1190.0,0
GRID,2114,0,467.115,0.0,-1190.0,0
GRID,2115,0,460.5233,0.0,-1190.0,0
GRID,2116,0,453.9317,0.0,-1190.0,0
GRID,2117,0,447.34,0.0,-1190.0,0
GRID,2118,0,440.7483,0.0,-1190.0,0
GRID,2119,0,434.1567,0.0,-1190.0,0
GRID,2120,0,427.565,0.0,-1190.0,0
GRID,2121,0,420.9733,0.0,-1190.0,0
GRID,2122,0,414.3817,0.0,-1190.0,0
GRID,2123,0,480.2983,0.0,-1185.0,0
GRID,2124,0,473.7067,0.0,-1185.0,0
GRID,2125,0,467.115,0.0,-1185.0,0
GRID,2126,0,460.5233,0.0,-1185.0,0
GRID,2127,0,453.9317,0.0,-1185.0,0
GRID,2128,0,447.34,0.0,-1185.0,0
GRID,2129,0,440.7483,0.0,-1185.0,0
GRID,2130,0,434.1567,0.0,-1185.0,0
GRID,2131,0,427.565,0.0,-1185.0,0
GRID,2132,0,420.9733,0.0,-1185.0,0
GRID,2133,0,414.3817,0.0,-1185.0,0
GRID,2134,0,480.2983,0.0,-1180.0,0
GRID,2135,0,473.7067,0.0,-1180.0,0
GRID,2136,0,467.115,0.0,-1180.0,0
GRID,2137,0,460.5233,0.0,-1180.0,0
GRID,2138,0,453.9317,0.0,-1180.0,0
GRID,2139,0,447.34,0.0,-1180.0,0
GRID,2140,0,440.7483,0.0,-1180.0,0
GRID,2141,0,434.1567,0.0,-1180.0,0
GRID,2142,0,427.565,0.0,-1180.0,0
GRID,2143,0,420.9733,0.0,-1180.0,0
GRID,2144,0,414.3817,0.0,-1180.0,0
GRID,2145,0,480.2983,0.0,-1175.0,0
GRID,2146,0,473.7067,0.0,-1175.0,0
GRID,2147,0,467.115,0.0,-1175.0,0
GRID,2148,0,460.5233,0.0,-1175.0,0
GRID,2149,0,453.9317,0.0,-1175.0,0
GRID,2150,0,447.34,0.0,-1175.0,0
GRID,2151,0,440.7483,0.0,-1175.0,0
GRID,2152,0,434.1567,0.0,-1175.0,0
GRID,2153,0,427.565,0.0,-1175.0,0
GRID,2154,0,420.9733,0.0,-1175.0,0
GRID,2155,0,414.3817,0.0,-1175.0,0
GRID,2156,0,480.2983,0.0,-1170.0,0
GRID,2157,0,473.7067,0.0,-1170.0,0
GRID,2158,0,467.115,0.0,-1170.0,0
GRID,2159,0,460.5233,0.0,-1170.0,0
GRID,2160,0,453.9317,0.0,-1170.0,0
GRID,2161,0,447.34,0.0,-1170.0,0
GRID,2162,0,440.7483,0.0,-1170.0,0
GRID,2163,0,434.1567,0.0,-1170.0,0
GRID,2164,0,427.565,0.0,-1170.0,0
GRID,2165,0,420.9733,0.0,-1170.0,0
GRID,2166,0,414.3817,0.0,-1170.0,0
GRID,2167,0,480.2983,0.0,-1165.0,0
GRID,2168,0,473.7067,0.0,-1165.0,0
GRID,2169,0,467.115,0.0,-1165.0,0
GRID,2170,0,460.5233,0.0,-1165.0,0
GRID,2171,0,453.9317,0.0,-1165.0,0
GRID,2172,0,447.34,0.0,-1165.0,0
GRID,2173,0,440.7483,0.0,-1165.0,0
GRID,2174,0,434.1567,0.0,-1165.0,0
GRID,2175,0,427.565,0.0,-1165.0,0
GRID,2176,0,420.9733,0.0,-1165.0,0
GRID,2177,0,414.3817,0.0,-1165.0,0
GRID,2178,0,480.2983,0.0,-1160.0,0
GRID,2179,0,473.7067,0.0,-1160.0,0
GRID,2180,0,467.115,0.0,-1160.0,0
GRID,2181,0,460.5233,0.0,-1160.0,0
GRID,2182,0,453.9317,0.0,-1160.0,0
GRID,2183,0,447.34,0.0,-1160.0,0
GRID,2184,0,440.7483,0.0,-1160.0,0
GRID,2185,0,434.1567,0.0,-1160.0,0
GRID,2186,0,427.565,0.0,-1160.0,0
GRID,2187,0,420.9733,0.0,-1160.0,0
GRID,2188,0,414.3817,0.0,-1160.0,0
GRID,2189,0,480.2983,0.0,-1155.0,0
GRID,2190,0,473.7067,0.0,-1155.0,0
GRID,2191,0,467.115,0.0,-1155.0,0
GRID,2192,0,460.5233,0.0,-1155.0,0
GRID,2193,0,453.9317,0.0,-1155.0,0
GRID,2194,0,447.34,0.0,-1155.0,0
GRID,2195,0,440.7483,0.0,-1155.0,0
GRID,2196,0,434.1567,0.0,-1155.0,0
GRID,2197,0,427.565,0.0,-1155.0,0
GRID,2198,0,420.9733,0.0,-1155.0,0
GRID,2199,0,414.3817,0.0,-1155.0,0
GRID,2200,0,480.2983,0.0,-1150.0,0
GRID,2201,0,473.7067,0.0,-1150.0,0
GRID,2202,0,467.115,0.0,-1150.0,0
GRID,2203,0,460.5233,0.0,-1150.0,0
GRID,2204,0,453.9317,0.0,-1150.0,0
GRID,2205,0,447.34,0.0,-1150.0,0
GRID,2206,0,440.7483,0.0,-1150.0,0
GRID,2207,0,434.1567,0.0,-1150.0,0
GRID,2208,0,427.565,0.0,-1150.0,0
GRID,2209,0,420.9733,0.0,-1150.0,0
GRID,2210,0,414.3817,0.0,-1150.0,0
GRID,2211,0,480.2983,0.0,-1145.0,0
GRID,2212,0,473.7067,0.0,-1145.0,0
GRID,2213,0,467.115,0.0,-1145.0,0
GRID,2214,0,460.5233,0.0,-1145.0,0
GRID,2215,0,453.9317,0.0,-1145.0,0
GRID,2216,0,447.34,0.0,-1145.0,0
GRID,2217,0,440.7483,0.0,-1145.0,0
GRID,2218,0,434.1567,0.0,-1145.0,0
GRID,2219,0,427.565,0.0,-1145.0,0
GRID,2220,0,420.9733,0.0,-1145.0,0
GRID,2221,0,414.3817,0.0,-1145.0,0
GRID,2222,0,480.2983,0.0,-1140.0,0
GRID,2223,0,473.7067,0.0,-1140.0,0
GRID,2224,0,467.115,0.0,-1140.0,0
GRID,2225,0,460.5233,0.0,-1140.0,0
GRID,2226,0,453.9317,0.0,-1140.0,0
GRID,2227,0,447.34,0.0,-1140.0,0
GRID,2228,0,440.7483,0.0,-1140.0,0
GRID,2229,0,434.1567,0.0,-1140.0,0
GRID,2230,0,427.565,0.0,-1140.0,0
GRID,2231,0,420.9733,0.0,-1140.0,0
GRID,2232,0,414.3817,0.0,-1140.0,0
GRID,2233,0,480.2983,0.0,-1135.0,0
GRID,2234,0,473.7067,0.0,-1135.0,0
GRID,2235,0,467.115,0.0,-1135.0,0
GRID,2236,0,460.5233,0.0,-1135.0,0
GRID,2237,0,453.9317,0.0,-1135.0,0
GRID,2238,0,447.34,0.0,-1135.0,0
GRID,2239,0,440.7483,0.0,-1135.0,0
GRID,2240,0,434.1567,0.0,-1135.0,0
GRID,2241,0,427.565,0.0,-1135.0,0
GRID,2242,0,420.9733,0.0,-1135.0,0
GRID,2243,0,414.3817,0.0,-1135.0,0
GRID,2244,0,480.2983,0.0,-1130.0,0
GRID,2245,0,473.7067,0.0,-1130.0,0
GRID,2246,0,467.115,0.0,-1130.0,0
GRID,2247,0,460.5233,0.0,-1130.0,0
GRID,2248,0,453.9317,0.0,-1130.0,0
GRID,2249,0,447.34,0.0,-1130.0,0
GRID,2250,0,440.7483,0.0,-1130.0,0
GRID,2251,0,434.1567,0.0,-1130.0,0
GRID,2252,0,427.565,0.0,-1130.0,0
GRID,2253,0,420.9733,0.0,-1130.0,0
GRID,2254,0,414.3817,0.0,-1130.0,0
GRID,2255,0,480.2983,0.0,-1125.0,0
GRID,2256,0,473.7067,0.0,-1125.0,0
GRID,2257,0,467.115,0.0,-1125.0,0
GRID,2258,0,460.5233,0.0,-1125.0,0
GRID,2259,0,453.9317,0.0,-1125.0,0
GRID,2260,0,447.34,0.0,-1125.0,0
GRID,2261,0,440.7483,0.0,-1125.0,0
GRID,2262,0,434.1567,0.0,-1125.0,0
GRID,2263,0,427.565,0.0,-1125.0,0
GRID,2264,0,420.9733,0.0,-1125.0,0
GRID,2265,0,414.3817,0.0,-1125.0,0
GRID,2266,0,480.2983,0.0,-1120.0,0
GRID,2267,0,473.7067,0.0,-1120.0,0
GRID,2268,0,467.115,0.0,-1120.0,0
GRID,2269,0,460.5233,0.0,-1120.0,0
GRID,2270,0,453.9317,0.0,-1120.0,0
GRID,2271,0,447.34,0.0,-1120.0,0
GRID,2272,0,440.7483,0.0,-1120.0,0
GRID,2273,0,434.1567,0.0,-1120.0,0
GRID,2274,0,427.565,0.0,-1120.0,0
GRID,2275,0,420.9733,0.0,-1120.0,0
GRID,2276,0,414.3817,0.0,-1120.0,0
GRID,2277,0,480.2983,0.0,-1115.0,0
GRID,2278,0,473.7067,0.0,-1115.0,0
GRID,2279,0,467.115,0.0,-1115.0,0
GRID,2280,0,460.5233,0.0,-1115.0,0
GRID,2281,0,453.9317,0.0,-1115.0,0
GRID,2282,0,447.34,0.0,-1115.0,0
GRID,2283,0,440.7483,0.0,-1115.0,0
GRID,2284,0,434.1567,0.0,-1115.0,0
GRID,2285,0,427.565,0.0,-1115.0,0
GRID,2286,0,420.9733,0.0,-1115.0,0
GRID,2287,0,414.3817,0.0,-1115.0,0
GRID,2288,0,480.2983,0.0,-1110.0,0
GRID,2289,0,473.7067,0.0,-1110.0,0
GRID,2290,0,467.115,0.0,-1110.0,0
GRID,2291,0,460.5233,0.0,-1110.0,0
GRID,2292,0,453.9317,0.0,-1110.0,0
GRID,2293,0,447.34,0.0,-1110.0,0
GRID,2294,0,440.7483,0.0,-1110.0,0
GRID,2295,0,434.1567,0.0,-1110.0,0
GRID,2296,0,427.565,0.0,-1110.0,0
GRID,2297,0,420.9733,0.0,-1110.0,0
GRID,2298,0,414.3817,0.0,-1110.0,0
GRID,2299,0,480.2983,0.0,-1105.0,0
GRID,2300,0,473.7067,0.0,-1105.0,0
GRID,2301,0,467.115,0.0,-1105.0,0
GRID,2302,0,460.5233,0.0,-1105.0,0
GRID,2303,0,453.9317,0.0,-1105.0,0
GRID,2304,0,447.34,0.0,-1105.0,0
GRID,2305,0,440.7483,0.0,-1105.0,0
GRID,2306,0,434.1567,0.0,-1105.0,0
GRID,2307,0,427.565,0.0,-1105.0,0
GRID,2308,0,420.9733,0.0,-1105.0,0
GRID,2309,0,414.3817,0.0,-1105.0,0
GRID,2310,0,480.2983,0.0,-1100.0,0
GRID,2311,0,473.7067,0.0,-1100.0,0
GRID,2312,0,467.115,0.0,-1100.0,0
GRID,2313,0,460.5233,0.0,-1100.0,0
GRID,2314,0,453.9317,0.0,-1100.0,0
GRID,2315,0,447.34,0.0,-1100.0,0
GRID,2316,0,440.7483,0.0,-1100.0,0
GRID,2317,0,434.1567,0.0,-1100.0,0
GRID,2318,0,427.565,0.0,-1100.0,0
GRID,2319,0,420.9733,0.0,-1100.0,0
GRID,2320,0,414.3817,0.0,-1100.0,0
GRID,2321,0,480.2983,0.0,-1095.0,0
GRID,2322,0,473.7067,0.0,-1095.0,0
GRID,2323,0,467.115,0.0,-1095.0,0
GRID,2324,0,460.5233,0.0,-1095.0,0
GRID,2325,0,453.9317,0.0,-1095.0,0
GRID,2326,0,447.34,0.0,-1095.0,0
GRID,2327,0,440.7483,0.0,-1095.0,0
GRID,2328,0,434.1567,0.0,-1095.0,0
GRID,2329,0,427.565,0.0,-1095.0,0
GRID,2330,0,420.9733,0.0,-1095.0,0
GRID,2331,0,414.3817,0.0,-1095.0,0
GRID,2332,0,480.2983,0.0,-1090.0,0
GRID,2333,0,473.7067,0.0,-1090.0,0
GRID,2334,0,467.115,0.0,-1090.0,0
GRID,2335,0,460.5233,0.0,-1090.0,0
GRID,2336,0,453.9317,0.0,-1090.0,0
GRID,2337,0,447.34,0.0,-1090.0,0
GRID,2338,0,440.7483,0.0,-1090.0,0
GRID,2339,0,434.1567,0.0,-1090.0,0
GRID,2340,0,427.565,0.0,-1090.0,0
GRID,2341,0,420.9733,0.0,-1090.0,0
GRID,2342,0,414.3817,0.0,-1090.0,0
GRID,2343,0,480.2983,0.0,-1085.0,0
GRID,2344,0,473.7067,0.0,-1085.0,0
GRID,2345,0,467.115,0.0,-1085.0,0
GRID,2346,0,460.5233,0.0,-1085.0,0
GRID,2347,0,453.9317,0.0,-1085.0,0
GRID,2348,0,447.34,0.0,-1085.0,0
GRID,2349,0,440.7483,0.0,-1085.0,0
GRID,2350,0,434.1567,0.0,-1085.0,0
GRID,2351,0,427.565,0.0,-1085.0,0
GRID,2352,0,420.9733,0.0,-1085.0,0
GRID,2353,0,414.3817,0.0,-1085.0,0
GRID,2354,0,480.2983,0.0,-1080.0,0
GRID,2355,0,473.7067,0.0,-1080.0,0
GRID,2356,0,467.115,0.0,-1080.0,0
GRID,2357,0,460.5233,0.0,-1080.0,0
GRID,2358,0,453.9317,0.0,-1080.0,0
GRID,2359,0,447.34,0.0,-1080.0,0
GRID,2360,0,440.7483,0.0,-1080.0,0
GRID,2361,0,434.1567,0.0,-1080.0,0
GRID,2362,0,427.565,0.0,-1080.0,0
GRID,2363,0,420.9733,0.0,-1080.0,0
GRID,2364,0,414.3817,0.0,-1080.0,0
GRID,2365,0,480.2983,0.0,-1075.0,0
GRID,2366,0,473.7067,0.0,-1075.0,0
GRID,2367,0,467.115,0.0,-1075.0,0
GRID,2368,0,460.5233,0.0,-1075.0,0
GRID,2369,0,453.9317,0.0,-1075.0,0
GRID,2370,0,447.34,0.0,-1075.0,0
GRID,2371,0,440.7483,0.0,-1075.0,0
GRID,2372,0,434.1567,0.0,-1075.0,0
GRID,2373,0,427.565,0.0,-1075.0,0
GRID,2374,0,420.9733,0.0,-1075.0,0
GRID,2375,0,414.3817,0.0,-1075.0,0
GRID,2376,0,480.2983,0.0,-1070.0,0
GRID,2377,0,473.7067,0.0,-1070.0,0
GRID,2378,0,467.115,0.0,-1070.0,0
GRID,2379,0,460.5233,0.0,-1070.0,0
GRID,2380,0,453.9317,0.0,-1070.0,0
GRID,2381,0,447.34,0.0,-1070.0,0
GRID,2382,0,440.7483,0.0,-1070.0,0
GRID,2383,0,434.1567,0.0,-1070.0,0
GRID,2384,0,427.565,0.0,-1070.0,0
GRID,2385,0,420.9733,0.0,-1070.0,0
GRID,2386,0,414.3817,0.0,-1070.0,0
GRID,2387,0,480.2983,0.0,-1065.0,0
GRID,2388,0,473.7067,0.0,-1065.0,0
GRID,2389,0,467.115,0.0,-1065.0,0
GRID,2390,0,460.5233,0.0,-1065.0,0
GRID,2391,0,453.9317,0.0,-1065.0,0
GRID,2392,0,447.34,0.0,-1065.0,0
GRID,2393,0,440.7483,0.0,-1065.0,0
GRID,2394,0,434.1567,0.0,-1065.0,0
GRID,2395,0,427.565,0.0,-1065.0,0
GRID,2396,0,420.9733,0.0,-1065.0,0
GRID,2397,0,414.3817,0.0,-1065.0,0
GRID,2398,0,480.2983,0.0,-1060.0,0
GRID,2399,0,473.7067,0.0,-1060.0,0
GRID,2400,0,467.115,0.0,-1060.0,0
GRID,2401,0,460.5233,0.0,-1060.0,0
GRID,2402,0,453.9317,0.0,-1060.0,0
GRID,2403,0,447.34,0.0,-1060.0,0
GRID,2404,0,440.7483,0.0,-1060.0,0
GRID,2405,0,434.1567,0.0,-1060.0,0
GRID,2406,0,427.565,0.0,-1060.0,0
GRID,2407,0,420.9733,0.0,-1060.0,0
GRID,2408,0,414.3817,0.0,-1060.0,0
GRID,2409,0,480.2983,0.0,-1055.0,0
GRID,2410,0,473.7067,0.0,-1055.0,0
GRID,2411,0,467.115,0.0,-1055.0,0
GRID,2412,0,460.5233,0.0,-1055.0,0
GRID,2413,0,453.9317,0.0,-1055.0,0
GRID,2414,0,447.34,0.0,-1055.0,0
GRID,2415,0,440.7483,0.0,-1055.0,0
GRID,2416,0,434.1567,0.0,-1055.0,0
GRID,2417,0,427.565,0.0,-1055.0,0
GRID,2418,0,420.9733,0.0,-1055.0,0
GRID,2419,0,414.3817,0.0,-1055.0,0
GRID,2420,0,480.2983,0.0,-1050.0,0
GRID,2421,0,473.7067,0.0,-1050.0,0
GRID,2422,0,467.115,0.0,-1050.0,0
GRID,2423,0,460.5233,0.0,-1050.0,0
GRID,2424,0,453.9317,0.0,-1050.0,0
GRID,2425,0,447.34,0.0,-1050.0,0
GRID,2426,0,440.7483,0.0,-1050.0,0
GRID,2427,0,434.1567,0.0,-1050.0,0
GRID,2428,0,427.565,0.0,-1050.0,0
GRID,2429,0,420.9733,0.0,-1050.0,0
GRID,2430,0,414.3817,0.0,-1050.0,0
GRID,2431,0,480.2983,0.0,-1045.0,0
GRID,2432,0,473.7067,0.0,-1045.0,0
GRID,2433,0,467.115,0.0,-1045.0,0
GRID,2434,0,460.5233,0.0,-1045.0,0
GRID,2435,0,453.9317,0.0,-1045.0,0
GRID,2436,0,447.34,0.0,-1045.0,0
GRID,2437,0,440.7483,0.0,-1045.0,0
GRID,2438,0,434.1567,0.0,-1045.0,0
GRID,2439,0,427.565,0.0,-1045.0,0
GRID,2440,0,420.9733,0.0,-1045.0,0
GRID,2441,0,414.3817,0.0,-1045.0,0
GRID,2442,0,480.2983,0.0,-1040.0,0
GRID,2443,0,473.7067,0.0,-1040.0,0
GRID,2444,0,467.115,0.0,-1040.0,0
GRID,2445,0,460.5233,0.0,-1040.0,0
GRID,2446,0,453.9317,0.0,-1040.0,0
GRID,2447,0,447.34,0.0,-1040.0,0
GRID,2448,0,440.7483,0.0,-1040.0,0
GRID,2449,0,434.1567,0.0,-1040.0,0
GRID,2450,0,427.565,0.0,-1040.0,0
GRID,2451,0,420.9733,0.0,-1040.0,0
GRID,2452,0,414.3817,0.0,-1040.0,0
GRID,2453,0,480.2983,0.0,-1035.0,0
GRID,2454,0,473.7067,0.0,-1035.0,0
GRID,2455,0,467.115,0.0,-1035.0,0
GRID,2456,0,460.5233,0.0,-1035.0,0
GRID,2457,0,453.9317,0.0,-1035.0,0
GRID,2458,0,447.34,0.0,-1035.0,0
GRID,2459,0,440.7483,0.0,-1035.0,0
GRID,2460,0,434.1567,0.0,-1035.0,0
GRID,2461,0,427.565,0.0,-1035.0,0
GRID,2462,0,420.9733,0.0,-1035.0,0
GRID,2463,0,414.3817,0.0,-1035.0,0
GRID,2464,0,480.2983,0.0,-1030.0,0
GRID,2465,0,473.7067,0.0,-1030.0,0
GRID,2466,0,467.115,0.0,-1030.0,0
GRID,2467,0,460.5233,0.0,-1030.0,0
GRID,2468,0,453.9317,0.0,-1030.0,0
GRID,2469,0,447.34,0.0,-1030.0,0
GRID,2470,0,440.7483,0.0,-1030.0,0
GRID,2471,0,434.1567,0.0,-1030.0,0
GRID,2472,0,427.565,0.0,-1030.0,0
GRID,2473,0,420.9733,0.0,-1030.0,0
GRID,2474,0,414.3817,0.0,-1030.0,0
GRID,2475,0,480.2983,0.0,-1025.0,0
GRID,2476,0,473.7067,0.0,-1025.0,0
GRID,2477,0,467.115,0.0,-1025.0,0
GRID,2478,0,460.5233,0.0,-1025.0,0
GRID,2479,0,453.9317,0.0,-1025.0,0
GRID,2480,0,447.34,0.0,-1025.0,0
GRID,2481,0,440.7483,0.0,-1025.0,0
GRID,2482,0,434.1567,0.0,-1025.0,0
GRID,2483,0,427.565,0.0,-1025.0,0
GRID,2484,0,420.9733,0.0,-1025.0,0
GRID,2485,0,414.3817,0.0,-1025.0,0
GRID,2486,0,480.2983,0.0,-1020.0,0
GRID,2487,0,473.7067,0.0,-1020.0,0
GRID,2488,0,467.115,0.0,-1020.0,0
GRID,2489,0,460.5233,0.0,-1020.0,0
GRID,2490,0,453.9317,0.0,-1020.0,0
GRID,2491,0,447.34,0.0,-1020.0,0
GRID,2492,0,440.7483,0.0,-1020.0,0
GRID,2493,0,434.1567,0.0,-1020.0,0
GRID,2494,0,427.565,0.0,-1020.0,0
GRID,2495,0,420.9733,0.0,-1020.0,0
GRID,2496,0,414.3817,0.0,-1020.0,0
GRID,2497,0,480.2983,0.0,-1015.0,0
GRID,2498,0,473.7067,0.0,-1015.0,0
GRID,2499,0,467.115,0.0,-1015.0,0
GRID,2500,0,460.5233,0.0,-1015.0,0
GRID,2501,0,453.9317,0.0,-1015.0,0
GRID,2502,0,447.34,0.0,-1015.0,0
GRID,2503,0,440.7483,0.0,-1015.0,0
GRID,2504,0,434.1567,0.0,-1015.0,0
GRID,2505,0,427.565,0.0,-1015.0,0
GRID,2506,0,420.9733,0.0,-1015.0,0
GRID,2507,0,414.3817,0.0,-1015.0,0
GRID,2508,0,480.2983,0.0,-1010.0,0
GRID,2509,0,473.7067,0.0,-1010.0,0
GRID,2510,0,467.115,0.0,-1010.0,0
GRID,2511,0,460.5233,0.0,-1010.0,0
GRID,2512,0,453.9317,0.0,-1010.0,0
GRID,2513,0,447.34,0.0,-1010.0,0
GRID,2514,0,440.7483,0.0,-1010.0,0
GRID,2515,0,434.1567,0.0,-1010.0,0
GRID,2516,0,427.565,0.0,-1010.0,0
GRID,2517,0,420.9733,0.0,-1010.0,0
GRID,2518,0,414.3817,0.0,-1010.0,0
GRID,2519,0,480.2983,0.0,-1005.0,0
GRID,2520,0,473.7067,0.0,-1005.0,0
GRID,2521,0,467.115,0.0,-1005.0,0
GRID,2522,0,460.5233,0.0,-1005.0,0
GRID,2523,0,453.9317,0.0,-1005.0,0
GRID,2524,0,447.34,0.0,-1005.0,0
GRID,2525,0,440.7483,0.0,-1005.0,0
GRID,2526,0,434.1567,0.0,-1005.0,0
GRID,2527,0,427.565,0.0,-1005.0,0
GRID,2528,0,420.9733,0.0,-1005.0,0
GRID,2529,0,414.3817,0.0,-1005.0,0
GRID,2530,0,480.2983,0.0,-1000.0,0
GRID,2531,0,473.7067,0.0,-1000.0,0
GRID,2532,0,467.115,0.0,-1000.0,0
GRID,2533,0,460.5233,0.0,-1000.0,0
GRID,2534,0,453.9317,0.0,-1000.0,0
GRID,2535,0,447.34,0.0,-1000.0,0
GRID,2536,0,440.7483,0.0,-1000.0,0
GRID,2537,0,434.1567,0.0,-1000.0,0
GRID,2538,0,427.565,0.0,-1000.0,0
GRID,2539,0,420.9733,0.0,-1000.0,0
GRID,2540,0,414.3817,0.0,-1000.0,0
GRID,2541,0,480.2983,0.0,-995.0,0
GRID,2542,0,473.7067,0.0,-995.0,0
GRID,2543,0,467.115,0.0,-995.0,0
GRID,2544,0,460.5233,0.0,-995.0,0
GRID,2545,0,453.9317,0.0,-995.0,0
GRID,2546,0,447.34,0.0,-995.0,0
GRID,2547,0,440.7483,0.0,-995.0,0
GRID,2548,0,434.1567,0.0,-995.0,0
GRID,2549,0,427.565,0.0,-995.0,0
GRID,2550,0,420.9733,0.0,-995.0,0
GRID,2551,0,414.3817,0.0,-995.0,0
GRID,2552,0,480.2983,0.0,-990.0,0
GRID,2553,0,473.7067,0.0,-990.0,0
GRID,2554,0,467.115,0.0,-990.0,0
GRID,2555,0,460.5233,0.0,-990.0,0
GRID,2556,0,453.9317,0.0,-990.0,0
GRID,2557,0,447.34,0.0,-990.0,0
GRID,2558,0,440.7483,0.0,-990.0,0
GRID,2559,0,434.1567,0.0,-990.0,0
GRID,2560,0,427.565,0.0,-990.0,0
GRID,2561,0,420.9733,0.0,-990.0,0
GRID,2562,0,414.3817,0.0,-990.0,0
GRID,2563,0,480.2983,0.0,-985.0,0
GRID,2564,0,473.7067,0.0,-985.0,0
GRID,2565,0,467.115,0.0,-985.0,0
GRID,2566,0,460.5233,0.0,-985.0,0
GRID,2567,0,453.9317,0.0,-985.0,0
GRID,2568,0,447.34,0.0,-985.0,0
GRID,2569,0,440.7483,0.0,-985.0,0
GRID,2570,0,434.1567,0.0,-985.0,0
GRID,2571,0,427.565,0.0,-985.0,0
GRID,2572,0,420.9733,0.0,-985.0,0
GRID,2573,0,414.3817,0.0,-985.0,0
GRID,2574,0,480.2983,0.0,-980.0,0
GRID,2575,0,473.7067,0.0,-980.0,0
GRID,2576,0,467.115,0.0,-980.0,0
GRID,2577,0,460.5233,0.0,-980.0,0
GRID,2578,0,453.9317,0.0,-980.0,0
GRID,2579,0,447.34,0.0,-980.0,0
GRID,2580,0,440.7483,0.0,-980.0,0
GRID,2581,0,434.1567,0.0,-980.0,0
GRID,2582,0,427.565,0.0,-980.0,0
GRID,2583,0,420.9733,0.0,-980.0,0
GRID,2584,0,414.3817,0.0,-980.0,0
GRID,2585,0,480.2983,0.0,-975.0,0
GRID,2586,0,473.7067,0.0,-975.0,0
GRID,2587,0,467.115,0.0,-975.0,0
GRID,2588,0,460.5233,0.0,-975.0,0
GRID,2589,0,453.9317,0.0,-975.0,0
GRID,2590,0,447.34,0.0,-975.0,0
GRID,2591,0,440.7483,0.0,-975.0,0
GRID,2592,0,434.1567,0.0,-975.0,0
GRID,2593,0,427.565,0.0,-975.0,0
GRID,2594,0,420.9733,0.0,-975.0,0
GRID,2595,0,414.3817,0.0,-975.0,0
GRID,2596,0,480.2983,0.0,-970.0,0
GRID,2597,0,473.7067,0.0,-970.0,0
GRID,2598,0,467.115,0.0,-970.0,0
GRID,2599,0,460.5233,0.0,-970.0,0
GRID,2600,0,453.9317,0.0,-970.0,0
GRID,2601,0,447.34,0.0,-970.0,0
GRID,2602,0,440.7483,0.0,-970.0,0
GRID,2603,0,434.1567,0.0,-970.0,0
GRID,2604,0,427.565,0.0,-970.0,0
GRID,2605,0,420.9733,0.0,-970.0,0
GRID,2606,0,414.3817,0.0,-970.0,0
GRID,2607,0,480.2983,0.0,-965.0,0
GRID,2608,0,473.7067,0.0,-965.0,0
GRID,2609,0,467.115,0.0,-965.0,0
GRID,2610,0,460.5233,0.0,-965.0,0
GRID,2611,0,453.9317,0.0,-965.0,0
GRID,2612,0,447.34,0.0,-965.0,0
GRID,2613,0,440.7483,0.0,-965.0,0
GRID,2614,0,434.1567,0.0,-965.0,0
GRID,2615,0,427.565,0.0,-965.0,0
GRID,2616,0,420.9733,0.0,-965.0,0
GRID,2617,0,414.3817,0.0,-965.0,0
GRID,2618,0,480.2983,0.0,-960.0,0
GRID,2619,0,473.7067,0.0,-960.0,0
GRID,2620,0,467.115,0.0,-960.0,0
GRID,2621,0,460.5233,0.0,-960.0,0
GRID,2622,0,453.9317,0.0,-960.0,0
GRID,2623,0,447.34,0.0,-960.0,0
GRID,2624,0,440.7483,0.0,-960.0,0
GRID,2625,0,434.1567,0.0,-960.0,0
GRID,2626,0,427.565,0.0,-960.0,0
GRID,2627,0,420.9733,0.0,-960.0,0
GRID,2628,0,414.3817,0.0,-960.0,0
GRID,2629,0,480.2983,0.0,-955.0,0
GRID,2630,0,473.7067,0.0,-955.0,0
GRID,2631,0,467.115,0.0,-955.0,0
GRID,2632,0,460.5233,0.0,-955.0,0
GRID,2633,0,453.9317,0.0,-955.0,0
GRID,2634,0,447.34,0.0,-955.0,0
GRID,2635,0,440.7483,0.0,-955.0,0
GRID,2636,0,434.1567,0.0,-955.0,0
GRID,2637,0,427.565,0.0,-955.0,0
GRID,2638,0,420.9733,0.0,-955.0,0
GRID,2639,0,414.3817,0.0,-955.0,0
GRID,2640,0,480.2983,0.0,-950.0,0
GRID,2641,0,473.7067,0.0,-950.0,0
GRID,2642,0,467.115,0.0,-950.0,0
GRID,2643,0,460.5233,0.0,-950.0,0
GRID,2644,0,453.9317,0.0,-950.0,0
GRID,2645,0,447.34,0.0,-950.0,0
GRID,2646,0,440.7483,0.0,-950.0,0
GRID,2647,0,434.1567,0.0,-950.0,0
GRID,2648,0,427.565,0.0,-950.0,0
GRID,2649,0,420.9733,0.0,-950.0,0
GRID,2650,0,414.3817,0.0,-950.0,0
GRID,2651,0,480.2983,0.0,-945.0,0
GRID,2652,0,473.7067,0.0,-945.0,0
GRID,2653,0,467.115,0.0,-945.0,0
GRID,2654,0,460.5233,0.0,-945.0,0
GRID,2655,0,453.9317,0.0,-945.0,0
GRID,2656,0,447.34,0.0,-945.0,0
GRID,2657,0,440.7483,0.0,-945.0,0
GRID,2658,0,434.1567,0.0,-945.0,0
GRID,2659,0,427.565,0.0,-945.0,0
GRID,2660,0,420.9733,0.0,-945.0,0
GRID,2661,0,414.3817,0.0,-945.0,0
GRID,2662,0,480.2983,0.0,-940.0,0
GRID,2663,0,473.7067,0.0,-940.0,0
GRID,2664,0,467.115,0.0,-940.0,0
GRID,2665,0,460.5233,0.0,-940.0,0
GRID,2666,0,453.9317,0.0,-940.0,0
GRID,2667,0,447.34,0.0,-940.0,0
GRID,2668,0,440.7483,0.0,-940.0,0
GRID,2669,0,434.1567,0.0,-940.0,0
GRID,2670,0,427.565,0.0,-940.0,0
GRID,2671,0,420.9733,0.0,-940.0,0
GRID,2672,0,414.3817,0.0,-940.0,0
GRID,2673,0,480.2983,0.0,-935.0,0
GRID,2674,0,473.7067,0.0,-935.0,0
GRID,2675,0,467.115,0.0,-935.0,0
GRID,2676,0,460.5233,0.0,-935.0,0
GRID,2677,0,453.9317,0.0,-935.0,0
GRID,2678,0,447.34,0.0,-935.0,0
GRID,2679,0,440.7483,0.0,-935.0,0
GRID,2680,0,434.1567,0.0,-935.0,0
GRID,2681,0,427.565,0.0,-935.0,0
GRID,2682,0,420.9733,0.0,-935.0,0
GRID,2683,0,414.3817,0.0,-935.0,0
GRID,2684,0,480.2983,0.0,-930.0,0
GRID,2685,0,473.7067,0.0,-930.0,0
GRID,2686,0,467.115,0.0,-930.0,0
GRID,2687,0,460.5233,0.0,-930.0,0
GRID,2688,0,453.9317,0.0,-930.0,0
GRID,2689,0,447.34,0.0,-930.0,0
GRID,2690,0,440.7483,0.0,-930.0,0
GRID,2691,0,434.1567,0.0,-930.0,0
GRID,2692,0,427.565,0.0,-930.0,0
GRID,2693,0,420.9733,0.0,-930.0,0
GRID,2694,0,414.3817,0.0,-930.0,0
GRID,2695,0,480.2983,0.0,-925.0,0
GRID,2696,0,473.7067,0.0,-925.0,0
GRID,2697,0,467.115,0.0,-925.0,0
GRID,2698,0,460.5233,0.0,-925.0,0
GRID,2699,0,453.9317,0.0,-925.0,0
GRID,2700,0,447.34,0.0,-925.0,0
GRID,2701,0,440.7483,0.0,-925.0,0
GRID,2702,0,434.1567,0.0,-925.0,0
GRID,2703,0,427.565,0.0,-925.0,0
GRID,2704,0,420.9733,0.0,-925.0,0
GRID,2705,0,414.3817,0.0,-925.0,0
GRID,2706,0,480.2983,0.0,-920.0,0
GRID,2707,0,473.7067,0.0,-920.0,0
GRID,2708,0,467.115,0.0,-920.0,0
GRID,2709,0,460.5233,0.0,-920.0,0
GRID,2710,0,453.9317,0.0,-920.0,0
GRID,2711,0,447.34,0.0,-920.0,0
GRID,2712,0,440.7483,0.0,-920.0,0
GRID,2713,0,434.1567,0.0,-920.0,0
GRID,2714,0,427.565,0.0,-920.0,0
GRID,2715,0,420.9733,0.0,-920.0,0
GRID,2716,0,414.3817,0.0,-920.0,0
GRID,2717,0,480.2983,0.0,-915.0,0
GRID,2718,0,473.7067,0.0,-915.0,0
GRID,2719,0,467.115,0.0,-915.0,0
GRID,2720,0,460.5233,0.0,-915.0,0
GRID,2721,0,453.9317,0.0,-915.0,0
GRID,2722,0,447.34,0.0,-915.0,0
GRID,2723,0,440.7483,0.0,-915.0,0
GRID,2724,0,434.1567,0.0,-915.0,0
GRID,2725,0,427.565,0.0,-915.0,0
GRID,2726,0,420.9733,0.0,-915.0,0
GRID,2727,0,414.3817,0.0,-915.0,0
GRID,2728,0,480.2983,0.0,-910.0,0
GRID,2729,0,473.7067,0.0,-910.0,0
GRID,2730,0,467.115,0.0,-910.0,0
GRID,2731,0,460.5233,0.0,-910.0,0
GRID,2732,0,453.9317,0.0,-910.0,0
GRID,2733,0,447.34,0.0,-910.0,0
GRID,2734,0,440.7483,0.0,-910.0,0
GRID,2735,0,434.1567,0.0,-910.0,0
GRID,2736,0,427.565,0.0,-910.0,0
GRID,2737,0,420.9733,0.0,-910.0,0
GRID,2738,0,414.3817,0.0,-910.0,0
GRID,2739,0,480.2983,0.0,-905.0,0
GRID,2740,0,473.7067,0.0,-905.0,0
GRID,2741,0,467.115,0.0,-905.0,0
GRID,2742,0,460.5233,0.0,-905.0,0
GRID,2743,0,453.9317,0.0,-905.0,0
GRID,2744,0,447.34,0.0,-905.0,0
GRID,2745,0,440.7483,0.0,-905.0,0
GRID,2746,0,434.1567,0.0,-905.0,0
GRID,2747,0,427.565,0.0,-905.0,0
GRID,2748,0,420.9733,0.0,-905.0,0
GRID,2749,0,414.3817,0.0,-905.0,0
GRID,2750,0,480.2983,0.0,-900.0,0
GRID,2751,0,473.7067,0.0,-900.0,0
GRID,2752,0,467.115,0.0,-900.0,0
GRID,2753,0,460.5233,0.0,-900.0,0
GRID,2754,0,453.9317,0.0,-900.0,0
GRID,2755,0,447.34,0.0,-900.0,0
GRID,2756,0,440.7483,0.0,-900.0,0
GRID,2757,0,434.1567,0.0,-900.0,0
GRID,2758,0,427.565,0.0,-900.0,0
GRID,2759,0,420.9733,0.0,-900.0,0
GRID,2760,0,414.3817,0.0,-900.0,0
GRID,2761,0,480.2983,0.0,-895.0,0
GRID,2762,0,473.7067,0.0,-895.0,0
GRID,2763,0,467.115,0.0,-895.0,0
GRID,2764,0,460.5233,0.0,-895.0,0
GRID,2765,0,453.9317,0.0,-895.0,0
GRID,2766,0,447.34,0.0,-895.0,0
GRID,2767,0,440.7483,0.0,-895.0,0
GRID,2768,0,434.1567,0.0,-895.0,0
GRID,2769,0,427.565,0.0,-895.0,0
GRID,2770,0,420.9733,0.0,-895.0,0
GRID,2771,0,414.3817,0.0,-895.0,0
GRID,2772,0,480.2983,0.0,-890.0,0
GRID,2773,0,473.7067,0.0,-890.0,0
GRID,2774,0,467.115,0.0,-890.0,0
GRID,2775,0,460.5233,0.0,-890.0,0
GRID,2776,0,453.9317,0.0,-890.0,0
GRID,2777,0,447.34,0.0,-890.0,0
GRID,2778,0,440.7483,0.0,-890.0,0
GRID,2779,0,434.1567,0.0,-890.0,0
GRID,2780,0,427.565,0.0,-890.0,0
GRID,2781,0,420.9733,0.0,-890.0,0
GRID,2782,0,414.3817,0.0,-890.0,0
GRID,2783,0,480.2983,0.0,-885.0,0
GRID,2784,0,473.7067,0.0,-885.0,0
GRID,2785,0,467.115,0.0,-885.0,0
GRID,2786,0,460.5233,0.0,-885.0,0
GRID,2787,0,453.9317,0.0,-885.0,0
GRID,2788,0,447.34,0.0,-885.0,0
GRID,2789,0,440.7483,0.0,-885.0,0
GRID,2790,0,434.1567,0.0,-885.0,0
GRID,2791,0,427.565,0.0,-885.0,0
GRID,2792,0,420.9733,0.0,-885.0,0
GRID,2793,0,414.3817,0.0,-885.0,0
GRID,2794,0,480.2983,0.0,-880.0,0
GRID,2795,0,473.7067,0.0,-880.0,0
GRID,2796,0,467.115,0.0,-880.0,0
GRID,2797,0,460.5233,0.0,-880.0,0
GRID,2798,0,453.9317,0.0,-880.0,0
GRID,2799,0,447.34,0.0,-880.0,0
GRID,2800,0,440.7483,0.0,-880.0,0
GRID,2801,0,434.1567,0.0,-880.0,0
GRID,2802,0,427.565,0.0,-880.0,0
GRID,2803,0,420.9733,0.0,-880.0,0
GRID,2804,0,414.3817,0.0,-880.0,0
GRID,2805,0,480.2983,0.0,-875.0,0
GRID,2806,0,473.7067,0.0,-875.0,0
GRID,2807,0,467.115,0.0,-875.0,0
GRID,2808,0,460.5233,0.0,-875.0,0
GRID,2809,0,453.9317,0.0,-875.0,0
GRID,2810,0,447.34,0.0,-875.0,0
GRID,2811,0,440.7483,0.0,-875.0,0
GRID,2812,0,434.1567,0.0,-875.0,0
GRID,2813,0,427.565,0.0,-875.0,0
GRID,2814,0,420.9733,0.0,-875.0,0
GRID,2815,0,414.3817,0.0,-875.0,0
GRID,2816,0,480.2983,0.0,-870.0,0
GRID,2817,0,473.7067,0.0,-870.0,0
GRID,2818,0,467.115,0.0,-870.0,0
GRID,2819,0,460.5233,0.0,-870.0,0
GRID,2820,0,453.9317,0.0,-870.0,0
GRID,2821,0,447.34,0.0,-870.0,0
GRID,2822,0,440.7483,0.0,-870.0,0
GRID,2823,0,434.1567,0.0,-870.0,0
GRID,2824,0,427.565,0.0,-870.0,0
GRID,2825,0,420.9733,0.0,-870.0,0
GRID,2826,0,414.3817,0.0,-870.0,0
GRID,2827,0,480.2983,0.0,-865.0,0
GRID,2828,0,473.7067,0.0,-865.0,0
GRID,2829,0,467.115,0.0,-865.0,0
GRID,2830,0,460.5233,0.0,-865.0,0
GRID,2831,0,453.9317,0.0,-865.0,0
GRID,2832,0,447.34,0.0,-865.0,0
GRID,2833,0,440.7483,0.0,-865.0,0
GRID,2834,0,434.1567,0.0,-865.0,0
GRID,2835,0,427.565,0.0,-865.0,0
GRID,2836,0,420.9733,0.0,-865.0,0
GRID,2837,0,414.3817,0.0,-865.0,0
GRID,2838,0,480.2983,0.0,-860.0,0
GRID,2839,0,473.7067,0.0,-860.0,0
GRID,2840,0,467.115,0.0,-860.0,0
GRID,2841,0,460.5233,0.0,-860.0,0
GRID,2842,0,453.9317,0.0,-860.0,0
GRID,2843,0,447.34,0.0,-860.0,0
GRID,2844,0,440.7483,0.0,-860.0,0
GRID,2845,0,434.1567,0.0,-860.0,0
GRID,2846,0,427.565,0.0,-860.0,0
GRID,2847,0,420.9733,0.0,-860.0,0
GRID,2848,0,414.3817,0.0,-860.0,0
GRID,2849,0,480.2983,0.0,-855.0,0
GRID,2850,0,473.7067,0.0,-855.0,0
GRID,2851,0,467.115,0.0,-855.0,0
GRID,2852,0,460.5233,0.0,-855.0,0
GRID,2853,0,453.9317,0.0,-855.0,0
GRID,2854,0,447.34,0.0,-855.0,0
GRID,2855,0,440.7483,0.0,-855.0,0
GRID,2856,0,434.1567,0.0,-855.0,0
GRID,2857,0,427.565,0.0,-855.0,0
GRID,2858,0,420.9733,0.0,-855.0,0
GRID,2859,0,414.3817,0.0,-855.0,0
GRID,2860,0,480.2983,0.0,-850.0,0
GRID,2861,0,473.7067,0.0,-850.0,0
GRID,2862,0,467.115,0.0,-850.0,0
GRID,2863,0,460.5233,0.0,-850.0,0
GRID,2864,0,453.9317,0.0,-850.0,0
GRID,2865,0,447.34,0.0,-850.0,0
GRID,2866,0,440.7483,0.0,-850.0,0
GRID,2867,0,434.1567,0.0,-850.0,0
GRID,2868,0,427.565,0.0,-850.0,0
GRID,2869,0,420.9733,0.0,-850.0,0
GRID,2870,0,414.3817,0.0,-850.0,0
GRID,2871,0,480.2983,0.0,-845.0,0
GRID,2872,0,473.7067,0.0,-845.0,0
GRID,2873,0,467.115,0.0,-845.0,0
GRID,2874,0,460.5233,0.0,-845.0,0
GRID,2875,0,453.9317,0.0,-845.0,0
GRID,2876,0,447.34,0.0,-845.0,0
GRID,2877,0,440.7483,0.0,-845.0,0
GRID,2878,0,434.1567,0.0,-845.0,0
GRID,2879,0,427.565,0.0,-845.0,0
GRID,2880,0,420.9733,0.0,-845.0,0
GRID,2881,0,414.3817,0.0,-845.0,0
GRID,2882,0,480.2983,0.0,-840.0,0
GRID,2883,0,473.7067,0.0,-840.0,0
GRID,2884,0,467.115,0.0,-840.0,0
GRID,2885,0,460.5233,0.0,-840.0,0
GRID,2886,0,453.9317,0.0,-840.0,0
GRID,2887,0,447.34,0.0,-840.0,0
GRID,2888,0,440.7483,0.0,-840.0,0
GRID,2889,0,434.1567,0.0,-840.0,0
GRID,2890,0,427.565,0.0,-840.0,0
GRID,2891,0,420.9733,0.0,-840.0,0
GRID,2892,0,414.3817,0.0,-840.0,0
GRID,2893,0,480.2983,0.0,-835.0,0
GRID,2894,0,473.7067,0.0,-835.0,0
GRID,2895,0,467.115,0.0,-835.0,0
GRID,2896,0,460.5233,0.0,-835.0,0
GRID,2897,0,453.9317,0.0,-835.0,0
GRID,2898,0,447.34,0.0,-835.0,0
GRID,2899,0,440.7483,0.0,-835.0,0
GRID,2900,0,434.1567,0.0,-835.0,0
GRID,2901,0,427.565,0.0,-835.0,0
GRID,2902,0,420.9733,0.0,-835.0,0
GRID,2903,0,414.3817,0.0,-835.0,0
GRID,2904,0,480.2983,0.0,-830.0,0
GRID,2905,0,473.7067,0.0,-830.0,0
GRID,2906,0,467.115,0.0,-830.0,0
GRID,2907,0,460.5233,0.0,-830.0,0
GRID,2908,0,453.9317,0.0,-830.0,0
GRID,2909,0,447.34,0.0,-830.0,0
GRID,2910,0,440.7483,0.0,-830.0,0
GRID,2911,0,434.1567,0.0,-830.0,0
GRID,2912,0,427.565,0.0,-830.0,0
GRID,2913,0,420.9733,0.0,-830.0,0
GRID,2914,0,414.3817,0.0,-830.0,0
GRID,2915,0,480.2983,0.0,-825.0,0
GRID,2916,0,473.7067,0.0,-825.0,0
GRID,2917,0,467.115,0.0,-825.0,0
GRID,2918,0,460.5233,0.0,-825.0,0
GRID,2919,0,453.9317,0.0,-825.0,0
GRID,2920,0,447.34,0.0,-825.0,0
GRID,2921,0,440.7483,0.0,-825.0,0
GRID,2922,0,434.1567,0.0,-825.0,0
GRID,2923,0,427.565,0.0,-825.0,0
GRID,2924,0,420.9733,0.0,-825.0,0
GRID,2925,0,414.3817,0.0,-825.0,0
GRID,2926,0,480.2983,0.0,-820.0,0
GRID,2927,0,473.7067,0.0,-820.0,0
GRID,2928,0,467.115,0.0,-820.0,0
GRID,2929,0,460.5233,0.0,-820.0,0
GRID,2930,0,453.9317,0.0,-820.0,0
GRID,2931,0,447.34,0.0,-820.0,0
GRID,2932,0,440.7483,0.0,-820.0,0
GRID,2933,0,434.1567,0.0,-820.0,0
GRID,2934,0,427.565,0.0,-820.0,0
GRID,2935,0,420.9733,0.0,-820.0,0
GRID,2936,0,414.3817,0.0,-820.0,0
GRID,2937,0,480.2983,0.0,-815.0,0
GRID,2938,0,473.7067,0.0,-815.0,0
GRID,2939,0,467.115,0.0,-815.0,0
GRID,2940,0,460.5233,0.0,-815.0,0
GRID,2941,0,453.9317,0.0,-815.0,0
GRID,2942,0,447.34,0.0,-815.0,0
GRID,2943,0,440.7483,0.0,-815.0,0
GRID,2944,0,434.1567,0.0,-815.0,0
GRID,2945,0,427.565,0.0,-815.0,0
GRID,2946,0,420.9733,0.0,-815.0,0
GRID,2947,0,414.3817,0.0,-815.0,0
GRID,2948,0,480.2983,0.0,-810.0,0
GRID,2949,0,473.7067,0.0,-810.0,0
GRID,2950,0,467.115,0.0,-810.0,0
GRID,2951,0,460.5233,0.0,-810.0,0
GRID,2952,0,453.9317,0.0,-810.0,0
GRID,2953,0,447.34,0.0,-810.0,0
GRID,2954,0,440.7483,0.0,-810.0,0
GRID,2955,0,434.1567,0.0,-810.0,0
GRID,2956,0,427.565,0.0,-810.0,0
GRID,2957,0,420.9733,0.0,-810.0,0
GRID,2958,0,414.3817,0.0,-810.0,0
GRID,2959,0,480.2983,0.0,-805.0,0
GRID,2960,0,473.7067,0.0,-805.0,0
GRID,2961,0,467.115,0.0,-805.0,0
GRID,2962,0,460.5233,0.0,-805.0,0
GRID,2963,0,453.9317,0.0,-805.0,0
GRID,2964,0,447.34,0.0,-805.0,0
GRID,2965,0,440.7483,0.0,-805.0,0
GRID,2966,0,434.1567,0.0,-805.0,0
GRID,2967,0,427.565,0.0,-805.0,0
GRID,2968,0,420.9733,0.0,-805.0,0
GRID,2969,0,414.3817,0.0,-805.0,0
GRID,2970,0,480.2983,0.0,-800.0,0
GRID,2971,0,473.7067,0.0,-800.0,0
GRID,2972,0,467.115,0.0,-800.0,0
GRID,2973,0,460.5233,0.0,-800.0,0
GRID,2974,0,453.9317,0.0,-800.0,0
GRID,2975,0,447.34,0.0,-800.0,0
GRID,2976,0,440.7483,0.0,-800.0,0
GRID,2977,0,434.1567,0.0,-800.0,0
GRID,2978,0,427.565,0.0,-800.0,0
GRID,2979,0,420.9733,0.0,-800.0,0
GRID,2980,0,414.3817,0.0,-800.0,0
GRID,2981,0,480.2983,0.0,-795.0,0
GRID,2982,0,473.7067,0.0,-795.0,0
GRID,2983,0,467.115,0.0,-795.0,0
GRID,2984,0,460.5233,0.0,-795.0,0
GRID,2985,0,453.9317,0.0,-795.0,0
GRID,2986,0,447.34,0.0,-795.0,0
GRID,2987,0,440.7483,0.0,-795.0,0
GRID,2988,0,434.1567,0.0,-795.0,0
GRID,2989,0,427.565,0.0,-795.0,0
GRID,2990,0,420.9733,0.0,-795.0,0
GRID,2991,0,414.3817,0.0,-795.0,0
GRID,2992,0,480.2983,0.0,-790.0,0
GRID,2993,0,473.7067,0.0,-790.0,0
GRID,2994,0,467.115,0.0,-790.0,0
GRID,2995,0,460.5233,0.0,-790.0,0
GRID,2996,0,453.9317,0.0,-790.0,0
GRID,2997,0,447.34,0.0,-790.0,0
GRID,2998,0,440.7483,0.0,-790.0,0
GRID,2999,0,434.1567,0.0,-790.0,0
GRID,3000,0,427.565,0.0,-790.0,0
GRID,3001,0,420.9733,0.0,-790.0,0
GRID,3002,0,414.3817,0.0,-790.0,0
GRID,3003,0,480.2983,0.0,-785.0,0
GRID,3004,0,473.7067,0.0,-785.0,0
GRID,3005,0,467.115,0.0,-785.0,0
GRID,3006,0,460.5233,0.0,-785.0,0
GRID,3007,0,453.9317,0.0,-785.0,0
GRID,3008,0,447.34,0.0,-785.0,0
GRID,3009,0,440.7483,0.0,-785.0,0
GRID,3010,0,434.1567,0.0,-785.0,0
GRID,3011,0,427.565,0.0,-785.0,0
GRID,3012,0,420.9733,0.0,-785.0,0
GRID,3013,0,414.3817,0.0,-785.0,0
GRID,3014,0,480.2983,0.0,-780.0,0
GRID,3015,0,473.7067,0.0,-780.0,0
GRID,3016,0,467.115,0.0,-780.0,0
GRID,3017,0,460.5233,0.0,-780.0,0
GRID,3018,0,453.9317,0.0,-780.0,0
GRID,3019,0,447.34,0.0,-780.0,0
GRID,3020,0,440.7483,0.0,-780.0,0
GRID,3021,0,434.1567,0.0,-780.0,0
GRID,3022,0,427.565,0.0,-780.0,0
GRID,3023,0,420.9733,0.0,-780.0,0
GRID,3024,0,414.3817,0.0,-780.0,0
GRID,3025,0,480.2983,0.0,-775.0,0
GRID,3026,0,473.7067,0.0,-775.0,0
GRID,3027,0,467.115,0.0,-775.0,0
GRID,3028,0,460.5233,0.0,-775.0,0
GRID,3029,0,453.9317,0.0,-775.0,0
GRID,3030,0,447.34,0.0,-775.0,0
GRID,3031,0,440.7483,0.0,-775.0,0
GRID,3032,0,434.1567,0.0,-775.0,0
GRID,3033,0,427.565,0.0,-775.0,0
GRID,3034,0,420.9733,0.0,-775.0,0
GRID,3035,0,414.3817,0.0,-775.0,0
GRID,3036,0,480.2983,0.0,-770.0,0
GRID,3037,0,473.7067,0.0,-770.0,0
GRID,3038,0,467.115,0.0,-770.0,0
GRID,3039,0,460.5233,0.0,-770.0,0
GRID,3040,0,453.9317,0.0,-770.0,0
GRID,3041,0,447.34,0.0,-770.0,0
GRID,3042,0,440.7483,0.0,-770.0,0
GRID,3043,0,434.1567,0.0,-770.0,0
GRID,3044,0,427.565,0.0,-770.0,0
GRID,3045,0,420.9733,0.0,-770.0,0
GRID,3046,0,414.3817,0.0,-770.0,0
GRID,3047,0,480.2983,0.0,-765.0,0
GRID,3048,0,473.7067,0.0,-765.0,0
GRID,3049,0,467.115,0.0,-765.0,0
GRID,3050,0,460.5233,0.0,-765.0,0
GRID,3051,0,453.9317,0.0,-765.0,0
GRID,3052,0,447.34,0.0,-765.0,0
GRID,3053,0,440.7483,0.0,-765.0,0
GRID,3054,0,434.1567,0.0,-765.0,0
GRID,3055,0,427.565,0.0,-765.0,0
GRID,3056,0,420.9733,0.0,-765.0,0
GRID,3057,0,414.3817,0.0,-765.0,0
GRID,3058,0,480.2983,0.0,-760.0,0
GRID,3059,0,473.7067,0.0,-760.0,0
GRID,3060,0,467.115,0.0,-760.0,0
GRID,3061,0,460.5233,0.0,-760.0,0
GRID,3062,0,453.9317,0.0,-760.0,0
GRID,3063,0,447.34,0.0,-760.0,0
GRID,3064,0,440.7483,0.0,-760.0,0
GRID,3065,0,434.1567,0.0,-760.0,0
GRID,3066,0,427.565,0.0,-760.0,0
GRID,3067,0,420.9733,0.0,-760.0,0
GRID,3068,0,414.3817,0.0,-760.0,0
GRID,3069,0,480.2983,0.0,-755.0,0
GRID,3070,0,473.7067,0.0,-755.0,0
GRID,3071,0,467.115,0.0,-755.0,0
GRID,3072,0,460.5233,0.0,-755.0,0
GRID,3073,0,453.9317,0.0,-755.0,0
GRID,3074,0,447.34,0.0,-755.0,0
GRID,3075,0,440.7483,0.0,-755.0,0
GRID,3076,0,434.1567,0.0,-755.0,0
GRID,3077,0,427.565,0.0,-755.0,0
GRID,3078,0,420.9733,0.0,-755.0,0
GRID,3079,0,414.3817,0.0,-755.0,0
GRID,3080,0,480.2983,0.0,-750.0,0
GRID,3081,0,473.7067,0.0,-750.0,0
GRID,3082,0,467.115,0.0,-750.0,0
GRID,3083,0,460.5233,0.0,-750.0,0
GRID,3084,0,453.9317,0.0,-750.0,0
GRID,3085,0,447.34,0.0,-750.0,0
GRID,3086,0,440.7483,0.0,-750.0,0
GRID,3087,0,434.1567,0.0,-750.0,0
GRID,3088,0,427.565,0.0,-750.0,0
GRID,3089,0,420.9733,0.0,-750.0,0
GRID,3090,0,414.3817,0.0,-750.0,0
GRID,3091,0,480.2983,0.0,-745.0,0
GRID,3092,0,473.7067,0.0,-745.0,0
GRID,3093,0,467.115,0.0,-745.0,0
GRID,3094,0,460.5233,0.0,-745.0,0
GRID,3095,0,453.9317,0.0,-745.0,0
GRID,3096,0,447.34,0.0,-745.0,0
GRID,3097,0,440.7483,0.0,-745.0,0
GRID,3098,0,434.1567,0.0,-745.0,0
GRID,3099,0,427.565,0.0,-745.0,0
GRID,3100,0,420.9733,0.0,-745.0,0
GRID,3101,0,414.3817,0.0,-745.0,0
GRID,3102,0,480.2983,0.0,-740.0,0
GRID,3103,0,473.7067,0.0,-740.0,0
GRID,3104,0,467.115,0.0,-740.0,0
GRID,3105,0,460.5233,0.0,-740.0,0
GRID,3106,0,453.9317,0.0,-740.0,0
GRID,3107,0,447.34,0.0,-740.0,0
GRID,3108,0,440.7483,0.0,-740.0,0
GRID,3109,0,434.1567,0.0,-740.0,0
GRID,3110,0,427.565,0.0,-740.0,0
GRID,3111,0,420.9733,0.0,-740.0,0
GRID,3112,0,414.3817,0.0,-740.0,0
GRID,3113,0,480.2983,0.0,-735.0,0
GRID,3114,0,473.7067,0.0,-735.0,0
GRID,3115,0,467.115,0.0,-735.0,0
GRID,3116,0,460.5233,0.0,-735.0,0
GRID,3117,0,453.9317,0.0,-735.0,0
GRID,3118,0,447.34,0.0,-735.0,0
GRID,3119,0,440.7483,0.0,-735.0,0
GRID,3120,0,434.1567,0.0,-735.0,0
GRID,3121,0,427.565,0.0,-735.0,0
GRID,3122,0,420.9733,0.0,-735.0,0
GRID,3123,0,414.3817,0.0,-735.0,0
GRID,3124,0,480.2983,0.0,-730.0,0
GRID,3125,0,473.7067,0.0,-730.0,0
GRID,3126,0,467.115,0.0,-730.0,0
GRID,3127,0,460.5233,0.0,-730.0,0
GRID,3128,0,453.9317,0.0,-730.0,0
GRID,3129,0,447.34,0.0,-730.0,0
GRID,3130,0,440.7483,0.0,-730.0,0
GRID,3131,0,434.1567,0.0,-730.0,0
GRID,3132,0,427.565,0.0,-730.0,0
GRID,3133,0,420.9733,0.0,-730.0,0
GRID,3134,0,414.3817,0.0,-730.0,0
GRID,3135,0,480.2983,0.0,-725.0,0
GRID,3136,0,473.7067,0.0,-725.0,0
GRID,3137,0,467.115,0.0,-725.0,0
GRID,3138,0,460.5233,0.0,-725.0,0
GRID,3139,0,453.9317,0.0,-725.0,0
GRID,3140,0,447.34,0.0,-725.0,0
GRID,3141,0,440.7483,0.0,-725.0,0
GRID,3142,0,434.1567,0.0,-725.0,0
GRID,3143,0,427.565,0.0,-725.0,0
GRID,3144,0,420.9733,0.0,-725.0,0
GRID,3145,0,414.3817,0.0,-725.0,0
GRID,3146,0,480.2983,0.0,-720.0,0
GRID,3147,0,473.7067,0.0,-720.0,0
GRID,3148,0,467.115,0.0,-720.0,0
GRID,3149,0,460.5233,0.0,-720.0,0
GRID,3150,0,453.9317,0.0,-720.0,0
GRID,3151,0,447.34,0.0,-720.0,0
GRID,3152,0,440.7483,0.0,-720.0,0
GRID,3153,0,434.1567,0.0,-720.0,0
GRID,3154,0,427.565,0.0,-720.0,0
GRID,3155,0,420.9733,0.0,-720.0,0
GRID,3156,0,414.3817,0.0,-720.0,0
GRID,3157,0,480.2983,0.0,-715.0,0
GRID,3158,0,473.7067,0.0,-715.0,0
GRID,3159,0,467.115,0.0,-715.0,0
GRID,3160,0,460.5233,0.0,-715.0,0
GRID,3161,0,453.9317,0.0,-715.0,0
GRID,3162,0,447.34,0.0,-715.0,0
GRID,3163,0,440.7483,0.0,-715.0,0
GRID,3164,0,434.1567,0.0,-715.0,0
GRID,3165,0,427.565,0.0,-715.0,0
GRID,3166,0,420.9733,0.0,-715.0,0
GRID,3167,0,414.3817,0.0,-715.0,0
GRID,3168,0,480.2983,0.0,-710.0,0
GRID,3169,0,473.7067,0.0,-710.0,0
GRID,3170,0,467.115,0.0,-710.0,0
GRID,3171,0,460.5233,0.0,-710.0,0
GRID,3172,0,453.9317,0.0,-710.0,0
GRID,3173,0,447.34,0.0,-710.0,0
GRID,3174,0,440.7483,0.0,-710.0,0
GRID,3175,0,434.1567,0.0,-710.0,0
GRID,3176,0,427.565,0.0,-710.0,0
GRID,3177,0,420.9733,0.0,-710.0,0
GRID,3178,0,414.3817,0.0,-710.0,0
GRID,3179,0,480.2983,0.0,-705.0,0
GRID,3180,0,473.7067,0.0,-705.0,0
GRID,3181,0,467.115,0.0,-705.0,0
GRID,3182,0,460.5233,0.0,-705.0,0
GRID,3183,0,453.9317,0.0,-705.0,0
GRID,3184,0,447.34,0.0,-705.0,0
GRID,3185,0,440.7483,0.0,-705.0,0
GRID,3186,0,434.1567,0.0,-705.0,0
GRID,3187,0,427.565,0.0,-705.0,0
GRID,3188,0,420.9733,0.0,-705.0,0
GRID,3189,0,414.3817,0.0,-705.0,0
GRID,3190,0,480.2983,0.0,-700.0,0
GRID,3191,0,473.7067,0.0,-700.0,0
GRID,3192,0,467.115,0.0,-700.0,0
GRID,3193,0,460.5233,0.0,-700.0,0
GRID,3194,0,453.9317,0.0,-700.0,0
GRID,3195,0,447.34,0.0,-700.0,0
GRID,3196,0,440.7483,0.0,-700.0,0
GRID,3197,0,434.1567,0.0,-700.0,0
GRID,3198,0,427.565,0.0,-700.0,0
GRID,3199,0,420.9733,0.0,-700.0,0
GRID,3200,0,414.3817,0.0,-700.0,0
GRID,3201,0,480.2983,0.0,-695.0,0
GRID,3202,0,473.7067,0.0,-695.0,0
GRID,3203,0,467.115,0.0,-695.0,0
GRID,3204,0,460.5233,0.0,-695.0,0
GRID,3205,0,453.9317,0.0,-695.0,0
GRID,3206,0,447.34,0.0,-695.0,0
GRID,3207,0,440.7483,0.0,-695.0,0
GRID,3208,0,434.1567,0.0,-695.0,0
GRID,3209,0,427.565,0.0,-695.0,0
GRID,3210,0,420.9733,0.0,-695.0,0
GRID,3211,0,414.3817,0.0,-695.0,0
GRID,3212,0,480.2983,0.0,-690.0,0
GRID,3213,0,473.7067,0.0,-690.0,0
GRID,3214,0,467.115,0.0,-690.0,0
GRID,3215,0,460.5233,0.0,-690.0,0
GRID,3216,0,453.9317,0.0,-690.0,0
GRID,3217,0,447.34,0.0,-690.0,0
GRID,3218,0,440.7483,0.0,-690.0,0
GRID,3219,0,434.1567,0.0,-690.0,0
GRID,3220,0,427.565,0.0,-690.0,0
GRID,3221,0,420.9733,0.0,-690.0,0
GRID,3222,0,414.3817,0.0,-690.0,0
GRID,3223,0,480.2983,0.0,-685.0,0
GRID,3224,0,473.7067,0.0,-685.0,0
GRID,3225,0,467.115,0.0,-685.0,0
GRID,3226,0,460.5233,0.0,-685.0,0
GRID,3227,0,453.9317,0.0,-685.0,0
GRID,3228,0,447.34,0.0,-685.0,0
GRID,3229,0,440.7483,0.0,-685.0,0
GRID,3230,0,434.1567,0.0,-685.0,0
GRID,3231,0,427.565,0.0,-685.0,0
GRID,3232,0,420.9733,0.0,-685.0,0
GRID,3233,0,414.3817,0.0,-685.0,0
GRID,3234,0,480.2983,0.0,-680.0,0
GRID,3235,0,473.7067,0.0,-680.0,0
GRID,3236,0,467.115,0.0,-680.0,0
GRID,3237,0,460.5233,0.0,-680.0,0
GRID,3238,0,453.9317,0.0,-680.0,0
GRID,3239,0,447.34,0.0,-680.0,0
GRID,3240,0,440.7483,0.0,-680.0,0
GRID,3241,0,434.1567,0.0,-680.0,0
GRID,3242,0,427.565,0.0,-680.0,0
GRID,3243,0,420.9733,0.0,-680.0,0
GRID,3244,0,414.3817,0.0,-680.0,0
GRID,3245,0,480.2983,0.0,-675.0,0
GRID,3246,0,473.7067,0.0,-675.0,0
GRID,3247,0,467.115,0.0,-675.0,0
GRID,3248,0,460.5233,0.0,-675.0,0
GRID,3249,0,453.9317,0.0,-675.0,0
GRID,3250,0,447.34,0.0,-675.0,0
GRID,3251,0,440.7483,0.0,-675.0,0
GRID,3252,0,434.1567,0.0,-675.0,0
GRID,3253,0,427.565,0.0,-675.0,0
GRID,3254,0,420.9733,0.0,-675.0,0
GRID,3255,0,414.3817,0.0,-675.0,0
GRID,3256,0,480.2983,0.0,-670.0,0
GRID,3257,0,473.7067,0.0,-670.0,0
GRID,3258,0,467.115,0.0,-670.0,0
GRID,3259,0,460.5233,0.0,-670.0,0
GRID,3260,0,453.9317,0.0,-670.0,0
GRID,3261,0,447.34,0.0,-670.0,0
GRID,3262,0,440.7483,0.0,-670.0,0
GRID,3263,0,434.1567,0.0,-670.0,0
GRID,3264,0,427.565,0.0,-670.0,0
GRID,3265,0,420.9733,0.0,-670.0,0
GRID,3266,0,414.3817,0.0,-670.0,0
GRID,3267,0,480.2983,0.0,-665.0,0
GRID,3268,0,473.7067,0.0,-665.0,0
GRID,3269,0,467.115,0.0,-665.0,0
GRID,3270,0,460.5233,0.0,-665.0,0
GRID,3271,0,453.9317,0.0,-665.0,0
GRID,3272,0,447.34,0.0,-665.0,0
GRID,3273,0,440.7483,0.0,-665.0,0
GRID,3274,0,434.1567,0.0,-665.0,0
GRID,3275,0,427.565,0.0,-665.0,0
GRID,3276,0,420.9733,0.0,-665.0,0
GRID,3277,0,414.3817,0.0,-665.0,0
GRID,3278,0,480.2983,0.0,-660.0,0
GRID,3279,0,473.7067,0.0,-660.0,0
GRID,3280,0,467.115,0.0,-660.0,0
GRID,3281,0,460.5233,0.0,-660.0,0
GRID,3282,0,453.9317,0.0,-660.0,0
GRID,3283,0,447.34,0.0,-660.0,0
GRID,3284,0,440.7483,0.0,-660.0,0
GRID,3285,0,434.1567,0.0,-660.0,0
GRID,3286,0,427.565,0.0,-660.0,0
GRID,3287,0,420.9733,0.0,-660.0,0
GRID,3288,0,414.3817,0.0,-660.0,0
GRID,3289,0,480.2983,0.0,-655.0,0
GRID,3290,0,473.7067,0.0,-655.0,0
GRID,3291,0,467.115,0.0,-655.0,0
GRID,3292,0,460.5233,0.0,-655.0,0
GRID,3293,0,453.9317,0.0,-655.0,0
GRID,3294,0,447.34,0.0,-655.0,0
GRID,3295,0,440.7483,0.0,-655.0,0
GRID,3296,0,434.1567,0.0,-655.0,0
GRID,3297,0,427.565,0.0,-655.0,0
GRID,3298,0,420.9733,0.0,-655.0,0
GRID,3299,0,414.3817,0.0,-655.0,0
GRID,3300,0,480.2983,0.0,-650.0,0
GRID,3301,0,473.7067,0.0,-650.0,0
GRID,3302,0,467.115,0.0,-650.0,0
GRID,3303,0,460.5233,0.0,-650.0,0
GRID,3304,0,453.9317,0.0,-650.0,0
GRID,3305,0,447.34,0.0,-650.0,0
GRID,3306,0,440.7483,0.0,-650.0,0
GRID,3307,0,434.1567,0.0,-650.0,0
GRID,3308,0,427.565,0.0,-650.0,0
GRID,3309,0,420.9733,0.0,-650.0,0
GRID,3310,0,414.3817,0.0,-650.0,0
GRID,3311,0,480.2983,0.0,-645.0,0
GRID,3312,0,473.7067,0.0,-645.0,0
GRID,3313,0,467.115,0.0,-645.0,0
GRID,3314,0,460.5233,0.0,-645.0,0
GRID,3315,0,453.9317,0.0,-645.0,0
GRID,3316,0,447.34,0.0,-645.0,0
GRID,3317,0,440.7483,0.0,-645.0,0
GRID,3318,0,434.1567,0.0,-645.0,0
GRID,3319,0,427.565,0.0,-645.0,0
GRID,3320,0,420.9733,0.0,-645.0,0
GRID,3321,0,414.3817,0.0,-645.0,0
GRID,3322,0,480.2983,0.0,-640.0,0
GRID,3323,0,473.7067,0.0,-640.0,0
GRID,3324,0,467.115,0.0,-640.0,0
GRID,3325,0,460.5233,0.0,-640.0,0
GRID,3326,0,453.9317,0.0,-640.0,0
GRID,3327,0,447.34,0.0,-640.0,0
GRID,3328,0,440.7483,0.0,-640.0,0
GRID,3329,0,434.1567,0.0,-640.0,0
GRID,3330,0,427.565,0.0,-640.0,0
GRID,3331,0,420.9733,0.0,-640.0,0
GRID,3332,0,414.3817,0.0,-640.0,0
GRID,3333,0,480.2983,0.0,-635.0,0
GRID,3334,0,473.7067,0.0,-635.0,0
GRID,3335,0,467.115,0.0,-635.0,0
GRID,3336,0,460.5233,0.0,-635.0,0
GRID,3337,0,453.9317,0.0,-635.0,0
GRID,3338,0,447.34,0.0,-635.0,0
GRID,3339,0,440.7483,0.0,-635.0,0
GRID,3340,0,434.1567,0.0,-635.0,0
GRID,3341,0,427.565,0.0,-635.0,0
GRID,3342,0,420.9733,0.0,-635.0,0
GRID,3343,0,414.3817,0.0,-635.0,0
GRID,3344,0,480.2983,0.0,-630.0,0
GRID,3345,0,473.7067,0.0,-630.0,0
GRID,3346,0,467.115,0.0,-630.0,0
GRID,3347,0,460.5233,0.0,-630.0,0
GRID,3348,0,453.9317,0.0,-630.0,0
GRID,3349,0,447.34,0.0,-630.0,0
GRID,3350,0,440.7483,0.0,-630.0,0
GRID,3351,0,434.1567,0.0,-630.0,0
GRID,3352,0,427.565,0.0,-630.0,0
GRID,3353,0,420.9733,0.0,-630.0,0
GRID,3354,0,414.3817,0.0,-630.0,0
GRID,3355,0,480.2983,0.0,-625.0,0
GRID,3356,0,473.7067,0.0,-625.0,0
GRID,3357,0,467.115,0.0,-625.0,0
GRID,3358,0,460.5233,0.0,-625.0,0
GRID,3359,0,453.9317,0.0,-625.0,0
GRID,3360,0,447.34,0.0,-625.0,0
GRID,3361,0,440.7483,0.0,-625.0,0
GRID,3362,0,434.1567,0.0,-625.0,0
GRID,3363,0,427.565,0.0,-625.0,0
GRID,3364,0,420.9733,0.0,-625.0,0
GRID,3365,0,414.3817,0.0,-625.0,0
GRID,3366,0,480.2983,0.0,-620.0,0
GRID,3367,0,473.7067,0.0,-620.0,0
GRID,3368,0,467.115,0.0,-620.0,0
GRID,3369,0,460.5233,0.0,-620.0,0
GRID,3370,0,453.9317,0.0,-620.0,0
GRID,3371,0,447.34,0.0,-620.0,0
GRID,3372,0,440.7483,0.0,-620.0,0
GRID,3373,0,434.1567,0.0,-620.0,0
GRID,3374,0,427.565,0.0,-620.0,0
GRID,3375,0,420.9733,0.0,-620.0,0
GRID,3376,0,414.3817,0.0,-620.0,0
GRID,3377,0,480.2983,0.0,-615.0,0
GRID,3378,0,473.7067,0.0,-615.0,0
GRID,3379,0,467.115,0.0,-615.0,0
GRID,3380,0,460.5233,0.0,-615.0,0
GRID,3381,0,453.9317,0.0,-615.0,0
GRID,3382,0,447.34,0.0,-615.0,0
GRID,3383,0,440.7483,0.0,-615.0,0
GRID,3384,0,434.1567,0.0,-615.0,0
GRID,3385,0,427.565,0.0,-615.0,0
GRID,3386,0,420.9733,0.0,-615.0,0
GRID,3387,0,414.3817,0.0,-615.0,0
GRID,3388,0,480.2983,0.0,-610.0,0
GRID,3389,0,473.7067,0.0,-610.0,0
GRID,3390,0,467.115,0.0,-610.0,0
GRID,3391,0,460.5233,0.0,-610.0,0
GRID,3392,0,453.9317,0.0,-610.0,0
GRID,3393,0,447.34,0.0,-610.0,0
GRID,3394,0,440.7483,0.0,-610.0,0
GRID,3395,0,434.1567,0.0,-610.0,0
GRID,3396,0,427.565,0.0,-610.0,0
GRID,3397,0,420.9733,0.0,-610.0,0
GRID,3398,0,414.3817,0.0,-610.0,0
GRID,3399,0,480.2983,0.0,-605.0,0
GRID,3400,0,473.7067,0.0,-605.0,0
GRID,3401,0,467.115,0.0,-605.0,0
GRID,3402,0,460.5233,0.0,-605.0,0
GRID,3403,0,453.9317,0.0,-605.0,0
GRID,3404,0,447.34,0.0,-605.0,0
GRID,3405,0,440.7483,0.0,-605.0,0
GRID,3406,0,434.1567,0.0,-605.0,0
GRID,3407,0,427.565,0.0,-605.0,0
GRID,3408,0,420.9733,0.0,-605.0,0
GRID,3409,0,414.3817,0.0,-605.0,0
GRID,3410,0,480.2983,0.0,-600.0,0
GRID,3411,0,473.7067,0.0,-600.0,0
GRID,3412,0,467.115,0.0,-600.0,0
GRID,3413,0,460.5233,0.0,-600.0,0
GRID,3414,0,453.9317,0.0,-600.0,0
GRID,3415,0,447.34,0.0,-600.0,0
GRID,3416,0,440.7483,0.0,-600.0,0
GRID,3417,0,434.1567,0.0,-600.0,0
GRID,3418,0,427.565,0.0,-600.0,0
GRID,3419,0,420.9733,0.0,-600.0,0
GRID,3420,0,414.3817,0.0,-600.0,0
GRID,3421,0,480.2983,0.0,-595.0,0
GRID,3422,0,473.7067,0.0,-595.0,0
GRID,3423,0,467.115,0.0,-595.0,0
GRID,3424,0,460.5233,0.0,-595.0,0
GRID,3425,0,453.9317,0.0,-595.0,0
GRID,3426,0,447.34,0.0,-595.0,0
GRID,3427,0,440.7483,0.0,-595.0,0
GRID,3428,0,434.1567,0.0,-595.0,0
GRID,3429,0,427.565,0.0,-595.0,0
GRID,3430,0,420.9733,0.0,-595.0,0
GRID,3431,0,414.3817,0.0,-595.0,0
GRID,3432,0,480.2983,0.0,-590.0,0
GRID,3433,0,473.7067,0.0,-590.0,0
GRID,3434,0,467.115,0.0,-590.0,0
GRID,3435,0,460.5233,0.0,-590.0,0
GRID,3436,0,453.9317,0.0,-590.0,0
GRID,3437,0,447.34,0.0,-590.0,0
GRID,3438,0,440.7483,0.0,-590.0,0
GRID,3439,0,434.1567,0.0,-590.0,0
GRID,3440,0,427.565,0.0,-590.0,0
GRID,3441,0,420.9733,0.0,-590.0,0
GRID,3442,0,414.3817,0.0,-590.0,0
GRID,3443,0,480.2983,0.0,-585.0,0
GRID,3444,0,473.7067,0.0,-585.0,0
GRID,3445,0,467.115,0.0,-585.0,0
GRID,3446,0,460.5233,0.0,-585.0,0
GRID,3447,0,453.9317,0.0,-585.0,0
GRID,3448,0,447.34,0.0,-585.0,0
GRID,3449,0,440.7483,0.0,-585.0,0
GRID,3450,0,434.1567,0.0,-585.0,0
GRID,3451,0,427.565,0.0,-585.0,0
GRID,3452,0,420.9733,0.0,-585.0,0
GRID,3453,0,414.3817,0.0,-585.0,0
GRID,3454,0,480.2983,0.0,-580.0,0
GRID,3455,0,473.7067,0.0,-580.0,0
GRID,3456,0,467.115,0.0,-580.0,0
GRID,3457,0,460.5233,0.0,-580.0,0
GRID,3458,0,453.9317,0.0,-580.0,0
GRID,3459,0,447.34,0.0,-580.0,0
GRID,3460,0,440.7483,0.0,-580.0,0
GRID,3461,0,434.1567,0.0,-580.0,0
GRID,3462,0,427.565,0.0,-580.0,0
GRID,3463,0,420.9733,0.0,-580.0,0
GRID,3464,0,414.3817,0.0,-580.0,0
GRID,3465,0,480.2983,0.0,-575.0,0
GRID,3466,0,473.7067,0.0,-575.0,0
GRID,3467,0,467.115,0.0,-575.0,0
GRID,3468,0,460.5233,0.0,-575.0,0
GRID,3469,0,453.9317,0.0,-575.0,0
GRID,3470,0,447.34,0.0,-575.0,0
GRID,3471,0,440.7483,0.0,-575.0,0
GRID,3472,0,434.1567,0.0,-575.0,0
GRID,3473,0,427.565,0.0,-575.0,0
GRID,3474,0,420.9733,0.0,-575.0,0
GRID,3475,0,414.3817,0.0,-575.0,0
GRID,3476,0,480.2983,0.0,-570.0,0
GRID,3477,0,473.7067,0.0,-570.0,0
GRID,3478,0,467.115,0.0,-570.0,0
GRID,3479,0,460.5233,0.0,-570.0,0
GRID,3480,0,453.9317,0.0,-570.0,0
GRID,3481,0,447.34,0.0,-570.0,0
GRID,3482,0,440.7483,0.0,-570.0,0
GRID,3483,0,434.1567,0.0,-570.0,0
GRID,3484,0,427.565,0.0,-570.0,0
GRID,3485,0,420.9733,0.0,-570.0,0
GRID,3486,0,414.3817,0.0,-570.0,0
GRID,3487,0,480.2983,0.0,-565.0,0
GRID,3488,0,473.7067,0.0,-565.0,0
GRID,3489,0,467.115,0.0,-565.0,0
GRID,3490,0,460.5233,0.0,-565.0,0
GRID,3491,0,453.9317,0.0,-565.0,0
GRID,3492,0,447.34,0.0,-565.0,0
GRID,3493,0,440.7483,0.0,-565.0,0
GRID,3494,0,434.1567,0.0,-565.0,0
GRID,3495,0,427.565,0.0,-565.0,0
GRID,3496,0,420.9733,0.0,-565.0,0
GRID,3497,0,414.3817,0.0,-565.0,0
GRID,3498,0,480.2983,0.0,-560.0,0
GRID,3499,0,473.7067,0.0,-560.0,0
GRID,3500,0,467.115,0.0,-560.0,0
GRID,3501,0,460.5233,0.0,-560.0,0
GRID,3502,0,453.9317,0.0,-560.0,0
GRID,3503,0,447.34,0.0,-560.0,0
GRID,3504,0,440.7483,0.0,-560.0,0
GRID,3505,0,434.1567,0.0,-560.0,0
GRID,3506,0,427.565,0.0,-560.0,0
GRID,3507,0,420.9733,0.0,-560.0,0
GRID,3508,0,414.3817,0.0,-560.0,0
GRID,3509,0,480.2983,0.0,-555.0,0
GRID,3510,0,473.7067,0.0,-555.0,0
GRID,3511,0,467.115,0.0,-555.0,0
GRID,3512,0,460.5233,0.0,-555.0,0
GRID,3513,0,453.9317,0.0,-555.0,0
GRID,3514,0,447.34,0.0,-555.0,0
GRID,3515,0,440.7483,0.0,-555.0,0
GRID,3516,0,434.1567,0.0,-555.0,0
GRID,3517,0,427.565,0.0,-555.0,0
GRID,3518,0,420.9733,0.0,-555.0,0
GRID,3519,0,414.3817,0.0,-555.0,0
GRID,3520,0,480.2983,0.0,-550.0,0
GRID,3521,0,473.7067,0.0,-550.0,0
GRID,3522,0,467.115,0.0,-550.0,0
GRID,3523,0,460.5233,0.0,-550.0,0
GRID,3524,0,453.9317,0.0,-550.0,0
GRID,3525,0,447.34,0.0,-550.0,0
GRID,3526,0,440.7483,0.0,-550.0,0
GRID,3527,0,434.1567,0.0,-550.0,0
GRID,3528,0,427.565,0.0,-550.0,0
GRID,3529,0,420.9733,0.0,-550.0,0
GRID,3530,0,414.3817,0.0,-550.0,0
GRID,3531,0,480.2983,0.0,-545.0,0
GRID,3532,0,473.7067,0.0,-545.0,0
GRID,3533,0,467.115,0.0,-545.0,0
GRID,3534,0,460.5233,0.0,-545.0,0
GRID,3535,0,453.9317,0.0,-545.0,0
GRID,3536,0,447.34,0.0,-545.0,0
GRID,3537,0,440.7483,0.0,-545.0,0
GRID,3538,0,434.1567,0.0,-545.0,0
GRID,3539,0,427.565,0.0,-545.0,0
GRID,3540,0,420.9733,0.0,-545.0,0
GRID,3541,0,414.3817,0.0,-545.0,0
GRID,3542,0,480.2983,0.0,-540.0,0
GRID,3543,0,473.7067,0.0,-540.0,0
GRID,3544,0,467.115,0.0,-540.0,0
GRID,3545,0,460.5233,0.0,-540.0,0
GRID,3546,0,453.9317,0.0,-540.0,0
GRID,3547,0,447.34,0.0,-540.0,0
GRID,3548,0,440.7483,0.0,-540.0,0
GRID,3549,0,434.1567,0.0,-540.0,0
GRID,3550,0,427.565,0.0,-540.0,0
GRID,3551,0,420.9733,0.0,-540.0,0
GRID,3552,0,414.3817,0.0,-540.0,0
GRID,3553,0,480.2983,0.0,-535.0,0
GRID,3554,0,473.7067,0.0,-535.0,0
GRID,3555,0,467.115,0.0,-535.0,0
GRID,3556,0,460.5233,0.0,-535.0,0
GRID,3557,0,453.9317,0.0,-535.0,0
GRID,3558,0,447.34,0.0,-535.0,0
GRID,3559,0,440.7483,0.0,-535.0,0
GRID,3560,0,434.1567,0.0,-535.0,0
GRID,3561,0,427.565,0.0,-535.0,0
GRID,3562,0,420.9733,0.0,-535.0,0
GRID,3563,0,414.3817,0.0,-535.0,0
GRID,3564,0,480.2983,0.0,-530.0,0
GRID,3565,0,473.7067,0.0,-530.0,0
GRID,3566,0,467.115,0.0,-530.0,0
GRID,3567,0,460.5233,0.0,-530.0,0
GRID,3568,0,453.9317,0.0,-530.0,0
GRID,3569,0,447.34,0.0,-530.0,0
GRID,3570,0,440.7483,0.0,-530.0,0
GRID,3571,0,434.1567,0.0,-530.0,0
GRID,3572,0,427.565,0.0,-530.0,0
GRID,3573,0,420.9733,0.0,-530.0,0
GRID,3574,0,414.3817,0.0,-530.0,0
GRID,3575,0,480.2983,0.0,-525.0,0
GRID,3576,0,473.7067,0.0,-525.0,0
GRID,3577,0,467.115,0.0,-525.0,0
GRID,3578,0,460.5233,0.0,-525.0,0
GRID,3579,0,453.9317,0.0,-525.0,0
GRID,3580,0,447.34,0.0,-525.0,0
GRID,3581,0,440.7483,0.0,-525.0,0
GRID,3582,0,434.1567,0.0,-525.0,0
GRID,3583,0,427.565,0.0,-525.0,0
GRID,3584,0,420.9733,0.0,-525.0,0
GRID,3585,0,414.3817,0.0,-525.0,0
GRID,3586,0,480.2983,0.0,-520.0,0
GRID,3587,0,473.7067,0.0,-520.0,0
GRID,3588,0,467.115,0.0,-520.0,0
GRID,3589,0,460.5233,0.0,-520.0,0
GRID,3590,0,453.9317,0.0,-520.0,0
GRID,3591,0,447.34,0.0,-520.0,0
GRID,3592,0,440.7483,0.0,-520.0,0
GRID,3593,0,434.1567,0.0,-520.0,0
GRID,3594,0,427.565,0.0,-520.0,0
GRID,3595,0,420.9733,0.0,-520.0,0
GRID,3596,0,414.3817,0.0,-520.0,0
GRID,3597,0,480.2983,0.0,-515.0,0
GRID,3598,0,473.7067,0.0,-515.0,0
GRID,3599,0,467.115,0.0,-515.0,0
GRID,3600,0,460.5233,0.0,-515.0,0
GRID,3601,0,453.9317,0.0,-515.0,0
GRID,3602,0,447.34,0.0,-515.0,0
GRID,3603,0,440.7483,0.0,-515.0,0
GRID,3604,0,434.1567,0.0,-515.0,0
GRID,3605,0,427.565,0.0,-515.0,0
GRID,3606,0,420.9733,0.0,-515.0,0
GRID,3607,0,414.3817,0.0,-515.0,0
GRID,3608,0,480.2983,0.0,-510.0,0
GRID,3609,0,473.7067,0.0,-510.0,0
GRID,3610,0,467.115,0.0,-510.0,0
GRID,3611,0,460.5233,0.0,-510.0,0
GRID,3612,0,453.9317,0.0,-510.0,0
GRID,3613,0,447.34,0.0,-510.0,0
GRID,3614,0,440.7483,0.0,-510.0,0
GRID,3615,0,434.1567,0.0,-510.0,0
GRID,3616,0,427.565,0.0,-510.0,0
GRID,3617,0,420.9733,0.0,-510.0,0
GRID,3618,0,414.3817,0.0,-510.0,0
GRID,3619,0,480.2983,0.0,-505.0,0
GRID,3620,0,473.7067,0.0,-505.0,0
GRID,3621,0,467.115,0.0,-505.0,0
GRID,3622,0,460.5233,0.0,-505.0,0
GRID,3623,0,453.9317,0.0,-505.0,0
GRID,3624,0,447.34,0.0,-505.0,0
GRID,3625,0,440.7483,0.0,-505.0,0
GRID,3626,0,434.1567,0.0,-505.0,0
GRID,3627,0,427.565,0.0,-505.0,0
GRID,3628,0,420.9733,0.0,-505.0,0
GRID,3629,0,414.3817,0.0,-505.0,0
GRID,3630,0,480.2983,0.0,-500.0,0
GRID,3631,0,473.7067,0.0,-500.0,0
GRID,3632,0,467.115,0.0,-500.0,0
GRID,3633,0,460.5233,0.0,-500.0,0
GRID,3634,0,453.9317,0.0,-500.0,0
GRID,3635,0,447.34,0.0,-500.0,0
GRID,3636,0,440.7483,0.0,-500.0,0
GRID,3637,0,434.1567,0.0,-500.0,0
GRID,3638,0,427.565,0.0,-500.0,0
GRID,3639,0,420.9733,0.0,-500.0,0
GRID,3640,0,414.3817,0.0,-500.0,0
GRID,3641,0,480.2983,0.0,-495.0,0
GRID,3642,0,473.7067,0.0,-495.0,0
GRID,3643,0,467.115,0.0,-495.0,0
GRID,3644,0,460.5233,0.0,-495.0,0
GRID,3645,0,453.9317,0.0,-495.0,0
GRID,3646,0,447.34,0.0,-495.0,0
GRID,3647,0,440.7483,0.0,-495.0,0
GRID,3648,0,434.1567,0.0,-495.0,0
GRID,3649,0,427.565,0.0,-495.0,0
GRID,3650,0,420.9733,0.0,-495.0,0
GRID,3651,0,414.3817,0.0,-495.0,0
GRID,3652,0,480.2983,0.0,-490.0,0
GRID,3653,0,473.7067,0.0,-490.0,0
GRID,3654,0,467.115,0.0,-490.0,0
GRID,3655,0,460.5233,0.0,-490.0,0
GRID,3656,0,453.9317,0.0,-490.0,0
GRID,3657,0,447.34,0.0,-490.0,0
GRID,3658,0,440.7483,0.0,-490.0,0
GRID,3659,0,434.1567,0.0,-490.0,0
GRID,3660,0,427.565,0.0,-490.0,0
GRID,3661,0,420.9733,0.0,-490.0,0
GRID,3662,0,414.3817,0.0,-490.0,0
GRID,3663,0,480.2983,0.0,-485.0,0
GRID,3664,0,473.7067,0.0,-485.0,0
GRID,3665,0,467.115,0.0,-485.0,0
GRID,3666,0,460.5233,0.0,-485.0,0
GRID,3667,0,453.9317,0.0,-485.0,0
GRID,3668,0,447.34,0.0,-485.0,0
GRID,3669,0,440.7483,0.0,-485.0,0
GRID,3670,0,434.1567,0.0,-485.0,0
GRID,3671,0,427.565,0.0,-485.0,0
GRID,3672,0,420.9733,0.0,-485.0,0
GRID,3673,0,414.3817,0.0,-485.0,0
GRID,3674,0,480.2983,0.0,-480.0,0
GRID,3675,0,473.7067,0.0,-480.0,0
GRID,3676,0,467.115,0.0,-480.0,0
GRID,3677,0,460.5233,0.0,-480.0,0
GRID,3678,0,453.9317,0.0,-480.0,0
GRID,3679,0,447.34,0.0,-480.0,0
GRID,3680,0,440.7483,0.0,-480.0,0
GRID,3681,0,434.1567,0.0,-480.0,0
GRID,3682,0,427.565,0.0,-480.0,0
GRID,3683,0,420.9733,0.0,-480.0,0
GRID,3684,0,414.3817,0.0,-480.0,0
GRID,3685,0,480.2983,0.0,-475.0,0
GRID,3686,0,473.7067,0.0,-475.0,0
GRID,3687,0,467.115,0.0,-475.0,0
GRID,3688,0,460.5233,0.0,-475.0,0
GRID,3689,0,453.9317,0.0,-475.0,0
GRID,3690,0,447.34,0.0,-475.0,0
GRID,3691,0,440.7483,0.0,-475.0,0
GRID,3692,0,434.1567,0.0,-475.0,0
GRID,3693,0,427.565,0.0,-475.0,0
GRID,3694,0,420.9733,0.0,-475.0,0
GRID,3695,0,414.3817,0.0,-475.0,0
GRID,3696,0,480.2983,0.0,-470.0,0
GRID,3697,0,473.7067,0.0,-470.0,0
GRID,3698,0,467.115,0.0,-470.0,0
GRID,3699,0,460.5233,0.0,-470.0,0
GRID,3700,0,453.9317,0.0,-470.0,0
GRID,3701,0,447.34,0.0,-470.0,0
GRID,3702,0,440.7483,0.0,-470.0,0
GRID,3703,0,434.1567,0.0,-470.0,0
GRID,3704,0,427.565,0.0,-470.0,0
GRID,3705,0,420.9733,0.0,-470.0,0
GRID,3706,0,414.3817,0.0,-470.0,0
GRID,3707,0,480.2983,0.0,-465.0,0
GRID,3708,0,473.7067,0.0,-465.0,0
GRID,3709,0,467.115,0.0,-465.0,0
GRID,3710,0,460.5233,0.0,-465.0,0
GRID,3711,0,453.9317,0.0,-465.0,0
GRID,3712,0,447.34,0.0,-465.0,0
GRID,3713,0,440.7483,0.0,-465.0,0
GRID,3714,0,434.1567,0.0,-465.0,0
GRID,3715,0,427.565,0.0,-465.0,0
GRID,3716,0,420.9733,0.0,-465.0,0
GRID,3717,0,414.3817,0.0,-465.0,0
GRID,3718,0,480.2983,0.0,-460.0,0
GRID,3719,0,473.7067,0.0,-460.0,0
GRID,3720,0,467.115,0.0,-460.0,0
GRID,3721,0,460.5233,0.0,-460.0,0
GRID,3722,0,453.9317,0.0,-460.0,0
GRID,3723,0,447.34,0.0,-460.0,0
GRID,3724,0,440.7483,0.0,-460.0,0
GRID,3725,0,434.1567,0.0,-460.0,0
GRID,3726,0,427.565,0.0,-460.0,0
GRID,3727,0,420.9733,0.0,-460.0,0
GRID,3728,0,414.3817,0.0,-460.0,0
GRID,3729,0,480.2983,0.0,-455.0,0
GRID,3730,0,473.7067,0.0,-455.0,0
GRID,3731,0,467.115,0.0,-455.0,0
GRID,3732,0,460.5233,0.0,-455.0,0
GRID,3733,0,453.9317,0.0,-455.0,0
GRID,3734,0,447.34,0.0,-455.0,0
GRID,3735,0,440.7483,0.0,-455.0,0
GRID,3736,0,434.1567,0.0,-455.0,0
GRID,3737,0,427.565,0.0,-455.0,0
GRID,3738,0,420.9733,0.0,-455.0,0
GRID,3739,0,414.3817,0.0,-455.0,0
GRID,3740,0,480.2983,0.0,-450.0,0
GRID,3741,0,473.7067,0.0,-450.0,0
GRID,3742,0,467.115,0.0,-450.0,0
GRID,3743,0,460.5233,0.0,-450.0,0
GRID,3744,0,453.9317,0.0,-450.0,0
GRID,3745,0,447.34,0.0,-450.0,0
GRID,3746,0,440.7483,0.0,-450.0,0
GRID,3747,0,434.1567,0.0,-450.0,0
GRID,3748,0,427.565,0.0,-450.0,0
GRID,3749,0,420.9733,0.0,-450.0,0
GRID,3750,0,414.3817,0.0,-450.0,0
GRID,3751,0,480.2983,0.0,-445.0,0
GRID,3752,0,473.7067,0.0,-445.0,0
GRID,3753,0,467.115,0.0,-445.0,0
GRID,3754,0,460.5233,0.0,-445.0,0
GRID,3755,0,453.9317,0.0,-445.0,0
GRID,3756,0,447.34,0.0,-445.0,0
GRID,3757,0,440.7483,0.0,-445.0,0
GRID,3758,0,434.1567,0.0,-445.0,0
GRID,3759,0,427.565,0.0,-445.0,0
GRID,3760,0,420.9733,0.0,-445.0,0
GRID,3761,0,414.3817,0.0,-445.0,0
GRID,3762,0,480.2983,0.0,-440.0,0
GRID,3763,0,473.7067,0.0,-440.0,0
GRID,3764,0,467.115,0.0,-440.0,0
GRID,3765,0,460.5233,0.0,-440.0,0
GRID,3766,0,453.9317,0.0,-440.0,0
GRID,3767,0,447.34,0.0,-440.0,0
GRID,3768,0,440.7483,0.0,-440.0,0
GRID,3769,0,434.1567,0.0,-440.0,0
GRID,3770,0,427.565,0.0,-440.0,0
GRID,3771,0,420.9733,0.0,-440.0,0
GRID,3772,0,414.3817,0.0,-440.0,0
GRID,3773,0,480.2983,0.0,-435.0,0
GRID,3774,0,473.7067,0.0,-435.0,0
GRID,3775,0,467.115,0.0,-435.0,0
GRID,3776,0,460.5233,0.0,-435.0,0
GRID,3777,0,453.9317,0.0,-435.0,0
GRID,3778,0,447.34,0.0,-435.0,0
GRID,3779,0,440.7483,0.0,-435.0,0
GRID,3780,0,434.1567,0.0,-435.0,0
GRID,3781,0,427.565,0.0,-435.0,0
GRID,3782,0,420.9733,0.0,-435.0,0
GRID,3783,0,414.3817,0.0,-435.0,0
GRID,3784,0,480.2983,0.0,-430.0,0
GRID,3785,0,473.7067,0.0,-430.0,0
GRID,3786,0,467.115,0.0,-430.0,0
GRID,3787,0,460.5233,0.0,-430.0,0
GRID,3788,0,453.9317,0.0,-430.0,0
GRID,3789,0,447.34,0.0,-430.0,0
GRID,3790,0,440.7483,0.0,-430.0,0
GRID,3791,0,434.1567,0.0,-430.0,0
GRID,3792,0,427.565,0.0,-430.0,0
GRID,3793,0,420.9733,0.0,-430.0,0
GRID,3794,0,414.3817,0.0,-430.0,0
GRID,3795,0,480.2983,0.0,-425.0,0
GRID,3796,0,473.7067,0.0,-425.0,0
GRID,3797,0,467.115,0.0,-425.0,0
GRID,3798,0,460.5233,0.0,-425.0,0
GRID,3799,0,453.9317,0.0,-425.0,0
GRID,3800,0,447.34,0.0,-425.0,0
GRID,3801,0,440.7483,0.0,-425.0,0
GRID,3802,0,434.1567,0.0,-425.0,0
GRID,3803,0,427.565,0.0,-425.0,0
GRID,3804,0,420.9733,0.0,-425.0,0
GRID,3805,0,414.3817,0.0,-425.0,0
GRID,3806,0,480.2983,0.0,-420.0,0
GRID,3807,0,473.7067,0.0,-420.0,0
GRID,3808,0,467.115,0.0,-420.0,0
GRID,3809,0,460.5233,0.0,-420.0,0
GRID,3810,0,453.9317,0.0,-420.0,0
GRID,3811,0,447.34,0.0,-420.0,0
GRID,3812,0,440.7483,0.0,-420.0,0
GRID,3813,0,434.1567,0.0,-420.0,0
GRID,3814,0,427.565,0.0,-420.0,0
GRID,3815,0,420.9733,0.0,-420.0,0
GRID,3816,0,414.3817,0.0,-420.0,0
GRID,3817,0,480.2983,0.0,-415.0,0
GRID,3818,0,473.7067,0.0,-415.0,0
GRID,3819,0,467.115,0.0,-415.0,0
GRID,3820,0,460.5233,0.0,-415.0,0
GRID,3821,0,453.9317,0.0,-415.0,0
GRID,3822,0,447.34,0.0,-415.0,0
GRID,3823,0,440.7483,0.0,-415.0,0
GRID,3824,0,434.1567,0.0,-415.0,0
GRID,3825,0,427.565,0.0,-415.0,0
GRID,3826,0,420.9733,0.0,-415.0,0
GRID,3827,0,414.3817,0.0,-415.0,0
GRID,3828,0,480.2983,0.0,-410.0,0
GRID,3829,0,473.7067,0.0,-410.0,0
GRID,3830,0,467.115,0.0,-410.0,0
GRID,3831,0,460.5233,0.0,-410.0,0
GRID,3832,0,453.9317,0.0,-410.0,0
GRID,3833,0,447.34,0.0,-410.0,0
GRID,3834,0,440.7483,0.0,-410.0,0
GRID,3835,0,434.1567,0.0,-410.0,0
GRID,3836,0,427.565,0.0,-410.0,0
GRID,3837,0,420.9733,0.0,-410.0,0
GRID,3838,0,414.3817,0.0,-410.0,0
GRID,3839,0,480.2983,0.0,-405.0,0
GRID,3840,0,473.7067,0.0,-405.0,0
GRID,3841,0,467.115,0.0,-405.0,0
GRID,3842,0,460.5233,0.0,-405.0,0
GRID,3843,0,453.9317,0.0,-405.0,0
GRID,3844,0,447.34,0.0,-405.0,0
GRID,3845,0,440.7483,0.0,-405.0,0
GRID,3846,0,434.1567,0.0,-405.0,0
GRID,3847,0,427.565,0.0,-405.0,0
GRID,3848,0,420.9733,0.0,-405.0,0
GRID,3849,0,414.3817,0.0,-405.0,0
GRID,3850,0,480.2983,0.0,-400.0,0
GRID,3851,0,473.7067,0.0,-400.0,0
GRID,3852,0,467.115,0.0,-400.0,0
GRID,3853,0,460.5233,0.0,-400.0,0
GRID,3854,0,453.9317,0.0,-400.0,0
GRID,3855,0,447.34,0.0,-400.0,0
GRID,3856,0,440.7483,0.0,-400.0,0
GRID,3857,0,434.1567,0.0,-400.0,0
GRID,3858,0,427.565,0.0,-400.0,0
GRID,3859,0,420.9733,0.0,-400.0,0
GRID,3860,0,414.3817,0.0,-400.0,0
GRID,3861,0,480.2983,0.0,-395.0,0
GRID,3862,0,473.7067,0.0,-395.0,0
GRID,3863,0,467.115,0.0,-395.0,0
GRID,3864,0,460.5233,0.0,-395.0,0
GRID,3865,0,453.9317,0.0,-395.0,0
GRID,3866,0,447.34,0.0,-395.0,0
GRID,3867,0,440.7483,0.0,-395.0,0
GRID,3868,0,434.1567,0.0,-395.0,0
GRID,3869,0,427.565,0.0,-395.0,0
GRID,3870,0,420.9733,0.0,-395.0,0
GRID,3871,0,414.3817,0.0,-395.0,0
GRID,3872,0,480.2983,0.0,-390.0,0
GRID,3873,0,473.7067,0.0,-390.0,0
GRID,3874,0,467.115,0.0,-390.0,0
GRID,3875,0,460.5233,0.0,-390.0,0
GRID,3876,0,453.9317,0.0,-390.0,0
GRID,3877,0,447.34,0.0,-390.0,0
GRID,3878,0,440.7483,0.0,-390.0,0
GRID,3879,0,434.1567,0.0,-390.0,0
GRID,3880,0,427.565,0.0,-390.0,0
GRID,3881,0,420.9733,0.0,-390.0,0
GRID,3882,0,414.3817,0.0,-390.0,0
GRID,3883,0,480.2983,0.0,-385.0,0
GRID,3884,0,473.7067,0.0,-385.0,0
GRID,3885,0,467.115,0.0,-385.0,0
GRID,3886,0,460.5233,0.0,-385.0,0
GRID,3887,0,453.9317,0.0,-385.0,0
GRID,3888,0,447.34,0.0,-385.0,0
GRID,3889,0,440.7483,0.0,-385.0,0
GRID,3890,0,434.1567,0.0,-385.0,0
GRID,3891,0,427.565,0.0,-385.0,0
GRID,3892,0,420.9733,0.0,-385.0,0
GRID,3893,0,414.3817,0.0,-385.0,0
GRID,3894,0,480.2983,0.0,-380.0,0
GRID,3895,0,473.7067,0.0,-380.0,0
GRID,3896,0,467.115,0.0,-380.0,0
GRID,3897,0,460.5233,0.0,-380.0,0
GRID,3898,0,453.9317,0.0,-380.0,0
GRID,3899,0,447.34,0.0,-380.0,0
GRID,3900,0,440.7483,0.0,-380.0,0
GRID,3901,0,434.1567,0.0,-380.0,0
GRID,3902,0,427.565,0.0,-380.0,0
GRID,3903,0,420.9733,0.0,-380.0,0
GRID,3904,0,414.3817,0.0,-380.0,0
GRID,3905,0,480.2983,0.0,-375.0,0
GRID,3906,0,473.7067,0.0,-375.0,0
GRID,3907,0,467.115,0.0,-375.0,0
GRID,3908,0,460.5233,0.0,-375.0,0
GRID,3909,0,453.9317,0.0,-375.0,0
GRID,3910,0,447.34,0.0,-375.0,0
GRID,3911,0,440.7483,0.0,-375.0,0
GRID,3912,0,434.1567,0.0,-375.0,0
GRID,3913,0,427.565,0.0,-375.0,0
GRID,3914,0,420.9733,0.0,-375.0,0
GRID,3915,0,414.3817,0.0,-375.0,0
GRID,3916,0,480.2983,0.0,-370.0,0
GRID,3917,0,473.7067,0.0,-370.0,0
GRID,3918,0,467.115,0.0,-370.0,0
GRID,3919,0,460.5233,0.0,-370.0,0
GRID,3920,0,453.9317,0.0,-370.0,0
GRID,3921,0,447.34,0.0,-370.0,0
GRID,3922,0,440.7483,0.0,-370.0,0
GRID,3923,0,434.1567,0.0,-370.0,0
GRID,3924,0,427.565,0.0,-370.0,0
GRID,3925,0,420.9733,0.0,-370.0,0
GRID,3926,0,414.3817,0.0,-370.0,0
GRID,3927,0,480.2983,0.0,-365.0,0
GRID,3928,0,473.7067,0.0,-365.0,0
GRID,3929,0,467.115,0.0,-365.0,0
GRID,3930,0,460.5233,0.0,-365.0,0
GRID,3931,0,453.9317,0.0,-365.0,0
GRID,3932,0,447.34,0.0,-365.0,0
GRID,3933,0,440.7483,0.0,-365.0,0
GRID,3934,0,434.1567,0.0,-365.0,0
GRID,3935,0,427.565,0.0,-365.0,0
GRID,3936,0,420.9733,0.0,-365.0,0
GRID,3937,0,414.3817,0.0,-365.0,0
GRID,3938,0,480.2983,0.0,-360.0,0
GRID,3939,0,473.7067,0.0,-360.0,0
GRID,3940,0,467.115,0.0,-360.0,0
GRID,3941,0,460.5233,0.0,-360.0,0
GRID,3942,0,453.9317,0.0,-360.0,0
GRID,3943,0,447.34,0.0,-360.0,0
GRID,3944,0,440.7483,0.0,-360.0,0
GRID,3945,0,434.1567,0.0,-360.0,0
GRID,3946,0,427.565,0.0,-360.0,0
GRID,3947,0,420.9733,0.0,-360.0,0
GRID,3948,0,414.3817,0.0,-360.0,0
GRID,3949,0,480.2983,0.0,-355.0,0
GRID,3950,0,473.7067,0.0,-355.0,0
GRID,3951,0,467.115,0.0,-355.0,0
GRID,3952,0,460.5233,0.0,-355.0,0
GRID,3953,0,453.9317,0.0,-355.0,0
GRID,3954,0,447.34,0.0,-355.0,0
GRID,3955,0,440.7483,0.0,-355.0,0
GRID,3956,0,434.1567,0.0,-355.0,0
GRID,3957,0,427.565,0.0,-355.0,0
GRID,3958,0,420.9733,0.0,-355.0,0
GRID,3959,0,414.3817,0.0,-355.0,0
GRID,3960,0,480.2983,0.0,-350.0,0
GRID,3961,0,473.7067,0.0,-350.0,0
GRID,3962,0,467.115,0.0,-350.0,0
GRID,3963,0,460.5233,0.0,-350.0,0
GRID,3964,0,453.9317,0.0,-350.0,0
GRID,3965,0,447.34,0.0,-350.0,0
GRID,3966,0,440.7483,0.0,-350.0,0
GRID,3967,0,434.1567,0.0,-350.0,0
GRID,3968,0,427.565,0.0,-350.0,0
GRID,3969,0,420.9733,0.0,-350.0,0
GRID,3970,0,414.3817,0.0,-350.0,0
GRID,3971,0,480.2983,0.0,-345.0,0
GRID,3972,0,473.7067,0.0,-345.0,0
GRID,3973,0,467.115,0.0,-345.0,0
GRID,3974,0,460.5233,0.0,-345.0,0
GRID,3975,0,453.9317,0.0,-345.0,0
GRID,3976,0,447.34,0.0,-345.0,0
GRID,3977,0,440.7483,0.0,-345.0,0
GRID,3978,0,434.1567,0.0,-345.0,0
GRID,3979,0,427.565,0.0,-345.0,0
GRID,3980,0,420.9733,0.0,-345.0,0
GRID,3981,0,414.3817,0.0,-345.0,0
GRID,3982,0,480.2983,0.0,-340.0,0
GRID,3983,0,473.7067,0.0,-340.0,0
GRID,3984,0,467.115,0.0,-340.0,0
GRID,3985,0,460.5233,0.0,-340.0,0
GRID,3986,0,453.9317,0.0,-340.0,0
GRID,3987,0,447.34,0.0,-340.0,0
GRID,3988,0,440.7483,0.0,-340.0,0
GRID,3989,0,434.1567,0.0,-340.0,0
GRID,3990,0,427.565,0.0,-340.0,0
GRID,3991,0,420.9733,0.0,-340.0,0
GRID,3992,0,414.3817,0.0,-340.0,0
GRID,3993,0,480.2983,0.0,-335.0,0
GRID,3994,0,473.7067,0.0,-335.0,0
GRID,3995,0,467.115,0.0,-335.0,0
GRID,3996,0,460.5233,0.0,-335.0,0
GRID,3997,0,453.9317,0.0,-335.0,0
GRID,3998,0,447.34,0.0,-335.0,0
GRID,3999,0,440.7483,0.0,-335.0,0
GRID,4000,0,434.1567,0.0,-335.0,0
GRID,4001,0,427.565,0.0,-335.0,0
GRID,4002,0,420.9733,0.0,-335.0,0
GRID,4003,0,414.3817,0.0,-335.0,0
GRID,4004,0,480.2983,0.0,-330.0,0
GRID,4005,0,473.7067,0.0,-330.0,0
GRID,4006,0,467.115,0.0,-330.0,0
GRID,4007,0,460.5233,0.0,-330.0,0
GRID,4008,0,453.9317,0.0,-330.0,0
GRID,4009,0,447.34,0.0,-330.0,0
GRID,4010,0,440.7483,0.0,-330.0,0
GRID,4011,0,434.1567,0.0,-330.0,0
GRID,4012,0,427.565,0.0,-330.0,0
GRID,4013,0,420.9733,0.0,-330.0,0
GRID,4014,0,414.3817,0.0,-330.0,0
GRID,4015,0,480.2983,0.0,-325.0,0
GRID,4016,0,473.7067,0.0,-325.0,0
GRID,4017,0,467.115,0.0,-325.0,0
GRID,4018,0,460.5233,0.0,-325.0,0
GRID,4019,0,453.9317,0.0,-325.0,0
GRID,4020,0,447.34,0.0,-325.0,0
GRID,4021,0,440.7483,0.0,-325.0,0
GRID,4022,0,434.1567,0.0,-325.0,0
GRID,4023,0,427.565,0.0,-325.0,0
GRID,4024,0,420.9733,0.0,-325.0,0
GRID,4025,0,414.3817,0.0,-325.0,0
GRID,4026,0,480.2983,0.0,-320.0,0
GRID,4027,0,473.7067,0.0,-320.0,0
GRID,4028,0,467.115,0.0,-320.0,0
GRID,4029,0,460.5233,0.0,-320.0,0
GRID,4030,0,453.9317,0.0,-320.0,0
GRID,4031,0,447.34,0.0,-320.0,0
GRID,4032,0,440.7483,0.0,-320.0,0
GRID,4033,0,434.1567,0.0,-320.0,0
GRID,4034,0,427.565,0.0,-320.0,0
GRID,4035,0,420.9733,0.0,-320.0,0
GRID,4036,0,414.3817,0.0,-320.0,0
GRID,4037,0,480.2983,0.0,-315.0,0
GRID,4038,0,473.7067,0.0,-315.0,0
GRID,4039,0,467.115,0.0,-315.0,0
GRID,4040,0,460.5233,0.0,-315.0,0
GRID,4041,0,453.9317,0.0,-315.0,0
GRID,4042,0,447.34,0.0,-315.0,0
GRID,4043,0,440.7483,0.0,-315.0,0
GRID,4044,0,434.1567,0.0,-315.0,0
GRID,4045,0,427.565,0.0,-315.0,0
GRID,4046,0,420.9733,0.0,-315.0,0
GRID,4047,0,414.3817,0.0,-315.0,0
GRID,4048,0,480.2983,0.0,-310.0,0
GRID,4049,0,473.7067,0.0,-310.0,0
GRID,4050,0,467.115,0.0,-310.0,0
GRID,4051,0,460.5233,0.0,-310.0,0
GRID,4052,0,453.9317,0.0,-310.0,0
GRID,4053,0,447.34,0.0,-310.0,0
GRID,4054,0,440.7483,0.0,-310.0,0
GRID,4055,0,434.1567,0.0,-310.0,0
GRID,4056,0,427.565,0.0,-310.0,0
GRID,4057,0,420.9733,0.0,-310.0,0
GRID,4058,0,414.3817,0.0,-310.0,0
GRID,4059,0,480.2983,0.0,-305.0,0
GRID,4060,0,473.7067,0.0,-305.0,0
GRID,4061,0,467.115,0.0,-305.0,0
GRID,4062,0,460.5233,0.0,-305.0,0
GRID,4063,0,453.9317,0.0,-305.0,0
GRID,4064,0,447.34,0.0,-305.0,0
GRID,4065,0,440.7483,0.0,-305.0,0
GRID,4066,0,434.1567,0.0,-305.0,0
GRID,4067,0,427.565,0.0,-305.0,0
GRID,4068,0,420.9733,0.0,-305.0,0
GRID,4069,0,414.3817,0.0,-305.0,0
GRID,4070,0,480.2983,0.0,-300.0,0
GRID,4071,0,473.7067,0.0,-300.0,0
GRID,4072,0,467.115,0.0,-300.0,0
GRID,4073,0,460.5233,0.0,-300.0,0
GRID,4074,0,453.9317,0.0,-300.0,0
GRID,4075,0,447.34,0.0,-300.0,0
GRID,4076,0,440.7483,0.0,-300.0,0
GRID,4077,0,434.1567,0.0,-300.0,0
GRID,4078,0,427.565,0.0,-300.0,0
GRID,4079,0,420.9733,0.0,-300.0,0
GRID,4080,0,414.3817,0.0,-300.0,0
GRID,4081,0,480.2983,0.0,-295.0,0
GRID,4082,0,473.7067,0.0,-295.0,0
GRID,4083,0,467.115,0.0,-295.0,0
GRID,4084,0,460.5233,0.0,-295.0,0
GRID,4085,0,453.9317,0.0,-295.0,0
GRID,4086,0,447.34,0.0,-295.0,0
GRID,4087,0,440.7483,0.0,-295.0,0
GRID,4088,0,434.1567,0.0,-295.0,0
GRID,4089,0,427.565,0.0,-295.0,0
GRID,4090,0,420.9733,0.0,-295.0,0
GRID,4091,0,414.3817,0.0,-295.0,0
GRID,4092,0,480.2983,0.0,-290.0,0
GRID,4093,0,473.7067,0.0,-290.0,0
GRID,4094,0,467.115,0.0,-290.0,0
GRID,4095,0,460.5233,0.0,-290.0,0
GRID,4096,0,453.9317,0.0,-290.0,0
GRID,4097,0,447.34,0.0,-290.0,0
GRID,4098,0,440.7483,0.0,-290.0,0
GRID,4099,0,434.1567,0.0,-290.0,0
GRID,4100,0,427.565,0.0,-290.0,0
GRID,4101,0,420.9733,0.0,-290.0,0
GRID,4102,0,414.3817,0.0,-290.0,0
GRID,4103,0,480.2983,0.0,-285.0,0
GRID,4104,0,473.7067,0.0,-285.0,0
GRID,4105,0,467.115,0.0,-285.0,0
GRID,4106,0,460.5233,0.0,-285.0,0
GRID,4107,0,453.9317,0.0,-285.0,0
GRID,4108,0,447.34,0.0,-285.0,0
GRID,4109,0,440.7483,0.0,-285.0,0
GRID,4110,0,434.1567,0.0,-285.0,0
GRID,4111,0,427.565,0.0,-285.0,0
GRID,4112,0,420.9733,0.0,-285.0,0
GRID,4113,0,414.3817,0.0,-285.0,0
GRID,4114,0,480.2983,0.0,-280.0,0
GRID,4115,0,473.7067,0.0,-280.0,0
GRID,4116,0,467.115,0.0,-280.0,0
GRID,4117,0,460.5233,0.0,-280.0,0
GRID,4118,0,453.9317,0.0,-280.0,0
GRID,4119,0,447.34,0.0,-280.0,0
GRID,4120,0,440.7483,0.0,-280.0,0
GRID,4121,0,434.1567,0.0,-280.0,0
GRID,4122,0,427.565,0.0,-280.0,0
GRID,4123,0,420.9733,0.0,-280.0,0
GRID,4124,0,414.3817,0.0,-280.0,0
GRID,4125,0,480.2983,0.0,-275.0,0
GRID,4126,0,473.7067,0.0,-275.0,0
GRID,4127,0,467.115,0.0,-275.0,0
GRID,4128,0,460.5233,0.0,-275.0,0
GRID,4129,0,453.9317,0.0,-275.0,0
GRID,4130,0,447.34,0.0,-275.0,0
GRID,4131,0,440.7483,0.0,-275.0,0
GRID,4132,0,434.1567,0.0,-275.0,0
GRID,4133,0,427.565,0.0,-275.0,0
GRID,4134,0,420.9733,0.0,-275.0,0
GRID,4135,0,414.3817,0.0,-275.0,0
GRID,4136,0,480.2983,0.0,-270.0,0
GRID,4137,0,473.7067,0.0,-270.0,0
GRID,4138,0,467.115,0.0,-270.0,0
GRID,4139,0,460.5233,0.0,-270.0,0
GRID,4140,0,453.9317,0.0,-270.0,0
GRID,4141,0,447.34,0.0,-270.0,0
GRID,4142,0,440.7483,0.0,-270.0,0
GRID,4143,0,434.1567,0.0,-270.0,0
GRID,4144,0,427.565,0.0,-270.0,0
GRID,4145,0,420.9733,0.0,-270.0,0
GRID,4146,0,414.3817,0.0,-270.0,0
GRID,4147,0,480.2983,0.0,-265.0,0
GRID,4148,0,473.7067,0.0,-265.0,0
GRID,4149,0,467.115,0.0,-265.0,0
GRID,4150,0,460.5233,0.0,-265.0,0
GRID,4151,0,453.9317,0.0,-265.0,0
GRID,4152,0,447.34,0.0,-265.0,0
GRID,4153,0,440.7483,0.0,-265.0,0
GRID,4154,0,434.1567,0.0,-265.0,0
GRID,4155,0,427.565,0.0,-265.0,0
GRID,4156,0,420.9733,0.0,-265.0,0
GRID,4157,0,414.3817,0.0,-265.0,0
GRID,4158,0,480.2983,0.0,-260.0,0
GRID,4159,0,473.7067,0.0,-260.0,0
GRID,4160,0,467.115,0.0,-260.0,0
GRID,4161,0,460.5233,0.0,-260.0,0
GRID,4162,0,453.9317,0.0,-260.0,0
GRID,4163,0,447.34,0.0,-260.0,0
GRID,4164,0,440.7483,0.0,-260.0,0
GRID,4165,0,434.1567,0.0,-260.0,0
GRID,4166,0,427.565,0.0,-260.0,0
GRID,4167,0,420.9733,0.0,-260.0,0
GRID,4168,0,414.3817,0.0,-260.0,0
GRID,4169,0,480.2983,0.0,-255.0,0
GRID,4170,0,473.7067,0.0,-255.0,0
GRID,4171,0,467.115,0.0,-255.0,0
GRID,4172,0,460.5233,0.0,-255.0,0
GRID,4173,0,453.9317,0.0,-255.0,0
GRID,4174,0,447.34,0.0,-255.0,0
GRID,4175,0,440.7483,0.0,-255.0,0
GRID,4176,0,434.1567,0.0,-255.0,0
GRID,4177,0,427.565,0.0,-255.0,0
GRID,4178,0,420.9733,0.0,-255.0,0
GRID,4179,0,414.3817,0.0,-255.0,0
GRID,4180,0,480.2983,0.0,-250.0,0
GRID,4181,0,473.7067,0.0,-250.0,0
GRID,4182,0,467.115,0.0,-250.0,0
GRID,4183,0,460.5233,0.0,-250.0,0
GRID,4184,0,453.9317,0.0,-250.0,0
GRID,4185,0,447.34,0.0,-250.0,0
GRID,4186,0,440.7483,0.0,-250.0,0
GRID,4187,0,434.1567,0.0,-250.0,0
GRID,4188,0,427.565,0.0,-250.0,0
GRID,4189,0,420.9733,0.0,-250.0,0
GRID,4190,0,414.3817,0.0,-250.0,0
GRID,4191,0,480.2983,0.0,-245.0,0
GRID,4192,0,473.7067,0.0,-245.0,0
GRID,4193,0,467.115,0.0,-245.0,0
GRID,4194,0,460.5233,0.0,-245.0,0
GRID,4195,0,453.9317,0.0,-245.0,0
GRID,4196,0,447.34,0.0,-245.0,0
GRID,4197,0,440.7483,0.0,-245.0,0
GRID,4198,0,434.1567,0.0,-245.0,0
GRID,4199,0,427.565,0.0,-245.0,0
GRID,4200,0,420.9733,0.0,-245.0,0
GRID,4201,0,414.3817,0.0,-245.0,0
GRID,4202,0,480.2983,0.0,-240.0,0
GRID,4203,0,473.7067,0.0,-240.0,0
GRID,4204,0,467.115,0.0,-240.0,0
GRID,4205,0,460.5233,0.0,-240.0,0
GRID,4206,0,453.9317,0.0,-240.0,0
GRID,4207,0,447.34,0.0,-240.0,0
GRID,4208,0,440.7483,0.0,-240.0,0
GRID,4209,0,434.1567,0.0,-240.0,0
GRID,4210,0,427.565,0.0,-240.0,0
GRID,4211,0,420.9733,0.0,-240.0,0
GRID,4212,0,414.3817,0.0,-240.0,0
GRID,4213,0,480.2983,0.0,-235.0,0
GRID,4214,0,473.7067,0.0,-235.0,0
GRID,4215,0,467.115,0.0,-235.0,0
GRID,4216,0,460.5233,0.0,-235.0,0
GRID,4217,0,453.9317,0.0,-235.0,0
GRID,4218,0,447.34,0.0,-235.0,0
GRID,4219,0,440.7483,0.0,-235.0,0
GRID,4220,0,434.1567,0.0,-235.0,0
GRID,4221,0,427.565,0.0,-235.0,0
GRID,4222,0,420.9733,0.0,-235.0,0
GRID,4223,0,414.3817,0.0,-235.0,0
GRID,4224,0,480.2983,0.0,-230.0,0
GRID,4225,0,473.7067,0.0,-230.0,0
GRID,4226,0,467.115,0.0,-230.0,0
GRID,4227,0,460.5233,0.0,-230.0,0
GRID,4228,0,453.9317,0.0,-230.0,0
GRID,4229,0,447.34,0.0,-230.0,0
GRID,4230,0,440.7483,0.0,-230.0,0
GRID,4231,0,434.1567,0.0,-230.0,0
GRID,4232,0,427.565,0.0,-230.0,0
GRID,4233,0,420.9733,0.0,-230.0,0
GRID,4234,0,414.3817,0.0,-230.0,0
GRID,4235,0,480.2983,0.0,-225.0,0
GRID,4236,0,473.7067,0.0,-225.0,0
GRID,4237,0,467.115,0.0,-225.0,0
GRID,4238,0,460.5233,0.0,-225.0,0
GRID,4239,0,453.9317,0.0,-225.0,0
GRID,4240,0,447.34,0.0,-225.0,0
GRID,4241,0,440.7483,0.0,-225.0,0
GRID,4242,0,434.1567,0.0,-225.0,0
GRID,4243,0,427.565,0.0,-225.0,0
GRID,4244,0,420.9733,0.0,-225.0,0
GRID,4245,0,414.3817,0.0,-225.0,0
GRID,4246,0,480.2983,0.0,-220.0,0
GRID,4247,0,473.7067,0.0,-220.0,0
GRID,4248,0,467.115,0.0,-220.0,0
GRID,4249,0,460.5233,0.0,-220.0,0
GRID,4250,0,453.9317,0.0,-220.0,0
GRID,4251,0,447.34,0.0,-220.0,0
GRID,4252,0,440.7483,0.0,-220.0,0
GRID,4253,0,434.1567,0.0,-220.0,0
GRID,4254,0,427.565,0.0,-220.0,0
GRID,4255,0,420.9733,0.0,-220.0,0
GRID,4256,0,414.3817,0.0,-220.0,0
GRID,4257,0,480.2983,0.0,-215.0,0
GRID,4258,0,473.7067,0.0,-215.0,0
GRID,4259,0,467.115,0.0,-215.0,0
GRID,4260,0,460.5233,0.0,-215.0,0
GRID,4261,0,453.9317,0.0,-215.0,0
GRID,4262,0,447.34,0.0,-215.0,0
GRID,4263,0,440.7483,0.0,-215.0,0
GRID,4264,0,434.1567,0.0,-215.0,0
GRID,4265,0,427.565,0.0,-215.0,0
GRID,4266,0,420.9733,0.0,-215.0,0
GRID,4267,0,414.3817,0.0,-215.0,0
GRID,4268,0,480.2983,0.0,-210.0,0
GRID,4269,0,473.7067,0.0,-210.0,0
GRID,4270,0,467.115,0.0,-210.0,0
GRID,4271,0,460.5233,0.0,-210.0,0
GRID,4272,0,453.9317,0.0,-210.0,0
GRID,4273,0,447.34,0.0,-210.0,0
GRID,4274,0,440.7483,0.0,-210.0,0
GRID,4275,0,434.1567,0.0,-210.0,0
GRID,4276,0,427.565,0.0,-210.0,0
GRID,4277,0,420.9733,0.0,-210.0,0
GRID,4278,0,414.3817,0.0,-210.0,0
GRID,4279,0,480.2983,0.0,-205.0,0
GRID,4280,0,473.7067,0.0,-205.0,0
GRID,4281,0,467.115,0.0,-205.0,0
GRID,4282,0,460.5233,0.0,-205.0,0
GRID,4283,0,453.9317,0.0,-205.0,0
GRID,4284,0,447.34,0.0,-205.0,0
GRID,4285,0,440.7483,0.0,-205.0,0
GRID,4286,0,434.1567,0.0,-205.0,0
GRID,4287,0,427.565,0.0,-205.0,0
GRID,4288,0,420.9733,0.0,-205.0,0
GRID,4289,0,414.3817,0.0,-205.0,0
GRID,4290,0,480.2983,0.0,-200.0,0
GRID,4291,0,473.7067,0.0,-200.0,0
GRID,4292,0,467.115,0.0,-200.0,0
GRID,4293,0,460.5233,0.0,-200.0,0
GRID,4294,0,453.9317,0.0,-200.0,0
GRID,4295,0,447.34,0.0,-200.0,0
GRID,4296,0,440.7483,0.0,-200.0,0
GRID,4297,0,434.1567,0.0,-200.0,0
GRID,4298,0,427.565,0.0,-200.0,0
GRID,4299,0,420.9733,0.0,-200.0,0
GRID,4300,0,414.3817,0.0,-200.0,0
GRID,4301,0,480.2983,0.0,-195.0,0
GRID,4302,0,473.7067,0.0,-195.0,0
GRID,4303,0,467.115,0.0,-195.0,0
GRID,4304,0,460.5233,0.0,-195.0,0
GRID,4305,0,453.9317,0.0,-195.0,0
GRID,4306,0,447.34,0.0,-195.0,0
GRID,4307,0,440.7483,0.0,-195.0,0
GRID,4308,0,434.1567,0.0,-195.0,0
GRID,4309,0,427.565,0.0,-195.0,0
GRID,4310,0,420.9733,0.0,-195.0,0
GRID,4311,0,414.3817,0.0,-195.0,0
GRID,4312,0,480.2983,0.0,-190.0,0
GRID,4313,0,473.7067,0.0,-190.0,0
GRID,4314,0,467.115,0.0,-190.0,0
GRID,4315,0,460.5233,0.0,-190.0,0
GRID,4316,0,453.9317,0.0,-190.0,0
GRID,4317,0,447.34,0.0,-190.0,0
GRID,4318,0,440.7483,0.0,-190.0,0
GRID,4319,0,434.1567,0.0,-190.0,0
GRID,4320,0,427.565,0.0,-190.0,0
GRID,4321,0,420.9733,0.0,-190.0,0
GRID,4322,0,414.3817,0.0,-190.0,0
GRID,4323,0,480.2983,0.0,-185.0,0
GRID,4324,0,473.7067,0.0,-185.0,0
GRID,4325,0,467.115,0.0,-185.0,0
GRID,4326,0,460.5233,0.0,-185.0,0
GRID,4327,0,453.9317,0.0,-185.0,0
GRID,4328,0,447.34,0.0,-185.0,0
GRID,4329,0,440.7483,0.0,-185.0,0
GRID,4330,0,434.1567,0.0,-185.0,0
GRID,4331,0,427.565,0.0,-185.0,0
GRID,4332,0,420.9733,0.0,-185.0,0
GRID,4333,0,414.3817,0.0,-185.0,0
GRID,4334,0,480.2983,0.0,-180.0,0
GRID,4335,0,473.7067,0.0,-180.0,0
GRID,4336,0,467.115,0.0,-180.0,0
GRID,4337,0,460.5233,0.0,-180.0,0
GRID,4338,0,453.9317,0.0,-180.0,0
GRID,4339,0,447.34,0.0,-180.0,0
GRID,4340,0,440.7483,0.0,-180.0,0
GRID,4341,0,434.1567,0.0,-180.0,0
GRID,4342,0,427.565,0.0,-180.0,0
GRID,4343,0,420.9733,0.0,-180.0,0
GRID,4344,0,414.3817,0.0,-180.0,0
GRID,4345,0,480.2983,0.0,-175.0,0
GRID,4346,0,473.7067,0.0,-175.0,0
GRID,4347,0,467.115,0.0,-175.0,0
GRID,4348,0,460.5233,0.0,-175.0,0
GRID,4349,0,453.9317,0.0,-175.0,0
GRID,4350,0,447.34,0.0,-175.0,0
GRID,4351,0,440.7483,0.0,-175.0,0
GRID,4352,0,434.1567,0.0,-175.0,0
GRID,4353,0,427.565,0.0,-175.0,0
GRID,4354,0,420.9733,0.0,-175.0,0
GRID,4355,0,414.3817,0.0,-175.0,0
GRID,4356,0,480.2983,0.0,-170.0,0
GRID,4357,0,473.7067,0.0,-170.0,0
GRID,4358,0,467.115,0.0,-170.0,0
GRID,4359,0,460.5233,0.0,-170.0,0
GRID,4360,0,453.9317,0.0,-170.0,0
GRID,4361,0,447.34,0.0,-170.0,0
GRID,4362,0,440.7483,0.0,-170.0,0
GRID,4363,0,434.1567,0.0,-170.0,0
GRID,4364,0,427.565,0.0,-170.0,0
GRID,4365,0,420.9733,0.0,-170.0,0
GRID,4366,0,414.3817,0.0,-170.0,0
GRID,4367,0,480.2983,0.0,-165.0,0
GRID,4368,0,473.7067,0.0,-165.0,0
GRID,4369,0,467.115,0.0,-165.0,0
GRID,4370,0,460.5233,0.0,-165.0,0
GRID,4371,0,453.9317,0.0,-165.0,0
GRID,4372,0,447.34,0.0,-165.0,0
GRID,4373,0,440.7483,0.0,-165.0,0
GRID,4374,0,434.1567,0.0,-165.0,0
GRID,4375,0,427.565,0.0,-165.0,0
GRID,4376,0,420.9733,0.0,-165.0,0
GRID,4377,0,414.3817,0.0,-165.0,0
GRID,4378,0,480.2983,0.0,-160.0,0
GRID,4379,0,473.7067,0.0,-160.0,0
GRID,4380,0,467.115,0.0,-160.0,0
GRID,4381,0,460.5233,0.0,-160.0,0
GRID,4382,0,453.9317,0.0,-160.0,0
GRID,4383,0,447.34,0.0,-160.0,0
GRID,4384,0,440.7483,0.0,-160.0,0
GRID,4385,0,434.1567,0.0,-160.0,0
GRID,4386,0,427.565,0.0,-160.0,0
GRID,4387,0,420.9733,0.0,-160.0,0
GRID,4388,0,414.3817,0.0,-160.0,0
GRID,4389,0,480.2983,0.0,-155.0,0
GRID,4390,0,473.7067,0.0,-155.0,0
GRID,4391,0,467.115,0.0,-155.0,0
GRID,4392,0,460.5233,0.0,-155.0,0
GRID,4393,0,453.9317,0.0,-155.0,0
GRID,4394,0,447.34,0.0,-155.0,0
GRID,4395,0,440.7483,0.0,-155.0,0
GRID,4396,0,434.1567,0.0,-155.0,0
GRID,4397,0,427.565,0.0,-155.0,0
GRID,4398,0,420.9733,0.0,-155.0,0
GRID,4399,0,414.3817,0.0,-155.0,0
GRID,4400,0,480.2983,0.0,-150.0,0
GRID,4401,0,473.7067,0.0,-150.0,0
GRID,4402,0,467.115,0.0,-150.0,0
GRID,4403,0,460.5233,0.0,-150.0,0
GRID,4404,0,453.9317,0.0,-150.0,0
GRID,4405,0,447.34,0.0,-150.0,0
GRID,4406,0,440.7483,0.0,-150.0,0
GRID,4407,0,434.1567,0.0,-150.0,0
GRID,4408,0,427.565,0.0,-150.0,0
GRID,4409,0,420.9733,0.0,-150.0,0
GRID,4410,0,414.3817,0.0,-150.0,0
GRID,4411,0,480.2983,0.0,-145.0,0
GRID,4412,0,473.7067,0.0,-145.0,0
GRID,4413,0,467.115,0.0,-145.0,0
GRID,4414,0,460.5233,0.0,-145.0,0
GRID,4415,0,453.9317,0.0,-145.0,0
GRID,4416,0,447.34,0.0,-145.0,0
GRID,4417,0,440.7483,0.0,-145.0,0
GRID,4418,0,434.1567,0.0,-145.0,0
GRID,4419,0,427.565,0.0,-145.0,0
GRID,4420,0,420.9733,0.0,-145.0,0
GRID,4421,0,414.3817,0.0,-145.0,0
GRID,4422,0,480.2983,0.0,-140.0,0
GRID,4423,0,473.7067,0.0,-140.0,0
GRID,4424,0,467.115,0.0,-140.0,0
GRID,4425,0,460.5233,0.0,-140.0,0
GRID,4426,0,453.9317,0.0,-140.0,0
GRID,4427,0,447.34,0.0,-140.0,0
GRID,4428,0,440.7483,0.0,-140.0,0
GRID,4429,0,434.1567,0.0,-140.0,0
GRID,4430,0,427.565,0.0,-140.0,0
GRID,4431,0,420.9733,0.0,-140.0,0
GRID,4432,0,414.3817,0.0,-140.0,0
GRID,4433,0,480.2983,0.0,-135.0,0
GRID,4434,0,473.7067,0.0,-135.0,0
GRID,4435,0,467.115,0.0,-135.0,0
GRID,4436,0,460.5233,0.0,-135.0,0
GRID,4437,0,453.9317,0.0,-135.0,0
GRID,4438,0,447.34,0.0,-135.0,0
GRID,4439,0,440.7483,0.0,-135.0,0
GRID,4440,0,434.1567,0.0,-135.0,0
GRID,4441,0,427.565,0.0,-135.0,0
GRID,4442,0,420.9733,0.0,-135.0,0
GRID,4443,0,414.3817,0.0,-135.0,0
GRID,4444,0,480.2983,0.0,-130.0,0
GRID,4445,0,473.7067,0.0,-130.0,0
GRID,4446,0,467.115,0.0,-130.0,0
GRID,4447,0,460.5233,0.0,-130.0,0
GRID,4448,0,453.9317,0.0,-130.0,0
GRID,4449,0,447.34,0.0,-130.0,0
GRID,4450,0,440.7483,0.0,-130.0,0
GRID,4451,0,434.1567,0.0,-130.0,0
GRID,4452,0,427.565,0.0,-130.0,0
GRID,4453,0,420.9733,0.0,-130.0,0
GRID,4454,0,414.3817,0.0,-130.0,0
GRID,4455,0,480.2983,0.0,-125.0,0
GRID,4456,0,473.7067,0.0,-125.0,0
GRID,4457,0,467.115,0.0,-125.0,0
GRID,4458,0,460.5233,0.0,-125.0,0
GRID,4459,0,453.9317,0.0,-125.0,0
GRID,4460,0,447.34,0.0,-125.0,0
GRID,4461,0,440.7483,0.0,-125.0,0
GRID,4462,0,434.1567,0.0,-125.0,0
GRID,4463,0,427.565,0.0,-125.0,0
GRID,4464,0,420.9733,0.0,-125.0,0
GRID,4465,0,414.3817,0.0,-125.0,0
GRID,4466,0,480.2983,0.0,-120.0,0
GRID,4467,0,473.7067,0.0,-120.0,0
GRID,4468,0,467.115,0.0,-120.0,0
GRID,4469,0,460.5233,0.0,-120.0,0
GRID,4470,0,453.9317,0.0,-120.0,0
GRID,4471,0,447.34,0.0,-120.0,0
GRID,4472,0,440.7483,0.0,-120.0,0
GRID,4473,0,434.1567,0.0,-120.0,0
GRID,4474,0,427.565,0.0,-120.0,0
GRID,4475,0,420.9733,0.0,-120.0,0
GRID,4476,0,414.3817,0.0,-120.0,0
GRID,4477,0,480.2983,0.0,-115.0,0
GRID,4478,0,473.7067,0.0,-115.0,0
GRID,4479,0,467.115,0.0,-115.0,0
GRID,4480,0,460.5233,0.0,-115.0,0
GRID,4481,0,453.9317,0.0,-115.0,0
GRID,4482,0,447.34,0.0,-115.0,0
GRID,4483,0,440.7483,0.0,-115.0,0
GRID,4484,0,434.1567,0.0,-115.0,0
GRID,4485,0,427.565,0.0,-115.0,0
GRID,4486,0,420.9733,0.0,-115.0,0
GRID,4487,0,414.3817,0.0,-115.0,0
GRID,4488,0,480.2983,0.0,-110.0,0
GRID,4489,0,473.7067,0.0,-110.0,0
GRID,4490,0,467.115,0.0,-110.0,0
GRID,4491,0,460.5233,0.0,-110.0,0
GRID,4492,0,453.9317,0.0,-110.0,0
GRID,4493,0,447.34,0.0,-110.0,0
GRID,4494,0,440.7483,0.0,-110.0,0
GRID,4495,0,434.1567,0.0,-110.0,0
GRID,4496,0,427.565,0.0,-110.0,0
GRID,4497,0,420.9733,0.0,-110.0,0
GRID,4498,0,414.3817,0.0,-110.0,0
GRID,4499,0,480.2983,0.0,-105.0,0
GRID,4500,0,473.7067,0.0,-105.0,0
GRID,4501,0,467.115,0.0,-105.0,0
GRID,4502,0,460.5233,0.0,-105.0,0
GRID,4503,0,453.9317,0.0,-105.0,0
GRID,4504,0,447.34,0.0,-105.0,0
GRID,4505,0,440.7483,0.0,-105.0,0
GRID,4506,0,434.1567,0.0,-105.0,0
GRID,4507,0,427.565,0.0,-105.0,0
GRID,4508,0,420.9733,0.0,-105.0,0
GRID,4509,0,414.3817,0.0,-105.0,0
GRID,4510,0,480.2983,0.0,-100.0,0
GRID,4511,0,473.7067,0.0,-100.0,0
GRID,4512,0,467.115,0.0,-100.0,0
GRID,4513,0,460.5233,0.0,-100.0,0
GRID,4514,0,453.9317,0.0,-100.0,0
GRID,4515,0,447.34,0.0,-100.0,0
GRID,4516,0,440.7483,0.0,-100.0,0
GRID,4517,0,434.1567,0.0,-100.0,0
GRID,4518,0,427.565,0.0,-100.0,0
GRID,4519,0,420.9733,0.0,-100.0,0
GRID,4520,0,414.3817,0.0,-100.0,0
GRID,4521,0,480.2983,0.0,-95.0,0
GRID,4522,0,473.7067,0.0,-95.0,0
GRID,4523,0,467.115,0.0,-95.0,0
GRID,4524,0,460.5233,0.0,-95.0,0
GRID,4525,0,453.9317,0.0,-95.0,0
GRID,4526,0,447.34,0.0,-95.0,0
GRID,4527,0,440.7483,0.0,-95.0,0
GRID,4528,0,434.1567,0.0,-95.0,0
GRID,4529,0,427.565,0.0,-95.0,0
GRID,4530,0,420.9733,0.0,-95.0,0
GRID,4531,0,414.3817,0.0,-95.0,0
GRID,4532,0,480.2983,0.0,-90.0,0
GRID,4533,0,473.7067,0.0,-90.0,0
GRID,4534,0,467.115,0.0,-90.0,0
GRID,4535,0,460.5233,0.0,-90.0,0
GRID,4536,0,453.9317,0.0,-90.0,0
GRID,4537,0,447.34,0.0,-90.0,0
GRID,4538,0,440.7483,0.0,-90.0,0
GRID,4539,0,434.1567,0.0,-90.0,0
GRID,4540,0,427.565,0.0,-90.0,0
GRID,4541,0,420.9733,0.0,-90.0,0
GRID,4542,0,414.3817,0.0,-90.0,0
GRID,4543,0,480.2983,0.0,-85.0,0
GRID,4544,0,473.7067,0.0,-85.0,0
GRID,4545,0,467.115,0.0,-85.0,0
GRID,4546,0,460.5233,0.0,-85.0,0
GRID,4547,0,453.9317,0.0,-85.0,0
GRID,4548,0,447.34,0.0,-85.0,0
GRID,4549,0,440.7483,0.0,-85.0,0
GRID,4550,0,434.1567,0.0,-85.0,0
GRID,4551,0,427.565,0.0,-85.0,0
GRID,4552,0,420.9733,0.0,-85.0,0
GRID,4553,0,414.3817,0.0,-85.0,0
GRID,4554,0,480.2983,0.0,-80.0,0
GRID,4555,0,473.7067,0.0,-80.0,0
GRID,4556,0,467.115,0.0,-80.0,0
GRID,4557,0,460.5233,0.0,-80.0,0
GRID,4558,0,453.9317,0.0,-80.0,0
GRID,4559,0,447.34,0.0,-80.0,0
GRID,4560,0,440.7483,0.0,-80.0,0
GRID,4561,0,434.1567,0.0,-80.0,0
GRID,4562,0,427.565,0.0,-80.0,0
GRID,4563,0,420.9733,0.0,-80.0,0
GRID,4564,0,414.3817,0.0,-80.0,0
GRID,4565,0,480.2983,0.0,-75.0,0
GRID,4566,0,473.7067,0.0,-75.0,0
GRID,4567,0,467.115,0.0,-75.0,0
GRID,4568,0,460.5233,0.0,-75.0,0
GRID,4569,0,453.9317,0.0,-75.0,0
GRID,4570,0,447.34,0.0,-75.0,0
GRID,4571,0,440.7483,0.0,-75.0,0
GRID,4572,0,434.1567,0.0,-75.0,0
GRID,4573,0,427.565,0.0,-75.0,0
GRID,4574,0,420.9733,0.0,-75.0,0
GRID,4575,0,414.3817,0.0,-75.0,0
GRID,4576,0,480.2983,0.0,-70.0,0
GRID,4577,0,473.7067,0.0,-70.0,0
GRID,4578,0,467.115,0.0,-70.0,0
GRID,4579,0,460.5233,0.0,-70.0,0
GRID,4580,0,453.9317,0.0,-70.0,0
GRID,4581,0,447.34,0.0,-70.0,0
GRID,4582,0,440.7483,0.0,-70.0,0
GRID,4583,0,434.1567,0.0,-70.0,0
GRID,4584,0,427.565,0.0,-70.0,0
GRID,4585,0,420.9733,0.0,-70.0,0
GRID,4586,0,414.3817,0.0,-70.0,0
GRID,4587,0,480.2983,0.0,-65.0,0
GRID,4588,0,473.7067,0.0,-65.0,0
GRID,4589,0,467.115,0.0,-65.0,0
GRID,4590,0,460.5233,0.0,-65.0,0
GRID,4591,0,453.9317,0.0,-65.0,0
GRID,4592,0,447.34,0.0,-65.0,0
GRID,4593,0,440.7483,0.0,-65.0,0
GRID,4594,0,434.1567,0.0,-65.0,0
GRID,4595,0,427.565,0.0,-65.0,0
GRID,4596,0,420.9733,0.0,-65.0,0
GRID,4597,0,414.3817,0.0,-65.0,0
GRID,4598,0,480.2983,0.0,-60.0,0
GRID,4599,0,473.7067,0.0,-60.0,0
GRID,4600,0,467.115,0.0,-60.0,0
GRID,4601,0,460.5233,0.0,-60.0,0
GRID,4602,0,453.9317,0.0,-60.0,0
GRID,4603,0,447.34,0.0,-60.0,0
GRID,4604,0,440.7483,0.0,-60.0,0
GRID,4605,0,434.1567,0.0,-60.0,0
GRID,4606,0,427.565,0.0,-60.0,0
GRID,4607,0,420.9733,0.0,-60.0,0
GRID,4608,0,414.3817,0.0,-60.0,0
GRID,4609,0,480.2983,0.0,-55.0,0
GRID,4610,0,473.7067,0.0,-55.0,0
GRID,4611,0,467.115,0.0,-55.0,0
GRID,4612,0,460.5233,0.0,-55.0,0
GRID,4613,0,453.9317,0.0,-55.0,0
GRID,4614,0,447.34,0.0,-55.0,0
GRID,4615,0,440.7483,0.0,-55.0,0
GRID,4616,0,434.1567,0.0,-55.0,0
GRID,4617,0,427.565,0.0,-55.0,0
GRID,4618,0,420.9733,0.0,-55.0,0
GRID,4619,0,414.3817,0.0,-55.0,0
GRID,4620,0,480.2983,0.0,-50.0,0
GRID,4621,0,473.7067,0.0,-50.0,0
GRID,4622,0,467.115,0.0,-50.0,0
GRID,4623,0,460.5233,0.0,-50.0,0
GRID,4624,0,453.9317,0.0,-50.0,0
GRID,4625,0,447.34,0.0,-50.0,0
GRID,4626,0,440.7483,0.0,-50.0,0
GRID,4627,0,434.1567,0.0,-50.0,0
GRID,4628,0,427.565,0.0,-50.0,0
GRID,4629,0,420.9733,0.0,-50.0,0
GRID,4630,0,414.3817,0.0,-50.0,0
GRID,4631,0,480.2983,0.0,-45.0,0
GRID,4632,0,473.7067,0.0,-45.0,0
GRID,4633,0,467.115,0.0,-45.0,0
GRID,4634,0,460.5233,0.0,-45.0,0
GRID,4635,0,453.9317,0.0,-45.0,0
GRID,4636,0,447.34,0.0,-45.0,0
GRID,4637,0,440.7483,0.0,-45.0,0
GRID,4638,0,434.1567,0.0,-45.0,0
GRID,4639,0,427.565,0.0,-45.0,0
GRID,4640,0,420.9733,0.0,-45.0,0
GRID,4641,0,414.3817,0.0,-45.0,0
GRID,4642,0,480.2983,0.0,-40.0,0
GRID,4643,0,473.7067,0.0,-40.0,0
GRID,4644,0,467.115,0.0,-40.0,0
GRID,4645,0,460.5233,0.0,-40.0,0
GRID,4646,0,453.9317,0.0,-40.0,0
GRID,4647,0,447.34,0.0,-40.0,0
GRID,4648,0,440.7483,0.0,-40.0,0
GRID,4649,0,434.1567,0.0,-40.0,0
GRID,4650,0,427.565,0.0,-40.0,0
GRID,4651,0,420.9733,0.0,-40.0,0
GRID,4652,0,414.3817,0.0,-40.0,0
GRID,4653,0,480.2983,0.0,-35.0,0
GRID,4654,0,473.7067,0.0,-35.0,0
GRID,4655,0,467.115,0.0,-35.0,0
GRID,4656,0,460.5233,0.0,-35.0,0
GRID,4657,0,453.9317,0.0,-35.0,0
GRID,4658,0,447.34,0.0,-35.0,0
GRID,4659,0,440.7483,0.0,-35.0,0
GRID,4660,0,434.1567,0.0,-35.0,0
GRID,4661,0,427.565,0.0,-35.0,0
GRID,4662,0,420.9733,0.0,-35.0,0
GRID,4663,0,414.3817,0.0,-35.0,0
GRID,4664,0,480.2983,0.0,-30.0,0
GRID,4665,0,473.7067,0.0,-30.0,0
GRID,4666,0,467.115,0.0,-30.0,0
GRID,4667,0,460.5233,0.0,-30.0,0
GRID,4668,0,453.9317,0.0,-30.0,0
GRID,4669,0,447.34,0.0,-30.0,0
GRID,4670,0,440.7483,0.0,-30.0,0
GRID,4671,0,434.1567,0.0,-30.0,0
GRID,4672,0,427.565,0.0,-30.0,0
GRID,4673,0,420.9733,0.0,-30.0,0
GRID,4674,0,414.3817,0.0,-30.0,0
GRID,4675,0,480.2983,0.0,-25.0,0
GRID,4676,0,473.7067,0.0,-25.0,0
GRID,4677,0,467.115,0.0,-25.0,0
GRID,4678,0,460.5233,0.0,-25.0,0
GRID,4679,0,453.9317,0.0,-25.0,0
GRID,4680,0,447.34,0.0,-25.0,0
GRID,4681,0,440.7483,0.0,-25.0,0
GRID,4682,0,434.1567,0.0,-25.0,0
GRID,4683,0,427.565,0.0,-25.0,0
GRID,4684,0,420.9733,0.0,-25.0,0
GRID,4685,0,414.3817,0.0,-25.0,0
GRID,4686,0,480.2983,0.0,-20.0,0
GRID,4687,0,473.7067,0.0,-20.0,0
GRID,4688,0,467.115,0.0,-20.0,0
GRID,4689,0,460.5233,0.0,-20.0,0
GRID,4690,0,453.9317,0.0,-20.0,0
GRID,4691,0,447.34,0.0,-20.0,0
GRID,4692,0,440.7483,0.0,-20.0,0
GRID,4693,0,434.1567,0.0,-20.0,0
GRID,4694,0,427.565,0.0,-20.0,0
GRID,4695,0,420.9733,0.0,-20.0,0
GRID,4696,0,414.3817,0.0,-20.0,0
GRID,4697,0,480.2983,0.0,-15.0,0
GRID,4698,0,473.7067,0.0,-15.0,0
GRID,4699,0,467.115,0.0,-15.0,0
GRID,4700,0,460.5233,0.0,-15.0,0
GRID,4701,0,453.9317,0.0,-15.0,0
GRID,4702,0,447.34,0.0,-15.0,0
GRID,4703,0,440.7483,0.0,-15.0,0
GRID,4704,0,434.1567,0.0,-15.0,0
GRID,4705,0,427.565,0.0,-15.0,0
GRID,4706,0,420.9733,0.0,-15.0,0
GRID,4707,0,414.3817,0.0,-15.0,0
GRID,4708,0,480.2983,0.0,-10.0,0
GRID,4709,0,473.7067,0.0,-10.0,0
GRID,4710,0,467.115,0.0,-10.0,0
GRID,4711,0,460.5233,0.0,-10.0,0
GRID,4712,0,453.9317,0.0,-10.0,0
GRID,4713,0,447.34,0.0,-10.0,0
GRID,4714,0,440.7483,0.0,-10.0,0
GRID,4715,0,434.1567,0.0,-10.0,0
GRID,4716,0,427.565,0.0,-10.0,0
GRID,4717,0,420.9733,0.0,-10.0,0
GRID,4718,0,414.3817,0.0,-10.0,0
GRID,4719,0,480.2983,0.0,-5.0,0
GRID,4720,0,473.7067,0.0,-5.0,0
GRID,4721,0,467.115,0.0,-5.0,0
GRID,4722,0,460.5233,0.0,-5.0,0
GRID,4723,0,453.9317,0.0,-5.0,0
GRID,4724,0,447.34,0.0,-5.0,0
GRID,4725,0,440.7483,0.0,-5.0,0
GRID,4726,0,434.1567,0.0,-5.0,0
GRID,4727,0,427.565,0.0,-5.0,0
GRID,4728,0,420.9733,0.0,-5.0,0
GRID,4729,0,414.3817,0.0,-5.0,0
GRID,4730,0,306.7563,0.0,-1045.0,0
GRID,4731,0,306.7563,0.0,-1040.0,0
GRID,4732,0,306.7563,0.0,-1035.0,0
GRID,4733,0,306.7563,0.0,-1030.0,0
GRID,4734,0,306.7563,0.0,-1025.0,0
GRID,4735,0,306.7563,0.0,-1020.0,0
GRID,4736,0,306.7563,0.0,-1015.0,0
GRID,4737,0,306.7563,0.0,-1010.0,0
GRID,4738,0,306.7563,0.0,-1005.0,0
GRID,4739,0,306.7563,0.0,-1000.0,0
GRID,4740,0,306.7563,0.0,-995.0,0
GRID,4741,0,306.7563,0.0,-990.0,0
GRID,4742,0,306.7563,0.0,-985.0,0
GRID,4743,0,306.7563,0.0,-980.0,0
GRID,4744,0,306.7563,0.0,-975.0,0
GRID,4745,0,306.7563,0.0,-970.0,0
GRID,4746,0,306.7563,0.0,-965.0,0
GRID,4747,0,306.7563,0.0,-960.0,0
GRID,4748,0,306.7563,0.0,-955.0,0
GRID,4749,0,306.7563,0.0,-950.0,0
GRID,4750,0,306.7563,0.0,-945.0,0
GRID,4751,0,306.7563,0.0,-940.0,0
GRID,4752,0,306.7563,0.0,-935.0,0
GRID,4753,0,306.7563,0.0,-930.0,0
GRID,4754,0,306.7563,0.0,-925.0,0
GRID,4755,0,306.7563,0.0,-920.0,0
GRID,4756,0,306.7563,0.0,-915.0,0
GRID,4757,0,306.7563,0.0,-910.0,0
GRID,4758,0,306.7563,0.0,-905.0,0
GRID,4759,0,306.7563,0.0,-900.0,0
GRID,4760,0,306.7563,0.0,-895.0,0
GRID,4761,0,306.7563,0.0,-890.0,0
GRID,4762,0,306.7563,0.0,-885.0,0
GRID,4763,0,306.7563,0.0,-880.0,0
GRID,4764,0,306.7563,0.0,-875.0,0
GRID,4765,0,306.7563,0.0,-870.0,0
GRID,4766,0,306.7563,0.0,-865.0,0
GRID,4767,0,306.7563,0.0,-860.0,0
GRID,4768,0,306.7563,0.0,-855.0,0
GRID,4769,0,306.7563,0.0,-850.0,0
GRID,4770,0,306.7563,0.0,-845.0,0
GRID,4771,0,306.7563,0.0,-840.0,0
GRID,4772,0,306.7563,0.0,-835.0,0
GRID,4773,0,306.7563,0.0,-830.0,0
GRID,4774,0,306.7563,0.0,-825.0,0
GRID,4775,0,306.7563,0.0,-820.0,0
GRID,4776,0,306.7563,0.0,-815.0,0
GRID,4777,0,306.7563,0.0,-810.0,0
GRID,4778,0,306.7563,0.0,-805.0,0
GRID,4779,0,306.7563,0.0,-800.0,0
GRID,4780,0,306.7563,0.0,-795.0,0
GRID,4781,0,306.7563,0.0,-790.0,0
GRID,4782,0,306.7563,0.0,-785.0,0
GRID,4783,0,306.7563,0.0,-780.0,0
GRID,4784,0,306.7563,0.0,-775.0,0
GRID,4785,0,306.7563,0.0,-770.0,0
GRID,4786,0,306.7563,0.0,-765.0,0
GRID,4787,0,306.7563,0.0,-760.0,0
GRID,4788,0,306.7563,0.0,-755.0,0
GRID,4789,0,306.7563,0.0,-750.0,0
GRID,4790,0,306.7563,0.0,-745.0,0
GRID,4791,0,306.7563,0.0,-740.0,0
GRID,4792,0,306.7563,0.0,-735.0,0
GRID,4793,0,306.7563,0.0,-730.0,0
GRID,4794,0,306.7563,0.0,-725.0,0
GRID,4795,0,306.7563,0.0,-720.0,0
GRID,4796,0,306.7563,0.0,-715.0,0
GRID,4797,0,306.7563,0.0,-710.0,0
GRID,4798,0,306.7563,0.0,-705.0,0
GRID,4799,0,306.7563,0.0,-700.0,0
GRID,4800,0,306.7563,0.0,-695.0,0
GRID,4801,0,306.7563,0.0,-690.0,0
GRID,4802,0,306.7563,0.0,-685.0,0
GRID,4803,0,306.7563,0.0,-680.0,0
GRID,4804,0,306.7563,0.0,-675.0,0
GRID,4805,0,306.7563,0.0,-670.0,0
GRID,4806,0,306.7563,0.0,-665.0,0
GRID,4807,0,306.7563,0.0,-660.0,0
GRID,4808,0,306.7563,0.0,-655.0,0
GRID,4809,0,306.7563,0.0,-650.0,0
GRID,4810,0,306.7563,0.0,-645.0,0
GRID,4811,0,306.7563,0.0,-640.0,0
GRID,4812,0,306.7563,0.0,-635.0,0
GRID,4813,0,306.7563,0.0,-630.0,0
GRID,4814,0,306.7563,0.0,-625.0,0
GRID,4815,0,306.7563,0.0,-620.0,0
GRID,4816,0,306.7563,0.0,-615.0,0
GRID,4817,0,306.7563,0.0,-610.0,0
GRID,4818,0,306.7563,0.0,-605.0,0
GRID,4819,0,306.7563,0.0,-600.0,0
GRID,4820,0,306.7563,0.0,-595.0,0
GRID,4821,0,306.7563,0.0,-590.0,0
GRID,4822,0,306.7563,0.0,-585.0,0
GRID,4823,0,306.7563,0.0,-580.0,0
GRID,4824,0,306.7563,0.0,-575.0,0
GRID,4825,0,306.7563,0.0,-570.0,0
GRID,4826,0,306.7563,0.0,-565.0,0
GRID,4827,0,306.7563,0.0,-560.0,0
GRID,4828,0,306.7563,0.0,-555.0,0
GRID,4829,0,306.7563,0.0,-550.0,0
GRID,4830,0,306.7563,0.0,-545.0,0
GRID,4831,0,306.7563,0.0,-540.0,0
GRID,4832,0,306.7563,0.0,-535.0,0
GRID,4833,0,306.7563,0.0,-530.0,0
GRID,4834,0,306.7563,0.0,-525.0,0
GRID,4835,0,306.7563,0.0,-520.0,0
GRID,4836,0,306.7563,0.0,-515.0,0
GRID,4837,0,306.7563,0.0,-510.0,0
GRID,4838,0,306.7563,0.0,-505.0,0
GRID,4839,0,306.7563,0.0,-500.0,0
GRID,4840,0,306.7563,0.0,-495.0,0
GRID,4841,0,306.7563,0.0,-490.0,0
GRID,4842,0,306.7563,0.0,-485.0,0
GRID,4843,0,306.7563,0.0,-480.0,0
GRID,4844,0,306.7563,0.0,-475.0,0
GRID,4845,0,306.7563,0.0,-470.0,0
GRID,4846,0,306.7563,0.0,-465.0,0
GRID,4847,0,306.7563,0.0,-460.0,0
GRID,4848,0,306.7563,0.0,-455.0,0
GRID,4849,0,306.7563,0.0,-450.0,0
GRID,4850,0,306.7563,0.0,-445.0,0
GRID,4851,0,306.7563,0.0,-440.0,0
GRID,4852,0,306.7563,0.0,-435.0,0
GRID,4853,0,306.7563,0.0,-430.0,0
GRID,4854,0,306.7563,0.0,-425.0,0
GRID,4855,0,306.7563,0.0,-420.0,0
GRID,4856,0,306.7563,0.0,-415.0,0
GRID,4857,0,306.7563,0.0,-410.0,0
GRID,4858,0,306.7563,0.0,-405.0,0
GRID,4859,0,306.7563,0.0,-400.0,0
GRID,4860,0,306.7563,0.0,-395.0,0
GRID,4861,0,306.7563,0.0,-390.0,0
GRID,4862,0,306.7563,0.0,-385.0,0
GRID,4863,0,306.7563,0.0,-380.0,0
GRID,4864,0,306.7563,0.0,-375.0,0
GRID,4865,0,306.7563,0.0,-370.0,0
GRID,4866,0,306.7563,0.0,-365.0,0
GRID,4867,0,306.7563,0.0,-360.0,0
GRID,4868,0,306.7563,0.0,-355.0,0
GRID,4869,0,306.7563,0.0,-350.0,0
GRID,4870,0,306.7563,0.0,-345.0,0
GRID,4871,0,306.7563,0.0,-340.0,0
GRID,4872,0,306.7563,0.0,-335.0,0
GRID,4873,0,306.7563,0.0,-330.0,0
GRID,4874,0,306.7563,0.0,-325.0,0
GRID,4875,0,306.7563,0.0,-320.0,0
GRID,4876,0,306.7563,0.0,-315.0,0
GRID,4877,0,306.7563,0.0,-310.0,0
GRID,4878,0,306.7563,0.0,-305.0,0
GRID,4879,0,306.7563,0.0,-300.0,0
GRID,4880,0,306.7563,0.0,-295.0,0
GRID,4881,0,306.7563,0.0,-290.0,0
GRID,4882,0,306.7563,0.0,-285.0,0
GRID,4883,0,306.7563,0.0,-280.0,0
GRID,4884,0,306.7563,0.0,-275.0,0
GRID,4885,0,306.7563,0.0,-270.0,0
GRID,4886,0,306.7563,0.0,-265.0,0
GRID,4887,0,306.7563,0.0,-260.0,0
GRID,4888,0,306.7563,0.0,-255.0,0
GRID,4889,0,306.7563,0.0,-250.0,0
GRID,4890,0,306.7563,0.0,-245.0,0
GRID,4891,0,306.7563,0.0,-240.0,0
GRID,4892,0,306.7563,0.0,-235.0,0
GRID,4893,0,306.7563,0.0,-230.0,0
GRID,4894,0,306.7563,0.0,-225.0,0
GRID,4895,0,306.7563,0.0,-220.0,0
GRID,4896,0,306.7563,0.0,-215.0,0
GRID,4897,0,306.7563,0.0,-210.0,0
GRID,4898,0,306.7563,0.0,-205.0,0
GRID,4899,0,306.7563,0.0,-200.0,0
GRID,4900,0,306.7563,0.0,-195.0,0
GRID,4901,0,306.7563,0.0,-190.0,0
GRID,4902,0,306.7563,0.0,-185.0,0
GRID,4903,0,306.7563,0.0,-180.0,0
GRID,4904,0,306.7563,0.0,-175.0,0
GRID,4905,0,306.7563,0.0,-170.0,0
GRID,4906,0,306.7563,0.0,-165.0,0
GRID,4907,0,306.7563,0.0,-160.0,0
GRID,4908,0,306.7563,0.0,-155.0,0
GRID,4909,0,306.7563,0.0,-150.0,0
GRID,4910,0,306.7563,0.0,-145.0,0
GRID,4911,0,306.7563,0.0,-140.0,0
GRID,4912,0,306.7563,0.0,-135.0,0
GRID,4913,0,306.7563,0.0,-130.0,0
GRID,4914,0,306.7563,0.0,-125.0,0
GRID,4915,0,306.7563,0.0,-120.0,0
GRID,4916,0,306.7563,0.0,-115.0,0
GRID,4917,0,306.7563,0.0,-110.0,0
GRID,4918,0,306.7563,0.0,-105.0,0
GRID,4919,0,306.7563,0.0,-100.0,0
GRID,4920,0,306.7563,0.0,-95.0,0
GRID,4921,0,306.7563,0.0,-90.0,0
GRID,4922,0,306.7563,0.0,-85.0,0
GRID,4923,0,306.7563,0.0,-80.0,0
GRID,4924,0,306.7563,0.0,-75.0,0
GRID,4925,0,306.7563,0.0,-70.0,0
GRID,4926,0,306.7563,0.0,-65.0,0
GRID,4927,0,306.7563,0.0,-60.0,0
GRID,4928,0,306.7563,0.0,-55.0,0
GRID,4929,0,306.7563,0.0,-50.0,0
GRID,4930,0,306.7563,0.0,-45.0,0
GRID,4931,0,306.7563,0.0,-40.0,0
GRID,4932,0,306.7563,0.0,-35.0,0
GRID,4933,0,306.7563,0.0,-30.0,0
GRID,4934,0,306.7563,0.0,-25.0,0
GRID,4935,0,306.7563,0.0,-20.0,0
GRID,4936,0,306.7563,0.0,-15.0,0
GRID,4937,0,306.7563,0.0,-10.0,0
GRID,4938,0,306.7563,0.0,-5.0,0
GRID,4939,0,313.5125,0.0,-1045.0,0
GRID,4940,0,313.5125,0.0,-1040.0,0
GRID,4941,0,313.5125,0.0,-1035.0,0
GRID,4942,0,313.5125,0.0,-1030.0,0
GRID,4943,0,313.5125,0.0,-1025.0,0
GRID,4944,0,313.5125,0.0,-1020.0,0
GRID,4945,0,313.5125,0.0,-1015.0,0
GRID,4946,0,313.5125,0.0,-1010.0,0
GRID,4947,0,313.5125,0.0,-1005.0,0
GRID,4948,0,313.5125,0.0,-1000.0,0
GRID,4949,0,313.5125,0.0,-995.0,0
GRID,4950,0,313.5125,0.0,-990.0,0
GRID,4951,0,313.5125,0.0,-985.0,0
GRID,4952,0,313.5125,0.0,-980.0,0
GRID,4953,0,313.5125,0.0,-975.0,0
GRID,4954,0,313.5125,0.0,-970.0,0
GRID,4955,0,313.5125,0.0,-965.0,0
GRID,4956,0,313.5125,0.0,-960.0,0
GRID,4957,0,313.5125,0.0,-955.0,0
GRID,4958,0,313.5125,0.0,-950.0,0
GRID,4959,0,313.5125,0.0,-945.0,0
GRID,4960,0,313.5125,0.0,-940.0,0
GRID,4961,0,313.5125,0.0,-935.0,0
GRID,4962,0,313.5125,0.0,-930.0,0
GRID,4963,0,313.5125,0.0,-925.0,0
GRID,4964,0,313.5125,0.0,-920.0,0
GRID,4965,0,313.5125,0.0,-915.0,0
GRID,4966,0,313.5125,0.0,-910.0,0
GRID,4967,0,313.5125,0.0,-905.0,0
GRID,4968,0,313.5125,0.0,-900.0,0
GRID,4969,0,313.5125,0.0,-895.0,0
GRID,4970,0,313.5125,0.0,-890.0,0
GRID,4971,0,313.5125,0.0,-885.0,0
GRID,4972,0,313.5125,0.0,-880.0,0
GRID,4973,0,313.5125,0.0,-875.0,0
GRID,4974,0,313.5125,0.0,-870.0,0
GRID,4975,0,313.5125,0.0,-865.0,0
GRID,4976,0,313.5125,0.0,-860.0,0
GRID,4977,0,313.5125,0.0,-855.0,0
GRID,4978,0,313.5125,0.0,-850.0,0
GRID,4979,0,313.5125,0.0,-845.0,0
GRID,4980,0,313.5125,0.0,-840.0,0
GRID,4981,0,313.5125,0.0,-835.0,0
GRID,4982,0,313.5125,0.0,-830.0,0
GRID,4983,0,313.5125,0.0,-825.0,0
GRID,4984,0,313.5125,0.0,-820.0,0
GRID,4985,0,313.5125,0.0,-815.0,0
GRID,4986,0,313.5125,0.0,-810.0,0
GRID,4987,0,313.5125,0.0,-805.0,0
GRID,4988,0,313.5125,0.0,-800.0,0
GRID,4989,0,313.5125,0.0,-795.0,0
GRID,4990,0,313.5125,0.0,-790.0,0
GRID,4991,0,313.5125,0.0,-785.0,0
GRID,4992,0,313.5125,0.0,-780.0,0
GRID,4993,0,313.5125,0.0,-775.0,0
GRID,4994,0,313.5125,0.0,-770.0,0
GRID,4995,0,313.5125,0.0,-765.0,0
GRID,4996,0,313.5125,0.0,-760.0,0
GRID,4997,0,313.5125,0.0,-755.0,0
GRID,4998,0,313.5125,0.0,-750.0,0
GRID,4999,0,313.5125,0.0,-745.0,0
GRID,5000,0,313.5125,0.0,-740.0,0
GRID,5001,0,313.5125,0.0,-735.0,0
GRID,5002,0,313.5125,0.0,-730.0,0
GRID,5003,0,313.5125,0.0,-725.0,0
GRID,5004,0,313.5125,0.0,-720.0,0
GRID,5005,0,313.5125,0.0,-715.0,0
GRID,5006,0,313.5125,0.0,-710.0,0
GRID,5007,0,313.5125,0.0,-705.0,0
GRID,5008,0,313.5125,0.0,-700.0,0
GRID,5009,0,313.5125,0.0,-695.0,0
GRID,5010,0,313.5125,0.0,-690.0,0
GRID,5011,0,313.5125,0.0,-685.0,0
GRID,5012,0,313.5125,0.0,-680.0,0
GRID,5013,0,313.5125,0.0,-675.0,0
GRID,5014,0,313.5125,0.0,-670.0,0
GRID,5015,0,313.5125,0.0,-665.0,0
GRID,5016,0,313.5125,0.0,-660.0,0
GRID,5017,0,313.5125,0.0,-655.0,0
GRID,5018,0,313.5125,0.0,-650.0,0
GRID,5019,0,313.5125,0.0,-645.0,0
GRID,5020,0,313.5125,0.0,-640.0,0
GRID,5021,0,313.5125,0.0,-635.0,0
GRID,5022,0,313.5125,0.0,-630.0,0
GRID,5023,0,313.5125,0.0,-625.0,0
GRID,5024,0,313.5125,0.0,-620.0,0
GRID,5025,0,313.5125,0.0,-615.0,0
GRID,5026,0,313.5125,0.0,-610.0,0
GRID,5027,0,313.5125,0.0,-605.0,0
GRID,5028,0,313.5125,0.0,-600.0,0
GRID,5029,0,313.5125,0.0,-595.0,0
GRID,5030,0,313.5125,0.0,-590.0,0
GRID,5031,0,313.5125,0.0,-585.0,0
GRID,5032,0,313.5125,0.0,-580.0,0
GRID,5033,0,313.5125,0.0,-575.0,0
GRID,5034,0,313.5125,0.0,-570.0,0
GRID,5035,0,313.5125,0.0,-565.0,0
GRID,5036,0,313.5125,0.0,-560.0,0
GRID,5037,0,313.5125,0.0,-555.0,0
GRID,5038,0,313.5125,0.0,-550.0,0
GRID,5039,0,313.5125,0.0,-545.0,0
GRID,5040,0,313.5125,0.0,-540.0,0
GRID,5041,0,313.5125,0.0,-535.0,0
GRID,5042,0,313.5125,0.0,-530.0,0
GRID,5043,0,313.5125,0.0,-525.0,0
GRID,5044,0,313.5125,0.0,-520.0,0
GRID,5045,0,313.5125,0.0,-515.0,0
GRID,5046,0,313.5125,0.0,-510.0,0
GRID,5047,0,313.5125,0.0,-505.0,0
GRID,5048,0,313.5125,0.0,-500.0,0
GRID,5049,0,313.5125,0.0,-495.0,0
GRID,5050,0,313.5125,0.0,-490.0,0
GRID,5051,0,313.5125,0.0,-485.0,0
GRID,5052,0,313.5125,0.0,-480.0,0
GRID,5053,0,313.5125,0.0,-475.0,0
GRID,5054,0,313.5125,0.0,-470.0,0
GRID,5055,0,313.5125,0.0,-465.0,0
GRID,5056,0,313.5125,0.0,-460.0,0
GRID,5057,0,313.5125,0.0,-455.0,0
GRID,5058,0,313.5125,0.0,-450.0,0
GRID,5059,0,313.5125,0.0,-445.0,0
GRID,5060,0,313.5125,0.0,-440.0,0
GRID,5061,0,313.5125,0.0,-435.0,0
GRID,5062,0,313.5125,0.0,-430.0,0
GRID,5063,0,313.5125,0.0,-425.0,0
GRID,5064,0,313.5125,0.0,-420.0,0
GRID,5065,0,313.5125,0.0,-415.0,0
GRID,5066,0,313.5125,0.0,-410.0,0
GRID,5067,0,313.5125,0.0,-405.0,0
GRID,5068,0,313.5125,0.0,-400.0,0
GRID,5069,0,313.5125,0.0,-395.0,0
GRID,5070,0,313.5125,0.0,-390.0,0
GRID,5071,0,313.5125,0.0,-385.0,0
GRID,5072,0,313.5125,0.0,-380.0,0
GRID,5073,0,313.5125,0.0,-375.0,0
GRID,5074,0,313.5125,0.0,-370.0,0
GRID,5075,0,313.5125,0.0,-365.0,0
GRID,5076,0,313.5125,0.0,-360.0,0
GRID,5077,0,313.5125,0.0,-355.0,0
GRID,5078,0,313.5125,0.0,-350.0,0
GRID,5079,0,313.5125,0.0,-345.0,0
GRID,5080,0,313.5125,0.0,-340.0,0
GRID,5081,0,313.5125,0.0,-335.0,0
GRID,5082,0,313.5125,0.0,-330.0,0
GRID,5083,0,313.5125,0.0,-325.0,0
GRID,5084,0,313.5125,0.0,-320.0,0
GRID,5085,0,313.5125,0.0,-315.0,0
GRID,5086,0,313.5125,0.0,-310.0,0
GRID,5087,0,313.5125,0.0,-305.0,0
GRID,5088,0,313.5125,0.0,-300.0,0
GRID,5089,0,313.5125,0.0,-295.0,0
GRID,5090,0,313.5125,0.0,-290.0,0
GRID,5091,0,313.5125,0.0,-285.0,0
GRID,5092,0,313.5125,0.0,-280.0,0
GRID,5093,0,313.5125,0.0,-275.0,0
GRID,5094,0,313.5125,0.0,-270.0,0
GRID,5095,0,313.5125,0.0,-265.0,0
GRID,5096,0,313.5125,0.0,-260.0,0
GRID,5097,0,313.5125,0.0,-255.0,0
GRID,5098,0,313.5125,0.0,-250.0,0
GRID,5099,0,313.5125,0.0,-245.0,0
GRID,5100,0,313.5125,0.0,-240.0,0
GRID,5101,0,313.5125,0.0,-235.0,0
GRID,5102,0,313.5125,0.0,-230.0,0
GRID,5103,0,313.5125,0.0,-225.0,0
GRID,5104,0,313.5125,0.0,-220.0,0
GRID,5105,0,313.5125,0.0,-215.0,0
GRID,5106,0,313.5125,0.0,-210.0,0
GRID,5107,0,313.5125,0.0,-205.0,0
GRID,5108,0,313.5125,0.0,-200.0,0
GRID,5109,0,313.5125,0.0,-195.0,0
GRID,5110,0,313.5125,0.0,-190.0,0
GRID,5111,0,313.5125,0.0,-185.0,0
GRID,5112,0,313.5125,0.0,-180.0,0
GRID,5113,0,313.5125,0.0,-175.0,0
GRID,5114,0,313.5125,0.0,-170.0,0
GRID,5115,0,313.5125,0.0,-165.0,0
GRID,5116,0,313.5125,0.0,-160.0,0
GRID,5117,0,313.5125,0.0,-155.0,0
GRID,5118,0,313.5125,0.0,-150.0,0
GRID,5119,0,313.5125,0.0,-145.0,0
GRID,5120,0,313.5125,0.0,-140.0,0
GRID,5121,0,313.5125,0.0,-135.0,0
GRID,5122,0,313.5125,0.0,-130.0,0
GRID,5123,0,313.5125,0.0,-125.0,0
GRID,5124,0,313.5125,0.0,-120.0,0
GRID,5125,0,313.5125,0.0,-115.0,0
GRID,5126,0,313.5125,0.0,-110.0,0
GRID,5127,0,313.5125,0.0,-105.0,0
GRID,5128,0,313.5125,0.0,-100.0,0
GRID,5129,0,313.5125,0.0,-95.0,0
GRID,5130,0,313.5125,0.0,-90.0,0
GRID,5131,0,313.5125,0.0,-85.0,0
GRID,5132,0,313.5125,0.0,-80.0,0
GRID,5133,0,313.5125,0.0,-75.0,0
GRID,5134,0,313.5125,0.0,-70.0,0
GRID,5135,0,313.5125,0.0,-65.0,0
GRID,5136,0,313.5125,0.0,-60.0,0
GRID,5137,0,313.5125,0.0,-55.0,0
GRID,5138,0,313.5125,0.0,-50.0,0
GRID,5139,0,313.5125,0.0,-45.0,0
GRID,5140,0,313.5125,0.0,-40.0,0
GRID,5141,0,313.5125,0.0,-35.0,0
GRID,5142,0,313.5125,0.0,-30.0,0
GRID,5143,0,313.5125,0.0,-25.0,0
GRID,5144,0,313.5125,0.0,-20.0,0
GRID,5145,0,313.5125,0.0,-15.0,0
GRID,5146,0,313.5125,0.0,-10.0,0
GRID,5147,0,313.5125,0.0,-5.0,0
GRID,5148,0,320.2688,0.0,-1045.0,0
GRID,5149,0,320.2688,0.0,-1040.0,0
GRID,5150,0,320.2688,0.0,-1035.0,0
GRID,5151,0,320.2688,0.0,-1030.0,0
GRID,5152,0,320.2688,0.0,-1025.0,0
GRID,5153,0,320.2688,0.0,-1020.0,0
GRID,5154,0,320.2688,0.0,-1015.0,0
GRID,5155,0,320.2688,0.0,-1010.0,0
GRID,5156,0,320.2688,0.0,-1005.0,0
GRID,5157,0,320.2688,0.0,-1000.0,0
GRID,5158,0,320.2688,0.0,-995.0,0
GRID,5159,0,320.2688,0.0,-990.0,0
GRID,5160,0,320.2688,0.0,-985.0,0
GRID,5161,0,320.2688,0.0,-980.0,0
GRID,5162,0,320.2688,0.0,-975.0,0
GRID,5163,0,320.2688,0.0,-970.0,0
GRID,5164,0,320.2688,0.0,-965.0,0
GRID,5165,0,320.2688,0.0,-960.0,0
GRID,5166,0,320.2688,0.0,-955.0,0
GRID,5167,0,320.2688,0.0,-950.0,0
GRID,5168,0,320.2688,0.0,-945.0,0
GRID,5169,0,320.2688,0.0,-940.0,0
GRID,5170,0,320.2688,0.0,-935.0,0
GRID,5171,0,320.2688,0.0,-930.0,0
GRID,5172,0,320.2688,0.0,-925.0,0
GRID,5173,0,320.2688,0.0,-920.0,0
GRID,5174,0,320.2688,0.0,-915.0,0
GRID,5175,0,320.2688,0.0,-910.0,0
GRID,5176,0,320.2688,0.0,-905.0,0
GRID,5177,0,320.2688,0.0,-900.0,0
GRID,5178,0,320.2688,0.0,-895.0,0
GRID,5179,0,320.2688,0.0,-890.0,0
GRID,5180,0,320.2688,0.0,-885.0,0
GRID,5181,0,320.2688,0.0,-880.0,0
GRID,5182,0,320.2688,0.0,-875.0,0
GRID,5183,0,320.2688,0.0,-870.0,0
GRID,5184,0,320.2688,0.0,-865.0,0
GRID,5185,0,320.2688,0.0,-860.0,0
GRID,5186,0,320.2688,0.0,-855.0,0
GRID,5187,0,320.2688,0.0,-850.0,0
GRID,5188,0,320.2688,0.0,-845.0,0
GRID,5189,0,320.2688,0.0,-840.0,0
GRID,5190,0,320.2688,0.0,-835.0,0
GRID,5191,0,320.2688,0.0,-830.0,0
GRID,5192,0,320.2688,0.0,-825.0,0
GRID,5193,0,320.2688,0.0,-820.0,0
GRID,5194,0,320.2688,0.0,-815.0,0
GRID,5195,0,320.2688,0.0,-810.0,0
GRID,5196,0,320.2688,0.0,-805.0,0
GRID,5197,0,320.2688,0.0,-800.0,0
GRID,5198,0,320.2688,0.0,-795.0,0
GRID,5199,0,320.2688,0.0,-790.0,0
GRID,5200,0,320.2688,0.0,-785.0,0
GRID,5201,0,320.2688,0.0,-780.0,0
GRID,5202,0,320.2688,0.0,-775.0,0
GRID,5203,0,320.2688,0.0,-770.0,0
GRID,5204,0,320.2688,0.0,-765.0,0
GRID,5205,0,320.2688,0.0,-760.0,0
GRID,5206,0,320.2688,0.0,-755.0,0
GRID,5207,0,320.2688,0.0,-750.0,0
GRID,5208,0,320.2688,0.0,-745.0,0
GRID,5209,0,320.2688,0.0,-740.0,0
GRID,5210,0,320.2688,0.0,-735.0,0
GRID,5211,0,320.2688,0.0,-730.0,0
GRID,5212,0,320.2688,0.0,-725.0,0
GRID,5213,0,320.2688,0.0,-720.0,0
GRID,5214,0,320.2688,0.0,-715.0,0
GRID,5215,0,320.2688,0.0,-710.0,0
GRID,5216,0,320.2688,0.0,-705.0,0
GRID,5217,0,320.2688,0.0,-700.0,0
GRID,5218,0,320.2688,0.0,-695.0,0
GRID,5219,0,320.2688,0.0,-690.0,0
GRID,5220,0,320.2688,0.0,-685.0,0
GRID,5221,0,320.2688,0.0,-680.0,0
GRID,5222,0,320.2688,0.0,-675.0,0
GRID,5223,0,320.2688,0.0,-670.0,0
GRID,5224,0,320.2688,0.0,-665.0,0
GRID,5225,0,320.2688,0.0,-660.0,0
GRID,5226,0,320.2688,0.0,-655.0,0
GRID,5227,0,320.2688,0.0,-650.0,0
GRID,5228,0,320.2688,0.0,-645.0,0
GRID,5229,0,320.2688,0.0,-640.0,0
GRID,5230,0,320.2688,0.0,-635.0,0
GRID,5231,0,320.2688,0.0,-630.0,0
GRID,5232,0,320.2688,0.0,-625.0,0
GRID,5233,0,320.2688,0.0,-620.0,0
GRID,5234,0,320.2688,0.0,-615.0,0
GRID,5235,0,320.2688,0.0,-610.0,0
GRID,5236,0,320.2688,0.0,-605.0,0
GRID,5237,0,320.2688,0.0,-600.0,0
GRID,5238,0,320.2688,0.0,-595.0,0
GRID,5239,0,320.2688,0.0,-590.0,0
GRID,5240,0,320.2688,0.0,-585.0,0
GRID,5241,0,320.2688,0.0,-580.0,0
GRID,5242,0,320.2688,0.0,-575.0,0
GRID,5243,0,320.2688,0.0,-570.0,0
GRID,5244,0,320.2688,0.0,-565.0,0
GRID,5245,0,320.2688,0.0,-560.0,0
GRID,5246,0,320.2688,0.0,-555.0,0
GRID,5247,0,320.2688,0.0,-550.0,0
GRID,5248,0,320.2688,0.0,-545.0,0
GRID,5249,0,320.2688,0.0,-540.0,0
GRID,5250,0,320.2688,0.0,-535.0,0
GRID,5251,0,320.2688,0.0,-530.0,0
GRID,5252,0,320.2688,0.0,-525.0,0
GRID,5253,0,320.2688,0.0,-520.0,0
GRID,5254,0,320.2688,0.0,-515.0,0
GRID,5255,0,320.2688,0.0,-510.0,0
GRID,5256,0,320.2688,0.0,-505.0,0
GRID,5257,0,320.2688,0.0,-500.0,0
GRID,5258,0,320.2688,0.0,-495.0,0
GRID,5259,0,320.2688,0.0,-490.0,0
GRID,5260,0,320.2688,0.0,-485.0,0
GRID,5261,0,320.2688,0.0,-480.0,0
GRID,5262,0,320.2688,0.0,-475.0,0
GRID,5263,0,320.2688,0.0,-470.0,0
GRID,5264,0,320.2688,0.0,-465.0,0
GRID,5265,0,320.2688,0.0,-460.0,0
GRID,5266,0,320.2688,0.0,-455.0,0
GRID,5267,0,320.2688,0.0,-450.0,0
GRID,5268,0,320.2688,0.0,-445.0,0
GRID,5269,0,320.2688,0.0,-440.0,0
GRID,5270,0,320.2688,0.0,-435.0,0
GRID,5271,0,320.2688,0.0,-430.0,0
GRID,5272,0,320.2688,0.0,-425.0,0
GRID,5273,0,320.2688,0.0,-420.0,0
GRID,5274,0,320.2688,0.0,-415.0,0
GRID,5275,0,320.2688,0.0,-410.0,0
GRID,5276,0,320.2688,0.0,-405.0,0
GRID,5277,0,320.2688,0.0,-400.0,0
GRID,5278,0,320.2688,0.0,-395.0,0
GRID,5279,0,320.2688,0.0,-390.0,0
GRID,5280,0,320.2688,0.0,-385.0,0
GRID,5281,0,320.2688,0.0,-380.0,0
GRID,5282,0,320.2688,0.0,-375.0,0
GRID,5283,0,320.2688,0.0,-370.0,0
GRID,5284,0,320.2688,0.0,-365.0,0
GRID,5285,0,320.2688,0.0,-360.0,0
GRID,5286,0,320.2688,0.0,-355.0,0
GRID,5287,0,320.2688,0.0,-350.0,0
GRID,5288,0,320.2688,0.0,-345.0,0
GRID,5289,0,320.2688,0.0,-340.0,0
GRID,5290,0,320.2688,0.0,-335.0,0
GRID,5291,0,320.2688,0.0,-330.0,0
GRID,5292,0,320.2688,0.0,-325.0,0
GRID,5293,0,320.2688,0.0,-320.0,0
GRID,5294,0,320.2688,0.0,-315.0,0
GRID,5295,0,320.2688,0.0,-310.0,0
GRID,5296,0,320.2688,0.0,-305.0,0
GRID,5297,0,320.2688,0.0,-300.0,0
GRID,5298,0,320.2688,0.0,-295.0,0
GRID,5299,0,320.2688,0.0,-290.0,0
GRID,5300,0,320.2688,0.0,-285.0,0
GRID,5301,0,320.2688,0.0,-280.0,0
GRID,5302,0,320.2688,0.0,-275.0,0
GRID,5303,0,320.2688,0.0,-270.0,0
GRID,5304,0,320.2688,0.0,-265.0,0
GRID,5305,0,320.2688,0.0,-260.0,0
GRID,5306,0,320.2688,0.0,-255.0,0
GRID,5307,0,320.2688,0.0,-250.0,0
GRID,5308,0,320.2688,0.0,-245.0,0
GRID,5309,0,320.2688,0.0,-240.0,0
GRID,5310,0,320.2688,0.0,-235.0,0
GRID,5311,0,320.2688,0.0,-230.0,0
GRID,5312,0,320.2688,0.0,-225.0,0
GRID,5313,0,320.2688,0.0,-220.0,0
GRID,5314,0,320.2688,0.0,-215.0,0
GRID,5315,0,320.2688,0.0,-210.0,0
GRID,5316,0,320.2688,0.0,-205.0,0
GRID,5317,0,320.2688,0.0,-200.0,0
GRID,5318,0,320.2688,0.0,-195.0,0
GRID,5319,0,320.2688,0.0,-190.0,0
GRID,5320,0,320.2688,0.0,-185.0,0
GRID,5321,0,320.2688,0.0,-180.0,0
GRID,5322,0,320.2688,0.0,-175.0,0
GRID,5323,0,320.2688,0.0,-170.0,0
GRID,5324,0,320.2688,0.0,-165.0,0
GRID,5325,0,320.2688,0.0,-160.0,0
GRID,5326,0,320.2688,0.0,-155.0,0
GRID,5327,0,320.2688,0.0,-150.0,0
GRID,5328,0,320.2688,0.0,-145.0,0
GRID,5329,0,320.2688,0.0,-140.0,0
GRID,5330,0,320.2688,0.0,-135.0,0
GRID,5331,0,320.2688,0.0,-130.0,0
GRID,5332,0,320.2688,0.0,-125.0,0
GRID,5333,0,320.2688,0.0,-120.0,0
GRID,5334,0,320.2688,0.0,-115.0,0
GRID,5335,0,320.2688,0.0,-110.0,0
GRID,5336,0,320.2688,0.0,-105.0,0
GRID,5337,0,320.2688,0.0,-100.0,0
GRID,5338,0,320.2688,0.0,-95.0,0
GRID,5339,0,320.2688,0.0,-90.0,0
GRID,5340,0,320.2688,0.0,-85.0,0
GRID,5341,0,320.2688,0.0,-80.0,0
GRID,5342,0,320.2688,0.0,-75.0,0
GRID,5343,0,320.2688,0.0,-70.0,0
GRID,5344,0,320.2688,0.0,-65.0,0
GRID,5345,0,320.2688,0.0,-60.0,0
GRID,5346,0,320.2688,0.0,-55.0,0
GRID,5347,0,320.2688,0.0,-50.0,0
GRID,5348,0,320.2688,0.0,-45.0,0
GRID,5349,0,320.2688,0.0,-40.0,0
GRID,5350,0,320.2688,0.0,-35.0,0
GRID,5351,0,320.2688,0.0,-30.0,0
GRID,5352,0,320.2688,0.0,-25.0,0
GRID,5353,0,320.2688,0.0,-20.0,0
GRID,5354,0,320.2688,0.0,-15.0,0
GRID,5355,0,320.2688,0.0,-10.0,0
GRID,5356,0,320.2688,0.0,-5.0,0
GRID,5357,0,327.025,0.0,-1045.0,0
GRID,5358,0,327.025,0.0,-1040.0,0
GRID,5359,0,327.025,0.0,-1035.0,0
GRID,5360,0,327.025,0.0,-1030.0,0
GRID,5361,0,327.025,0.0,-1025.0,0
GRID,5362,0,327.025,0.0,-1020.0,0
GRID,5363,0,327.025,0.0,-1015.0,0
GRID,5364,0,327.025,0.0,-1010.0,0
GRID,5365,0,327.025,0.0,-1005.0,0
GRID,5366,0,327.025,0.0,-1000.0,0
GRID,5367,0,327.025,0.0,-995.0,0
GRID,5368,0,327.025,0.0,-990.0,0
GRID,5369,0,327.025,0.0,-985.0,0
GRID,5370,0,327.025,0.0,-980.0,0
GRID,5371,0,327.025,0.0,-975.0,0
GRID,5372,0,327.025,0.0,-970.0,0
GRID,5373,0,327.025,0.0,-965.0,0
GRID,5374,0,327.025,0.0,-960.0,0
GRID,5375,0,327.025,0.0,-955.0,0
GRID,5376,0,327.025,0.0,-950.0,0
GRID,5377,0,327.025,0.0,-945.0,0
GRID,5378,0,327.025,0.0,-940.0,0
GRID,5379,0,327.025,0.0,-935.0,0
GRID,5380,0,327.025,0.0,-930.0,0
GRID,5381,0,327.025,0.0,-925.0,0
GRID,5382,0,327.025,0.0,-920.0,0
GRID,5383,0,327.025,0.0,-915.0,0
GRID,5384,0,327.025,0.0,-910.0,0
GRID,5385,0,327.025,0.0,-905.0,0
GRID,5386,0,327.025,0.0,-900.0,0
GRID,5387,0,327.025,0.0,-895.0,0
GRID,5388,0,327.025,0.0,-890.0,0
GRID,5389,0,327.025,0.0,-885.0,0
GRID,5390,0,327.025,0.0,-880.0,0
GRID,5391,0,327.025,0.0,-875.0,0
GRID,5392,0,327.025,0.0,-870.0,0
GRID,5393,0,327.025,0.0,-865.0,0
GRID,5394,0,327.025,0.0,-860.0,0
GRID,5395,0,327.025,0.0,-855.0,0
GRID,5396,0,327.025,0.0,-850.0,0
GRID,5397,0,327.025,0.0,-845.0,0
GRID,5398,0,327.025,0.0,-840.0,0
GRID,5399,0,327.025,0.0,-835.0,0
GRID,5400,0,327.025,0.0,-830.0,0
GRID,5401,0,327.025,0.0,-825.0,0
GRID,5402,0,327.025,0.0,-820.0,0
GRID,5403,0,327.025,0.0,-815.0,0
GRID,5404,0,327.025,0.0,-810.0,0
GRID,5405,0,327.025,0.0,-805.0,0
GRID,5406,0,327.025,0.0,-800.0,0
GRID,5407,0,327.025,0.0,-795.0,0
GRID,5408,0,327.025,0.0,-790.0,0
GRID,5409,0,327.025,0.0,-785.0,0
GRID,5410,0,327.025,0.0,-780.0,0
GRID,5411,0,327.025,0.0,-775.0,0
GRID,5412,0,327.025,0.0,-770.0,0
GRID,5413,0,327.025,0.0,-765.0,0
GRID,5414,0,327.025,0.0,-760.0,0
GRID,5415,0,327.025,0.0,-755.0,0
GRID,5416,0,327.025,0.0,-750.0,0
GRID,5417,0,327.025,0.0,-745.0,0
GRID,5418,0,327.025,0.0,-740.0,0
GRID,5419,0,327.025,0.0,-735.0,0
GRID,5420,0,327.025,0.0,-730.0,0
GRID,5421,0,327.025,0.0,-725.0,0
GRID,5422,0,327.025,0.0,-720.0,0
GRID,5423,0,327.025,0.0,-715.0,0
GRID,5424,0,327.025,0.0,-710.0,0
GRID,5425,0,327.025,0.0,-705.0,0
GRID,5426,0,327.025,0.0,-700.0,0
GRID,5427,0,327.025,0.0,-695.0,0
GRID,5428,0,327.025,0.0,-690.0,0
GRID,5429,0,327.025,0.0,-685.0,0
GRID,5430,0,327.025,0.0,-680.0,0
GRID,5431,0,327.025,0.0,-675.0,0
GRID,5432,0,327.025,0.0,-670.0,0
GRID,5433,0,327.025,0.0,-665.0,0
GRID,5434,0,327.025,0.0,-660.0,0
GRID,5435,0,327.025,0.0,-655.0,0
GRID,5436,0,327.025,0.0,-650.0,0
GRID,5437,0,327.025,0.0,-645.0,0
GRID,5438,0,327.025,0.0,-640.0,0
GRID,5439,0,327.025,0.0,-635.0,0
GRID,5440,0,327.025,0.0,-630.0,0
GRID,5441,0,327.025,0.0,-625.0,0
GRID,5442,0,327.025,0.0,-620.0,0
GRID,5443,0,327.025,0.0,-615.0,0
GRID,5444,0,327.025,0.0,-610.0,0
GRID,5445,0,327.025,0.0,-605.0,0
GRID,5446,0,327.025,0.0,-600.0,0
GRID,5447,0,327.025,0.0,-595.0,0
GRID,5448,0,327.025,0.0,-590.0,0
GRID,5449,0,327.025,0.0,-585.0,0
GRID,5450,0,327.025,0.0,-580.0,0
GRID,5451,0,327.025,0.0,-575.0,0
GRID,5452,0,327.025,0.0,-570.0,0
GRID,5453,0,327.025,0.0,-565.0,0
GRID,5454,0,327.025,0.0,-560.0,0
GRID,5455,0,327.025,0.0,-555.0,0
GRID,5456,0,327.025,0.0,-550.0,0
GRID,5457,0,327.025,0.0,-545.0,0
GRID,5458,0,327.025,0.0,-540.0,0
GRID,5459,0,327.025,0.0,-535.0,0
GRID,5460,0,327.025,0.0,-530.0,0
GRID,5461,0,327.025,0.0,-525.0,0
GRID,5462,0,327.025,0.0,-520.0,0
GRID,5463,0,327.025,0.0,-515.0,0
GRID,5464,0,327.025,0.0,-510.0,0
GRID,5465,0,327.025,0.0,-505.0,0
GRID,5466,0,327.025,0.0,-500.0,0
GRID,5467,0,327.025,0.0,-495.0,0
GRID,5468,0,327.025,0.0,-490.0,0
GRID,5469,0,327.025,0.0,-485.0,0
GRID,5470,0,327.025,0.0,-480.0,0
GRID,5471,0,327.025,0.0,-475.0,0
GRID,5472,0,327.025,0.0,-470.0,0
GRID,5473,0,327.025,0.0,-465.0,0
GRID,5474,0,327.025,0.0,-460.0,0
GRID,5475,0,327.025,0.0,-455.0,0
GRID,5476,0,327.025,0.0,-450.0,0
GRID,5477,0,327.025,0.0,-445.0,0
GRID,5478,0,327.025,0.0,-440.0,0
GRID,5479,0,327.025,0.0,-435.0,0
GRID,5480,0,327.025,0.0,-430.0,0
GRID,5481,0,327.025,0.0,-425.0,0
GRID,5482,0,327.025,0.0,-420.0,0
GRID,5483,0,327.025,0.0,-415.0,0
GRID,5484,0,327.025,0.0,-410.0,0
GRID,5485,0,327.025,0.0,-405.0,0
GRID,5486,0,327.025,0.0,-400.0,0
GRID,5487,0,327.025,0.0,-395.0,0
GRID,5488,0,327.025,0.0,-390.0,0
GRID,5489,0,327.025,0.0,-385.0,0
GRID,5490,0,327.025,0.0,-380.0,0
GRID,5491,0,327.025,0.0,-375.0,0
GRID,5492,0,327.025,0.0,-370.0,0
GRID,5493,0,327.025,0.0,-365.0,0
GRID,5494,0,327.025,0.0,-360.0,0
GRID,5495,0,327.025,0.0,-355.0,0
GRID,5496,0,327.025,0.0,-350.0,0
GRID,5497,0,327.025,0.0,-345.0,0
GRID,5498,0,327.025,0.0,-340.0,0
GRID,5499,0,327.025,0.0,-335.0,0
GRID,5500,0,327.025,0.0,-330.0,0
GRID,5501,0,327.025,0.0,-325.0,0
GRID,5502,0,327.025,0.0,-320.0,0
GRID,5503,0,327.025,0.0,-315.0,0
GRID,5504,0,327.025,0.0,-310.0,0
GRID,5505,0,327.025,0.0,-305.0,0
GRID,5506,0,327.025,0.0,-300.0,0
GRID,5507,0,327.025,0.0,-295.0,0
GRID,5508,0,327.025,0.0,-290.0,0
GRID,5509,0,327.025,0.0,-285.0,0
GRID,5510,0,327.025,0.0,-280.0,0
GRID,5511,0,327.025,0.0,-275.0,0
GRID,5512,0,327.025,0.0,-270.0,0
GRID,5513,0,327.025,0.0,-265.0,0
GRID,5514,0,327.025,0.0,-260.0,0
GRID,5515,0,327.025,0.0,-255.0,0
GRID,5516,0,327.025,0.0,-250.0,0
GRID,5517,0,327.025,0.0,-245.0,0
GRID,5518,0,327.025,0.0,-240.0,0
GRID,5519,0,327.025,0.0,-235.0,0
GRID,5520,0,327.025,0.0,-230.0,0
GRID,5521,0,327.025,0.0,-225.0,0
GRID,5522,0,327.025,0.0,-220.0,0
GRID,5523,0,327.025,0.0,-215.0,0
GRID,5524,0,327.025,0.0,-210.0,0
GRID,5525,0,327.025,0.0,-205.0,0
GRID,5526,0,327.025,0.0,-200.0,0
GRID,5527,0,327.025,0.0,-195.0,0
GRID,5528,0,327.025,0.0,-190.0,0
GRID,5529,0,327.025,0.0,-185.0,0
GRID,5530,0,327.025,0.0,-180.0,0
GRID,5531,0,327.025,0.0,-175.0,0
GRID,5532,0,327.025,0.0,-170.0,0
GRID,5533,0,327.025,0.0,-165.0,0
GRID,5534,0,327.025,0.0,-160.0,0
GRID,5535,0,327.025,0.0,-155.0,0
GRID,5536,0,327.025,0.0,-150.0,0
GRID,5537,0,327.025,0.0,-145.0,0
GRID,5538,0,327.025,0.0,-140.0,0
GRID,5539,0,327.025,0.0,-135.0,0
GRID,5540,0,327.025,0.0,-130.0,0
GRID,5541,0,327.025,0.0,-125.0,0
GRID,5542,0,327.025,0.0,-120.0,0
GRID,5543,0,327.025,0.0,-115.0,0
GRID,5544,0,327.025,0.0,-110.0,0
GRID,5545,0,327.025,0.0,-105.0,0
GRID,5546,0,327.025,0.0,-100.0,0
GRID,5547,0,327.025,0.0,-95.0,0
GRID,5548,0,327.025,0.0,-90.0,0
GRID,5549,0,327.025,0.0,-85.0,0
GRID,5550,0,327.025,0.0,-80.0,0
GRID,5551,0,327.025,0.0,-75.0,0
GRID,5552,0,327.025,0.0,-70.0,0
GRID,5553,0,327.025,0.0,-65.0,0
GRID,5554,0,327.025,0.0,-60.0,0
GRID,5555,0,327.025,0.0,-55.0,0
GRID,5556,0,327.025,0.0,-50.0,0
GRID,5557,0,327.025,0.0,-45.0,0
GRID,5558,0,327.025,0.0,-40.0,0
GRID,5559,0,327.025,0.0,-35.0,0
GRID,5560,0,327.025,0.0,-30.0,0
GRID,5561,0,327.025,0.0,-25.0,0
GRID,5562,0,327.025,0.0,-20.0,0
GRID,5563,0,327.025,0.0,-15.0,0
GRID,5564,0,327.025,0.0,-10.0,0
GRID,5565,0,327.025,0.0,-5.0,0
GRID,5566,0,333.7813,0.0,-1045.0,0
GRID,5567,0,333.7813,0.0,-1040.0,0
GRID,5568,0,333.7813,0.0,-1035.0,0
GRID,5569,0,333.7813,0.0,-1030.0,0
GRID,5570,0,333.7813,0.0,-1025.0,0
GRID,5571,0,333.7813,0.0,-1020.0,0
GRID,5572,0,333.7813,0.0,-1015.0,0
GRID,5573,0,333.7813,0.0,-1010.0,0
GRID,5574,0,333.7813,0.0,-1005.0,0
GRID,5575,0,333.7813,0.0,-1000.0,0
GRID,5576,0,333.7813,0.0,-995.0,0
GRID,5577,0,333.7813,0.0,-990.0,0
GRID,5578,0,333.7813,0.0,-985.0,0
GRID,5579,0,333.7813,0.0,-980.0,0
GRID,5580,0,333.7813,0.0,-975.0,0
GRID,5581,0,333.7813,0.0,-970.0,0
GRID,5582,0,333.7813,0.0,-965.0,0
GRID,5583,0,333.7813,0.0,-960.0,0
GRID,5584,0,333.7813,0.0,-955.0,0
GRID,5585,0,333.7813,0.0,-950.0,0
GRID,5586,0,333.7813,0.0,-945.0,0
GRID,5587,0,333.7813,0.0,-940.0,0
GRID,5588,0,333.7813,0.0,-935.0,0
GRID,5589,0,333.7813,0.0,-930.0,0
GRID,5590,0,333.7813,0.0,-925.0,0
GRID,5591,0,333.7813,0.0,-920.0,0
GRID,5592,0,333.7813,0.0,-915.0,0
GRID,5593,0,333.7813,0.0,-910.0,0
GRID,5594,0,333.7813,0.0,-905.0,0
GRID,5595,0,333.7813,0.0,-900.0,0
GRID,5596,0,333.7813,0.0,-895.0,0
GRID,5597,0,333.7813,0.0,-890.0,0
GRID,5598,0,333.7813,0.0,-885.0,0
GRID,5599,0,333.7813,0.0,-880.0,0
GRID,5600,0,333.7813,0.0,-875.0,0
GRID,5601,0,333.7813,0.0,-870.0,0
GRID,5602,0,333.7813,0.0,-865.0,0
GRID,5603,0,333.7813,0.0,-860.0,0
GRID,5604,0,333.7813,0.0,-855.0,0
GRID,5605,0,333.7813,0.0,-850.0,0
GRID,5606,0,333.7813,0.0,-845.0,0
GRID,5607,0,333.7813,0.0,-840.0,0
GRID,5608,0,333.7813,0.0,-835.0,0
GRID,5609,0,333.7813,0.0,-830.0,0
GRID,5610,0,333.7813,0.0,-825.0,0
GRID,5611,0,333.7813,0.0,-820.0,0
GRID,5612,0,333.7813,0.0,-815.0,0
GRID,5613,0,333.7813,0.0,-810.0,0
GRID,5614,0,333.7813,0.0,-805.0,0
GRID,5615,0,333.7813,0.0,-800.0,0
GRID,5616,0,333.7813,0.0,-795.0,0
GRID,5617,0,333.7813,0.0,-790.0,0
GRID,5618,0,333.7813,0.0,-785.0,0
GRID,5619,0,333.7813,0.0,-780.0,0
GRID,5620,0,333.7813,0.0,-775.0,0
GRID,5621,0,333.7813,0.0,-770.0,0
GRID,5622,0,333.7813,0.0,-765.0,0
GRID,5623,0,333.7813,0.0,-760.0,0
GRID,5624,0,333.7813,0.0,-755.0,0
GRID,5625,0,333.7813,0.0,-750.0,0
GRID,5626,0,333.7813,0.0,-745.0,0
GRID,5627,0,333.7813,0.0,-740.0,0
GRID,5628,0,333.7813,0.0,-735.0,0
GRID,5629,0,333.7813,0.0,-730.0,0
GRID,5630,0,333.7813,0.0,-725.0,0
GRID,5631,0,333.7813,0.0,-720.0,0
GRID,5632,0,333.7813,0.0,-715.0,0
GRID,5633,0,333.7813,0.0,-710.0,0
GRID,5634,0,333.7813,0.0,-705.0,0
GRID,5635,0,333.7813,0.0,-700.0,0
GRID,5636,0,333.7813,0.0,-695.0,0
GRID,5637,0,333.7813,0.0,-690.0,0
GRID,5638,0,333.7813,0.0,-685.0,0
GRID,5639,0,333.7813,0.0,-680.0,0
GRID,5640,0,333.7813,0.0,-675.0,0
GRID,5641,0,333.7813,0.0,-670.0,0
GRID,5642,0,333.7813,0.0,-665.0,0
GRID,5643,0,333.7813,0.0,-660.0,0
GRID,5644,0,333.7813,0.0,-655.0,0
GRID,5645,0,333.7813,0.0,-650.0,0
GRID,5646,0,333.7813,0.0,-645.0,0
GRID,5647,0,333.7813,0.0,-640.0,0
GRID,5648,0,333.7813,0.0,-635.0,0
GRID,5649,0,333.7813,0.0,-630.0,0
GRID,5650,0,333.7813,0.0,-625.0,0
GRID,5651,0,333.7813,0.0,-620.0,0
GRID,5652,0,333.7813,0.0,-615.0,0
GRID,5653,0,333.7813,0.0,-610.0,0
GRID,5654,0,333.7813,0.0,-605.0,0
GRID,5655,0,333.7813,0.0,-600.0,0
GRID,5656,0,333.7813,0.0,-595.0,0
GRID,5657,0,333.7813,0.0,-590.0,0
GRID,5658,0,333.7813,0.0,-585.0,0
GRID,5659,0,333.7813,0.0,-580.0,0
GRID,5660,0,333.7813,0.0,-575.0,0
GRID,5661,0,333.7813,0.0,-570.0,0
GRID,5662,0,333.7813,0.0,-565.0,0
GRID,5663,0,333.7813,0.0,-560.0,0
GRID,5664,0,333.7813,0.0,-555.0,0
GRID,5665,0,333.7813,0.0,-550.0,0
GRID,5666,0,333.7813,0.0,-545.0,0
GRID,5667,0,333.7813,0.0,-540.0,0
GRID,5668,0,333.7813,0.0,-535.0,0
GRID,5669,0,333.7813,0.0,-530.0,0
GRID,5670,0,333.7813,0.0,-525.0,0
GRID,5671,0,333.7813,0.0,-520.0,0
GRID,5672,0,333.7813,0.0,-515.0,0
GRID,5673,0,333.7813,0.0,-510.0,0
GRID,5674,0,333.7813,0.0,-505.0,0
GRID,5675,0,333.7813,0.0,-500.0,0
GRID,5676,0,333.7813,0.0,-495.0,0
GRID,5677,0,333.7813,0.0,-490.0,0
GRID,5678,0,333.7813,0.0,-485.0,0
GRID,5679,0,333.7813,0.0,-480.0,0
GRID,5680,0,333.7813,0.0,-475.0,0
GRID,5681,0,333.7813,0.0,-470.0,0
GRID,5682,0,333.7813,0.0,-465.0,0
GRID,5683,0,333.7813,0.0,-460.0,0
GRID,5684,0,333.7813,0.0,-455.0,0
GRID,5685,0,333.7813,0.0,-450.0,0
GRID,5686,0,333.7813,0.0,-445.0,0
GRID,5687,0,333.7813,0.0,-440.0,0
GRID,5688,0,333.7813,0.0,-435.0,0
GRID,5689,0,333.7813,0.0,-430.0,0
GRID,5690,0,333.7813,0.0,-425.0,0
GRID,5691,0,333.7813,0.0,-420.0,0
GRID,5692,0,333.7813,0.0,-415.0,0
GRID,5693,0,333.7813,0.0,-410.0,0
GRID,5694,0,333.7813,0.0,-405.0,0
GRID,5695,0,333.7813,0.0,-400.0,0
GRID,5696,0,333.7813,0.0,-395.0,0
GRID,5697,0,333.7813,0.0,-390.0,0
GRID,5698,0,333.7813,0.0,-385.0,0
GRID,5699,0,333.7813,0.0,-380.0,0
GRID,5700,0,333.7813,0.0,-375.0,0
GRID,5701,0,333.7813,0.0,-370.0,0
GRID,5702,0,333.7813,0.0,-365.0,0
GRID,5703,0,333.7813,0.0,-360.0,0
GRID,5704,0,333.7813,0.0,-355.0,0
GRID,5705,0,333.7813,0.0,-350.0,0
GRID,5706,0,333.7813,0.0,-345.0,0
GRID,5707,0,333.7813,0.0,-340.0,0
GRID,5708,0,333.7813,0.0,-335.0,0
GRID,5709,0,333.7813,0.0,-330.0,0
GRID,5710,0,333.7813,0.0,-325.0,0
GRID,5711,0,333.7813,0.0,-320.0,0
GRID,5712,0,333.7813,0.0,-315.0,0
GRID,5713,0,333.7813,0.0,-310.0,0
GRID,5714,0,333.7813,0.0,-305.0,0
GRID,5715,0,333.7813,0.0,-300.0,0
GRID,5716,0,333.7813,0.0,-295.0,0
GRID,5717,0,333.7813,0.0,-290.0,0
GRID,5718,0,333.7813,0.0,-285.0,0
GRID,5719,0,333.7813,0.0,-280.0,0
GRID,5720,0,333.7813,0.0,-275.0,0
GRID,5721,0,333.7813,0.0,-270.0,0
GRID,5722,0,333.7813,0.0,-265.0,0
GRID,5723,0,333.7813,0.0,-260.0,0
GRID,5724,0,333.7813,0.0,-255.0,0
GRID,5725,0,333.7813,0.0,-250.0,0
GRID,5726,0,333.7813,0.0,-245.0,0
GRID,5727,0,333.7813,0.0,-240.0,0
GRID,5728,0,333.7813,0.0,-235.0,0
GRID,5729,0,333.7813,0.0,-230.0,0
GRID,5730,0,333.7813,0.0,-225.0,0
GRID,5731,0,333.7813,0.0,-220.0,0
GRID,5732,0,333.7813,0.0,-215.0,0
GRID,5733,0,333.7813,0.0,-210.0,0
GRID,5734,0,333.7813,0.0,-205.0,0
GRID,5735,0,333.7813,0.0,-200.0,0
GRID,5736,0,333.7813,0.0,-195.0,0
GRID,5737,0,333.7813,0.0,-190.0,0
GRID,5738,0,333.7813,0.0,-185.0,0
GRID,5739,0,333.7813,0.0,-180.0,0
GRID,5740,0,333.7813,0.0,-175.0,0
GRID,5741,0,333.7813,0.0,-170.0,0
GRID,5742,0,333.7813,0.0,-165.0,0
GRID,5743,0,333.7813,0.0,-160.0,0
GRID,5744,0,333.7813,0.0,-155.0,0
GRID,5745,0,333.7813,0.0,-150.0,0
GRID,5746,0,333.7813,0.0,-145.0,0
GRID,5747,0,333.7813,0.0,-140.0,0
GRID,5748,0,333.7813,0.0,-135.0,0
GRID,5749,0,333.7813,0.0,-130.0,0
GRID,5750,0,333.7813,0.0,-125.0,0
GRID,5751,0,333.7813,0.0,-120.0,0
GRID,5752,0,333.7813,0.0,-115.0,0
GRID,5753,0,333.7813,0.0,-110.0,0
GRID,5754,0,333.7813,0.0,-105.0,0
GRID,5755,0,333.7813,0.0,-100.0,0
GRID,5756,0,333.7813,0.0,-95.0,0
GRID,5757,0,333.7813,0.0,-90.0,0
GRID,5758,0,333.7813,0.0,-85.0,0
GRID,5759,0,333.7813,0.0,-80.0,0
GRID,5760,0,333.7813,0.0,-75.0,0
GRID,5761,0,333.7813,0.0,-70.0,0
GRID,5762,0,333.7813,0.0,-65.0,0
GRID,5763,0,333.7813,0.0,-60.0,0
GRID,5764,0,333.7813,0.0,-55.0,0
GRID,5765,0,333.7813,0.0,-50.0,0
GRID,5766,0,333.7813,0.0,-45.0,0
GRID,5767,0,333.7813,0.0,-40.0,0
GRID,5768,0,333.7813,0.0,-35.0,0
GRID,5769,0,333.7813,0.0,-30.0,0
GRID,5770,0,333.7813,0.0,-25.0,0
GRID,5771,0,333.7813,0.0,-20.0,0
GRID,5772,0,333.7813,0.0,-15.0,0
GRID,5773,0,333.7813,0.0,-10.0,0
GRID,5774,0,333.7813,0.0,-5.0,0
GRID,5775,0,340.5375,0.0,-1045.0,0
GRID,5776,0,340.5375,0.0,-1040.0,0
GRID,5777,0,340.5375,0.0,-1035.0,0
GRID,5778,0,340.5375,0.0,-1030.0,0
GRID,5779,0,340.5375,0.0,-1025.0,0
GRID,5780,0,340.5375,0.0,-1020.0,0
GRID,5781,0,340.5375,0.0,-1015.0,0
GRID,5782,0,340.5375,0.0,-1010.0,0
GRID,5783,0,340.5375,0.0,-1005.0,0
GRID,5784,0,340.5375,0.0,-1000.0,0
GRID,5785,0,340.5375,0.0,-995.0,0
GRID,5786,0,340.5375,0.0,-990.0,0
GRID,5787,0,340.5375,0.0,-985.0,0
GRID,5788,0,340.5375,0.0,-980.0,0
GRID,5789,0,340.5375,0.0,-975.0,0
GRID,5790,0,340.5375,0.0,-970.0,0
GRID,5791,0,340.5375,0.0,-965.0,0
GRID,5792,0,340.5375,0.0,-960.0,0
GRID,5793,0,340.5375,0.0,-955.0,0
GRID,5794,0,340.5375,0.0,-950.0,0
GRID,5795,0,340.5375,0.0,-945.0,0
GRID,5796,0,340.5375,0.0,-940.0,0
GRID,5797,0,340.5375,0.0,-935.0,0
GRID,5798,0,340.5375,0.0,-930.0,0
GRID,5799,0,340.5375,0.0,-925.0,0
GRID,5800,0,340.5375,0.0,-920.0,0
GRID,5801,0,340.5375,0.0,-915.0,0
GRID,5802,0,340.5375,0.0,-910.0,0
GRID,5803,0,340.5375,0.0,-905.0,0
GRID,5804,0,340.5375,0.0,-900.0,0
GRID,5805,0,340.5375,0.0,-895.0,0
GRID,5806,0,340.5375,0.0,-890.0,0
GRID,5807,0,340.5375,0.0,-885.0,0
GRID,5808,0,340.5375,0.0,-880.0,0
GRID,5809,0,340.5375,0.0,-875.0,0
GRID,5810,0,340.5375,0.0,-870.0,0
GRID,5811,0,340.5375,0.0,-865.0,0
GRID,5812,0,340.5375,0.0,-860.0,0
GRID,5813,0,340.5375,0.0,-855.0,0
GRID,5814,0,340.5375,0.0,-850.0,0
GRID,5815,0,340.5375,0.0,-845.0,0
GRID,5816,0,340.5375,0.0,-840.0,0
GRID,5817,0,340.5375,0.0,-835.0,0
GRID,5818,0,340.5375,0.0,-830.0,0
GRID,5819,0,340.5375,0.0,-825.0,0
GRID,5820,0,340.5375,0.0,-820.0,0
GRID,5821,0,340.5375,0.0,-815.0,0
GRID,5822,0,340.5375,0.0,-810.0,0
GRID,5823,0,340.5375,0.0,-805.0,0
GRID,5824,0,340.5375,0.0,-800.0,0
GRID,5825,0,340.5375,0.0,-795.0,0
GRID,5826,0,340.5375,0.0,-790.0,0
GRID,5827,0,340.5375,0.0,-785.0,0
GRID,5828,0,340.5375,0.0,-780.0,0
GRID,5829,0,340.5375,0.0,-775.0,0
GRID,5830,0,340.5375,0.0,-770.0,0
GRID,5831,0,340.5375,0.0,-765.0,0
GRID,5832,0,340.5375,0.0,-760.0,0
GRID,5833,0,340.5375,0.0,-755.0,0
GRID,5834,0,340.5375,0.0,-750.0,0
GRID,5835,0,340.5375,0.0,-745.0,0
GRID,5836,0,340.5375,0.0,-740.0,0
GRID,5837,0,340.5375,0.0,-735.0,0
GRID,5838,0,340.5375,0.0,-730.0,0
GRID,5839,0,340.5375,0.0,-725.0,0
GRID,5840,0,340.5375,0.0,-720.0,0
GRID,5841,0,340.5375,0.0,-715.0,0
GRID,5842,0,340.5375,0.0,-710.0,0
GRID,5843,0,340.5375,0.0,-705.0,0
GRID,5844,0,340.5375,0.0,-700.0,0
GRID,5845,0,340.5375,0.0,-695.0,0
GRID,5846,0,340.5375,0.0,-690.0,0
GRID,5847,0,340.5375,0.0,-685.0,0
GRID,5848,0,340.5375,0.0,-680.0,0
GRID,5849,0,340.5375,0.0,-675.0,0
GRID,5850,0,340.5375,0.0,-670.0,0
GRID,5851,0,340.5375,0.0,-665.0,0
GRID,5852,0,340.5375,0.0,-660.0,0
GRID,5853,0,340.5375,0.0,-655.0,0
GRID,5854,0,340.5375,0.0,-650.0,0
GRID,5855,0,340.5375,0.0,-645.0,0
GRID,5856,0,340.5375,0.0,-640.0,0
GRID,5857,0,340.5375,0.0,-635.0,0
GRID,5858,0,340.5375,0.0,-630.0,0
GRID,5859,0,340.5375,0.0,-625.0,0
GRID,5860,0,340.5375,0.0,-620.0,0
GRID,5861,0,340.5375,0.0,-615.0,0
GRID,5862,0,340.5375,0.0,-610.0,0
GRID,5863,0,340.5375,0.0,-605.0,0
GRID,5864,0,340.5375,0.0,-600.0,0
GRID,5865,0,340.5375,0.0,-595.0,0
GRID,5866,0,340.5375,0.0,-590.0,0
GRID,5867,0,340.5375,0.0,-585.0,0
GRID,5868,0,340.5375,0.0,-580.0,0
GRID,5869,0,340.5375,0.0,-575.0,0
GRID,5870,0,340.5375,0.0,-570.0,0
GRID,5871,0,340.5375,0.0,-565.0,0
GRID,5872,0,340.5375,0.0,-560.0,0
GRID,5873,0,340.5375,0.0,-555.0,0
GRID,5874,0,340.5375,0.0,-550.0,0
GRID,5875,0,340.5375,0.0,-545.0,0
GRID,5876,0,340.5375,0.0,-540.0,0
GRID,5877,0,340.5375,0.0,-535.0,0
GRID,5878,0,340.5375,0.0,-530.0,0
GRID,5879,0,340.5375,0.0,-525.0,0
GRID,5880,0,340.5375,0.0,-520.0,0
GRID,5881,0,340.5375,0.0,-515.0,0
GRID,5882,0,340.5375,0.0,-510.0,0
GRID,5883,0,340.5375,0.0,-505.0,0
GRID,5884,0,340.5375,0.0,-500.0,0
GRID,5885,0,340.5375,0.0,-495.0,0
GRID,5886,0,340.5375,0.0,-490.0,0
GRID,5887,0,340.5375,0.0,-485.0,0
GRID,5888,0,340.5375,0.0,-480.0,0
GRID,5889,0,340.5375,0.0,-475.0,0
GRID,5890,0,340.5375,0.0,-470.0,0
GRID,5891,0,340.5375,0.0,-465.0,0
GRID,5892,0,340.5375,0.0,-460.0,0
GRID,5893,0,340.5375,0.0,-455.0,0
GRID,5894,0,340.5375,0.0,-450.0,0
GRID,5895,0,340.5375,0.0,-445.0,0
GRID,5896,0,340.5375,0.0,-440.0,0
GRID,5897,0,340.5375,0.0,-435.0,0
GRID,5898,0,340.5375,0.0,-430.0,0
GRID,5899,0,340.5375,0.0,-425.0,0
GRID,5900,0,340.5375,0.0,-420.0,0
GRID,5901,0,340.5375,0.0,-415.0,0
GRID,5902,0,340.5375,0.0,-410.0,0
GRID,5903,0,340.5375,0.0,-405.0,0
GRID,5904,0,340.5375,0.0,-400.0,0
GRID,5905,0,340.5375,0.0,-395.0,0
GRID,5906,0,340.5375,0.0,-390.0,0
GRID,5907,0,340.5375,0.0,-385.0,0
GRID,5908,0,340.5375,0.0,-380.0,0
GRID,5909,0,340.5375,0.0,-375.0,0
GRID,5910,0,340.5375,0.0,-370.0,0
GRID,5911,0,340.5375,0.0,-365.0,0
GRID,5912,0,340.5375,0.0,-360.0,0
GRID,5913,0,340.5375,0.0,-355.0,0
GRID,5914,0,340.5375,0.0,-350.0,0
GRID,5915,0,340.5375,0.0,-345.0,0
GRID,5916,0,340.5375,0.0,-340.0,0
GRID,5917,0,340.5375,0.0,-335.0,0
GRID,5918,0,340.5375,0.0,-330.0,0
GRID,5919,0,340.5375,0.0,-325.0,0
GRID,5920,0,340.5375,0.0,-320.0,0
GRID,5921,0,340.5375,0.0,-315.0,0
GRID,5922,0,340.5375,0.0,-310.0,0
GRID,5923,0,340.5375,0.0,-305.0,0
GRID,5924,0,340.5375,0.0,-300.0,0
GRID,5925,0,340.5375,0.0,-295.0,0
GRID,5926,0,340.5375,0.0,-290.0,0
GRID,5927,0,340.5375,0.0,-285.0,0
GRID,5928,0,340.5375,0.0,-280.0,0
GRID,5929,0,340.5375,0.0,-275.0,0
GRID,5930,0,340.5375,0.0,-270.0,0
GRID,5931,0,340.5375,0.0,-265.0,0
GRID,5932,0,340.5375,0.0,-260.0,0
GRID,5933,0,340.5375,0.0,-255.0,0
GRID,5934,0,340.5375,0.0,-250.0,0
GRID,5935,0,340.5375,0.0,-245.0,0
GRID,5936,0,340.5375,0.0,-240.0,0
GRID,5937,0,340.5375,0.0,-235.0,0
GRID,5938,0,340.5375,0.0,-230.0,0
GRID,5939,0,340.5375,0.0,-225.0,0
GRID,5940,0,340.5375,0.0,-220.0,0
GRID,5941,0,340.5375,0.0,-215.0,0
GRID,5942,0,340.5375,0.0,-210.0,0
GRID,5943,0,340.5375,0.0,-205.0,0
GRID,5944,0,340.5375,0.0,-200.0,0
GRID,5945,0,340.5375,0.0,-195.0,0
GRID,5946,0,340.5375,0.0,-190.0,0
GRID,5947,0,340.5375,0.0,-185.0,0
GRID,5948,0,340.5375,0.0,-180.0,0
GRID,5949,0,340.5375,0.0,-175.0,0
GRID,5950,0,340.5375,0.0,-170.0,0
GRID,5951,0,340.5375,0.0,-165.0,0
GRID,5952,0,340.5375,0.0,-160.0,0
GRID,5953,0,340.5375,0.0,-155.0,0
GRID,5954,0,340.5375,0.0,-150.0,0
GRID,5955,0,340.5375,0.0,-145.0,0
GRID,5956,0,340.5375,0.0,-140.0,0
GRID,5957,0,340.5375,0.0,-135.0,0
GRID,5958,0,340.5375,0.0,-130.0,0
GRID,5959,0,340.5375,0.0,-125.0,0
GRID,5960,0,340.5375,0.0,-120.0,0
GRID,5961,0,340.5375,0.0,-115.0,0
GRID,5962,0,340.5375,0.0,-110.0,0
GRID,5963,0,340.5375,0.0,-105.0,0
GRID,5964,0,340.5375,0.0,-100.0,0
GRID,5965,0,340.5375,0.0,-95.0,0
GRID,5966,0,340.5375,0.0,-90.0,0
GRID,5967,0,340.5375,0.0,-85.0,0
GRID,5968,0,340.5375,0.0,-80.0,0
GRID,5969,0,340.5375,0.0,-75.0,0
GRID,5970,0,340.5375,0.0,-70.0,0
GRID,5971,0,340.5375,0.0,-65.0,0
GRID,5972,0,340.5375,0.0,-60.0,0
GRID,5973,0,340.5375,0.0,-55.0,0
GRID,5974,0,340.5375,0.0,-50.0,0
GRID,5975,0,340.5375,0.0,-45.0,0
GRID,5976,0,340.5375,0.0,-40.0,0
GRID,5977,0,340.5375,0.0,-35.0,0
GRID,5978,0,340.5375,0.0,-30.0,0
GRID,5979,0,340.5375,0.0,-25.0,0
GRID,5980,0,340.5375,0.0,-20.0,0
GRID,5981,0,340.5375,0.0,-15.0,0
GRID,5982,0,340.5375,0.0,-10.0,0
GRID,5983,0,340.5375,0.0,-5.0,0
GRID,5984,0,347.2938,0.0,-1045.0,0
GRID,5985,0,347.2938,0.0,-1040.0,0
GRID,5986,0,347.2938,0.0,-1035.0,0
GRID,5987,0,347.2938,0.0,-1030.0,0
GRID,5988,0,347.2938,0.0,-1025.0,0
GRID,5989,0,347.2938,0.0,-1020.0,0
GRID,5990,0,347.2938,0.0,-1015.0,0
GRID,5991,0,347.2938,0.0,-1010.0,0
GRID,5992,0,347.2938,0.0,-1005.0,0
GRID,5993,0,347.2938,0.0,-1000.0,0
GRID,5994,0,347.2938,0.0,-995.0,0
GRID,5995,0,347.2938,0.0,-990.0,0
GRID,5996,0,347.2938,0.0,-985.0,0
GRID,5997,0,347.2938,0.0,-980.0,0
GRID,5998,0,347.2938,0.0,-975.0,0
GRID,5999,0,347.2938,0.0,-970.0,0
GRID,6000,0,347.2938,0.0,-965.0,0
GRID,6001,0,347.2938,0.0,-960.0,0
GRID,6002,0,347.2938,0.0,-955.0,0
GRID,6003,0,347.2938,0.0,-950.0,0
GRID,6004,0,347.2938,0.0,-945.0,0
GRID,6005,0,347.2938,0.0,-940.0,0
GRID,6006,0,347.2938,0.0,-935.0,0
GRID,6007,0,347.2938,0.0,-930.0,0
GRID,6008,0,347.2938,0.0,-925.0,0
GRID,6009,0,347.2938,0.0,-920.0,0
GRID,6010,0,347.2938,0.0,-915.0,0
GRID,6011,0,347.2938,0.0,-910.0,0
GRID,6012,0,347.2938,0.0,-905.0,0
GRID,6013,0,347.2938,0.0,-900.0,0
GRID,6014,0,347.2938,0.0,-895.0,0
GRID,6015,0,347.2938,0.0,-890.0,0
GRID,6016,0,347.2938,0.0,-885.0,0
GRID,6017,0,347.2938,0.0,-880.0,0
GRID,6018,0,347.2938,0.0,-875.0,0
GRID,6019,0,347.2938,0.0,-870.0,0
GRID,6020,0,347.2938,0.0,-865.0,0
GRID,6021,0,347.2938,0.0,-860.0,0
GRID,6022,0,347.2938,0.0,-855.0,0
GRID,6023,0,347.2938,0.0,-850.0,0
GRID,6024,0,347.2938,0.0,-845.0,0
GRID,6025,0,347.2938,0.0,-840.0,0
GRID,6026,0,347.2938,0.0,-835.0,0
GRID,6027,0,347.2938,0.0,-830.0,0
GRID,6028,0,347.2938,0.0,-825.0,0
GRID,6029,0,347.2938,0.0,-820.0,0
GRID,6030,0,347.2938,0.0,-815.0,0
GRID,6031,0,347.2938,0.0,-810.0,0
GRID,6032,0,347.2938,0.0,-805.0,0
GRID,6033,0,347.2938,0.0,-800.0,0
GRID,6034,0,347.2938,0.0,-795.0,0
GRID,6035,0,347.2938,0.0,-790.0,0
GRID,6036,0,347.2938,0.0,-785.0,0
GRID,6037,0,347.2938,0.0,-780.0,0
GRID,6038,0,347.2938,0.0,-775.0,0
GRID,6039,0,347.2938,0.0,-770.0,0
GRID,6040,0,347.2938,0.0,-765.0,0
GRID,6041,0,347.2938,0.0,-760.0,0
GRID,6042,0,347.2938,0.0,-755.0,0
GRID,6043,0,347.2938,0.0,-750.0,0
GRID,6044,0,347.2938,0.0,-745.0,0
GRID,6045,0,347.2938,0.0,-740.0,0
GRID,6046,0,347.2938,0.0,-735.0,0
GRID,6047,0,347.2938,0.0,-730.0,0
GRID,6048,0,347.2938,0.0,-725.0,0
GRID,6049,0,347.2938,0.0,-720.0,0
GRID,6050,0,347.2938,0.0,-715.0,0
GRID,6051,0,347.2938,0.0,-710.0,0
GRID,6052,0,347.2938,0.0,-705.0,0
GRID,6053,0,347.2938,0.0,-700.0,0
GRID,6054,0,347.2938,0.0,-695.0,0
GRID,6055,0,347.2938,0.0,-690.0,0
GRID,6056,0,347.2938,0.0,-685.0,0
GRID,6057,0,347.2938,0.0,-680.0,0
GRID,6058,0,347.2938,0.0,-675.0,0
GRID,6059,0,347.2938,0.0,-670.0,0
GRID,6060,0,347.2938,0.0,-665.0,0
GRID,6061,0,347.2938,0.0,-660.0,0
GRID,6062,0,347.2938,0.0,-655.0,0
GRID,6063,0,347.2938,0.0,-650.0,0
GRID,6064,0,347.2938,0.0,-645.0,0
GRID,6065,0,347.2938,0.0,-640.0,0
GRID,6066,0,347.2938,0.0,-635.0,0
GRID,6067,0,347.2938,0.0,-630.0,0
GRID,6068,0,347.2938,0.0,-625.0,0
GRID,6069,0,347.2938,0.0,-620.0,0
GRID,6070,0,347.2938,0.0,-615.0,0
GRID,6071,0,347.2938,0.0,-610.0,0
GRID,6072,0,347.2938,0.0,-605.0,0
GRID,6073,0,347.2938,0.0,-600.0,0
GRID,6074,0,347.2938,0.0,-595.0,0
GRID,6075,0,347.2938,0.0,-590.0,0
GRID,6076,0,347.2938,0.0,-585.0,0
GRID,6077,0,347.2938,0.0,-580.0,0
GRID,6078,0,347.2938,0.0,-575.0,0
GRID,6079,0,347.2938,0.0,-570.0,0
GRID,6080,0,347.2938,0.0,-565.0,0
GRID,6081,0,347.2938,0.0,-560.0,0
GRID,6082,0,347.2938,0.0,-555.0,0
GRID,6083,0,347.2938,0.0,-550.0,0
GRID,6084,0,347.2938,0.0,-545.0,0
GRID,6085,0,347.2938,0.0,-540.0,0
GRID,6086,0,347.2938,0.0,-535.0,0
GRID,6087,0,347.2938,0.0,-530.0,0
GRID,6088,0,347.2938,0.0,-525.0,0
GRID,6089,0,347.2938,0.0,-520.0,0
GRID,6090,0,347.2938,0.0,-515.0,0
GRID,6091,0,347.2938,0.0,-510.0,0
GRID,6092,0,347.2938,0.0,-505.0,0
GRID,6093,0,347.2938,0.0,-500.0,0
GRID,6094,0,347.2938,0.0,-495.0,0
GRID,6095,0,347.2938,0.0,-490.0,0
GRID,6096,0,347.2938,0.0,-485.0,0
GRID,6097,0,347.2938,0.0,-480.0,0
GRID,6098,0,347.2938,0.0,-475.0,0
GRID,6099,0,347.2938,0.0,-470.0,0
GRID,6100,0,347.2938,0.0,-465.0,0
GRID,6101,0,347.2938,0.0,-460.0,0
GRID,6102,0,347.2938,0.0,-455.0,0
GRID,6103,0,347.2938,0.0,-450.0,0
GRID,6104,0,347.2938,0.0,-445.0,0
GRID,6105,0,347.2938,0.0,-440.0,0
GRID,6106,0,347.2938,0.0,-435.0,0
GRID,6107,0,347.2938,0.0,-430.0,0
GRID,6108,0,347.2938,0.0,-425.0,0
GRID,6109,0,347.2938,0.0,-420.0,0
GRID,6110,0,347.2938,0.0,-415.0,0
GRID,6111,0,347.2938,0.0,-410.0,0
GRID,6112,0,347.2938,0.0,-405.0,0
GRID,6113,0,347.2938,0.0,-400.0,0
GRID,6114,0,347.2938,0.0,-395.0,0
GRID,6115,0,347.2938,0.0,-390.0,0
GRID,6116,0,347.2938,0.0,-385.0,0
GRID,6117,0,347.2938,0.0,-380.0,0
GRID,6118,0,347.2938,0.0,-375.0,0
GRID,6119,0,347.2938,0.0,-370.0,0
GRID,6120,0,347.2938,0.0,-365.0,0
GRID,6121,0,347.2938,0.0,-360.0,0
GRID,6122,0,347.2938,0.0,-355.0,0
GRID,6123,0,347.2938,0.0,-350.0,0
GRID,6124,0,347.2938,0.0,-345.0,0
GRID,6125,0,347.2938,0.0,-340.0,0
GRID,6126,0,347.2938,0.0,-335.0,0
GRID,6127,0,347.2938,0.0,-330.0,0
GRID,6128,0,347.2938,0.0,-325.0,0
GRID,6129,0,347.2938,0.0,-320.0,0
GRID,6130,0,347.2938,0.0,-315.0,0
GRID,6131,0,347.2938,0.0,-310.0,0
GRID,6132,0,347.2938,0.0,-305.0,0
GRID,6133,0,347.2938,0.0,-300.0,0
GRID,6134,0,347.2938,0.0,-295.0,0
GRID,6135,0,347.2938,0.0,-290.0,0
GRID,6136,0,347.2938,0.0,-285.0,0
GRID,6137,0,347.2938,0.0,-280.0,0
GRID,6138,0,347.2938,0.0,-275.0,0
GRID,6139,0,347.2938,0.0,-270.0,0
GRID,6140,0,347.2938,0.0,-265.0,0
GRID,6141,0,347.2938,0.0,-260.0,0
GRID,6142,0,347.2938,0.0,-255.0,0
GRID,6143,0,347.2938,0.0,-250.0,0
GRID,6144,0,347.2938,0.0,-245.0,0
GRID,6145,0,347.2938,0.0,-240.0,0
GRID,6146,0,347.2938,0.0,-235.0,0
GRID,6147,0,347.2938,0.0,-230.0,0
GRID,6148,0,347.2938,0.0,-225.0,0
GRID,6149,0,347.2938,0.0,-220.0,0
GRID,6150,0,347.2938,0.0,-215.0,0
GRID,6151,0,347.2938,0.0,-210.0,0
GRID,6152,0,347.2938,0.0,-205.0,0
GRID,6153,0,347.2938,0.0,-200.0,0
GRID,6154,0,347.2938,0.0,-195.0,0
GRID,6155,0,347.2938,0.0,-190.0,0
GRID,6156,0,347.2938,0.0,-185.0,0
GRID,6157,0,347.2938,0.0,-180.0,0
GRID,6158,0,347.2938,0.0,-175.0,0
GRID,6159,0,347.2938,0.0,-170.0,0
GRID,6160,0,347.2938,0.0,-165.0,0
GRID,6161,0,347.2938,0.0,-160.0,0
GRID,6162,0,347.2938,0.0,-155.0,0
GRID,6163,0,347.2938,0.0,-150.0,0
GRID,6164,0,347.2938,0.0,-145.0,0
GRID,6165,0,347.2938,0.0,-140.0,0
GRID,6166,0,347.2938,0.0,-135.0,0
GRID,6167,0,347.2938,0.0,-130.0,0
GRID,6168,0,347.2938,0.0,-125.0,0
GRID,6169,0,347.2938,0.0,-120.0,0
GRID,6170,0,347.2938,0.0,-115.0,0
GRID,6171,0,347.2938,0.0,-110.0,0
GRID,6172,0,347.2938,0.0,-105.0,0
GRID,6173,0,347.2938,0.0,-100.0,0
GRID,6174,0,347.2938,0.0,-95.0,0
GRID,6175,0,347.2938,0.0,-90.0,0
GRID,6176,0,347.2938,0.0,-85.0,0
GRID,6177,0,347.2938,0.0,-80.0,0
GRID,6178,0,347.2938,0.0,-75.0,0
GRID,6179,0,347.2938,0.0,-70.0,0
GRID,6180,0,347.2938,0.0,-65.0,0
GRID,6181,0,347.2938,0.0,-60.0,0
GRID,6182,0,347.2938,0.0,-55.0,0
GRID,6183,0,347.2938,0.0,-50.0,0
GRID,6184,0,347.2938,0.0,-45.0,0
GRID,6185,0,347.2938,0.0,-40.0,0
GRID,6186,0,347.2938,0.0,-35.0,0
GRID,6187,0,347.2938,0.0,-30.0,0
GRID,6188,0,347.2938,0.0,-25.0,0
GRID,6189,0,347.2938,0.0,-20.0,0
GRID,6190,0,347.2938,0.0,-15.0,0
GRID,6191,0,347.2938,0.0,-10.0,0
GRID,6192,0,347.2938,0.0,-5.0,0
GRID,6193,0,354.05,0.0,-1045.0,0
GRID,6194,0,354.05,0.0,-1040.0,0
GRID,6195,0,354.05,0.0,-1035.0,0
GRID,6196,0,354.05,0.0,-1030.0,0
GRID,6197,0,354.05,0.0,-1025.0,0
GRID,6198,0,354.05,0.0,-1020.0,0
GRID,6199,0,354.05,0.0,-1015.0,0
GRID,6200,0,354.05,0.0,-1010.0,0
GRID,6201,0,354.05,0.0,-1005.0,0
GRID,6202,0,354.05,0.0,-1000.0,0
GRID,6203,0,354.05,0.0,-995.0,0
GRID,6204,0,354.05,0.0,-990.0,0
GRID,6205,0,354.05,0.0,-985.0,0
GRID,6206,0,354.05,0.0,-980.0,0
GRID,6207,0,354.05,0.0,-975.0,0
GRID,6208,0,354.05,0.0,-970.0,0
GRID,6209,0,354.05,0.0,-965.0,0
GRID,6210,0,354.05,0.0,-960.0,0
GRID,6211,0,354.05,0.0,-955.0,0
GRID,6212,0,354.05,0.0,-950.0,0
GRID,6213,0,354.05,0.0,-945.0,0
GRID,6214,0,354.05,0.0,-940.0,0
GRID,6215,0,354.05,0.0,-935.0,0
GRID,6216,0,354.05,0.0,-930.0,0
GRID,6217,0,354.05,0.0,-925.0,0
GRID,6218,0,354.05,0.0,-920.0,0
GRID,6219,0,354.05,0.0,-915.0,0
GRID,6220,0,354.05,0.0,-910.0,0
GRID,6221,0,354.05,0.0,-905.0,0
GRID,6222,0,354.05,0.0,-900.0,0
GRID,6223,0,354.05,0.0,-895.0,0
GRID,6224,0,354.05,0.0,-890.0,0
GRID,6225,0,354.05,0.0,-885.0,0
GRID,6226,0,354.05,0.0,-880.0,0
GRID,6227,0,354.05,0.0,-875.0,0
GRID,6228,0,354.05,0.0,-870.0,0
GRID,6229,0,354.05,0.0,-865.0,0
GRID,6230,0,354.05,0.0,-860.0,0
GRID,6231,0,354.05,0.0,-855.0,0
GRID,6232,0,354.05,0.0,-850.0,0
GRID,6233,0,354.05,0.0,-845.0,0
GRID,6234,0,354.05,0.0,-840.0,0
GRID,6235,0,354.05,0.0,-835.0,0
GRID,6236,0,354.05,0.0,-830.0,0
GRID,6237,0,354.05,0.0,-825.0,0
GRID,6238,0,354.05,0.0,-820.0,0
GRID,6239,0,354.05,0.0,-815.0,0
GRID,6240,0,354.05,0.0,-810.0,0
GRID,6241,0,354.05,0.0,-805.0,0
GRID,6242,0,354.05,0.0,-800.0,0
GRID,6243,0,354.05,0.0,-795.0,0
GRID,6244,0,354.05,0.0,-790.0,0
GRID,6245,0,354.05,0.0,-785.0,0
GRID,6246,0,354.05,0.0,-780.0,0
GRID,6247,0,354.05,0.0,-775.0,0
GRID,6248,0,354.05,0.0,-770.0,0
GRID,6249,0,354.05,0.0,-765.0,0
GRID,6250,0,354.05,0.0,-760.0,0
GRID,6251,0,354.05,0.0,-755.0,0
GRID,6252,0,354.05,0.0,-750.0,0
GRID,6253,0,354.05,0.0,-745.0,0
GRID,6254,0,354.05,0.0,-740.0,0
GRID,6255,0,354.05,0.0,-735.0,0
GRID,6256,0,354.05,0.0,-730.0,0
GRID,6257,0,354.05,0.0,-725.0,0
GRID,6258,0,354.05,0.0,-720.0,0
GRID,6259,0,354.05,0.0,-715.0,0
GRID,6260,0,354.05,0.0,-710.0,0
GRID,6261,0,354.05,0.0,-705.0,0
GRID,6262,0,354.05,0.0,-700.0,0
GRID,6263,0,354.05,0.0,-695.0,0
GRID,6264,0,354.05,0.0,-690.0,0
GRID,6265,0,354.05,0.0,-685.0,0
GRID,6266,0,354.05,0.0,-680.0,0
GRID,6267,0,354.05,0.0,-675.0,0
GRID,6268,0,354.05,0.0,-670.0,0
GRID,6269,0,354.05,0.0,-665.0,0
GRID,6270,0,354.05,0.0,-660.0,0
GRID,6271,0,354.05,0.0,-655.0,0
GRID,6272,0,354.05,0.0,-650.0,0
GRID,6273,0,354.05,0.0,-645.0,0
GRID,6274,0,354.05,0.0,-640.0,0
GRID,6275,0,354.05,0.0,-635.0,0
GRID,6276,0,354.05,0.0,-630.0,0
GRID,6277,0,354.05,0.0,-625.0,0
GRID,6278,0,354.05,0.0,-620.0,0
GRID,6279,0,354.05,0.0,-615.0,0
GRID,6280,0,354.05,0.0,-610.0,0
GRID,6281,0,354.05,0.0,-605.0,0
GRID,6282,0,354.05,0.0,-600.0,0
GRID,6283,0,354.05,0.0,-595.0,0
GRID,6284,0,354.05,0.0,-590.0,0
GRID,6285,0,354.05,0.0,-585.0,0
GRID,6286,0,354.05,0.0,-580.0,0
GRID,6287,0,354.05,0.0,-575.0,0
GRID,6288,0,354.05,0.0,-570.0,0
GRID,6289,0,354.05,0.0,-565.0,0
GRID,6290,0,354.05,0.0,-560.0,0
GRID,6291,0,354.05,0.0,-555.0,0
GRID,6292,0,354.05,0.0,-550.0,0
GRID,6293,0,354.05,0.0,-545.0,0
GRID,6294,0,354.05,0.0,-540.0,0
GRID,6295,0,354.05,0.0,-535.0,0
GRID,6296,0,354.05,0.0,-530.0,0
GRID,6297,0,354.05,0.0,-525.0,0
GRID,6298,0,354.05,0.0,-520.0,0
GRID,6299,0,354.05,0.0,-515.0,0
GRID,6300,0,354.05,0.0,-510.0,0
GRID,6301,0,354.05,0.0,-505.0,0
GRID,6302,0,354.05,0.0,-500.0,0
GRID,6303,0,354.05,0.0,-495.0,0
GRID,6304,0,354.05,0.0,-490.0,0
GRID,6305,0,354.05,0.0,-485.0,0
GRID,6306,0,354.05,0.0,-480.0,0
GRID,6307,0,354.05,0.0,-475.0,0
GRID,6308,0,354.05,0.0,-470.0,0
GRID,6309,0,354.05,0.0,-465.0,0
GRID,6310,0,354.05,0.0,-460.0,0
GRID,6311,0,354.05,0.0,-455.0,0
GRID,6312,0,354.05,0.0,-450.0,0
GRID,6313,0,354.05,0.0,-445.0,0
GRID,6314,0,354.05,0.0,-440.0,0
GRID,6315,0,354.05,0.0,-435.0,0
GRID,6316,0,354.05,0.0,-430.0,0
GRID,6317,0,354.05,0.0,-425.0,0
GRID,6318,0,354.05,0.0,-420.0,0
GRID,6319,0,354.05,0.0,-415.0,0
GRID,6320,0,354.05,0.0,-410.0,0
GRID,6321,0,354.05,0.0,-405.0,0
GRID,6322,0,354.05,0.0,-400.0,0
GRID,6323,0,354.05,0.0,-395.0,0
GRID,6324,0,354.05,0.0,-390.0,0
GRID,6325,0,354.05,0.0,-385.0,0
GRID,6326,0,354.05,0.0,-380.0,0
GRID,6327,0,354.05,0.0,-375.0,0
GRID,6328,0,354.05,0.0,-370.0,0
GRID,6329,0,354.05,0.0,-365.0,0
GRID,6330,0,354.05,0.0,-360.0,0
GRID,6331,0,354.05,0.0,-355.0,0
GRID,6332,0,354.05,0.0,-350.0,0
GRID,6333,0,354.05,0.0,-345.0,0
GRID,6334,0,354.05,0.0,-340.0,0
GRID,6335,0,354.05,0.0,-335.0,0
GRID,6336,0,354.05,0.0,-330.0,0
GRID,6337,0,354.05,0.0,-325.0,0
GRID,6338,0,354.05,0.0,-320.0,0
GRID,6339,0,354.05,0.0,-315.0,0
GRID,6340,0,354.05,0.0,-310.0,0
GRID,6341,0,354.05,0.0,-305.0,0
GRID,6342,0,354.05,0.0,-300.0,0
GRID,6343,0,354.05,0.0,-295.0,0
GRID,6344,0,354.05,0.0,-290.0,0
GRID,6345,0,354.05,0.0,-285.0,0
GRID,6346,0,354.05,0.0,-280.0,0
GRID,6347,0,354.05,0.0,-275.0,0
GRID,6348,0,354.05,0.0,-270.0,0
GRID,6349,0,354.05,0.0,-265.0,0
GRID,6350,0,354.05,0.0,-260.0,0
GRID,6351,0,354.05,0.0,-255.0,0
GRID,6352,0,354.05,0.0,-250.0,0
GRID,6353,0,354.05,0.0,-245.0,0
GRID,6354,0,354.05,0.0,-240.0,0
GRID,6355,0,354.05,0.0,-235.0,0
GRID,6356,0,354.05,0.0,-230.0,0
GRID,6357,0,354.05,0.0,-225.0,0
GRID,6358,0,354.05,0.0,-220.0,0
GRID,6359,0,354.05,0.0,-215.0,0
GRID,6360,0,354.05,0.0,-210.0,0
GRID,6361,0,354.05,0.0,-205.0,0
GRID,6362,0,354.05,0.0,-200.0,0
GRID,6363,0,354.05,0.0,-195.0,0
GRID,6364,0,354.05,0.0,-190.0,0
GRID,6365,0,354.05,0.0,-185.0,0
GRID,6366,0,354.05,0.0,-180.0,0
GRID,6367,0,354.05,0.0,-175.0,0
GRID,6368,0,354.05,0.0,-170.0,0
GRID,6369,0,354.05,0.0,-165.0,0
GRID,6370,0,354.05,0.0,-160.0,0
GRID,6371,0,354.05,0.0,-155.0,0
GRID,6372,0,354.05,0.0,-150.0,0
GRID,6373,0,354.05,0.0,-145.0,0
GRID,6374,0,354.05,0.0,-140.0,0
GRID,6375,0,354.05,0.0,-135.0,0
GRID,6376,0,354.05,0.0,-130.0,0
GRID,6377,0,354.05,0.0,-125.0,0
GRID,6378,0,354.05,0.0,-120.0,0
GRID,6379,0,354.05,0.0,-115.0,0
GRID,6380,0,354.05,0.0,-110.0,0
GRID,6381,0,354.05,0.0,-105.0,0
GRID,6382,0,354.05,0.0,-100.0,0
GRID,6383,0,354.05,0.0,-95.0,0
GRID,6384,0,354.05,0.0,-90.0,0
GRID,6385,0,354.05,0.0,-85.0,0
GRID,6386,0,354.05,0.0,-80.0,0
GRID,6387,0,354.05,0.0,-75.0,0
GRID,6388,0,354.05,0.0,-70.0,0
GRID,6389,0,354.05,0.0,-65.0,0
GRID,6390,0,354.05,0.0,-60.0,0
GRID,6391,0,354.05,0.0,-55.0,0
GRID,6392,0,354.05,0.0,-50.0,0
GRID,6393,0,354.05,0.0,-45.0,0
GRID,6394,0,354.05,0.0,-40.0,0
GRID,6395,0,354.05,0.0,-35.0,0
GRID,6396,0,354.05,0.0,-30.0,0
GRID,6397,0,354.05,0.0,-25.0,0
GRID,6398,0,354.05,0.0,-20.0,0
GRID,6399,0,354.05,0.0,-15.0,0
GRID,6400,0,354.05,0.0,-10.0,0
GRID,6401,0,354.05,0.0,-5.0,0
GRID,6402,0,360.8063,0.0,-1045.0,0
GRID,6403,0,360.8063,0.0,-1040.0,0
GRID,6404,0,360.8063,0.0,-1035.0,0
GRID,6405,0,360.8063,0.0,-1030.0,0
GRID,6406,0,360.8063,0.0,-1025.0,0
GRID,6407,0,360.8063,0.0,-1020.0,0
GRID,6408,0,360.8063,0.0,-1015.0,0
GRID,6409,0,360.8063,0.0,-1010.0,0
GRID,6410,0,360.8063,0.0,-1005.0,0
GRID,6411,0,360.8063,0.0,-1000.0,0
GRID,6412,0,360.8063,0.0,-995.0,0
GRID,6413,0,360.8063,0.0,-990.0,0
GRID,6414,0,360.8063,0.0,-985.0,0
GRID,6415,0,360.8063,0.0,-980.0,0
GRID,6416,0,360.8063,0.0,-975.0,0
GRID,6417,0,360.8063,0.0,-970.0,0
GRID,6418,0,360.8063,0.0,-965.0,0
GRID,6419,0,360.8063,0.0,-960.0,0
GRID,6420,0,360.8063,0.0,-955.0,0
GRID,6421,0,360.8063,0.0,-950.0,0
GRID,6422,0,360.8063,0.0,-945.0,0
GRID,6423,0,360.8063,0.0,-940.0,0
GRID,6424,0,360.8063,0.0,-935.0,0
GRID,6425,0,360.8063,0.0,-930.0,0
GRID,6426,0,360.8063,0.0,-925.0,0
GRID,6427,0,360.8063,0.0,-920.0,0
GRID,6428,0,360.8063,0.0,-915.0,0
GRID,6429,0,360.8063,0.0,-910.0,0
GRID,6430,0,360.8063,0.0,-905.0,0
GRID,6431,0,360.8063,0.0,-900.0,0
GRID,6432,0,360.8063,0.0,-895.0,0
GRID,6433,0,360.8063,0.0,-890.0,0
GRID,6434,0,360.8063,0.0,-885.0,0
GRID,6435,0,360.8063,0.0,-880.0,0
GRID,6436,0,360.8063,0.0,-875.0,0
GRID,6437,0,360.8063,0.0,-870.0,0
GRID,6438,0,360.8063,0.0,-865.0,0
GRID,6439,0,360.8063,0.0,-860.0,0
GRID,6440,0,360.8063,0.0,-855.0,0
GRID,6441,0,360.8063,0.0,-850.0,0
GRID,6442,0,360.8063,0.0,-845.0,0
GRID,6443,0,360.8063,0.0,-840.0,0
GRID,6444,0,360.8063,0.0,-835.0,0
GRID,6445,0,360.8063,0.0,-830.0,0
GRID,6446,0,360.8063,0.0,-825.0,0
GRID,6447,0,360.8063,0.0,-820.0,0
GRID,6448,0,360.8063,0.0,-815.0,0
GRID,6449,0,360.8063,0.0,-810.0,0
GRID,6450,0,360.8063,0.0,-805.0,0
GRID,6451,0,360.8063,0.0,-800.0,0
GRID,6452,0,360.8063,0.0,-795.0,0
GRID,6453,0,360.8063,0.0,-790.0,0
GRID,6454,0,360.8063,0.0,-785.0,0
GRID,6455,0,360.8063,0.0,-780.0,0
GRID,6456,0,360.8063,0.0,-775.0,0
GRID,6457,0,360.8063,0.0,-770.0,0
GRID,6458,0,360.8063,0.0,-765.0,0
GRID,6459,0,360.8063,0.0,-760.0,0
GRID,6460,0,360.8063,0.0,-755.0,0
GRID,6461,0,360.8063,0.0,-750.0,0
GRID,6462,0,360.8063,0.0,-745.0,0
GRID,6463,0,360.8063,0.0,-740.0,0
GRID,6464,0,360.8063,0.0,-735.0,0
GRID,6465,0,360.8063,0.0,-730.0,0
GRID,6466,0,360.8063,0.0,-725.0,0
GRID,6467,0,360.8063,0.0,-720.0,0
GRID,6468,0,360.8063,0.0,-715.0,0
GRID,6469,0,360.8063,0.0,-710.0,0
GRID,6470,0,360.8063,0.0,-705.0,0
GRID,6471,0,360.8063,0.0,-700.0,0
GRID,6472,0,360.8063,0.0,-695.0,0
GRID,6473,0,360.8063,0.0,-690.0,0
GRID,6474,0,360.8063,0.0,-685.0,0
GRID,6475,0,360.8063,0.0,-680.0,0
GRID,6476,0,360.8063,0.0,-675.0,0
GRID,6477,0,360.8063,0.0,-670.0,0
GRID,6478,0,360.8063,0.0,-665.0,0
GRID,6479,0,360.8063,0.0,-660.0,0
GRID,6480,0,360.8063,0.0,-655.0,0
GRID,6481,0,360.8063,0.0,-650.0,0
GRID,6482,0,360.8063,0.0,-645.0,0
GRID,6483,0,360.8063,0.0,-640.0,0
GRID,6484,0,360.8063,0.0,-635.0,0
GRID,6485,0,360.8063,0.0,-630.0,0
GRID,6486,0,360.8063,0.0,-625.0,0
GRID,6487,0,360.8063,0.0,-620.0,0
GRID,6488,0,360.8063,0.0,-615.0,0
GRID,6489,0,360.8063,0.0,-610.0,0
GRID,6490,0,360.8063,0.0,-605.0,0
GRID,6491,0,360.8063,0.0,-600.0,0
GRID,6492,0,360.8063,0.0,-595.0,0
GRID,6493,0,360.8063,0.0,-590.0,0
GRID,6494,0,360.8063,0.0,-585.0,0
GRID,6495,0,360.8063,0.0,-580.0,0
GRID,6496,0,360.8063,0.0,-575.0,0
GRID,6497,0,360.8063,0.0,-570.0,0
GRID,6498,0,360.8063,0.0,-565.0,0
GRID,6499,0,360.8063,0.0,-560.0,0
GRID,6500,0,360.8063,0.0,-555.0,0
GRID,6501,0,360.8063,0.0,-550.0,0
GRID,6502,0,360.8063,0.0,-545.0,0
GRID,6503,0,360.8063,0.0,-540.0,0
GRID,6504,0,360.8063,0.0,-535.0,0
GRID,6505,0,360.8063,0.0,-530.0,0
GRID,6506,0,360.8063,0.0,-525.0,0
GRID,6507,0,360.8063,0.0,-520.0,0
GRID,6508,0,360.8063,0.0,-515.0,0
GRID,6509,0,360.8063,0.0,-510.0,0
GRID,6510,0,360.8063,0.0,-505.0,0
GRID,6511,0,360.8063,0.0,-500.0,0
GRID,6512,0,360.8063,0.0,-495.0,0
GRID,6513,0,360.8063,0.0,-490.0,0
GRID,6514,0,360.8063,0.0,-485.0,0
GRID,6515,0,360.8063,0.0,-480.0,0
GRID,6516,0,360.8063,0.0,-475.0,0
GRID,6517,0,360.8063,0.0,-470.0,0
GRID,6518,0,360.8063,0.0,-465.0,0
GRID,6519,0,360.8063,0.0,-460.0,0
GRID,6520,0,360.8063,0.0,-455.0,0
GRID,6521,0,360.8063,0.0,-450.0,0
GRID,6522,0,360.8063,0.0,-445.0,0
GRID,6523,0,360.8063,0.0,-440.0,0
GRID,6524,0,360.8063,0.0,-435.0,0
GRID,6525,0,360.8063,0.0,-430.0,0
GRID,6526,0,360.8063,0.0,-425.0,0
GRID,6527,0,360.8063,0.0,-420.0,0
GRID,6528,0,360.8063,0.0,-415.0,0
GRID,6529,0,360.8063,0.0,-410.0,0
GRID,6530,0,360.8063,0.0,-405.0,0
GRID,6531,0,360.8063,0.0,-400.0,0
GRID,6532,0,360.8063,0.0,-395.0,0
GRID,6533,0,360.8063,0.0,-390.0,0
GRID,6534,0,360.8063,0.0,-385.0,0
GRID,6535,0,360.8063,0.0,-380.0,0
GRID,6536,0,360.8063,0.0,-375.0,0
GRID,6537,0,360.8063,0.0,-370.0,0
GRID,6538,0,360.8063,0.0,-365.0,0
GRID,6539,0,360.8063,0.0,-360.0,0
GRID,6540,0,360.8063,0.0,-355.0,0
GRID,6541,0,360.8063,0.0,-350.0,0
GRID,6542,0,360.8063,0.0,-345.0,0
GRID,6543,0,360.8063,0.0,-340.0,0
GRID,6544,0,360.8063,0.0,-335.0,0
GRID,6545,0,360.8063,0.0,-330.0,0
GRID,6546,0,360.8063,0.0,-325.0,0
GRID,6547,0,360.8063,0.0,-320.0,0
GRID,6548,0,360.8063,0.0,-315.0,0
GRID,6549,0,360.8063,0.0,-310.0,0
GRID,6550,0,360.8063,0.0,-305.0,0
GRID,6551,0,360.8063,0.0,-300.0,0
GRID,6552,0,360.8063,0.0,-295.0,0
GRID,6553,0,360.8063,0.0,-290.0,0
GRID,6554,0,360.8063,0.0,-285.0,0
GRID,6555,0,360.8063,0.0,-280.0,0
GRID,6556,0,360.8063,0.0,-275.0,0
GRID,6557,0,360.8063,0.0,-270.0,0
GRID,6558,0,360.8063,0.0,-265.0,0
GRID,6559,0,360.8063,0.0,-260.0,0
GRID,6560,0,360.8063,0.0,-255.0,0
GRID,6561,0,360.8063,0.0,-250.0,0
GRID,6562,0,360.8063,0.0,-245.0,0
GRID,6563,0,360.8063,0.0,-240.0,0
GRID,6564,0,360.8063,0.0,-235.0,0
GRID,6565,0,360.8063,0.0,-230.0,0
GRID,6566,0,360.8063,0.0,-225.0,0
GRID,6567,0,360.8063,0.0,-220.0,0
GRID,6568,0,360.8063,0.0,-215.0,0
GRID,6569,0,360.8063,0.0,-210.0,0
GRID,6570,0,360.8063,0.0,-205.0,0
GRID,6571,0,360.8063,0.0,-200.0,0
GRID,6572,0,360.8063,0.0,-195.0,0
GRID,6573,0,360.8063,0.0,-190.0,0
GRID,6574,0,360.8063,0.0,-185.0,0
GRID,6575,0,360.8063,0.0,-180.0,0
GRID,6576,0,360.8063,0.0,-175.0,0
GRID,6577,0,360.8063,0.0,-170.0,0
GRID,6578,0,360.8063,0.0,-165.0,0
GRID,6579,0,360.8063,0.0,-160.0,0
GRID,6580,0,360.8063,0.0,-155.0,0
GRID,6581,0,360.8063,0.0,-150.0,0
GRID,6582,0,360.8063,0.0,-145.0,0
GRID,6583,0,360.8063,0.0,-140.0,0
GRID,6584,0,360.8063,0.0,-135.0,0
GRID,6585,0,360.8063,0.0,-130.0,0
GRID,6586,0,360.8063,0.0,-125.0,0
GRID,6587,0,360.8063,0.0,-120.0,0
GRID,6588,0,360.8063,0.0,-115.0,0
GRID,6589,0,360.8063,0.0,-110.0,0
GRID,6590,0,360.8063,0.0,-105.0,0
GRID,6591,0,360.8063,0.0,-100.0,0
GRID,6592,0,360.8063,0.0,-95.0,0
GRID,6593,0,360.8063,0.0,-90.0,0
GRID,6594,0,360.8063,0.0,-85.0,0
GRID,6595,0,360.8063,0.0,-80.0,0
GRID,6596,0,360.8063,0.0,-75.0,0
GRID,6597,0,360.8063,0.0,-70.0,0
GRID,6598,0,360.8063,0.0,-65.0,0
GRID,6599,0,360.8063,0.0,-60.0,0
GRID,6600,0,360.8063,0.0,-55.0,0
GRID,6601,0,360.8063,0.0,-50.0,0
GRID,6602,0,360.8063,0.0,-45.0,0
GRID,6603,0,360.8063,0.0,-40.0,0
GRID,6604,0,360.8063,0.0,-35.0,0
GRID,6605,0,360.8063,0.0,-30.0,0
GRID,6606,0,360.8063,0.0,-25.0,0
GRID,6607,0,360.8063,0.0,-20.0,0
GRID,6608,0,360.8063,0.0,-15.0,0
GRID,6609,0,360.8063,0.0,-10.0,0
GRID,6610,0,360.8063,0.0,-5.0,0
GRID,6611,0,367.5625,0.0,-1045.0,0
GRID,6612,0,367.5625,0.0,-1040.0,0
GRID,6613,0,367.5625,0.0,-1035.0,0
GRID,6614,0,367.5625,0.0,-1030.0,0
GRID,6615,0,367.5625,0.0,-1025.0,0
GRID,6616,0,367.5625,0.0,-1020.0,0
GRID,6617,0,367.5625,0.0,-1015.0,0
GRID,6618,0,367.5625,0.0,-1010.0,0
GRID,6619,0,367.5625,0.0,-1005.0,0
GRID,6620,0,367.5625,0.0,-1000.0,0
GRID,6621,0,367.5625,0.0,-995.0,0
GRID,6622,0,367.5625,0.0,-990.0,0
GRID,6623,0,367.5625,0.0,-985.0,0
GRID,6624,0,367.5625,0.0,-980.0,0
GRID,6625,0,367.5625,0.0,-975.0,0
GRID,6626,0,367.5625,0.0,-970.0,0
GRID,6627,0,367.5625,0.0,-965.0,0
GRID,6628,0,367.5625,0.0,-960.0,0
GRID,6629,0,367.5625,0.0,-955.0,0
GRID,6630,0,367.5625,0.0,-950.0,0
GRID,6631,0,367.5625,0.0,-945.0,0
GRID,6632,0,367.5625,0.0,-940.0,0
GRID,6633,0,367.5625,0.0,-935.0,0
GRID,6634,0,367.5625,0.0,-930.0,0
GRID,6635,0,367.5625,0.0,-925.0,0
GRID,6636,0,367.5625,0.0,-920.0,0
GRID,6637,0,367.5625,0.0,-915.0,0
GRID,6638,0,367.5625,0.0,-910.0,0
GRID,6639,0,367.5625,0.0,-905.0,0
GRID,6640,0,367.5625,0.0,-900.0,0
GRID,6641,0,367.5625,0.0,-895.0,0
GRID,6642,0,367.5625,0.0,-890.0,0
GRID,6643,0,367.5625,0.0,-885.0,0
GRID,6644,0,367.5625,0.0,-880.0,0
GRID,6645,0,367.5625,0.0,-875.0,0
GRID,6646,0,367.5625,0.0,-870.0,0
GRID,6647,0,367.5625,0.0,-865.0,0
GRID,6648,0,367.5625,0.0,-860.0,0
GRID,6649,0,367.5625,0.0,-855.0,0
GRID,6650,0,367.5625,0.0,-850.0,0
GRID,6651,0,367.5625,0.0,-845.0,0
GRID,6652,0,367.5625,0.0,-840.0,0
GRID,6653,0,367.5625,0.0,-835.0,0
GRID,6654,0,367.5625,0.0,-830.0,0
GRID,6655,0,367.5625,0.0,-825.0,0
GRID,6656,0,367.5625,0.0,-820.0,0
GRID,6657,0,367.5625,0.0,-815.0,0
GRID,6658,0,367.5625,0.0,-810.0,0
GRID,6659,0,367.5625,0.0,-805.0,0
GRID,6660,0,367.5625,0.0,-800.0,0
GRID,6661,0,367.5625,0.0,-795.0,0
GRID,6662,0,367.5625,0.0,-790.0,0
GRID,6663,0,367.5625,0.0,-785.0,0
GRID,6664,0,367.5625,0.0,-780.0,0
GRID,6665,0,367.5625,0.0,-775.0,0
GRID,6666,0,367.5625,0.0,-770.0,0
GRID,6667,0,367.5625,0.0,-765.0,0
GRID,6668,0,367.5625,0.0,-760.0,0
GRID,6669,0,367.5625,0.0,-755.0,0
GRID,6670,0,367.5625,0.0,-750.0,0
GRID,6671,0,367.5625,0.0,-745.0,0
GRID,6672,0,367.5625,0.0,-740.0,0
GRID,6673,0,367.5625,0.0,-735.0,0
GRID,6674,0,367.5625,0.0,-730.0,0
GRID,6675,0,367.5625,0.0,-725.0,0
GRID,6676,0,367.5625,0.0,-720.0,0
GRID,6677,0,367.5625,0.0,-715.0,0
GRID,6678,0,367.5625,0.0,-710.0,0
GRID,6679,0,367.5625,0.0,-705.0,0
GRID,6680,0,367.5625,0.0,-700.0,0
GRID,6681,0,367.5625,0.0,-695.0,0
GRID,6682,0,367.5625,0.0,-690.0,0
GRID,6683,0,367.5625,0.0,-685.0,0
GRID,6684,0,367.5625,0.0,-680.0,0
GRID,6685,0,367.5625,0.0,-675.0,0
GRID,6686,0,367.5625,0.0,-670.0,0
GRID,6687,0,367.5625,0.0,-665.0,0
GRID,6688,0,367.5625,0.0,-660.0,0
GRID,6689,0,367.5625,0.0,-655.0,0
GRID,6690,0,367.5625,0.0,-650.0,0
GRID,6691,0,367.5625,0.0,-645.0,0
GRID,6692,0,367.5625,0.0,-640.0,0
GRID,6693,0,367.5625,0.0,-635.0,0
GRID,6694,0,367.5625,0.0,-630.0,0
GRID,6695,0,367.5625,0.0,-625.0,0
GRID,6696,0,367.5625,0.0,-620.0,0
GRID,6697,0,367.5625,0.0,-615.0,0
GRID,6698,0,367.5625,0.0,-610.0,0
GRID,6699,0,367.5625,0.0,-605.0,0
GRID,6700,0,367.5625,0.0,-600.0,0
GRID,6701,0,367.5625,0.0,-595.0,0
GRID,6702,0,367.5625,0.0,-590.0,0
GRID,6703,0,367.5625,0.0,-585.0,0
GRID,6704,0,367.5625,0.0,-580.0,0
GRID,6705,0,367.5625,0.0,-575.0,0
GRID,6706,0,367.5625,0.0,-570.0,0
GRID,6707,0,367.5625,0.0,-565.0,0
GRID,6708,0,367.5625,0.0,-560.0,0
GRID,6709,0,367.5625,0.0,-555.0,0
GRID,6710,0,367.5625,0.0,-550.0,0
GRID,6711,0,367.5625,0.0,-545.0,0
GRID,6712,0,367.5625,0.0,-540.0,0
GRID,6713,0,367.5625,0.0,-535.0,0
GRID,6714,0,367.5625,0.0,-530.0,0
GRID,6715,0,367.5625,0.0,-525.0,0
GRID,6716,0,367.5625,0.0,-520.0,0
GRID,6717,0,367.5625,0.0,-515.0,0
GRID,6718,0,367.5625,0.0,-510.0,0
GRID,6719,0,367.5625,0.0,-505.0,0
GRID,6720,0,367.5625,0.0,-500.0,0
GRID,6721,0,367.5625,0.0,-495.0,0
GRID,6722,0,367.5625,0.0,-490.0,0
GRID,6723,0,367.5625,0.0,-485.0,0
GRID,6724,0,367.5625,0.0,-480.0,0
GRID,6725,0,367.5625,0.0,-475.0,0
GRID,6726,0,367.5625,0.0,-470.0,0
GRID,6727,0,367.5625,0.0,-465.0,0
GRID,6728,0,367.5625,0.0,-460.0,0
GRID,6729,0,367.5625,0.0,-455.0,0
GRID,6730,0,367.5625,0.0,-450.0,0
GRID,6731,0,367.5625,0.0,-445.0,0
GRID,6732,0,367.5625,0.0,-440.0,0
GRID,6733,0,367.5625,0.0,-435.0,0
GRID,6734,0,367.5625,0.0,-430.0,0
GRID,6735,0,367.5625,0.0,-425.0,0
GRID,6736,0,367.5625,0.0,-420.0,0
GRID,6737,0,367.5625,0.0,-415.0,0
GRID,6738,0,367.5625,0.0,-410.0,0
GRID,6739,0,367.5625,0.0,-405.0,0
GRID,6740,0,367.5625,0.0,-400.0,0
GRID,6741,0,367.5625,0.0,-395.0,0
GRID,6742,0,367.5625,0.0,-390.0,0
GRID,6743,0,367.5625,0.0,-385.0,0
GRID,6744,0,367.5625,0.0,-380.0,0
GRID,6745,0,367.5625,0.0,-375.0,0
GRID,6746,0,367.5625,0.0,-370.0,0
GRID,6747,0,367.5625,0.0,-365.0,0
GRID,6748,0,367.5625,0.0,-360.0,0
GRID,6749,0,367.5625,0.0,-355.0,0
GRID,6750,0,367.5625,0.0,-350.0,0
GRID,6751,0,367.5625,0.0,-345.0,0
GRID,6752,0,367.5625,0.0,-340.0,0
GRID,6753,0,367.5625,0.0,-335.0,0
GRID,6754,0,367.5625,0.0,-330.0,0
GRID,6755,0,367.5625,0.0,-325.0,0
GRID,6756,0,367.5625,0.0,-320.0,0
GRID,6757,0,367.5625,0.0,-315.0,0
GRID,6758,0,367.5625,0.0,-310.0,0
GRID,6759,0,367.5625,0.0,-305.0,0
GRID,6760,0,367.5625,0.0,-300.0,0
GRID,6761,0,367.5625,0.0,-295.0,0
GRID,6762,0,367.5625,0.0,-290.0,0
GRID,6763,0,367.5625,0.0,-285.0,0
GRID,6764,0,367.5625,0.0,-280.0,0
GRID,6765,0,367.5625,0.0,-275.0,0
GRID,6766,0,367.5625,0.0,-270.0,0
GRID,6767,0,367.5625,0.0,-265.0,0
GRID,6768,0,367.5625,0.0,-260.0,0
GRID,6769,0,367.5625,0.0,-255.0,0
GRID,6770,0,367.5625,0.0,-250.0,0
GRID,6771,0,367.5625,0.0,-245.0,0
GRID,6772,0,367.5625,0.0,-240.0,0
GRID,6773,0,367.5625,0.0,-235.0,0
GRID,6774,0,367.5625,0.0,-230.0,0
GRID,6775,0,367.5625,0.0,-225.0,0
GRID,6776,0,367.5625,0.0,-220.0,0
GRID,6777,0,367.5625,0.0,-215.0,0
GRID,6778,0,367.5625,0.0,-210.0,0
GRID,6779,0,367.5625,0.0,-205.0,0
GRID,6780,0,367.5625,0.0,-200.0,0
GRID,6781,0,367.5625,0.0,-195.0,0
GRID,6782,0,367.5625,0.0,-190.0,0
GRID,6783,0,367.5625,0.0,-185.0,0
GRID,6784,0,367.5625,0.0,-180.0,0
GRID,6785,0,367.5625,0.0,-175.0,0
GRID,6786,0,367.5625,0.0,-170.0,0
GRID,6787,0,367.5625,0.0,-165.0,0
GRID,6788,0,367.5625,0.0,-160.0,0
GRID,6789,0,367.5625,0.0,-155.0,0
GRID,6790,0,367.5625,0.0,-150.0,0
GRID,6791,0,367.5625,0.0,-145.0,0
GRID,6792,0,367.5625,0.0,-140.0,0
GRID,6793,0,367.5625,0.0,-135.0,0
GRID,6794,0,367.5625,0.0,-130.0,0
GRID,6795,0,367.5625,0.0,-125.0,0
GRID,6796,0,367.5625,0.0,-120.0,0
GRID,6797,0,367.5625,0.0,-115.0,0
GRID,6798,0,367.5625,0.0,-110.0,0
GRID,6799,0,367.5625,0.0,-105.0,0
GRID,6800,0,367.5625,0.0,-100.0,0
GRID,6801,0,367.5625,0.0,-95.0,0
GRID,6802,0,367.5625,0.0,-90.0,0
GRID,6803,0,367.5625,0.0,-85.0,0
GRID,6804,0,367.5625,0.0,-80.0,0
GRID,6805,0,367.5625,0.0,-75.0,0
GRID,6806,0,367.5625,0.0,-70.0,0
GRID,6807,0,367.5625,0.0,-65.0,0
GRID,6808,0,367.5625,0.0,-60.0,0
GRID,6809,0,367.5625,0.0,-55.0,0
GRID,6810,0,367.5625,0.0,-50.0,0
GRID,6811,0,367.5625,0.0,-45.0,0
GRID,6812,0,367.5625,0.0,-40.0,0
GRID,6813,0,367.5625,0.0,-35.0,0
GRID,6814,0,367.5625,0.0,-30.0,0
GRID,6815,0,367.5625,0.0,-25.0,0
GRID,6816,0,367.5625,0.0,-20.0,0
GRID,6817,0,367.5625,0.0,-15.0,0
GRID,6818,0,367.5625,0.0,-10.0,0
GRID,6819,0,367.5625,0.0,-5.0,0
GRID,6820,0,374.3188,0.0,-1045.0,0
GRID,6821,0,374.3188,0.0,-1040.0,0
GRID,6822,0,374.3188,0.0,-1035.0,0
GRID,6823,0,374.3188,0.0,-1030.0,0
GRID,6824,0,374.3188,0.0,-1025.0,0
GRID,6825,0,374.3188,0.0,-1020.0,0
GRID,6826,0,374.3188,0.0,-1015.0,0
GRID,6827,0,374.3188,0.0,-1010.0,0
GRID,6828,0,374.3188,0.0,-1005.0,0
GRID,6829,0,374.3188,0.0,-1000.0,0
GRID,6830,0,374.3188,0.0,-995.0,0
GRID,6831,0,374.3188,0.0,-990.0,0
GRID,6832,0,374.3188,0.0,-985.0,0
GRID,6833,0,374.3188,0.0,-980.0,0
GRID,6834,0,374.3188,0.0,-975.0,0
GRID,6835,0,374.3188,0.0,-970.0,0
GRID,6836,0,374.3188,0.0,-965.0,0
GRID,6837,0,374.3188,0.0,-960.0,0
GRID,6838,0,374.3188,0.0,-955.0,0
GRID,6839,0,374.3188,0.0,-950.0,0
GRID,6840,0,374.3188,0.0,-945.0,0
GRID,6841,0,374.3188,0.0,-940.0,0
GRID,6842,0,374.3188,0.0,-935.0,0
GRID,6843,0,374.3188,0.0,-930.0,0
GRID,6844,0,374.3188,0.0,-925.0,0
GRID,6845,0,374.3188,0.0,-920.0,0
GRID,6846,0,374.3188,0.0,-915.0,0
GRID,6847,0,374.3188,0.0,-910.0,0
GRID,6848,0,374.3188,0.0,-905.0,0
GRID,6849,0,374.3188,0.0,-900.0,0
GRID,6850,0,374.3188,0.0,-895.0,0
GRID,6851,0,374.3188,0.0,-890.0,0
GRID,6852,0,374.3188,0.0,-885.0,0
GRID,6853,0,374.3188,0.0,-880.0,0
GRID,6854,0,374.3188,0.0,-875.0,0
GRID,6855,0,374.3188,0.0,-870.0,0
GRID,6856,0,374.3188,0.0,-865.0,0
GRID,6857,0,374.3188,0.0,-860.0,0
GRID,6858,0,374.3188,0.0,-855.0,0
GRID,6859,0,374.3188,0.0,-850.0,0
GRID,6860,0,374.3188,0.0,-845.0,0
GRID,6861,0,374.3188,0.0,-840.0,0
GRID,6862,0,374.3188,0.0,-835.0,0
GRID,6863,0,374.3188,0.0,-830.0,0
GRID,6864,0,374.3188,0.0,-825.0,0
GRID,6865,0,374.3188,0.0,-820.0,0
GRID,6866,0,374.3188,0.0,-815.0,0
GRID,6867,0,374.3188,0.0,-810.0,0
GRID,6868,0,374.3188,0.0,-805.0,0
GRID,6869,0,374.3188,0.0,-800.0,0
GRID,6870,0,374.3188,0.0,-795.0,0
GRID,6871,0,374.3188,0.0,-790.0,0
GRID,6872,0,374.3188,0.0,-785.0,0
GRID,6873,0,374.3188,0.0,-780.0,0
GRID,6874,0,374.3188,0.0,-775.0,0
GRID,6875,0,374.3188,0.0,-770.0,0
GRID,6876,0,374.3188,0.0,-765.0,0
GRID,6877,0,374.3188,0.0,-760.0,0
GRID,6878,0,374.3188,0.0,-755.0,0
GRID,6879,0,374.3188,0.0,-750.0,0
GRID,6880,0,374.3188,0.0,-745.0,0
GRID,6881,0,374.3188,0.0,-740.0,0
GRID,6882,0,374.3188,0.0,-735.0,0
GRID,6883,0,374.3188,0.0,-730.0,0
GRID,6884,0,374.3188,0.0,-725.0,0
GRID,6885,0,374.3188,0.0,-720.0,0
GRID,6886,0,374.3188,0.0,-715.0,0
GRID,6887,0,374.3188,0.0,-710.0,0
GRID,6888,0,374.3188,0.0,-705.0,0
GRID,6889,0,374.3188,0.0,-700.0,0
GRID,6890,0,374.3188,0.0,-695.0,0
GRID,6891,0,374.3188,0.0,-690.0,0
GRID,6892,0,374.3188,0.0,-685.0,0
GRID,6893,0,374.3188,0.0,-680.0,0
GRID,6894,0,374.3188,0.0,-675.0,0
GRID,6895,0,374.3188,0.0,-670.0,0
GRID,6896,0,374.3188,0.0,-665.0,0
GRID,6897,0,374.3188,0.0,-660.0,0
GRID,6898,0,374.3188,0.0,-655.0,0
GRID,6899,0,374.3188,0.0,-650.0,0
GRID,6900,0,374.3188,0.0,-645.0,0
GRID,6901,0,374.3188,0.0,-640.0,0
GRID,6902,0,374.3188,0.0,-635.0,0
GRID,6903,0,374.3188,0.0,-630.0,0
GRID,6904,0,374.3188,0.0,-625.0,0
GRID,6905,0,374.3188,0.0,-620.0,0
GRID,6906,0,374.3188,0.0,-615.0,0
GRID,6907,0,374.3188,0.0,-610.0,0
GRID,6908,0,374.3188,0.0,-605.0,0
GRID,6909,0,374.3188,0.0,-600.0,0
GRID,6910,0,374.3188,0.0,-595.0,0
GRID,6911,0,374.3188,0.0,-590.0,0
GRID,6912,0,374.3188,0.0,-585.0,0
GRID,6913,0,374.3188,0.0,-580.0,0
GRID,6914,0,374.3188,0.0,-575.0,0
GRID,6915,0,374.3188,0.0,-570.0,0
GRID,6916,0,374.3188,0.0,-565.0,0
GRID,6917,0,374.3188,0.0,-560.0,0
GRID,6918,0,374.3188,0.0,-555.0,0
GRID,6919,0,374.3188,0.0,-550.0,0
GRID,6920,0,374.3188,0.0,-545.0,0
GRID,6921,0,374.3188,0.0,-540.0,0
GRID,6922,0,374.3188,0.0,-535.0,0
GRID,6923,0,374.3188,0.0,-530.0,0
GRID,6924,0,374.3188,0.0,-525.0,0
GRID,6925,0,374.3188,0.0,-520.0,0
GRID,6926,0,374.3188,0.0,-515.0,0
GRID,6927,0,374.3188,0.0,-510.0,0
GRID,6928,0,374.3188,0.0,-505.0,0
GRID,6929,0,374.3188,0.0,-500.0,0
GRID,6930,0,374.3188,0.0,-495.0,0
GRID,6931,0,374.3188,0.0,-490.0,0
GRID,6932,0,374.3188,0.0,-485.0,0
GRID,6933,0,374.3188,0.0,-480.0,0
GRID,6934,0,374.3188,0.0,-475.0,0
GRID,6935,0,374.3188,0.0,-470.0,0
GRID,6936,0,374.3188,0.0,-465.0,0
GRID,6937,0,374.3188,0.0,-460.0,0
GRID,6938,0,374.3188,0.0,-455.0,0
GRID,6939,0,374.3188,0.0,-450.0,0
GRID,6940,0,374.3188,0.0,-445.0,0
GRID,6941,0,374.3188,0.0,-440.0,0
GRID,6942,0,374.3188,0.0,-435.0,0
GRID,6943,0,374.3188,0.0,-430.0,0
GRID,6944,0,374.3188,0.0,-425.0,0
GRID,6945,0,374.3188,0.0,-420.0,0
GRID,6946,0,374.3188,0.0,-415.0,0
GRID,6947,0,374.3188,0.0,-410.0,0
GRID,6948,0,374.3188,0.0,-405.0,0
GRID,6949,0,374.3188,0.0,-400.0,0
GRID,6950,0,374.3188,0.0,-395.0,0
GRID,6951,0,374.3188,0.0,-390.0,0
GRID,6952,0,374.3188,0.0,-385.0,0
GRID,6953,0,374.3188,0.0,-380.0,0
GRID,6954,0,374.3188,0.0,-375.0,0
GRID,6955,0,374.3188,0.0,-370.0,0
GRID,6956,0,374.3188,0.0,-365.0,0
GRID,6957,0,374.3188,0.0,-360.0,0
GRID,6958,0,374.3188,0.0,-355.0,0
GRID,6959,0,374.3188,0.0,-350.0,0
GRID,6960,0,374.3188,0.0,-345.0,0
GRID,6961,0,374.3188,0.0,-340.0,0
GRID,6962,0,374.3188,0.0,-335.0,0
GRID,6963,0,374.3188,0.0,-330.0,0
GRID,6964,0,374.3188,0.0,-325.0,0
GRID,6965,0,374.3188,0.0,-320.0,0
GRID,6966,0,374.3188,0.0,-315.0,0
GRID,6967,0,374.3188,0.0,-310.0,0
GRID,6968,0,374.3188,0.0,-305.0,0
GRID,6969,0,374.3188,0.0,-300.0,0
GRID,6970,0,374.3188,0.0,-295.0,0
GRID,6971,0,374.3188,0.0,-290.0,0
GRID,6972,0,374.3188,0.0,-285.0,0
GRID,6973,0,374.3188,0.0,-280.0,0
GRID,6974,0,374.3188,0.0,-275.0,0
GRID,6975,0,374.3188,0.0,-270.0,0
GRID,6976,0,374.3188,0.0,-265.0,0
GRID,6977,0,374.3188,0.0,-260.0,0
GRID,6978,0,374.3188,0.0,-255.0,0
GRID,6979,0,374.3188,0.0,-250.0,0
GRID,6980,0,374.3188,0.0,-245.0,0
GRID,6981,0,374.3188,0.0,-240.0,0
GRID,6982,0,374.3188,0.0,-235.0,0
GRID,6983,0,374.3188,0.0,-230.0,0
GRID,6984,0,374.3188,0.0,-225.0,0
GRID,6985,0,374.3188,0.0,-220.0,0
GRID,6986,0,374.3188,0.0,-215.0,0
GRID,6987,0,374.3188,0.0,-210.0,0
GRID,6988,0,374.3188,0.0,-205.0,0
GRID,6989,0,374.3188,0.0,-200.0,0
GRID,6990,0,374.3188,0.0,-195.0,0
GRID,6991,0,374.3188,0.0,-190.0,0
GRID,6992,0,374.3188,0.0,-185.0,0
GRID,6993,0,374.3188,0.0,-180.0,0
GRID,6994,0,374.3188,0.0,-175.0,0
GRID,6995,0,374.3188,0.0,-170.0,0
GRID,6996,0,374.3188,0.0,-165.0,0
GRID,6997,0,374.3188,0.0,-160.0,0
GRID,6998,0,374.3188,0.0,-155.0,0
GRID,6999,0,374.3188,0.0,-150.0,0
GRID,7000,0,374.3188,0.0,-145.0,0
GRID,7001,0,374.3188,0.0,-140.0,0
GRID,7002,0,374.3188,0.0,-135.0,0
GRID,7003,0,374.3188,0.0,-130.0,0
GRID,7004,0,374.3188,0.0,-125.0,0
GRID,7005,0,374.3188,0.0,-120.0,0
GRID,7006,0,374.3188,0.0,-115.0,0
GRID,7007,0,374.3188,0.0,-110.0,0
GRID,7008,0,374.3188,0.0,-105.0,0
GRID,7009,0,374.3188,0.0,-100.0,0
GRID,7010,0,374.3188,0.0,-95.0,0
GRID,7011,0,374.3188,0.0,-90.0,0
GRID,7012,0,374.3188,0.0,-85.0,0
GRID,7013,0,374.3188,0.0,-80.0,0
GRID,7014,0,374.3188,0.0,-75.0,0
GRID,7015,0,374.3188,0.0,-70.0,0
GRID,7016,0,374.3188,0.0,-65.0,0
GRID,7017,0,374.3188,0.0,-60.0,0
GRID,7018,0,374.3188,0.0,-55.0,0
GRID,7019,0,374.3188,0.0,-50.0,0
GRID,7020,0,374.3188,0.0,-45.0,0
GRID,7021,0,374.3188,0.0,-40.0,0
GRID,7022,0,374.3188,0.0,-35.0,0
GRID,7023,0,374.3188,0.0,-30.0,0
GRID,7024,0,374.3188,0.0,-25.0,0
GRID,7025,0,374.3188,0.0,-20.0,0
GRID,7026,0,374.3188,0.0,-15.0,0
GRID,7027,0,374.3188,0.0,-10.0,0
GRID,7028,0,374.3188,0.0,-5.0,0
GRID,7029,0,381.075,0.0,-1045.0,0
GRID,7030,0,381.075,0.0,-1040.0,0
GRID,7031,0,381.075,0.0,-1035.0,0
GRID,7032,0,381.075,0.0,-1030.0,0
GRID,7033,0,381.075,0.0,-1025.0,0
GRID,7034,0,381.075,0.0,-1020.0,0
GRID,7035,0,381.075,0.0,-1015.0,0
GRID,7036,0,381.075,0.0,-1010.0,0
GRID,7037,0,381.075,0.0,-1005.0,0
GRID,7038,0,381.075,0.0,-1000.0,0
GRID,7039,0,381.075,0.0,-995.0,0
GRID,7040,0,381.075,0.0,-990.0,0
GRID,7041,0,381.075,0.0,-985.0,0
GRID,7042,0,381.075,0.0,-980.0,0
GRID,7043,0,381.075,0.0,-975.0,0
GRID,7044,0,381.075,0.0,-970.0,0
GRID,7045,0,381.075,0.0,-965.0,0
GRID,7046,0,381.075,0.0,-960.0,0
GRID,7047,0,381.075,0.0,-955.0,0
GRID,7048,0,381.075,0.0,-950.0,0
GRID,7049,0,381.075,0.0,-945.0,0
GRID,7050,0,381.075,0.0,-940.0,0
GRID,7051,0,381.075,0.0,-935.0,0
GRID,7052,0,381.075,0.0,-930.0,0
GRID,7053,0,381.075,0.0,-925.0,0
GRID,7054,0,381.075,0.0,-920.0,0
GRID,7055,0,381.075,0.0,-915.0,0
GRID,7056,0,381.075,0.0,-910.0,0
GRID,7057,0,381.075,0.0,-905.0,0
GRID,7058,0,381.075,0.0,-900.0,0
GRID,7059,0,381.075,0.0,-895.0,0
GRID,7060,0,381.075,0.0,-890.0,0
GRID,7061,0,381.075,0.0,-885.0,0
GRID,7062,0,381.075,0.0,-880.0,0
GRID,7063,0,381.075,0.0,-875.0,0
GRID,7064,0,381.075,0.0,-870.0,0
GRID,7065,0,381.075,0.0,-865.0,0
GRID,7066,0,381.075,0.0,-860.0,0
GRID,7067,0,381.075,0.0,-855.0,0
GRID,7068,0,381.075,0.0,-850.0,0
GRID,7069,0,381.075,0.0,-845.0,0
GRID,7070,0,381.075,0.0,-840.0,0
GRID,7071,0,381.075,0.0,-835.0,0
GRID,7072,0,381.075,0.0,-830.0,0
GRID,7073,0,381.075,0.0,-825.0,0
GRID,7074,0,381.075,0.0,-820.0,0
GRID,7075,0,381.075,0.0,-815.0,0
GRID,7076,0,381.075,0.0,-810.0,0
GRID,7077,0,381.075,0.0,-805.0,0
GRID,7078,0,381.075,0.0,-800.0,0
GRID,7079,0,381.075,0.0,-795.0,0
GRID,7080,0,381.075,0.0,-790.0,0
GRID,7081,0,381.075,0.0,-785.0,0
GRID,7082,0,381.075,0.0,-780.0,0
GRID,7083,0,381.075,0.0,-775.0,0
GRID,7084,0,381.075,0.0,-770.0,0
GRID,7085,0,381.075,0.0,-765.0,0
GRID,7086,0,381.075,0.0,-760.0,0
GRID,7087,0,381.075,0.0,-755.0,0
GRID,7088,0,381.075,0.0,-750.0,0
GRID,7089,0,381.075,0.0,-745.0,0
GRID,7090,0,381.075,0.0,-740.0,0
GRID,7091,0,381.075,0.0,-735.0,0
GRID,7092,0,381.075,0.0,-730.0,0
GRID,7093,0,381.075,0.0,-725.0,0
GRID,7094,0,381.075,0.0,-720.0,0
GRID,7095,0,381.075,0.0,-715.0,0
GRID,7096,0,381.075,0.0,-710.0,0
GRID,7097,0,381.075,0.0,-705.0,0
GRID,7098,0,381.075,0.0,-700.0,0
GRID,7099,0,381.075,0.0,-695.0,0
GRID,7100,0,381.075,0.0,-690.0,0
GRID,7101,0,381.075,0.0,-685.0,0
GRID,7102,0,381.075,0.0,-680.0,0
GRID,7103,0,381.075,0.0,-675.0,0
GRID,7104,0,381.075,0.0,-670.0,0
GRID,7105,0,381.075,0.0,-665.0,0
GRID,7106,0,381.075,0.0,-660.0,0
GRID,7107,0,381.075,0.0,-655.0,0
GRID,7108,0,381.075,0.0,-650.0,0
GRID,7109,0,381.075,0.0,-645.0,0
GRID,7110,0,381.075,0.0,-640.0,0
GRID,7111,0,381.075,0.0,-635.0,0
GRID,7112,0,381.075,0.0,-630.0,0
GRID,7113,0,381.075,0.0,-625.0,0
GRID,7114,0,381.075,0.0,-620.0,0
GRID,7115,0,381.075,0.0,-615.0,0
GRID,7116,0,381.075,0.0,-610.0,0
GRID,7117,0,381.075,0.0,-605.0,0
GRID,7118,0,381.075,0.0,-600.0,0
GRID,7119,0,381.075,0.0,-595.0,0
GRID,7120,0,381.075,0.0,-590.0,0
GRID,7121,0,381.075,0.0,-585.0,0
GRID,7122,0,381.075,0.0,-580.0,0
GRID,7123,0,381.075,0.0,-575.0,0
GRID,7124,0,381.075,0.0,-570.0,0
GRID,7125,0,381.075,0.0,-565.0,0
GRID,7126,0,381.075,0.0,-560.0,0
GRID,7127,0,381.075,0.0,-555.0,0
GRID,7128,0,381.075,0.0,-550.0,0
GRID,7129,0,381.075,0.0,-545.0,0
GRID,7130,0,381.075,0.0,-540.0,0
GRID,7131,0,381.075,0.0,-535.0,0
GRID,7132,0,381.075,0.0,-530.0,0
GRID,7133,0,381.075,0.0,-525.0,0
GRID,7134,0,381.075,0.0,-520.0,0
GRID,7135,0,381.075,0.0,-515.0,0
GRID,7136,0,381.075,0.0,-510.0,0
GRID,7137,0,381.075,0.0,-505.0,0
GRID,7138,0,381.075,0.0,-500.0,0
GRID,7139,0,381.075,0.0,-495.0,0
GRID,7140,0,381.075,0.0,-490.0,0
GRID,7141,0,381.075,0.0,-485.0,0
GRID,7142,0,381.075,0.0,-480.0,0
GRID,7143,0,381.075,0.0,-475.0,0
GRID,7144,0,381.075,0.0,-470.0,0
GRID,7145,0,381.075,0.0,-465.0,0
GRID,7146,0,381.075,0.0,-460.0,0
GRID,7147,0,381.075,0.0,-455.0,0
GRID,7148,0,381.075,0.0,-450.0,0
GRID,7149,0,381.075,0.0,-445.0,0
GRID,7150,0,381.075,0.0,-440.0,0
GRID,7151,0,381.075,0.0,-435.0,0
GRID,7152,0,381.075,0.0,-430.0,0
GRID,7153,0,381.075,0.0,-425.0,0
GRID,7154,0,381.075,0.0,-420.0,0
GRID,7155,0,381.075,0.0,-415.0,0
GRID,7156,0,381.075,0.0,-410.0,0
GRID,7157,0,381.075,0.0,-405.0,0
GRID,7158,0,381.075,0.0,-400.0,0
GRID,7159,0,381.075,0.0,-395.0,0
GRID,7160,0,381.075,0.0,-390.0,0
GRID,7161,0,381.075,0.0,-385.0,0
GRID,7162,0,381.075,0.0,-380.0,0
GRID,7163,0,381.075,0.0,-375.0,0
GRID,7164,0,381.075,0.0,-370.0,0
GRID,7165,0,381.075,0.0,-365.0,0
GRID,7166,0,381.075,0.0,-360.0,0
GRID,7167,0,381.075,0.0,-355.0,0
GRID,7168,0,381.075,0.0,-350.0,0
GRID,7169,0,381.075,0.0,-345.0,0
GRID,7170,0,381.075,0.0,-340.0,0
GRID,7171,0,381.075,0.0,-335.0,0
GRID,7172,0,381.075,0.0,-330.0,0
GRID,7173,0,381.075,0.0,-325.0,0
GRID,7174,0,381.075,0.0,-320.0,0
GRID,7175,0,381.075,0.0,-315.0,0
GRID,7176,0,381.075,0.0,-310.0,0
GRID,7177,0,381.075,0.0,-305.0,0
GRID,7178,0,381.075,0.0,-300.0,0
GRID,7179,0,381.075,0.0,-295.0,0
GRID,7180,0,381.075,0.0,-290.0,0
GRID,7181,0,381.075,0.0,-285.0,0
GRID,7182,0,381.075,0.0,-280.0,0
GRID,7183,0,381.075,0.0,-275.0,0
GRID,7184,0,381.075,0.0,-270.0,0
GRID,7185,0,381.075,0.0,-265.0,0
GRID,7186,0,381.075,0.0,-260.0,0
GRID,7187,0,381.075,0.0,-255.0,0
GRID,7188,0,381.075,0.0,-250.0,0
GRID,7189,0,381.075,0.0,-245.0,0
GRID,7190,0,381.075,0.0,-240.0,0
GRID,7191,0,381.075,0.0,-235.0,0
GRID,7192,0,381.075,0.0,-230.0,0
GRID,7193,0,381.075,0.0,-225.0,0
GRID,7194,0,381.075,0.0,-220.0,0
GRID,7195,0,381.075,0.0,-215.0,0
GRID,7196,0,381.075,0.0,-210.0,0
GRID,7197,0,381.075,0.0,-205.0,0
GRID,7198,0,381.075,0.0,-200.0,0
GRID,7199,0,381.075,0.0,-195.0,0
GRID,7200,0,381.075,0.0,-190.0,0
GRID,7201,0,381.075,0.0,-185.0,0
GRID,7202,0,381.075,0.0,-180.0,0
GRID,7203,0,381.075,0.0,-175.0,0
GRID,7204,0,381.075,0.0,-170.0,0
GRID,7205,0,381.075,0.0,-165.0,0
GRID,7206,0,381.075,0.0,-160.0,0
GRID,7207,0,381.075,0.0,-155.0,0
GRID,7208,0,381.075,0.0,-150.0,0
GRID,7209,0,381.075,0.0,-145.0,0
GRID,7210,0,381.075,0.0,-140.0,0
GRID,7211,0,381.075,0.0,-135.0,0
GRID,7212,0,381.075,0.0,-130.0,0
GRID,7213,0,381.075,0.0,-125.0,0
GRID,7214,0,381.075,0.0,-120.0,0
GRID,7215,0,381.075,0.0,-115.0,0
GRID,7216,0,381.075,0.0,-110.0,0
GRID,7217,0,381.075,0.0,-105.0,0
GRID,7218,0,381.075,0.0,-100.0,0
GRID,7219,0,381.075,0.0,-95.0,0
GRID,7220,0,381.075,0.0,-90.0,0
GRID,7221,0,381.075,0.0,-85.0,0
GRID,7222,0,381.075,0.0,-80.0,0
GRID,7223,0,381.075,0.0,-75.0,0
GRID,7224,0,381.075,0.0,-70.0,0
GRID,7225,0,381.075,0.0,-65.0,0
GRID,7226,0,381.075,0.0,-60.0,0
GRID,7227,0,381.075,0.0,-55.0,0
GRID,7228,0,381.075,0.0,-50.0,0
GRID,7229,0,381.075,0.0,-45.0,0
GRID,7230,0,381.075,0.0,-40.0,0
GRID,7231,0,381.075,0.0,-35.0,0
GRID,7232,0,381.075,0.0,-30.0,0
GRID,7233,0,381.075,0.0,-25.0,0
GRID,7234,0,381.075,0.0,-20.0,0
GRID,7235,0,381.075,0.0,-15.0,0
GRID,7236,0,381.075,0.0,-10.0,0
GRID,7237,0,381.075,0.0,-5.0,0
GRID,7238,0,387.8313,0.0,-1045.0,0
GRID,7239,0,387.8313,0.0,-1040.0,0
GRID,7240,0,387.8313,0.0,-1035.0,0
GRID,7241,0,387.8313,0.0,-1030.0,0
GRID,7242,0,387.8313,0.0,-1025.0,0
GRID,7243,0,387.8313,0.0,-1020.0,0
GRID,7244,0,387.8313,0.0,-1015.0,0
GRID,7245,0,387.8313,0.0,-1010.0,0
GRID,7246,0,387.8313,0.0,-1005.0,0
GRID,7247,0,387.8313,0.0,-1000.0,0
GRID,7248,0,387.8313,0.0,-995.0,0
GRID,7249,0,387.8313,0.0,-990.0,0
GRID,7250,0,387.8313,0.0,-985.0,0
GRID,7251,0,387.8313,0.0,-980.0,0
GRID,7252,0,387.8313,0.0,-975.0,0
GRID,7253,0,387.8313,0.0,-970.0,0
GRID,7254,0,387.8313,0.0,-965.0,0
GRID,7255,0,387.8313,0.0,-960.0,0
GRID,7256,0,387.8313,0.0,-955.0,0
GRID,7257,0,387.8313,0.0,-950.0,0
GRID,7258,0,387.8313,0.0,-945.0,0
GRID,7259,0,387.8313,0.0,-940.0,0
GRID,7260,0,387.8313,0.0,-935.0,0
GRID,7261,0,387.8313,0.0,-930.0,0
GRID,7262,0,387.8313,0.0,-925.0,0
GRID,7263,0,387.8313,0.0,-920.0,0
GRID,7264,0,387.8313,0.0,-915.0,0
GRID,7265,0,387.8313,0.0,-910.0,0
GRID,7266,0,387.8313,0.0,-905.0,0
GRID,7267,0,387.8313,0.0,-900.0,0
GRID,7268,0,387.8313,0.0,-895.0,0
GRID,7269,0,387.8313,0.0,-890.0,0
GRID,7270,0,387.8313,0.0,-885.0,0
GRID,7271,0,387.8313,0.0,-880.0,0
GRID,7272,0,387.8313,0.0,-875.0,0
GRID,7273,0,387.8313,0.0,-870.0,0
GRID,7274,0,387.8313,0.0,-865.0,0
GRID,7275,0,387.8313,0.0,-860.0,0
GRID,7276,0,387.8313,0.0,-855.0,0
GRID,7277,0,387.8313,0.0,-850.0,0
GRID,7278,0,387.8313,0.0,-845.0,0
GRID,7279,0,387.8313,0.0,-840.0,0
GRID,7280,0,387.8313,0.0,-835.0,0
GRID,7281,0,387.8313,0.0,-830.0,0
GRID,7282,0,387.8313,0.0,-825.0,0
GRID,7283,0,387.8313,0.0,-820.0,0
GRID,7284,0,387.8313,0.0,-815.0,0
GRID,7285,0,387.8313,0.0,-810.0,0
GRID,7286,0,387.8313,0.0,-805.0,0
GRID,7287,0,387.8313,0.0,-800.0,0
GRID,7288,0,387.8313,0.0,-795.0,0
GRID,7289,0,387.8313,0.0,-790.0,0
GRID,7290,0,387.8313,0.0,-785.0,0
GRID,7291,0,387.8313,0.0,-780.0,0
GRID,7292,0,387.8313,0.0,-775.0,0
GRID,7293,0,387.8313,0.0,-770.0,0
GRID,7294,0,387.8313,0.0,-765.0,0
GRID,7295,0,387.8313,0.0,-760.0,0
GRID,7296,0,387.8313,0.0,-755.0,0
GRID,7297,0,387.8313,0.0,-750.0,0
GRID,7298,0,387.8313,0.0,-745.0,0
GRID,7299,0,387.8313,0.0,-740.0,0
GRID,7300,0,387.8313,0.0,-735.0,0
GRID,7301,0,387.8313,0.0,-730.0,0
GRID,7302,0,387.8313,0.0,-725.0,0
GRID,7303,0,387.8313,0.0,-720.0,0
GRID,7304,0,387.8313,0.0,-715.0,0
GRID,7305,0,387.8313,0.0,-710.0,0
GRID,7306,0,387.8313,0.0,-705.0,0
GRID,7307,0,387.8313,0.0,-700.0,0
GRID,7308,0,387.8313,0.0,-695.0,0
GRID,7309,0,387.8313,0.0,-690.0,0
GRID,7310,0,387.8313,0.0,-685.0,0
GRID,7311,0,387.8313,0.0,-680.0,0
GRID,7312,0,387.8313,0.0,-675.0,0
GRID,7313,0,387.8313,0.0,-670.0,0
GRID,7314,0,387.8313,0.0,-665.0,0
GRID,7315,0,387.8313,0.0,-660.0,0
GRID,7316,0,387.8313,0.0,-655.0,0
GRID,7317,0,387.8313,0.0,-650.0,0
GRID,7318,0,387.8313,0.0,-645.0,0
GRID,7319,0,387.8313,0.0,-640.0,0
GRID,7320,0,387.8313,0.0,-635.0,0
GRID,7321,0,387.8313,0.0,-630.0,0
GRID,7322,0,387.8313,0.0,-625.0,0
GRID,7323,0,387.8313,0.0,-620.0,0
GRID,7324,0,387.8313,0.0,-615.0,0
GRID,7325,0,387.8313,0.0,-610.0,0
GRID,7326,0,387.8313,0.0,-605.0,0
GRID,7327,0,387.8313,0.0,-600.0,0
GRID,7328,0,387.8313,0.0,-595.0,0
GRID,7329,0,387.8313,0.0,-590.0,0
GRID,7330,0,387.8313,0.0,-585.0,0
GRID,7331,0,387.8313,0.0,-580.0,0
GRID,7332,0,387.8313,0.0,-575.0,0
GRID,7333,0,387.8313,0.0,-570.0,0
GRID,7334,0,387.8313,0.0,-565.0,0
GRID,7335,0,387.8313,0.0,-560.0,0
GRID,7336,0,387.8313,0.0,-555.0,0
GRID,7337,0,387.8313,0.0,-550.0,0
GRID,7338,0,387.8313,0.0,-545.0,0
GRID,7339,0,387.8313,0.0,-540.0,0
GRID,7340,0,387.8313,0.0,-535.0,0
GRID,7341,0,387.8313,0.0,-530.0,0
GRID,7342,0,387.8313,0.0,-525.0,0
GRID,7343,0,387.8313,0.0,-520.0,0
GRID,7344,0,387.8313,0.0,-515.0,0
GRID,7345,0,387.8313,0.0,-510.0,0
GRID,7346,0,387.8313,0.0,-505.0,0
GRID,7347,0,387.8313,0.0,-500.0,0
GRID,7348,0,387.8313,0.0,-495.0,0
GRID,7349,0,387.8313,0.0,-490.0,0
GRID,7350,0,387.8313,0.0,-485.0,0
GRID,7351,0,387.8313,0.0,-480.0,0
GRID,7352,0,387.8313,0.0,-475.0,0
GRID,7353,0,387.8313,0.0,-470.0,0
GRID,7354,0,387.8313,0.0,-465.0,0
GRID,7355,0,387.8313,0.0,-460.0,0
GRID,7356,0,387.8313,0.0,-455.0,0
GRID,7357,0,387.8313,0.0,-450.0,0
GRID,7358,0,387.8313,0.0,-445.0,0
GRID,7359,0,387.8313,0.0,-440.0,0
GRID,7360,0,387.8313,0.0,-435.0,0
GRID,7361,0,387.8313,0.0,-430.0,0
GRID,7362,0,387.8313,0.0,-425.0,0
GRID,7363,0,387.8313,0.0,-420.0,0
GRID,7364,0,387.8313,0.0,-415.0,0
GRID,7365,0,387.8313,0.0,-410.0,0
GRID,7366,0,387.8313,0.0,-405.0,0
GRID,7367,0,387.8313,0.0,-400.0,0
GRID,7368,0,387.8313,0.0,-395.0,0
GRID,7369,0,387.8313,0.0,-390.0,0
GRID,7370,0,387.8313,0.0,-385.0,0
GRID,7371,0,387.8313,0.0,-380.0,0
GRID,7372,0,387.8313,0.0,-375.0,0
GRID,7373,0,387.8313,0.0,-370.0,0
GRID,7374,0,387.8313,0.0,-365.0,0
GRID,7375,0,387.8313,0.0,-360.0,0
GRID,7376,0,387.8313,0.0,-355.0,0
GRID,7377,0,387.8313,0.0,-350.0,0
GRID,7378,0,387.8313,0.0,-345.0,0
GRID,7379,0,387.8313,0.0,-340.0,0
GRID,7380,0,387.8313,0.0,-335.0,0
GRID,7381,0,387.8313,0.0,-330.0,0
GRID,7382,0,387.8313,0.0,-325.0,0
GRID,7383,0,387.8313,0.0,-320.0,0
GRID,7384,0,387.8313,0.0,-315.0,0
GRID,7385,0,387.8313,0.0,-310.0,0
GRID,7386,0,387.8313,0.0,-305.0,0
GRID,7387,0,387.8313,0.0,-300.0,0
GRID,7388,0,387.8313,0.0,-295.0,0
GRID,7389,0,387.8313,0.0,-290.0,0
GRID,7390,0,387.8313,0.0,-285.0,0
GRID,7391,0,387.8313,0.0,-280.0,0
GRID,7392,0,387.8313,0.0,-275.0,0
GRID,7393,0,387.8313,0.0,-270.0,0
GRID,7394,0,387.8313,0.0,-265.0,0
GRID,7395,0,387.8313,0.0,-260.0,0
GRID,7396,0,387.8313,0.0,-255.0,0
GRID,7397,0,387.8313,0.0,-250.0,0
GRID,7398,0,387.8313,0.0,-245.0,0
GRID,7399,0,387.8313,0.0,-240.0,0
GRID,7400,0,387.8313,0.0,-235.0,0
GRID,7401,0,387.8313,0.0,-230.0,0
GRID,7402,0,387.8313,0.0,-225.0,0
GRID,7403,0,387.8313,0.0,-220.0,0
GRID,7404,0,387.8313,0.0,-215.0,0
GRID,7405,0,387.8313,0.0,-210.0,0
GRID,7406,0,387.8313,0.0,-205.0,0
GRID,7407,0,387.8313,0.0,-200.0,0
GRID,7408,0,387.8313,0.0,-195.0,0
GRID,7409,0,387.8313,0.0,-190.0,0
GRID,7410,0,387.8313,0.0,-185.0,0
GRID,7411,0,387.8313,0.0,-180.0,0
GRID,7412,0,387.8313,0.0,-175.0,0
GRID,7413,0,387.8313,0.0,-170.0,0
GRID,7414,0,387.8313,0.0,-165.0,0
GRID,7415,0,387.8313,0.0,-160.0,0
GRID,7416,0,387.8313,0.0,-155.0,0
GRID,7417,0,387.8313,0.0,-150.0,0
GRID,7418,0,387.8313,0.0,-145.0,0
GRID,7419,0,387.8313,0.0,-140.0,0
GRID,7420,0,387.8313,0.0,-135.0,0
GRID,7421,0,387.8313,0.0,-130.0,0
GRID,7422,0,387.8313,0.0,-125.0,0
GRID,7423,0,387.8313,0.0,-120.0,0
GRID,7424,0,387.8313,0.0,-115.0,0
GRID,7425,0,387.8313,0.0,-110.0,0
GRID,7426,0,387.8313,0.0,-105.0,0
GRID,7427,0,387.8313,0.0,-100.0,0
GRID,7428,0,387.8313,0.0,-95.0,0
GRID,7429,0,387.8313,0.0,-90.0,0
GRID,7430,0,387.8313,0.0,-85.0,0
GRID,7431,0,387.8313,0.0,-80.0,0
GRID,7432,0,387.8313,0.0,-75.0,0
GRID,7433,0,387.8313,0.0,-70.0,0
GRID,7434,0,387.8313,0.0,-65.0,0
GRID,7435,0,387.8313,0.0,-60.0,0
GRID,7436,0,387.8313,0.0,-55.0,0
GRID,7437,0,387.8313,0.0,-50.0,0
GRID,7438,0,387.8313,0.0,-45.0,0
GRID,7439,0,387.8313,0.0,-40.0,0
GRID,7440,0,387.8313,0.0,-35.0,0
GRID,7441,0,387.8313,0.0,-30.0,0
GRID,7442,0,387.8313,0.0,-25.0,0
GRID,7443,0,387.8313,0.0,-20.0,0
GRID,7444,0,387.8313,0.0,-15.0,0
GRID,7445,0,387.8313,0.0,-10.0,0
GRID,7446,0,387.8313,0.0,-5.0,0
GRID,7447,0,394.5875,0.0,-1045.0,0
GRID,7448,0,394.5875,0.0,-1040.0,0
GRID,7449,0,394.5875,0.0,-1035.0,0
GRID,7450,0,394.5875,0.0,-1030.0,0
GRID,7451,0,394.5875,0.0,-1025.0,0
GRID,7452,0,394.5875,0.0,-1020.0,0
GRID,7453,0,394.5875,0.0,-1015.0,0
GRID,7454,0,394.5875,0.0,-1010.0,0
GRID,7455,0,394.5875,0.0,-1005.0,0
GRID,7456,0,394.5875,0.0,-1000.0,0
GRID,7457,0,394.5875,0.0,-995.0,0
GRID,7458,0,394.5875,0.0,-990.0,0
GRID,7459,0,394.5875,0.0,-985.0,0
GRID,7460,0,394.5875,0.0,-980.0,0
GRID,7461,0,394.5875,0.0,-975.0,0
GRID,7462,0,394.5875,0.0,-970.0,0
GRID,7463,0,394.5875,0.0,-965.0,0
GRID,7464,0,394.5875,0.0,-960.0,0
GRID,7465,0,394.5875,0.0,-955.0,0
GRID,7466,0,394.5875,0.0,-950.0,0
GRID,7467,0,394.5875,0.0,-945.0,0
GRID,7468,0,394.5875,0.0,-940.0,0
GRID,7469,0,394.5875,0.0,-935.0,0
GRID,7470,0,394.5875,0.0,-930.0,0
GRID,7471,0,394.5875,0.0,-925.0,0
GRID,7472,0,394.5875,0.0,-920.0,0
GRID,7473,0,394.5875,0.0,-915.0,0
GRID,7474,0,394.5875,0.0,-910.0,0
GRID,7475,0,394.5875,0.0,-905.0,0
GRID,7476,0,394.5875,0.0,-900.0,0
GRID,7477,0,394.5875,0.0,-895.0,0
GRID,7478,0,394.5875,0.0,-890.0,0
GRID,7479,0,394.5875,0.0,-885.0,0
GRID,7480,0,394.5875,0.0,-880.0,0
GRID,7481,0,394.5875,0.0,-875.0,0
GRID,7482,0,394.5875,0.0,-870.0,0
GRID,7483,0,394.5875,0.0,-865.0,0
GRID,7484,0,394.5875,0.0,-860.0,0
GRID,7485,0,394.5875,0.0,-855.0,0
GRID,7486,0,394.5875,0.0,-850.0,0
GRID,7487,0,394.5875,0.0,-845.0,0
GRID,7488,0,394.5875,0.0,-840.0,0
GRID,7489,0,394.5875,0.0,-835.0,0
GRID,7490,0,394.5875,0.0,-830.0,0
GRID,7491,0,394.5875,0.0,-825.0,0
GRID,7492,0,394.5875,0.0,-820.0,0
GRID,7493,0,394.5875,0.0,-815.0,0
GRID,7494,0,394.5875,0.0,-810.0,0
GRID,7495,0,394.5875,0.0,-805.0,0
GRID,7496,0,394.5875,0.0,-800.0,0
GRID,7497,0,394.5875,0.0,-795.0,0
GRID,7498,0,394.5875,0.0,-790.0,0
GRID,7499,0,394.5875,0.0,-785.0,0
GRID,7500,0,394.5875,0.0,-780.0,0
GRID,7501,0,394.5875,0.0,-775.0,0
GRID,7502,0,394.5875,0.0,-770.0,0
GRID,7503,0,394.5875,0.0,-765.0,0
GRID,7504,0,394.5875,0.0,-760.0,0
GRID,7505,0,394.5875,0.0,-755.0,0
GRID,7506,0,394.5875,0.0,-750.0,0
GRID,7507,0,394.5875,0.0,-745.0,0
GRID,7508,0,394.5875,0.0,-740.0,0
GRID,7509,0,394.5875,0.0,-735.0,0
GRID,7510,0,394.5875,0.0,-730.0,0
GRID,7511,0,394.5875,0.0,-725.0,0
GRID,7512,0,394.5875,0.0,-720.0,0
GRID,7513,0,394.5875,0.0,-715.0,0
GRID,7514,0,394.5875,0.0,-710.0,0
GRID,7515,0,394.5875,0.0,-705.0,0
GRID,7516,0,394.5875,0.0,-700.0,0
GRID,7517,0,394.5875,0.0,-695.0,0
GRID,7518,0,394.5875,0.0,-690.0,0
GRID,7519,0,394.5875,0.0,-685.0,0
GRID,7520,0,394.5875,0.0,-680.0,0
GRID,7521,0,394.5875,0.0,-675.0,0
GRID,7522,0,394.5875,0.0,-670.0,0
GRID,7523,0,394.5875,0.0,-665.0,0
GRID,7524,0,394.5875,0.0,-660.0,0
GRID,7525,0,394.5875,0.0,-655.0,0
GRID,7526,0,394.5875,0.0,-650.0,0
GRID,7527,0,394.5875,0.0,-645.0,0
GRID,7528,0,394.5875,0.0,-640.0,0
GRID,7529,0,394.5875,0.0,-635.0,0
GRID,7530,0,394.5875,0.0,-630.0,0
GRID,7531,0,394.5875,0.0,-625.0,0
GRID,7532,0,394.5875,0.0,-620.0,0
GRID,7533,0,394.5875,0.0,-615.0,0
GRID,7534,0,394.5875,0.0,-610.0,0
GRID,7535,0,394.5875,0.0,-605.0,0
GRID,7536,0,394.5875,0.0,-600.0,0
GRID,7537,0,394.5875,0.0,-595.0,0
GRID,7538,0,394.5875,0.0,-590.0,0
GRID,7539,0,394.5875,0.0,-585.0,0
GRID,7540,0,394.5875,0.0,-580.0,0
GRID,7541,0,394.5875,0.0,-575.0,0
GRID,7542,0,394.5875,0.0,-570.0,0
GRID,7543,0,394.5875,0.0,-565.0,0
GRID,7544,0,394.5875,0.0,-560.0,0
GRID,7545,0,394.5875,0.0,-555.0,0
GRID,7546,0,394.5875,0.0,-550.0,0
GRID,7547,0,394.5875,0.0,-545.0,0
GRID,7548,0,394.5875,0.0,-540.0,0
GRID,7549,0,394.5875,0.0,-535.0,0
GRID,7550,0,394.5875,0.0,-530.0,0
GRID,7551,0,394.5875,0.0,-525.0,0
GRID,7552,0,394.5875,0.0,-520.0,0
GRID,7553,0,394.5875,0.0,-515.0,0
GRID,7554,0,394.5875,0.0,-510.0,0
GRID,7555,0,394.5875,0.0,-505.0,0
GRID,7556,0,394.5875,0.0,-500.0,0
GRID,7557,0,394.5875,0.0,-495.0,0
GRID,7558,0,394.5875,0.0,-490.0,0
GRID,7559,0,394.5875,0.0,-485.0,0
GRID,7560,0,394.5875,0.0,-480.0,0
GRID,7561,0,394.5875,0.0,-475.0,0
GRID,7562,0,394.5875,0.0,-470.0,0
GRID,7563,0,394.5875,0.0,-465.0,0
GRID,7564,0,394.5875,0.0,-460.0,0
GRID,7565,0,394.5875,0.0,-455.0,0
GRID,7566,0,394.5875,0.0,-450.0,0
GRID,7567,0,394.5875,0.0,-445.0,0
GRID,7568,0,394.5875,0.0,-440.0,0
GRID,7569,0,394.5875,0.0,-435.0,0
GRID,7570,0,394.5875,0.0,-430.0,0
GRID,7571,0,394.5875,0.0,-425.0,0
GRID,7572,0,394.5875,0.0,-420.0,0
GRID,7573,0,394.5875,0.0,-415.0,0
GRID,7574,0,394.5875,0.0,-410.0,0
GRID,7575,0,394.5875,0.0,-405.0,0
GRID,7576,0,394.5875,0.0,-400.0,0
GRID,7577,0,394.5875,0.0,-395.0,0
GRID,7578,0,394.5875,0.0,-390.0,0
GRID,7579,0,394.5875,0.0,-385.0,0
GRID,7580,0,394.5875,0.0,-380.0,0
GRID,7581,0,394.5875,0.0,-375.0,0
GRID,7582,0,394.5875,0.0,-370.0,0
GRID,7583,0,394.5875,0.0,-365.0,0
GRID,7584,0,394.5875,0.0,-360.0,0
GRID,7585,0,394.5875,0.0,-355.0,0
GRID,7586,0,394.5875,0.0,-350.0,0
GRID,7587,0,394.5875,0.0,-345.0,0
GRID,7588,0,394.5875,0.0,-340.0,0
GRID,7589,0,394.5875,0.0,-335.0,0
GRID,7590,0,394.5875,0.0,-330.0,0
GRID,7591,0,394.5875,0.0,-325.0,0
GRID,7592,0,394.5875,0.0,-320.0,0
GRID,7593,0,394.5875,0.0,-315.0,0
GRID,7594,0,394.5875,0.0,-310.0,0
GRID,7595,0,394.5875,0.0,-305.0,0
GRID,7596,0,394.5875,0.0,-300.0,0
GRID,7597,0,394.5875,0.0,-295.0,0
GRID,7598,0,394.5875,0.0,-290.0,0
GRID,7599,0,394.5875,0.0,-285.0,0
GRID,7600,0,394.5875,0.0,-280.0,0
GRID,7601,0,394.5875,0.0,-275.0,0
GRID,7602,0,394.5875,0.0,-270.0,0
GRID,7603,0,394.5875,0.0,-265.0,0
GRID,7604,0,394.5875,0.0,-260.0,0
GRID,7605,0,394.5875,0.0,-255.0,0
GRID,7606,0,394.5875,0.0,-250.0,0
GRID,7607,0,394.5875,0.0,-245.0,0
GRID,7608,0,394.5875,0.0,-240.0,0
GRID,7609,0,394.5875,0.0,-235.0,0
GRID,7610,0,394.5875,0.0,-230.0,0
GRID,7611,0,394.5875,0.0,-225.0,0
GRID,7612,0,394.5875,0.0,-220.0,0
GRID,7613,0,394.5875,0.0,-215.0,0
GRID,7614,0,394.5875,0.0,-210.0,0
GRID,7615,0,394.5875,0.0,-205.0,0
GRID,7616,0,394.5875,0.0,-200.0,0
GRID,7617,0,394.5875,0.0,-195.0,0
GRID,7618,0,394.5875,0.0,-190.0,0
GRID,7619,0,394.5875,0.0,-185.0,0
GRID,7620,0,394.5875,0.0,-180.0,0
GRID,7621,0,394.5875,0.0,-175.0,0
GRID,7622,0,394.5875,0.0,-170.0,0
GRID,7623,0,394.5875,0.0,-165.0,0
GRID,7624,0,394.5875,0.0,-160.0,0
GRID,7625,0,394.5875,0.0,-155.0,0
GRID,7626,0,394.5875,0.0,-150.0,0
GRID,7627,0,394.5875,0.0,-145.0,0
GRID,7628,0,394.5875,0.0,-140.0,0
GRID,7629,0,394.5875,0.0,-135.0,0
GRID,7630,0,394.5875,0.0,-130.0,0
GRID,7631,0,394.5875,0.0,-125.0,0
GRID,7632,0,394.5875,0.0,-120.0,0
GRID,7633,0,394.5875,0.0,-115.0,0
GRID,7634,0,394.5875,0.0,-110.0,0
GRID,7635,0,394.5875,0.0,-105.0,0
GRID,7636,0,394.5875,0.0,-100.0,0
GRID,7637,0,394.5875,0.0,-95.0,0
GRID,7638,0,394.5875,0.0,-90.0,0
GRID,7639,0,394.5875,0.0,-85.0,0
GRID,7640,0,394.5875,0.0,-80.0,0
GRID,7641,0,394.5875,0.0,-75.0,0
GRID,7642,0,394.5875,0.0,-70.0,0
GRID,7643,0,394.5875,0.0,-65.0,0
GRID,7644,0,394.5875,0.0,-60.0,0
GRID,7645,0,394.5875,0.0,-55.0,0
GRID,7646,0,394.5875,0.0,-50.0,0
GRID,7647,0,394.5875,0.0,-45.0,0
GRID,7648,0,394.5875,0.0,-40.0,0
GRID,7649,0,394.5875,0.0,-35.0,0
GRID,7650,0,394.5875,0.0,-30.0,0
GRID,7651,0,394.5875,0.0,-25.0,0
GRID,7652,0,394.5875,0.0,-20.0,0
GRID,7653,0,394.5875,0.0,-15.0,0
GRID,7654,0,394.5875,0.0,-10.0,0
GRID,7655,0,394.5875,0.0,-5.0,0
GRID,7656,0,401.3438,0.0,-1045.0,0
GRID,7657,0,401.3438,0.0,-1040.0,0
GRID,7658,0,401.3438,0.0,-1035.0,0
GRID,7659,0,401.3438,0.0,-1030.0,0
GRID,7660,0,401.3438,0.0,-1025.0,0
GRID,7661,0,401.3438,0.0,-1020.0,0
GRID,7662,0,401.3438,0.0,-1015.0,0
GRID,7663,0,401.3438,0.0,-1010.0,0
GRID,7664,0,401.3438,0.0,-1005.0,0
GRID,7665,0,401.3438,0.0,-1000.0,0
GRID,7666,0,401.3438,0.0,-995.0,0
GRID,7667,0,401.3438,0.0,-990.0,0
GRID,7668,0,401.3438,0.0,-985.0,0
GRID,7669,0,401.3438,0.0,-980.0,0
GRID,7670,0,401.3438,0.0,-975.0,0
GRID,7671,0,401.3438,0.0,-970.0,0
GRID,7672,0,401.3438,0.0,-965.0,0
GRID,7673,0,401.3438,0.0,-960.0,0
GRID,7674,0,401.3438,0.0,-955.0,0
GRID,7675,0,401.3438,0.0,-950.0,0
GRID,7676,0,401.3438,0.0,-945.0,0
GRID,7677,0,401.3438,0.0,-940.0,0
GRID,7678,0,401.3438,0.0,-935.0,0
GRID,7679,0,401.3438,0.0,-930.0,0
GRID,7680,0,401.3438,0.0,-925.0,0
GRID,7681,0,401.3438,0.0,-920.0,0
GRID,7682,0,401.3438,0.0,-915.0,0
GRID,7683,0,401.3438,0.0,-910.0,0
GRID,7684,0,401.3438,0.0,-905.0,0
GRID,7685,0,401.3438,0.0,-900.0,0
GRID,7686,0,401.3438,0.0,-895.0,0
GRID,7687,0,401.3438,0.0,-890.0,0
GRID,7688,0,401.3438,0.0,-885.0,0
GRID,7689,0,401.3438,0.0,-880.0,0
GRID,7690,0,401.3438,0.0,-875.0,0
GRID,7691,0,401.3438,0.0,-870.0,0
GRID,7692,0,401.3438,0.0,-865.0,0
GRID,7693,0,401.3438,0.0,-860.0,0
GRID,7694,0,401.3438,0.0,-855.0,0
GRID,7695,0,401.3438,0.0,-850.0,0
GRID,7696,0,401.3438,0.0,-845.0,0
GRID,7697,0,401.3438,0.0,-840.0,0
GRID,7698,0,401.3438,0.0,-835.0,0
GRID,7699,0,401.3438,0.0,-830.0,0
GRID,7700,0,401.3438,0.0,-825.0,0
GRID,7701,0,401.3438,0.0,-820.0,0
GRID,7702,0,401.3438,0.0,-815.0,0
GRID,7703,0,401.3438,0.0,-810.0,0
GRID,7704,0,401.3438,0.0,-805.0,0
GRID,7705,0,401.3438,0.0,-800.0,0
GRID,7706,0,401.3438,0.0,-795.0,0
GRID,7707,0,401.3438,0.0,-790.0,0
GRID,7708,0,401.3438,0.0,-785.0,0
GRID,7709,0,401.3438,0.0,-780.0,0
GRID,7710,0,401.3438,0.0,-775.0,0
GRID,7711,0,401.3438,0.0,-770.0,0
GRID,7712,0,401.3438,0.0,-765.0,0
GRID,7713,0,401.3438,0.0,-760.0,0
GRID,7714,0,401.3438,0.0,-755.0,0
GRID,7715,0,401.3438,0.0,-750.0,0
GRID,7716,0,401.3438,0.0,-745.0,0
GRID,7717,0,401.3438,0.0,-740.0,0
GRID,7718,0,401.3438,0.0,-735.0,0
GRID,7719,0,401.3438,0.0,-730.0,0
GRID,7720,0,401.3438,0.0,-725.0,0
GRID,7721,0,401.3438,0.0,-720.0,0
GRID,7722,0,401.3438,0.0,-715.0,0
GRID,7723,0,401.3438,0.0,-710.0,0
GRID,7724,0,401.3438,0.0,-705.0,0
GRID,7725,0,401.3438,0.0,-700.0,0
GRID,7726,0,401.3438,0.0,-695.0,0
GRID,7727,0,401.3438,0.0,-690.0,0
GRID,7728,0,401.3438,0.0,-685.0,0
GRID,7729,0,401.3438,0.0,-680.0,0
GRID,7730,0,401.3438,0.0,-675.0,0
GRID,7731,0,401.3438,0.0,-670.0,0
GRID,7732,0,401.3438,0.0,-665.0,0
GRID,7733,0,401.3438,0.0,-660.0,0
GRID,7734,0,401.3438,0.0,-655.0,0
GRID,7735,0,401.3438,0.0,-650.0,0
GRID,7736,0,401.3438,0.0,-645.0,0
GRID,7737,0,401.3438,0.0,-640.0,0
GRID,7738,0,401.3438,0.0,-635.0,0
GRID,7739,0,401.3438,0.0,-630.0,0
GRID,7740,0,401.3438,0.0,-625.0,0
GRID,7741,0,401.3438,0.0,-620.0,0
GRID,7742,0,401.3438,0.0,-615.0,0
GRID,7743,0,401.3438,0.0,-610.0,0
GRID,7744,0,401.3438,0.0,-605.0,0
GRID,7745,0,401.3438,0.0,-600.0,0
GRID,7746,0,401.3438,0.0,-595.0,0
GRID,7747,0,401.3438,0.0,-590.0,0
GRID,7748,0,401.3438,0.0,-585.0,0
GRID,7749,0,401.3438,0.0,-580.0,0
GRID,7750,0,401.3438,0.0,-575.0,0
GRID,7751,0,401.3438,0.0,-570.0,0
GRID,7752,0,401.3438,0.0,-565.0,0
GRID,7753,0,401.3438,0.0,-560.0,0
GRID,7754,0,401.3438,0.0,-555.0,0
GRID,7755,0,401.3438,0.0,-550.0,0
GRID,7756,0,401.3438,0.0,-545.0,0
GRID,7757,0,401.3438,0.0,-540.0,0
GRID,7758,0,401.3438,0.0,-535.0,0
GRID,7759,0,401.3438,0.0,-530.0,0
GRID,7760,0,401.3438,0.0,-525.0,0
GRID,7761,0,401.3438,0.0,-520.0,0
GRID,7762,0,401.3438,0.0,-515.0,0
GRID,7763,0,401.3438,0.0,-510.0,0
GRID,7764,0,401.3438,0.0,-505.0,0
GRID,7765,0,401.3438,0.0,-500.0,0
GRID,7766,0,401.3438,0.0,-495.0,0
GRID,7767,0,401.3438,0.0,-490.0,0
GRID,7768,0,401.3438,0.0,-485.0,0
GRID,7769,0,401.3438,0.0,-480.0,0
GRID,7770,0,401.3438,0.0,-475.0,0
GRID,7771,0,401.3438,0.0,-470.0,0
GRID,7772,0,401.3438,0.0,-465.0,0
GRID,7773,0,401.3438,0.0,-460.0,0
GRID,7774,0,401.3438,0.0,-455.0,0
GRID,7775,0,401.3438,0.0,-450.0,0
GRID,7776,0,401.3438,0.0,-445.0,0
GRID,7777,0,401.3438,0.0,-440.0,0
GRID,7778,0,401.3438,0.0,-435.0,0
GRID,7779,0,401.3438,0.0,-430.0,0
GRID,7780,0,401.3438,0.0,-425.0,0
GRID,7781,0,401.3438,0.0,-420.0,0
GRID,7782,0,401.3438,0.0,-415.0,0
GRID,7783,0,401.3438,0.0,-410.0,0
GRID,7784,0,401.3438,0.0,-405.0,0
GRID,7785,0,401.3438,0.0,-400.0,0
GRID,7786,0,401.3438,0.0,-395.0,0
GRID,7787,0,401.3438,0.0,-390.0,0
GRID,7788,0,401.3438,0.0,-385.0,0
GRID,7789,0,401.3438,0.0,-380.0,0
GRID,7790,0,401.3438,0.0,-375.0,0
GRID,7791,0,401.3438,0.0,-370.0,0
GRID,7792,0,401.3438,0.0,-365.0,0
GRID,7793,0,401.3438,0.0,-360.0,0
GRID,7794,0,401.3438,0.0,-355.0,0
GRID,7795,0,401.3438,0.0,-350.0,0
GRID,7796,0,401.3438,0.0,-345.0,0
GRID,7797,0,401.3438,0.0,-340.0,0
GRID,7798,0,401.3438,0.0,-335.0,0
GRID,7799,0,401.3438,0.0,-330.0,0
GRID,7800,0,401.3438,0.0,-325.0,0
GRID,7801,0,401.3438,0.0,-320.0,0
GRID,7802,0,401.3438,0.0,-315.0,0
GRID,7803,0,401.3438,0.0,-310.0,0
GRID,7804,0,401.3438,0.0,-305.0,0
GRID,7805,0,401.3438,0.0,-300.0,0
GRID,7806,0,401.3438,0.0,-295.0,0
GRID,7807,0,401.3438,0.0,-290.0,0
GRID,7808,0,401.3438,0.0,-285.0,0
GRID,7809,0,401.3438,0.0,-280.0,0
GRID,7810,0,401.3438,0.0,-275.0,0
GRID,7811,0,401.3438,0.0,-270.0,0
GRID,7812,0,401.3438,0.0,-265.0,0
GRID,7813,0,401.3438,0.0,-260.0,0
GRID,7814,0,401.3438,0.0,-255.0,0
GRID,7815,0,401.3438,0.0,-250.0,0
GRID,7816,0,401.3438,0.0,-245.0,0
GRID,7817,0,401.3438,0.0,-240.0,0
GRID,7818,0,401.3438,0.0,-235.0,0
GRID,7819,0,401.3438,0.0,-230.0,0
GRID,7820,0,401.3438,0.0,-225.0,0
GRID,7821,0,401.3438,0.0,-220.0,0
GRID,7822,0,401.3438,0.0,-215.0,0
GRID,7823,0,401.3438,0.0,-210.0,0
GRID,7824,0,401.3438,0.0,-205.0,0
GRID,7825,0,401.3438,0.0,-200.0,0
GRID,7826,0,401.3438,0.0,-195.0,0
GRID,7827,0,401.3438,0.0,-190.0,0
GRID,7828,0,401.3438,0.0,-185.0,0
GRID,7829,0,401.3438,0.0,-180.0,0
GRID,7830,0,401.3438,0.0,-175.0,0
GRID,7831,0,401.3438,0.0,-170.0,0
GRID,7832,0,401.3438,0.0,-165.0,0
GRID,7833,0,401.3438,0.0,-160.0,0
GRID,7834,0,401.3438,0.0,-155.0,0
GRID,7835,0,401.3438,0.0,-150.0,0
GRID,7836,0,401.3438,0.0,-145.0,0
GRID,7837,0,401.3438,0.0,-140.0,0
GRID,7838,0,401.3438,0.0,-135.0,0
GRID,7839,0,401.3438,0.0,-130.0,0
GRID,7840,0,401.3438,0.0,-125.0,0
GRID,7841,0,401.3438,0.0,-120.0,0
GRID,7842,0,401.3438,0.0,-115.0,0
GRID,7843,0,401.3438,0.0,-110.0,0
GRID,7844,0,401.3438,0.0,-105.0,0
GRID,7845,0,401.3438,0.0,-100.0,0
GRID,7846,0,401.3438,0.0,-95.0,0
GRID,7847,0,401.3438,0.0,-90.0,0
GRID,7848,0,401.3438,0.0,-85.0,0
GRID,7849,0,401.3438,0.0,-80.0,0
GRID,7850,0,401.3438,0.0,-75.0,0
GRID,7851,0,401.3438,0.0,-70.0,0
GRID,7852,0,401.3438,0.0,-65.0,0
GRID,7853,0,401.3438,0.0,-60.0,0
GRID,7854,0,401.3438,0.0,-55.0,0
GRID,7855,0,401.3438,0.0,-50.0,0
GRID,7856,0,401.3438,0.0,-45.0,0
GRID,7857,0,401.3438,0.0,-40.0,0
GRID,7858,0,401.3438,0.0,-35.0,0
GRID,7859,0,401.3438,0.0,-30.0,0
GRID,7860,0,401.3438,0.0,-25.0,0
GRID,7861,0,401.3438,0.0,-20.0,0
GRID,7862,0,401.3438,0.0,-15.0,0
GRID,7863,0,401.3438,0.0,-10.0,0
GRID,7864,0,401.3438,0.0,-5.0,0
GRID,7865,0,401.3438,0.0,-1054.51,0
GRID,7866,0,401.3438,0.0,-1059.02,0
GRID,7867,0,401.3438,0.0,-1063.53,0
GRID,7868,0,401.3438,0.0,-1068.04,0
GRID,7869,0,401.3438,0.0,-1072.55,0
GRID,7870,0,401.3428,0.0,-1077.06,0
GRID,7871,0,401.3399,0.0,-1081.57,0
GRID,7872,0,401.3351,0.0,-1086.08,0
GRID,7873,0,401.3285,0.0,-1090.59,0
GRID,7874,0,401.3199,0.0,-1095.11,0
GRID,7875,0,401.3094,0.0,-1099.62,0
GRID,7876,0,401.2971,0.0,-1104.13,0
GRID,7877,0,401.2828,0.0,-1108.64,0
GRID,7878,0,401.2666,0.0,-1113.15,0
GRID,7879,0,401.2485,0.0,-1117.66,0
GRID,7880,0,401.2286,0.0,-1122.17,0
GRID,7881,0,401.2067,0.0,-1126.68,0
GRID,7882,0,401.1829,0.0,-1131.19,0
GRID,7883,0,401.1573,0.0,-1135.69,0
GRID,7884,0,401.1297,0.0,-1140.2,0
GRID,7885,0,401.1003,0.0,-1144.71,0
GRID,7886,0,401.069,0.0,-1149.22,0
GRID,7887,0,401.0358,0.0,-1153.73,0
GRID,7888,0,401.0008,0.0,-1158.24,0
GRID,7889,0,400.9638,0.0,-1162.74,0
GRID,7890,0,400.925,0.0,-1167.25,0
GRID,7891,0,400.8843,0.0,-1171.76,0
GRID,7892,0,400.8418,0.0,-1176.26,0
GRID,7893,0,400.7974,0.0,-1180.77,0
GRID,7894,0,400.7512,0.0,-1185.27,0
GRID,7895,0,400.7031,0.0,-1189.78,0
GRID,7896,0,400.6531,0.0,-1194.28,0
GRID,7897,0,400.6013,0.0,-1198.79,0
GRID,7898,0,400.5477,0.0,-1203.29,0
GRID,7899,0,400.4923,0.0,-1207.79,0
GRID,7900,0,400.435,0.0,-1212.3,0
GRID,7901,0,400.3433,0.0,-1216.73,0
GRID,7902,0,400.1861,0.0,-1221.16,0
GRID,7903,0,399.9633,0.0,-1225.58,0
GRID,7904,0,399.6748,0.0,-1230.01,0
GRID,7905,0,399.3206,0.0,-1234.42,0
GRID,7906,0,398.9004,0.0,-1238.84,0
GRID,7907,0,398.4146,0.0,-1243.24,0
GRID,7908,0,397.8632,0.0,-1247.64,0
GRID,7909,0,397.2465,0.0,-1252.03,0
GRID,7910,0,396.5645,0.0,-1256.42,0
GRID,7911,0,395.8175,0.0,-1260.79,0
GRID,7912,0,395.0054,0.0,-1265.15,0
GRID,7913,0,394.1286,0.0,-1269.49,0
GRID,7914,0,393.1871,0.0,-1273.83,0
GRID,7915,0,392.1813,0.0,-1278.15,0
GRID,7916,0,391.1113,0.0,-1282.45,0
GRID,7917,0,389.9774,0.0,-1286.74,0
GRID,7918,0,388.7798,0.0,-1291.01,0
GRID,7919,0,387.5187,0.0,-1295.26,0
GRID,7920,0,386.1945,0.0,-1299.5,0
GRID,7921,0,384.8074,0.0,-1303.71,0
GRID,7922,0,383.3578,0.0,-1307.91,0
GRID,7923,0,381.8459,0.0,-1312.08,0
GRID,7924,0,380.2721,0.0,-1316.23,0
GRID,7925,0,378.6367,0.0,-1320.35,0
GRID,7926,0,376.9401,0.0,-1324.45,0
GRID,7927,0,375.1827,0.0,-1328.53,0
GRID,7928,0,373.3649,0.0,-1332.57,0
GRID,7929,0,371.487,0.0,-1336.59,0
GRID,7930,0,369.5495,0.0,-1340.59,0
GRID,7931,0,367.5527,0.0,-1344.55,0
GRID,7932,0,365.4972,0.0,-1348.48,0
GRID,7933,0,363.3834,0.0,-1352.39,0
GRID,7934,0,361.2118,0.0,-1356.26,0
GRID,7935,0,358.9828,0.0,-1360.1,0
GRID,7936,0,356.6969,0.0,-1363.9,0
GRID,7937,0,354.3547,0.0,-1367.67,0
GRID,7938,0,351.9566,0.0,-1371.41,0
GRID,7939,0,349.5032,0.0,-1375.11,0
GRID,7940,0,346.995,0.0,-1378.77,0
GRID,7941,0,344.4326,0.0,-1382.39,0
GRID,7942,0,341.8165,0.0,-1385.98,0
GRID,7943,0,339.1474,0.0,-1389.53,0
GRID,7944,0,336.4258,0.0,-1393.04,0
GRID,7945,0,333.6523,0.0,-1396.5,0
GRID,7946,0,330.8276,0.0,-1399.93,0
GRID,7947,0,327.9522,0.0,-1403.31,0
GRID,7948,0,325.0267,0.0,-1406.65,0
GRID,7949,0,322.0518,0.0,-1409.95,0
GRID,7950,0,319.0284,0.0,-1413.2,0
GRID,7951,0,315.9557,0.0,-1416.41,0
GRID,7952,0,312.8372,0.0,-1419.57,0
GRID,7953,0,309.7807,0.0,-1422.63,0
GRID,7954,0,306.7242,0.0,-1425.68,0
GRID,7955,0,303.6676,0.0,-1428.74,0
GRID,7956,0,300.6111,0.0,-1431.8,0
GRID,7957,0,297.5546,0.0,-1434.85,0
GRID,7958,0,294.4981,0.0,-1437.91,0
GRID,7959,0,291.3216,0.0,-1441.04,0
GRID,7960,0,288.1031,0.0,-1444.13,0
GRID,7961,0,284.8432,0.0,-1447.18,0
GRID,7962,0,281.5424,0.0,-1450.18,0
GRID,7963,0,278.2014,0.0,-1453.14,0
GRID,7964,0,274.8205,0.0,-1456.05,0
GRID,7965,0,271.4006,0.0,-1458.91,0
GRID,7966,0,267.9423,0.0,-1461.73,0
GRID,7967,0,264.4463,0.0,-1464.5,0
GRID,7968,0,260.9134,0.0,-1467.22,0
GRID,7969,0,257.3441,0.0,-1469.89,0
GRID,7970,0,253.7392,0.0,-1472.52,0
GRID,7971,0,250.0993,0.0,-1475.09,0
GRID,7972,0,246.4252,0.0,-1477.62,0
GRID,7973,0,242.7176,0.0,-1480.09,0
GRID,7974,0,238.9772,0.0,-1482.52,0
GRID,7975,0,235.2048,0.0,-1484.89,0
GRID,7976,0,231.401,0.0,-1487.21,0
GRID,7977,0,227.5666,0.0,-1489.48,0
GRID,7978,0,223.7024,0.0,-1491.69,0
GRID,7979,0,219.8091,0.0,-1493.86,0
GRID,7980,0,215.8874,0.0,-1495.96,0
GRID,7981,0,211.9382,0.0,-1498.02,0
GRID,7982,0,207.9621,0.0,-1500.02,0
GRID,7983,0,203.96,0.0,-1501.97,0
GRID,7984,0,199.9327,0.0,-1503.86,0
GRID,7985,0,195.8809,0.0,-1505.69,0
GRID,7986,0,191.8054,0.0,-1507.47,0
GRID,7987,0,187.707,0.0,-1509.2,0
GRID,7988,0,183.5866,0.0,-1510.86,0
GRID,7989,0,179.4448,0.0,-1512.48,0
GRID,7990,0,175.2826,0.0,-1514.03,0
GRID,7991,0,171.1007,0.0,-1515.53,0
GRID,7992,0,166.8981,0.0,-1516.96,0
GRID,7993,0,162.6746,0.0,-1518.34,0
GRID,7994,0,158.4313,0.0,-1519.66,0
GRID,7995,0,154.169,0.0,-1520.91,0
GRID,7996,0,149.8885,0.0,-1522.11,0
GRID,7997,0,145.5907,0.0,-1523.24,0
GRID,7998,0,141.2766,0.0,-1524.31,0
GRID,7999,0,136.947,0.0,-1525.32,0
GRID,8000,0,132.6029,0.0,-1526.26,0
GRID,8001,0,128.2451,0.0,-1527.14,0
GRID,8002,0,123.8746,0.0,-1527.96,0
GRID,8003,0,119.4923,0.0,-1528.72,0
GRID,8004,0,115.0992,0.0,-1529.41,0
GRID,8005,0,110.696,0.0,-1530.04,0
GRID,8006,0,106.2838,0.0,-1530.6,0
GRID,8007,0,101.8635,0.0,-1531.11,0
GRID,8008,0,97.43595,0.0,-1531.54,0
GRID,8009,0,93.00217,0.0,-1531.92,0
GRID,8010,0,88.56305,0.0,-1532.23,0
GRID,8011,0,84.11953,0.0,-1532.47,0
GRID,8012,0,79.67255,0.0,-1532.65,0
GRID,8013,0,75.22303,0.0,-1532.77,0
GRID,8014,0,70.77191,0.0,-1532.82,0
GRID,8015,0,66.32014,0.0,-1532.81,0
GRID,8016,0,61.86863,0.0,-1532.73,0
GRID,8017,0,57.41834,0.0,-1532.59,0
GRID,8018,0,52.9702,0.0,-1532.39,0
GRID,8019,0,48.52514,0.0,-1532.12,0
GRID,8020,0,44.08411,0.0,-1531.79,0
GRID,8021,0,39.64802,0.0,-1531.39,0
GRID,8022,0,35.21783,0.0,-1530.93,0
GRID,8023,0,30.79446,0.0,-1530.4,0
GRID,8024,0,26.37884,0.0,-1529.81,0
GRID,8025,0,21.97194,0.0,-1529.16,0
GRID,8026,0,17.57468,0.0,-1528.44,0
GRID,8027,0,13.18795,0.0,-1527.66,0
GRID,8028,0,8.812663,0.0,-1526.82,0
GRID,8029,0,4.449713,0.0,-1525.91,0
GRID,8030,0,394.5875,0.0,-1054.42,0
GRID,8031,0,394.5875,0.0,-1058.84,0
GRID,8032,0,394.5875,0.0,-1063.26,0
GRID,8033,0,394.5875,0.0,-1067.67,0
GRID,8034,0,394.5875,0.0,-1072.09,0
GRID,8035,0,394.5855,0.0,-1076.51,0
GRID,8036,0,394.5798,0.0,-1080.93,0
GRID,8037,0,394.5703,0.0,-1085.35,0
GRID,8038,0,394.5569,0.0,-1089.77,0
GRID,8039,0,394.5398,0.0,-1094.19,0
GRID,8040,0,394.5189,0.0,-1098.61,0
GRID,8041,0,394.4941,0.0,-1103.03,0
GRID,8042,0,394.4656,0.0,-1107.45,0
GRID,8043,0,394.4332,0.0,-1111.87,0
GRID,8044,0,394.3971,0.0,-1116.28,0
GRID,8045,0,394.3571,0.0,-1120.7,0
GRID,8046,0,394.3134,0.0,-1125.12,0
GRID,8047,0,394.2659,0.0,-1129.54,0
GRID,8048,0,394.2146,0.0,-1133.95,0
GRID,8049,0,394.1595,0.0,-1138.37,0
GRID,8050,0,394.1006,0.0,-1142.78,0
GRID,8051,0,394.038,0.0,-1147.2,0
GRID,8052,0,393.9716,0.0,-1151.61,0
GRID,8053,0,393.9015,0.0,-1156.03,0
GRID,8054,0,393.8276,0.0,-1160.44,0
GRID,8055,0,393.75,0.0,-1164.85,0
GRID,8056,0,393.6687,0.0,-1169.26,0
GRID,8057,0,393.5836,0.0,-1173.67,0
GRID,8058,0,393.4948,0.0,-1178.08,0
GRID,8059,0,393.4023,0.0,-1182.49,0
GRID,8060,0,393.3061,0.0,-1186.9,0
GRID,8061,0,393.2062,0.0,-1191.31,0
GRID,8062,0,393.1027,0.0,-1195.71,0
GRID,8063,0,392.9954,0.0,-1200.12,0
GRID,8064,0,392.8845,0.0,-1204.52,0
GRID,8065,0,392.7699,0.0,-1208.92,0
GRID,8066,0,392.6214,0.0,-1213.26,0
GRID,8067,0,392.4097,0.0,-1217.59,0
GRID,8068,0,392.1348,0.0,-1221.92,0
GRID,8069,0,391.7967,0.0,-1226.25,0
GRID,8070,0,391.3953,0.0,-1230.57,0
GRID,8071,0,390.9306,0.0,-1234.88,0
GRID,8072,0,390.4026,0.0,-1239.19,0
GRID,8073,0,389.8115,0.0,-1243.49,0
GRID,8074,0,389.1576,0.0,-1247.79,0
GRID,8075,0,388.4408,0.0,-1252.07,0
GRID,8076,0,387.6615,0.0,-1256.34,0
GRID,8077,0,386.8196,0.0,-1260.6,0
GRID,8078,0,385.9154,0.0,-1264.85,0
GRID,8079,0,384.949,0.0,-1269.09,0
GRID,8080,0,383.9207,0.0,-1273.31,0
GRID,8081,0,382.8307,0.0,-1277.51,0
GRID,8082,0,381.6792,0.0,-1281.7,0
GRID,8083,0,380.4665,0.0,-1285.88,0
GRID,8084,0,379.1926,0.0,-1290.03,0
GRID,8085,0,377.8581,0.0,-1294.17,0
GRID,8086,0,376.4631,0.0,-1298.29,0
GRID,8087,0,375.008,0.0,-1302.38,0
GRID,8088,0,373.493,0.0,-1306.46,0
GRID,8089,0,371.9184,0.0,-1310.51,0
GRID,8090,0,370.2846,0.0,-1314.54,0
GRID,8091,0,368.5919,0.0,-1318.55,0
GRID,8092,0,366.8408,0.0,-1322.53,0
GRID,8093,0,365.0315,0.0,-1326.48,0
GRID,8094,0,363.1645,0.0,-1330.41,0
GRID,8095,0,361.24,0.0,-1334.31,0
GRID,8096,0,359.2587,0.0,-1338.19,0
GRID,8097,0,357.2208,0.0,-1342.03,0
GRID,8098,0,355.1269,0.0,-1345.84,0
GRID,8099,0,352.9773,0.0,-1349.63,0
GRID,8100,0,350.7725,0.0,-1353.38,0
GRID,8101,0,348.513,0.0,-1357.1,0
GRID,8102,0,346.1993,0.0,-1360.78,0
GRID,8103,0,343.8319,0.0,-1364.43,0
GRID,8104,0,341.4112,0.0,-1368.05,0
GRID,8105,0,338.9379,0.0,-1371.63,0
GRID,8106,0,336.4123,0.0,-1375.18,0
GRID,8107,0,333.8351,0.0,-1378.68,0
GRID,8108,0,331.2069,0.0,-1382.15,0
GRID,8109,0,328.5281,0.0,-1385.58,0
GRID,8110,0,325.7994,0.0,-1388.98,0
GRID,8111,0,323.0214,0.0,-1392.33,0
GRID,8112,0,320.1945,0.0,-1395.64,0
GRID,8113,0,317.3194,0.0,-1398.91,0
GRID,8114,0,314.3969,0.0,-1402.13,0
GRID,8115,0,311.4275,0.0,-1405.32,0
GRID,8116,0,308.4091,0.0,-1408.46,0
GRID,8117,0,305.348,0.0,-1411.57,0
GRID,8118,0,302.3448,0.0,-1414.57,0
GRID,8119,0,299.3416,0.0,-1417.57,0
GRID,8120,0,296.3384,0.0,-1420.58,0
GRID,8121,0,293.3352,0.0,-1423.58,0
GRID,8122,0,290.3319,0.0,-1426.58,0
GRID,8123,0,287.3287,0.0,-1429.58,0
GRID,8124,0,284.2135,0.0,-1432.66,0
GRID,8125,0,281.0591,0.0,-1435.69,0
GRID,8126,0,277.866,0.0,-1438.69,0
GRID,8127,0,274.6348,0.0,-1441.64,0
GRID,8128,0,271.366,0.0,-1444.55,0
GRID,8129,0,268.06,0.0,-1447.42,0
GRID,8130,0,264.7176,0.0,-1450.24,0
GRID,8131,0,261.3394,0.0,-1453.02,0
GRID,8132,0,257.926,0.0,-1455.75,0
GRID,8133,0,254.4781,0.0,-1458.45,0
GRID,8134,0,250.9963,0.0,-1461.09,0
GRID,8135,0,247.4812,0.0,-1463.69,0
GRID,8136,0,243.9336,0.0,-1466.25,0
GRID,8137,0,240.3539,0.0,-1468.75,0
GRID,8138,0,236.743,0.0,-1471.21,0
GRID,8139,0,233.1015,0.0,-1473.63,0
GRID,8140,0,229.4301,0.0,-1475.99,0
GRID,8141,0,225.7294,0.0,-1478.31,0
GRID,8142,0,222.0002,0.0,-1480.57,0
GRID,8143,0,218.243,0.0,-1482.79,0
GRID,8144,0,214.4588,0.0,-1484.96,0
GRID,8145,0,210.6481,0.0,-1487.08,0
GRID,8146,0,206.8116,0.0,-1489.15,0
GRID,8147,0,202.9502,0.0,-1491.17,0
GRID,8148,0,199.0644,0.0,-1493.13,0
GRID,8149,0,195.1551,0.0,-1495.05,0
GRID,8150,0,191.2229,0.0,-1496.91,0
GRID,8151,0,187.2686,0.0,-1498.72,0
GRID,8152,0,183.293,0.0,-1500.48,0
GRID,8153,0,179.2968,0.0,-1502.19,0
GRID,8154,0,175.2807,0.0,-1503.85,0
GRID,8155,0,171.2454,0.0,-1505.45,0
GRID,8156,0,167.1918,0.0,-1506.99,0
GRID,8157,0,163.1169,0.0,-1508.48,0
GRID,8158,0,159.0196,0.0,-1509.92,0
GRID,8159,0,154.9009,0.0,-1511.29,0
GRID,8160,0,150.7615,0.0,-1512.6,0
GRID,8161,0,146.6025,0.0,-1513.85,0
GRID,8162,0,142.4246,0.0,-1515.04,0
GRID,8163,0,138.2288,0.0,-1516.17,0
GRID,8164,0,134.016,0.0,-1517.24,0
GRID,8165,0,129.7872,0.0,-1518.24,0
GRID,8166,0,125.5432,0.0,-1519.18,0
GRID,8167,0,121.2849,0.0,-1520.06,0
GRID,8168,0,117.0134,0.0,-1520.88,0
GRID,8169,0,112.7294,0.0,-1521.64,0
GRID,8170,0,108.434,0.0,-1522.33,0
GRID,8171,0,104.1281,0.0,-1522.96,0
GRID,8172,0,99.81263,0.0,-1523.52,0
GRID,8173,0,95.48852,0.0,-1524.03,0
GRID,8174,0,91.15673,0.0,-1524.47,0
GRID,8175,0,86.81819,0.0,-1524.84,0
GRID,8176,0,82.47386,0.0,-1525.15,0
GRID,8177,0,78.1247,0.0,-1525.4,0
GRID,8178,0,73.77164,0.0,-1525.58,0
GRID,8179,0,69.41564,0.0,-1525.7,0
GRID,8180,0,65.05767,0.0,-1525.76,0
GRID,8181,0,60.69866,0.0,-1525.75,0
GRID,8182,0,56.33959,0.0,-1525.68,0
GRID,8183,0,51.9814,0.0,-1525.54,0
GRID,8184,0,47.62506,0.0,-1525.34,0
GRID,8185,0,43.27151,0.0,-1525.07,0
GRID,8186,0,38.92172,0.0,-1524.74,0
GRID,8187,0,34.57664,0.0,-1524.35,0
GRID,8188,0,30.23722,0.0,-1523.89,0
GRID,8189,0,25.90443,0.0,-1523.37,0
GRID,8190,0,21.57924,0.0,-1522.78,0
GRID,8191,0,17.26259,0.0,-1522.13,0
GRID,8192,0,12.95542,0.0,-1521.42,0
GRID,8193,0,8.658649,0.0,-1520.64,0
GRID,8194,0,4.3732,0.0,-1519.8,0
GRID,8195,0,387.8313,0.0,-1054.33,0
GRID,8196,0,387.8313,0.0,-1058.65,0
GRID,8197,0,387.8313,0.0,-1062.98,0
GRID,8198,0,387.8313,0.0,-1067.31,0
GRID,8199,0,387.8313,0.0,-1071.63,0
GRID,8200,0,387.8283,0.0,-1075.96,0
GRID,8201,0,387.8197,0.0,-1080.29,0
GRID,8202,0,387.8054,0.0,-1084.62,0
GRID,8203,0,387.7854,0.0,-1088.95,0
GRID,8204,0,387.7597,0.0,-1093.28,0
GRID,8205,0,387.7283,0.0,-1097.6,0
GRID,8206,0,387.6912,0.0,-1101.93,0
GRID,8207,0,387.6484,0.0,-1106.26,0
GRID,8208,0,387.5999,0.0,-1110.59,0
GRID,8209,0,387.5456,0.0,-1114.91,0
GRID,8210,0,387.4857,0.0,-1119.24,0
GRID,8211,0,387.4201,0.0,-1123.56,0
GRID,8212,0,387.3488,0.0,-1127.89,0
GRID,8213,0,387.2719,0.0,-1132.21,0
GRID,8214,0,387.1892,0.0,-1136.53,0
GRID,8215,0,387.101,0.0,-1140.85,0
GRID,8216,0,387.007,0.0,-1145.18,0
GRID,8217,0,386.9075,0.0,-1149.5,0
GRID,8218,0,386.8023,0.0,-1153.82,0
GRID,8219,0,386.6915,0.0,-1158.13,0
GRID,8220,0,386.575,0.0,-1162.45,0
GRID,8221,0,386.453,0.0,-1166.77,0
GRID,8222,0,386.3254,0.0,-1171.08,0
GRID,8223,0,386.1922,0.0,-1175.39,0
GRID,8224,0,386.0535,0.0,-1179.71,0
GRID,8225,0,385.9092,0.0,-1184.02,0
GRID,8226,0,385.7593,0.0,-1188.33,0
GRID,8227,0,385.604,0.0,-1192.63,0
GRID,8228,0,385.4431,0.0,-1196.94,0
GRID,8229,0,385.2767,0.0,-1201.25,0
GRID,8230,0,385.1049,0.0,-1205.55,0
GRID,8231,0,384.8994,0.0,-1209.79,0
GRID,8232,0,384.6332,0.0,-1214.03,0
GRID,8233,0,384.3063,0.0,-1218.26,0
GRID,8234,0,383.9186,0.0,-1222.49,0
GRID,8235,0,383.4701,0.0,-1226.71,0
GRID,8236,0,382.9607,0.0,-1230.93,0
GRID,8237,0,382.3905,0.0,-1235.14,0
GRID,8238,0,381.7598,0.0,-1239.34,0
GRID,8239,0,381.0686,0.0,-1243.54,0
GRID,8240,0,380.3171,0.0,-1247.72,0
GRID,8241,0,379.5055,0.0,-1251.9,0
GRID,8242,0,378.6338,0.0,-1256.06,0
GRID,8243,0,377.7022,0.0,-1260.21,0
GRID,8244,0,376.7109,0.0,-1264.35,0
GRID,8245,0,375.6602,0.0,-1268.47,0
GRID,8246,0,374.5502,0.0,-1272.58,0
GRID,8247,0,373.3811,0.0,-1276.67,0
GRID,8248,0,372.1531,0.0,-1280.75,0
GRID,8249,0,370.8666,0.0,-1284.8,0
GRID,8250,0,369.5218,0.0,-1288.84,0
GRID,8251,0,368.1189,0.0,-1292.86,0
GRID,8252,0,366.6582,0.0,-1296.86,0
GRID,8253,0,365.14,0.0,-1300.84,0
GRID,8254,0,363.5647,0.0,-1304.8,0
GRID,8255,0,361.9325,0.0,-1308.73,0
GRID,8256,0,360.2437,0.0,-1312.65,0
GRID,8257,0,358.4988,0.0,-1316.53,0
GRID,8258,0,356.6981,0.0,-1320.4,0
GRID,8259,0,354.8419,0.0,-1324.23,0
GRID,8260,0,352.9306,0.0,-1328.04,0
GRID,8261,0,350.9646,0.0,-1331.82,0
GRID,8262,0,348.9444,0.0,-1335.58,0
GRID,8263,0,346.8703,0.0,-1339.3,0
GRID,8264,0,344.7428,0.0,-1343.0,0
GRID,8265,0,342.5622,0.0,-1346.66,0
GRID,8266,0,340.3291,0.0,-1350.29,0
GRID,8267,0,338.0439,0.0,-1353.89,0
GRID,8268,0,335.7071,0.0,-1357.46,0
GRID,8269,0,333.3192,0.0,-1361.0,0
GRID,8270,0,330.8807,0.0,-1364.49,0
GRID,8271,0,328.392,0.0,-1367.96,0
GRID,8272,0,325.8537,0.0,-1371.39,0
GRID,8273,0,323.2663,0.0,-1374.78,0
GRID,8274,0,320.6304,0.0,-1378.13,0
GRID,8275,0,317.9464,0.0,-1381.45,0
GRID,8276,0,315.2151,0.0,-1384.73,0
GRID,8277,0,312.4368,0.0,-1387.96,0
GRID,8278,0,309.6122,0.0,-1391.16,0
GRID,8279,0,306.7419,0.0,-1394.32,0
GRID,8280,0,303.8266,0.0,-1397.44,0
GRID,8281,0,300.8626,0.0,-1400.52,0
GRID,8282,0,297.8589,0.0,-1403.56,0
GRID,8283,0,294.909,0.0,-1406.51,0
GRID,8284,0,291.959,0.0,-1409.46,0
GRID,8285,0,289.0091,0.0,-1412.41,0
GRID,8286,0,286.0592,0.0,-1415.36,0
GRID,8287,0,283.1092,0.0,-1418.31,0
GRID,8288,0,280.1593,0.0,-1421.26,0
GRID,8289,0,277.1053,0.0,-1424.28,0
GRID,8290,0,274.015,0.0,-1427.26,0
GRID,8291,0,270.8888,0.0,-1430.2,0
GRID,8292,0,267.7272,0.0,-1433.1,0
GRID,8293,0,264.5306,0.0,-1435.96,0
GRID,8294,0,261.2996,0.0,-1438.79,0
GRID,8295,0,258.0347,0.0,-1441.57,0
GRID,8296,0,254.7365,0.0,-1444.31,0
GRID,8297,0,251.4057,0.0,-1447.01,0
GRID,8298,0,248.0429,0.0,-1449.67,0
GRID,8299,0,244.6485,0.0,-1452.29,0
GRID,8300,0,241.2233,0.0,-1454.87,0
GRID,8301,0,237.7678,0.0,-1457.4,0
GRID,8302,0,234.2826,0.0,-1459.89,0
GRID,8303,0,230.7684,0.0,-1462.33,0
GRID,8304,0,227.2258,0.0,-1464.74,0
GRID,8305,0,223.6553,0.0,-1467.09,0
GRID,8306,0,220.0578,0.0,-1469.4,0
GRID,8307,0,216.4337,0.0,-1471.67,0
GRID,8308,0,212.7837,0.0,-1473.89,0
GRID,8309,0,209.1085,0.0,-1476.07,0
GRID,8310,0,205.4088,0.0,-1478.2,0
GRID,8311,0,201.6851,0.0,-1480.28,0
GRID,8312,0,197.9383,0.0,-1482.31,0
GRID,8313,0,194.1688,0.0,-1484.3,0
GRID,8314,0,190.3775,0.0,-1486.24,0
GRID,8315,0,186.565,0.0,-1488.13,0
GRID,8316,0,182.7319,0.0,-1489.98,0
GRID,8317,0,178.879,0.0,-1491.77,0
GRID,8318,0,175.007,0.0,-1493.52,0
GRID,8319,0,171.1165,0.0,-1495.21,0
GRID,8320,0,167.2083,0.0,-1496.86,0
GRID,8321,0,163.283,0.0,-1498.46,0
GRID,8322,0,159.3357,0.0,-1500.01,0
GRID,8323,0,155.3646,0.0,-1501.49,0
GRID,8324,0,151.3704,0.0,-1502.92,0
GRID,8325,0,147.3541,0.0,-1504.29,0
GRID,8326,0,143.3165,0.0,-1505.6,0
GRID,8327,0,139.2585,0.0,-1506.84,0
GRID,8328,0,135.181,0.0,-1508.03,0
GRID,8329,0,131.0851,0.0,-1509.16,0
GRID,8330,0,126.9715,0.0,-1510.22,0
GRID,8331,0,122.8412,0.0,-1511.23,0
GRID,8332,0,118.6952,0.0,-1512.17,0
GRID,8333,0,114.5344,0.0,-1513.05,0
GRID,8334,0,110.3597,0.0,-1513.87,0
GRID,8335,0,106.172,0.0,-1514.62,0
GRID,8336,0,101.9724,0.0,-1515.31,0
GRID,8337,0,97.76179,0.0,-1515.94,0
GRID,8338,0,93.54109,0.0,-1516.51,0
GRID,8339,0,89.31128,0.0,-1517.01,0
GRID,8340,0,85.07333,0.0,-1517.46,0
GRID,8341,0,80.82819,0.0,-1517.83,0
GRID,8342,0,76.57684,0.0,-1518.15,0
GRID,8343,0,72.32025,0.0,-1518.4,0
GRID,8344,0,68.05937,0.0,-1518.58,0
GRID,8345,0,63.7952,0.0,-1518.7,0
GRID,8346,0,59.52869,0.0,-1518.76,0
GRID,8347,0,55.26083,0.0,-1518.76,0
GRID,8348,0,50.9926,0.0,-1518.69,0
GRID,8349,0,46.72497,0.0,-1518.55,0
GRID,8350,0,42.45892,0.0,-1518.35,0
GRID,8351,0,38.19542,0.0,-1518.09,0
GRID,8352,0,33.93545,0.0,-1517.77,0
GRID,8353,0,29.67999,0.0,-1517.38,0
GRID,8354,0,25.43002,0.0,-1516.92,0
GRID,8355,0,21.18654,0.0,-1516.41,0
GRID,8356,0,16.95051,0.0,-1515.83,0
GRID,8357,0,12.72289,0.0,-1515.18,0
GRID,8358,0,8.504634,0.0,-1514.47,0
GRID,8359,0,4.296686,0.0,-1513.7,0
GRID,8360,0,381.075,0.0,-1054.23,0
GRID,8361,0,381.075,0.0,-1058.47,0
GRID,8362,0,381.075,0.0,-1062.7,0
GRID,8363,0,381.075,0.0,-1066.94,0
GRID,8364,0,381.075,0.0,-1071.17,0
GRID,8365,0,381.0711,0.0,-1075.41,0
GRID,8366,0,381.0596,0.0,-1079.65,0
GRID,8367,0,381.0405,0.0,-1083.89,0
GRID,8368,0,381.0139,0.0,-1088.12,0
GRID,8369,0,380.9796,0.0,-1092.36,0
GRID,8370,0,380.9377,0.0,-1096.6,0
GRID,8371,0,380.8883,0.0,-1100.83,0
GRID,8372,0,380.8312,0.0,-1105.07,0
GRID,8373,0,380.7665,0.0,-1109.3,0
GRID,8374,0,380.6942,0.0,-1113.54,0
GRID,8375,0,380.6143,0.0,-1117.77,0
GRID,8376,0,380.5268,0.0,-1122.0,0
GRID,8377,0,380.4317,0.0,-1126.24,0
GRID,8378,0,380.3291,0.0,-1130.47,0
GRID,8379,0,380.219,0.0,-1134.7,0
GRID,8380,0,380.1013,0.0,-1138.93,0
GRID,8381,0,379.976,0.0,-1143.15,0
GRID,8382,0,379.8433,0.0,-1147.38,0
GRID,8383,0,379.703,0.0,-1151.6,0
GRID,8384,0,379.5553,0.0,-1155.83,0
GRID,8385,0,379.4,0.0,-1160.05,0
GRID,8386,0,379.2373,0.0,-1164.27,0
GRID,8387,0,379.0672,0.0,-1168.49,0
GRID,8388,0,378.8896,0.0,-1172.71,0
GRID,8389,0,378.7046,0.0,-1176.92,0
GRID,8390,0,378.5122,0.0,-1181.14,0
GRID,8391,0,378.3124,0.0,-1185.35,0
GRID,8392,0,378.1053,0.0,-1189.56,0
GRID,8393,0,377.8908,0.0,-1193.77,0
GRID,8394,0,377.669,0.0,-1197.97,0
GRID,8395,0,377.4399,0.0,-1202.18,0
GRID,8396,0,377.1775,0.0,-1206.32,0
GRID,8397,0,376.8568,0.0,-1210.46,0
GRID,8398,0,376.4778,0.0,-1214.6,0
GRID,8399,0,376.0406,0.0,-1218.73,0
GRID,8400,0,375.5449,0.0,-1222.86,0
GRID,8401,0,374.9908,0.0,-1226.98,0
GRID,8402,0,374.3785,0.0,-1231.09,0
GRID,8403,0,373.7081,0.0,-1235.2,0
GRID,8404,0,372.9797,0.0,-1239.29,0
GRID,8405,0,372.1934,0.0,-1243.38,0
GRID,8406,0,371.3495,0.0,-1247.45,0
GRID,8407,0,370.4479,0.0,-1251.52,0
GRID,8408,0,369.489,0.0,-1255.57,0
GRID,8409,0,368.4728,0.0,-1259.61,0
GRID,8410,0,367.3996,0.0,-1263.63,0
GRID,8411,0,366.2696,0.0,-1267.64,0
GRID,8412,0,365.0829,0.0,-1271.63,0
GRID,8413,0,363.8398,0.0,-1275.61,0
GRID,8414,0,362.5406,0.0,-1279.57,0
GRID,8415,0,361.1854,0.0,-1283.52,0
GRID,8416,0,359.7746,0.0,-1287.44,0
GRID,8417,0,358.3084,0.0,-1291.34,0
GRID,8418,0,356.7871,0.0,-1295.23,0
GRID,8419,0,355.211,0.0,-1299.09,0
GRID,8420,0,353.5803,0.0,-1302.93,0
GRID,8421,0,351.8955,0.0,-1306.74,0
GRID,8422,0,350.1568,0.0,-1310.54,0
GRID,8423,0,348.3647,0.0,-1314.31,0
GRID,8424,0,346.5193,0.0,-1318.05,0
GRID,8425,0,344.6212,0.0,-1321.77,0
GRID,8426,0,342.6706,0.0,-1325.46,0
GRID,8427,0,340.668,0.0,-1329.12,0
GRID,8428,0,338.6137,0.0,-1332.76,0
GRID,8429,0,336.5083,0.0,-1336.37,0
GRID,8430,0,334.3519,0.0,-1339.94,0
GRID,8431,0,332.1452,0.0,-1343.49,0
GRID,8432,0,329.8886,0.0,-1347.0,0
GRID,8433,0,327.5824,0.0,-1350.49,0
GRID,8434,0,325.2273,0.0,-1353.94,0
GRID,8435,0,322.8235,0.0,-1357.36,0
GRID,8436,0,320.3717,0.0,-1360.74,0
GRID,8437,0,317.8723,0.0,-1364.09,0
GRID,8438,0,315.3257,0.0,-1367.4,0
GRID,8439,0,312.7326,0.0,-1370.68,0
GRID,8440,0,310.0935,0.0,-1373.92,0
GRID,8441,0,307.4088,0.0,-1377.13,0
GRID,8442,0,304.6791,0.0,-1380.29,0
GRID,8443,0,301.9049,0.0,-1383.42,0
GRID,8444,0,299.0869,0.0,-1386.51,0
GRID,8445,0,296.2257,0.0,-1389.55,0
GRID,8446,0,293.316,0.0,-1392.57,0
GRID,8447,0,290.3698,0.0,-1395.56,0
GRID,8448,0,287.4731,0.0,-1398.45,0
GRID,8449,0,284.5765,0.0,-1401.35,0
GRID,8450,0,281.6798,0.0,-1404.25,0
GRID,8451,0,278.7832,0.0,-1407.14,0
GRID,8452,0,275.8865,0.0,-1410.04,0
GRID,8453,0,272.9899,0.0,-1412.94,0
GRID,8454,0,269.9972,0.0,-1415.89,0
GRID,8455,0,266.971,0.0,-1418.82,0
GRID,8456,0,263.9116,0.0,-1421.71,0
GRID,8457,0,260.8195,0.0,-1424.56,0
GRID,8458,0,257.6952,0.0,-1427.37,0
GRID,8459,0,254.5391,0.0,-1430.15,0
GRID,8460,0,251.3517,0.0,-1432.9,0
GRID,8461,0,248.1336,0.0,-1435.6,0
GRID,8462,0,244.8854,0.0,-1438.27,0
GRID,8463,0,241.6076,0.0,-1440.9,0
GRID,8464,0,238.3007,0.0,-1443.49,0
GRID,8465,0,234.9654,0.0,-1446.04,0
GRID,8466,0,231.602,0.0,-1448.55,0
GRID,8467,0,228.2113,0.0,-1451.02,0
GRID,8468,0,224.7938,0.0,-1453.45,0
GRID,8469,0,221.35,0.0,-1455.84,0
GRID,8470,0,217.8806,0.0,-1458.19,0
GRID,8471,0,214.3861,0.0,-1460.5,0
GRID,8472,0,210.8672,0.0,-1462.77,0
GRID,8473,0,207.3243,0.0,-1464.99,0
GRID,8474,0,203.7582,0.0,-1467.17,0
GRID,8475,0,200.1695,0.0,-1469.31,0
GRID,8476,0,196.5586,0.0,-1471.41,0
GRID,8477,0,192.9263,0.0,-1473.46,0
GRID,8478,0,189.2732,0.0,-1475.47,0
GRID,8479,0,185.5999,0.0,-1477.43,0
GRID,8480,0,181.907,0.0,-1479.35,0
GRID,8481,0,178.1952,0.0,-1481.23,0
GRID,8482,0,174.465,0.0,-1483.06,0
GRID,8483,0,170.7172,0.0,-1484.84,0
GRID,8484,0,166.9524,0.0,-1486.58,0
GRID,8485,0,163.1711,0.0,-1488.28,0
GRID,8486,0,159.3742,0.0,-1489.93,0
GRID,8487,0,155.5546,0.0,-1491.53,0
GRID,8488,0,151.7095,0.0,-1493.07,0
GRID,8489,0,147.8399,0.0,-1494.55,0
GRID,8490,0,143.9466,0.0,-1495.97,0
GRID,8491,0,140.0305,0.0,-1497.34,0
GRID,8492,0,136.0924,0.0,-1498.65,0
GRID,8493,0,132.1333,0.0,-1499.89,0
GRID,8494,0,128.1541,0.0,-1501.08,0
GRID,8495,0,124.1558,0.0,-1502.2,0
GRID,8496,0,120.1393,0.0,-1503.27,0
GRID,8497,0,116.1055,0.0,-1504.27,0
GRID,8498,0,112.0554,0.0,-1505.21,0
GRID,8499,0,107.9899,0.0,-1506.09,0
GRID,8500,0,103.91,0.0,-1506.91,0
GRID,8501,0,99.81673,0.0,-1507.67,0
GRID,8502,0,95.71095,0.0,-1508.36,0
GRID,8503,0,91.59366,0.0,-1508.99,0
GRID,8504,0,87.46584,0.0,-1509.56,0
GRID,8505,0,83.32847,0.0,-1510.07,0
GRID,8506,0,79.18252,0.0,-1510.51,0
GRID,8507,0,75.02899,0.0,-1510.89,0
GRID,8508,0,70.86885,0.0,-1511.21,0
GRID,8509,0,66.7031,0.0,-1511.46,0
GRID,8510,0,62.53273,0.0,-1511.65,0
GRID,8511,0,58.35872,0.0,-1511.78,0
GRID,8512,0,54.18208,0.0,-1511.84,0
GRID,8513,0,50.0038,0.0,-1511.84,0
GRID,8514,0,45.82488,0.0,-1511.77,0
GRID,8515,0,41.64632,0.0,-1511.64,0
GRID,8516,0,37.46911,0.0,-1511.44,0
GRID,8517,0,33.29426,0.0,-1511.19,0
GRID,8518,0,29.12276,0.0,-1510.87,0
GRID,8519,0,24.95561,0.0,-1510.48,0
GRID,8520,0,20.79383,0.0,-1510.03,0
GRID,8521,0,16.63843,0.0,-1509.52,0
GRID,8522,0,12.49036,0.0,-1508.94,0
GRID,8523,0,8.35062,0.0,-1508.3,0
GRID,8524,0,4.220173,0.0,-1507.6,0
GRID,8525,0,374.3188,0.0,-1054.14,0
GRID,8526,0,374.3188,0.0,-1058.29,0
GRID,8527,0,374.3188,0.0,-1062.43,0
GRID,8528,0,374.3188,0.0,-1066.57,0
GRID,8529,0,374.3188,0.0,-1070.72,0
GRID,8530,0,374.3139,0.0,-1074.86,0
GRID,8531,0,374.2995,0.0,-1079.01,0
GRID,8532,0,374.2757,0.0,-1083.16,0
GRID,8533,0,374.2423,0.0,-1087.3,0
GRID,8534,0,374.1995,0.0,-1091.45,0
GRID,8535,0,374.1472,0.0,-1095.59,0
GRID,8536,0,374.0853,0.0,-1099.74,0
GRID,8537,0,374.014,0.0,-1103.88,0
GRID,8538,0,373.9331,0.0,-1108.02,0
GRID,8539,0,373.8427,0.0,-1112.17,0
GRID,8540,0,373.7428,0.0,-1116.31,0
GRID,8541,0,373.6335,0.0,-1120.45,0
GRID,8542,0,373.5147,0.0,-1124.59,0
GRID,8543,0,373.3864,0.0,-1128.73,0
GRID,8544,0,373.2487,0.0,-1132.86,0
GRID,8545,0,373.1016,0.0,-1137.0,0
GRID,8546,0,372.9451,0.0,-1141.13,0
GRID,8547,0,372.7791,0.0,-1145.26,0
GRID,8548,0,372.6038,0.0,-1149.39,0
GRID,8549,0,372.4191,0.0,-1153.52,0
GRID,8550,0,372.225,0.0,-1157.65,0
GRID,8551,0,372.0217,0.0,-1161.78,0
GRID,8552,0,371.809,0.0,-1165.9,0
GRID,8553,0,371.587,0.0,-1170.02,0
GRID,8554,0,371.3558,0.0,-1174.14,0
GRID,8555,0,371.1153,0.0,-1178.26,0
GRID,8556,0,370.8655,0.0,-1182.37,0
GRID,8557,0,370.6066,0.0,-1186.48,0
GRID,8558,0,370.3385,0.0,-1190.59,0
GRID,8559,0,370.0612,0.0,-1194.7,0
GRID,8560,0,369.7748,0.0,-1198.8,0
GRID,8561,0,369.4555,0.0,-1202.85,0
GRID,8562,0,369.0803,0.0,-1206.9,0
GRID,8563,0,368.6493,0.0,-1210.94,0
GRID,8564,0,368.1625,0.0,-1214.97,0
GRID,8565,0,367.6197,0.0,-1219.0,0
GRID,8566,0,367.021,0.0,-1223.02,0
GRID,8567,0,366.3665,0.0,-1227.04,0
GRID,8568,0,365.6563,0.0,-1231.05,0
GRID,8569,0,364.8907,0.0,-1235.04,0
GRID,8570,0,364.0697,0.0,-1239.03,0
GRID,8571,0,363.1935,0.0,-1243.01,0
GRID,8572,0,362.2621,0.0,-1246.97,0
GRID,8573,0,361.2758,0.0,-1250.93,0
GRID,8574,0,360.2347,0.0,-1254.87,0
GRID,8575,0,359.139,0.0,-1258.79,0
GRID,8576,0,357.989,0.0,-1262.7,0
GRID,8577,0,356.7848,0.0,-1266.6,0
GRID,8578,0,355.5265,0.0,-1270.48,0
GRID,8579,0,354.2146,0.0,-1274.34,0
GRID,8580,0,352.8491,0.0,-1278.19,0
GRID,8581,0,351.4303,0.0,-1282.01,0
GRID,8582,0,349.9586,0.0,-1285.82,0
GRID,8583,0,348.4342,0.0,-1289.61,0
GRID,8584,0,346.8573,0.0,-1293.37,0
GRID,8585,0,345.2282,0.0,-1297.12,0
GRID,8586,0,343.5473,0.0,-1300.84,0
GRID,8587,0,341.8149,0.0,-1304.54,0
GRID,8588,0,340.0313,0.0,-1308.22,0
GRID,8589,0,338.1968,0.0,-1311.87,0
GRID,8590,0,336.3118,0.0,-1315.5,0
GRID,8591,0,334.3766,0.0,-1319.1,0
GRID,8592,0,332.3916,0.0,-1322.67,0
GRID,8593,0,330.3572,0.0,-1326.22,0
GRID,8594,0,328.2737,0.0,-1329.74,0
GRID,8595,0,326.1417,0.0,-1333.23,0
GRID,8596,0,323.9613,0.0,-1336.69,0
GRID,8597,0,321.7332,0.0,-1340.12,0
GRID,8598,0,319.4577,0.0,-1343.52,0
GRID,8599,0,317.1353,0.0,-1346.88,0
GRID,8600,0,314.7664,0.0,-1350.22,0
GRID,8601,0,312.3514,0.0,-1353.52,0
GRID,8602,0,309.8909,0.0,-1356.79,0
GRID,8603,0,307.3852,0.0,-1360.03,0
GRID,8604,0,304.8349,0.0,-1363.23,0
GRID,8605,0,302.2405,0.0,-1366.4,0
GRID,8606,0,299.6025,0.0,-1369.53,0
GRID,8607,0,296.9214,0.0,-1372.62,0
GRID,8608,0,294.1977,0.0,-1375.68,0
GRID,8609,0,291.4319,0.0,-1378.69,0
GRID,8610,0,288.6248,0.0,-1381.67,0
GRID,8611,0,285.7695,0.0,-1384.63,0
GRID,8612,0,282.8807,0.0,-1387.55,0
GRID,8613,0,280.0373,0.0,-1390.39,0
GRID,8614,0,277.1939,0.0,-1393.24,0
GRID,8615,0,274.3506,0.0,-1396.08,0
GRID,8616,0,271.5072,0.0,-1398.92,0
GRID,8617,0,268.6638,0.0,-1401.77,0
GRID,8618,0,265.8205,0.0,-1404.61,0
GRID,8619,0,262.8891,0.0,-1407.51,0
GRID,8620,0,259.9269,0.0,-1410.38,0
GRID,8621,0,256.9344,0.0,-1413.21,0
GRID,8622,0,253.9119,0.0,-1416.02,0
GRID,8623,0,250.8598,0.0,-1418.79,0
GRID,8624,0,247.7786,0.0,-1421.52,0
GRID,8625,0,244.6688,0.0,-1424.23,0
GRID,8626,0,241.5308,0.0,-1426.89,0
GRID,8627,0,238.3651,0.0,-1429.53,0
GRID,8628,0,235.1723,0.0,-1432.13,0
GRID,8629,0,231.9529,0.0,-1434.69,0
GRID,8630,0,228.7074,0.0,-1437.21,0
GRID,8631,0,225.4362,0.0,-1439.7,0
GRID,8632,0,222.14,0.0,-1442.16,0
GRID,8633,0,218.8192,0.0,-1444.57,0
GRID,8634,0,215.4743,0.0,-1446.95,0
GRID,8635,0,212.1059,0.0,-1449.3,0
GRID,8636,0,208.7145,0.0,-1451.6,0
GRID,8637,0,205.3007,0.0,-1453.86,0
GRID,8638,0,201.865,0.0,-1456.09,0
GRID,8639,0,198.408,0.0,-1458.28,0
GRID,8640,0,194.9301,0.0,-1460.43,0
GRID,8641,0,191.4321,0.0,-1462.54,0
GRID,8642,0,187.9144,0.0,-1464.61,0
GRID,8643,0,184.3776,0.0,-1466.64,0
GRID,8644,0,180.8223,0.0,-1468.62,0
GRID,8645,0,177.249,0.0,-1470.57,0
GRID,8646,0,173.6584,0.0,-1472.48,0
GRID,8647,0,170.051,0.0,-1474.35,0
GRID,8648,0,166.4274,0.0,-1476.17,0
GRID,8649,0,162.7882,0.0,-1477.95,0
GRID,8650,0,159.134,0.0,-1479.69,0
GRID,8651,0,155.4653,0.0,-1481.39,0
GRID,8652,0,151.7734,0.0,-1483.05,0
GRID,8653,0,148.0545,0.0,-1484.64,0
GRID,8654,0,144.3095,0.0,-1486.18,0
GRID,8655,0,140.5392,0.0,-1487.66,0
GRID,8656,0,136.7445,0.0,-1489.08,0
GRID,8657,0,132.9263,0.0,-1490.45,0
GRID,8658,0,129.0855,0.0,-1491.75,0
GRID,8659,0,125.2231,0.0,-1493.0,0
GRID,8660,0,121.3401,0.0,-1494.18,0
GRID,8661,0,117.4373,0.0,-1495.31,0
GRID,8662,0,113.5158,0.0,-1496.37,0
GRID,8663,0,109.5764,0.0,-1497.38,0
GRID,8664,0,105.6202,0.0,-1498.32,0
GRID,8665,0,101.648,0.0,-1499.2,0
GRID,8666,0,97.66104,0.0,-1500.02,0
GRID,8667,0,93.66011,0.0,-1500.78,0
GRID,8668,0,89.64624,0.0,-1501.48,0
GRID,8669,0,85.6204,0.0,-1502.11,0
GRID,8670,0,81.58361,0.0,-1502.68,0
GRID,8671,0,77.53685,0.0,-1503.19,0
GRID,8672,0,73.48114,0.0,-1503.64,0
GRID,8673,0,69.41746,0.0,-1504.02,0
GRID,8674,0,65.34683,0.0,-1504.34,0
GRID,8675,0,61.27025,0.0,-1504.6,0
GRID,8676,0,57.18875,0.0,-1504.79,0
GRID,8677,0,53.10333,0.0,-1504.92,0
GRID,8678,0,49.015,0.0,-1504.98,0
GRID,8679,0,44.9248,0.0,-1504.99,0
GRID,8680,0,40.83373,0.0,-1504.92,0
GRID,8681,0,36.74281,0.0,-1504.8,0
GRID,8682,0,32.65306,0.0,-1504.61,0
GRID,8683,0,28.56552,0.0,-1504.35,0
GRID,8684,0,24.4812,0.0,-1504.04,0
GRID,8685,0,20.40113,0.0,-1503.65,0
GRID,8686,0,16.32634,0.0,-1503.21,0
GRID,8687,0,12.25783,0.0,-1502.7,0
GRID,8688,0,8.196606,0.0,-1502.13,0
GRID,8689,0,4.14366,0.0,-1501.49,0
GRID,8690,0,367.5625,0.0,-1054.05,0
GRID,8691,0,367.5625,0.0,-1058.1,0
GRID,8692,0,367.5625,0.0,-1062.15,0
GRID,8693,0,367.5625,0.0,-1066.21,0
GRID,8694,0,367.5625,0.0,-1070.26,0
GRID,8695,0,367.5566,0.0,-1074.31,0
GRID,8696,0,367.5394,0.0,-1078.37,0
GRID,8697,0,367.5108,0.0,-1082.42,0
GRID,8698,0,367.4708,0.0,-1086.48,0
GRID,8699,0,367.4194,0.0,-1090.53,0
GRID,8700,0,367.3566,0.0,-1094.59,0
GRID,8701,0,367.2824,0.0,-1098.64,0
GRID,8702,0,367.1968,0.0,-1102.69,0
GRID,8703,0,367.0997,0.0,-1106.74,0
GRID,8704,0,366.9913,0.0,-1110.79,0
GRID,8705,0,366.8714,0.0,-1114.84,0
GRID,8706,0,366.7402,0.0,-1118.89,0
GRID,8707,0,366.5976,0.0,-1122.94,0
GRID,8708,0,366.4437,0.0,-1126.98,0
GRID,8709,0,366.2785,0.0,-1131.03,0
GRID,8710,0,366.1019,0.0,-1135.07,0
GRID,8711,0,365.9141,0.0,-1139.11,0
GRID,8712,0,365.7149,0.0,-1143.15,0
GRID,8713,0,365.5045,0.0,-1147.18,0
GRID,8714,0,365.2829,0.0,-1151.22,0
GRID,8715,0,365.05,0.0,-1155.25,0
GRID,8716,0,364.806,0.0,-1159.28,0
GRID,8717,0,364.5508,0.0,-1163.31,0
GRID,8718,0,364.2844,0.0,-1167.33,0
GRID,8719,0,364.0069,0.0,-1171.36,0
GRID,8720,0,363.7183,0.0,-1175.37,0
GRID,8721,0,363.4187,0.0,-1179.39,0
GRID,8722,0,363.1079,0.0,-1183.41,0
GRID,8723,0,362.7862,0.0,-1187.42,0
GRID,8724,0,362.4535,0.0,-1191.42,0
GRID,8725,0,362.1098,0.0,-1195.43,0
GRID,8726,0,361.7335,0.0,-1199.38,0
GRID,8727,0,361.3039,0.0,-1203.33,0
GRID,8728,0,360.8208,0.0,-1207.27,0
GRID,8729,0,360.2844,0.0,-1211.21,0
GRID,8730,0,359.6945,0.0,-1215.15,0
GRID,8731,0,359.0511,0.0,-1219.07,0
GRID,8732,0,358.3544,0.0,-1222.99,0
GRID,8733,0,357.6046,0.0,-1226.9,0
GRID,8734,0,356.8018,0.0,-1230.8,0
GRID,8735,0,355.946,0.0,-1234.69,0
GRID,8736,0,355.0375,0.0,-1238.56,0
GRID,8737,0,354.0763,0.0,-1242.43,0
GRID,8738,0,353.0626,0.0,-1246.29,0
GRID,8739,0,351.9966,0.0,-1250.13,0
GRID,8740,0,350.8785,0.0,-1253.95,0
GRID,8741,0,349.7084,0.0,-1257.77,0
GRID,8742,0,348.4866,0.0,-1261.57,0
GRID,8743,0,347.2132,0.0,-1265.35,0
GRID,8744,0,345.8885,0.0,-1269.11,0
GRID,8745,0,344.5127,0.0,-1272.86,0
GRID,8746,0,343.0861,0.0,-1276.59,0
GRID,8747,0,341.6089,0.0,-1280.3,0
GRID,8748,0,340.0813,0.0,-1283.99,0
GRID,8749,0,338.5036,0.0,-1287.66,0
GRID,8750,0,336.8761,0.0,-1291.31,0
GRID,8751,0,335.1991,0.0,-1294.94,0
GRID,8752,0,333.4729,0.0,-1298.55,0
GRID,8753,0,331.6979,0.0,-1302.13,0
GRID,8754,0,329.8742,0.0,-1305.69,0
GRID,8755,0,328.0023,0.0,-1309.22,0
GRID,8756,0,326.0825,0.0,-1312.73,0
GRID,8757,0,324.1151,0.0,-1316.22,0
GRID,8758,0,322.1006,0.0,-1319.67,0
GRID,8759,0,320.0392,0.0,-1323.1,0
GRID,8760,0,317.9314,0.0,-1326.51,0
GRID,8761,0,315.7774,0.0,-1329.88,0
GRID,8762,0,313.5779,0.0,-1333.23,0
GRID,8763,0,311.333,0.0,-1336.54,0
GRID,8764,0,309.0433,0.0,-1339.83,0
GRID,8765,0,306.7092,0.0,-1343.08,0
GRID,8766,0,304.3311,0.0,-1346.31,0
GRID,8767,0,301.9094,0.0,-1349.5,0
GRID,8768,0,299.4446,0.0,-1352.65,0
GRID,8769,0,296.9372,0.0,-1355.78,0
GRID,8770,0,294.3876,0.0,-1358.87,0
GRID,8771,0,291.7963,0.0,-1361.93,0
GRID,8772,0,289.1637,0.0,-1364.95,0
GRID,8773,0,286.4904,0.0,-1367.93,0
GRID,8774,0,283.7769,0.0,-1370.88,0
GRID,8775,0,281.0238,0.0,-1373.79,0
GRID,8776,0,278.2229,0.0,-1376.68,0
GRID,8777,0,275.3915,0.0,-1379.55,0
GRID,8778,0,272.6015,0.0,-1382.34,0
GRID,8779,0,269.8114,0.0,-1385.13,0
GRID,8780,0,267.0213,0.0,-1387.92,0
GRID,8781,0,264.2312,0.0,-1390.71,0
GRID,8782,0,261.4411,0.0,-1393.5,0
GRID,8783,0,258.651,0.0,-1396.29,0
GRID,8784,0,255.781,0.0,-1399.13,0
GRID,8785,0,252.8829,0.0,-1401.94,0
GRID,8786,0,249.9572,0.0,-1404.72,0
GRID,8787,0,247.0043,0.0,-1407.48,0
GRID,8788,0,244.0245,0.0,-1410.2,0
GRID,8789,0,241.0182,0.0,-1412.89,0
GRID,8790,0,237.9858,0.0,-1415.55,0
GRID,8791,0,234.9279,0.0,-1418.19,0
GRID,8792,0,231.8448,0.0,-1420.78,0
GRID,8793,0,228.7371,0.0,-1423.35,0
GRID,8794,0,225.6052,0.0,-1425.89,0
GRID,8795,0,222.4495,0.0,-1428.39,0
GRID,8796,0,219.2705,0.0,-1430.86,0
GRID,8797,0,216.0687,0.0,-1433.29,0
GRID,8798,0,212.8445,0.0,-1435.7,0
GRID,8799,0,209.5985,0.0,-1438.06,0
GRID,8800,0,206.3312,0.0,-1440.4,0
GRID,8801,0,203.0429,0.0,-1442.7,0
GRID,8802,0,199.7342,0.0,-1444.96,0
GRID,8803,0,196.4056,0.0,-1447.19,0
GRID,8804,0,193.0577,0.0,-1449.39,0
GRID,8805,0,189.6908,0.0,-1451.54,0
GRID,8806,0,186.3056,0.0,-1453.67,0
GRID,8807,0,182.9025,0.0,-1455.75,0
GRID,8808,0,179.482,0.0,-1457.8,0
GRID,8809,0,176.0447,0.0,-1459.82,0
GRID,8810,0,172.5911,0.0,-1461.79,0
GRID,8811,0,169.1217,0.0,-1463.73,0
GRID,8812,0,165.637,0.0,-1465.63,0
GRID,8813,0,162.1376,0.0,-1467.5,0
GRID,8814,0,158.6241,0.0,-1469.32,0
GRID,8815,0,155.0968,0.0,-1471.11,0
GRID,8816,0,151.5565,0.0,-1472.86,0
GRID,8817,0,147.9922,0.0,-1474.57,0
GRID,8818,0,144.3995,0.0,-1476.22,0
GRID,8819,0,140.779,0.0,-1477.81,0
GRID,8820,0,137.1317,0.0,-1479.35,0
GRID,8821,0,133.4585,0.0,-1480.83,0
GRID,8822,0,129.7602,0.0,-1482.25,0
GRID,8823,0,126.0377,0.0,-1483.61,0
GRID,8824,0,122.2922,0.0,-1484.92,0
GRID,8825,0,118.5244,0.0,-1486.16,0
GRID,8826,0,114.7353,0.0,-1487.35,0
GRID,8827,0,110.926,0.0,-1488.48,0
GRID,8828,0,107.0974,0.0,-1489.54,0
GRID,8829,0,103.2504,0.0,-1490.55,0
GRID,8830,0,99.38606,0.0,-1491.5,0
GRID,8831,0,95.50536,0.0,-1492.38,0
GRID,8832,0,91.60927,0.0,-1493.2,0
GRID,8833,0,87.69881,0.0,-1493.96,0
GRID,8834,0,83.77496,0.0,-1494.66,0
GRID,8835,0,79.83874,0.0,-1495.3,0
GRID,8836,0,75.89118,0.0,-1495.87,0
GRID,8837,0,71.93328,0.0,-1496.39,0
GRID,8838,0,67.96607,0.0,-1496.83,0
GRID,8839,0,63.99056,0.0,-1497.22,0
GRID,8840,0,60.00778,0.0,-1497.54,0
GRID,8841,0,56.01878,0.0,-1497.8,0
GRID,8842,0,52.02457,0.0,-1498.0,0
GRID,8843,0,48.02621,0.0,-1498.13,0
GRID,8844,0,44.02471,0.0,-1498.2,0
GRID,8845,0,40.02113,0.0,-1498.21,0
GRID,8846,0,36.0165,0.0,-1498.15,0
GRID,8847,0,32.01187,0.0,-1498.03,0
GRID,8848,0,28.00829,0.0,-1497.84,0
GRID,8849,0,24.00678,0.0,-1497.59,0
GRID,8850,0,20.00843,0.0,-1497.28,0
GRID,8851,0,16.01426,0.0,-1496.9,0
GRID,8852,0,12.02531,0.0,-1496.46,0
GRID,8853,0,8.042591,0.0,-1495.96,0
GRID,8854,0,4.067147,0.0,-1495.39,0
GRID,8855,0,360.8063,0.0,-1053.96,0
GRID,8856,0,360.8063,0.0,-1057.92,0
GRID,8857,0,360.8063,0.0,-1061.88,0
GRID,8858,0,360.8063,0.0,-1065.84,0
GRID,8859,0,360.8063,0.0,-1069.8,0
GRID,8860,0,360.7994,0.0,-1073.76,0
GRID,8861,0,360.7793,0.0,-1077.73,0
GRID,8862,0,360.7459,0.0,-1081.69,0
GRID,8863,0,360.6992,0.0,-1085.65,0
GRID,8864,0,360.6393,0.0,-1089.62,0
GRID,8865,0,360.566,0.0,-1093.58,0
GRID,8866,0,360.4795,0.0,-1097.54,0
GRID,8867,0,360.3796,0.0,-1101.5,0
GRID,8868,0,360.2663,0.0,-1105.46,0
GRID,8869,0,360.1398,0.0,-1109.42,0
GRID,8870,0,360.0,0.0,-1113.38,0
GRID,8871,0,359.8469,0.0,-1117.33,0
GRID,8872,0,359.6805,0.0,-1121.29,0
GRID,8873,0,359.501,0.0,-1125.24,0
GRID,8874,0,359.3082,0.0,-1129.19,0
GRID,8875,0,359.1022,0.0,-1133.14,0
GRID,8876,0,358.8831,0.0,-1137.09,0
GRID,8877,0,358.6508,0.0,-1141.03,0
GRID,8878,0,358.4053,0.0,-1144.97,0
GRID,8879,0,358.1467,0.0,-1148.91,0
GRID,8880,0,357.8751,0.0,-1152.85,0
GRID,8881,0,357.5903,0.0,-1156.78,0
GRID,8882,0,357.2926,0.0,-1160.72,0
GRID,8883,0,356.9818,0.0,-1164.65,0
GRID,8884,0,356.6581,0.0,-1168.57,0
GRID,8885,0,356.3214,0.0,-1172.49,0
GRID,8886,0,355.9718,0.0,-1176.41,0
GRID,8887,0,355.6093,0.0,-1180.33,0
GRID,8888,0,355.2339,0.0,-1184.24,0
GRID,8889,0,354.8457,0.0,-1188.15,0
GRID,8890,0,354.4448,0.0,-1192.05,0
GRID,8891,0,354.0116,0.0,-1195.91,0
GRID,8892,0,353.5274,0.0,-1199.76,0
GRID,8893,0,352.9923,0.0,-1203.61,0
GRID,8894,0,352.4063,0.0,-1207.45,0
GRID,8895,0,351.7693,0.0,-1211.29,0
GRID,8896,0,351.0813,0.0,-1215.12,0
GRID,8897,0,350.3424,0.0,-1218.94,0
GRID,8898,0,349.5529,0.0,-1222.75,0
GRID,8899,0,348.7128,0.0,-1226.55,0
GRID,8900,0,347.8223,0.0,-1230.34,0
GRID,8901,0,346.8815,0.0,-1234.12,0
GRID,8902,0,345.8905,0.0,-1237.89,0
GRID,8903,0,344.8494,0.0,-1241.64,0
GRID,8904,0,343.7585,0.0,-1245.39,0
GRID,8905,0,342.6179,0.0,-1249.12,0
GRID,8906,0,341.4278,0.0,-1252.83,0
GRID,8907,0,340.1884,0.0,-1256.53,0
GRID,8908,0,338.8999,0.0,-1260.21,0
GRID,8909,0,337.5625,0.0,-1263.88,0
GRID,8910,0,336.1764,0.0,-1267.53,0
GRID,8911,0,334.7418,0.0,-1271.16,0
GRID,8912,0,333.2591,0.0,-1274.78,0
GRID,8913,0,331.7283,0.0,-1278.37,0
GRID,8914,0,330.1499,0.0,-1281.95,0
GRID,8915,0,328.524,0.0,-1285.5,0
GRID,8916,0,326.8509,0.0,-1289.04,0
GRID,8917,0,325.131,0.0,-1292.55,0
GRID,8918,0,323.3645,0.0,-1296.04,0
GRID,8919,0,321.5517,0.0,-1299.51,0
GRID,8920,0,319.6929,0.0,-1302.95,0
GRID,8921,0,317.7885,0.0,-1306.37,0
GRID,8922,0,315.8387,0.0,-1309.76,0
GRID,8923,0,313.844,0.0,-1313.13,0
GRID,8924,0,311.8047,0.0,-1316.47,0
GRID,8925,0,309.7211,0.0,-1319.79,0
GRID,8926,0,307.5936,0.0,-1323.08,0
GRID,8927,0,305.4225,0.0,-1326.34,0
GRID,8928,0,303.2083,0.0,-1329.57,0
GRID,8929,0,300.9514,0.0,-1332.77,0
GRID,8930,0,298.6521,0.0,-1335.95,0
GRID,8931,0,296.3108,0.0,-1339.09,0
GRID,8932,0,293.928,0.0,-1342.2,0
GRID,8933,0,291.5041,0.0,-1345.28,0
GRID,8934,0,289.0395,0.0,-1348.33,0
GRID,8935,0,286.5346,0.0,-1351.34,0
GRID,8936,0,283.99,0.0,-1354.32,0
GRID,8937,0,281.406,0.0,-1357.27,0
GRID,8938,0,278.7832,0.0,-1360.19,0
GRID,8939,0,276.122,0.0,-1363.07,0
GRID,8940,0,273.4229,0.0,-1365.91,0
GRID,8941,0,270.6764,0.0,-1368.74,0
GRID,8942,0,267.9024,0.0,-1371.54,0
GRID,8943,0,265.1656,0.0,-1374.28,0
GRID,8944,0,262.4288,0.0,-1377.02,0
GRID,8945,0,259.692,0.0,-1379.75,0
GRID,8946,0,256.9552,0.0,-1382.49,0
GRID,8947,0,254.2184,0.0,-1385.23,0
GRID,8948,0,251.4816,0.0,-1387.96,0
GRID,8949,0,248.6728,0.0,-1390.75,0
GRID,8950,0,245.8388,0.0,-1393.5,0
GRID,8951,0,242.98,0.0,-1396.23,0
GRID,8952,0,240.0966,0.0,-1398.94,0
GRID,8953,0,237.1891,0.0,-1401.61,0
GRID,8954,0,234.2577,0.0,-1404.26,0
GRID,8955,0,231.3028,0.0,-1406.88,0
GRID,8956,0,228.325,0.0,-1409.48,0
GRID,8957,0,225.3245,0.0,-1412.04,0
GRID,8958,0,222.3018,0.0,-1414.58,0
GRID,8959,0,219.2574,0.0,-1417.08,0
GRID,8960,0,216.1915,0.0,-1419.56,0
GRID,8961,0,213.1047,0.0,-1422.01,0
GRID,8962,0,209.9974,0.0,-1424.43,0
GRID,8963,0,206.8699,0.0,-1426.82,0
GRID,8964,0,203.7228,0.0,-1429.17,0
GRID,8965,0,200.5564,0.0,-1431.5,0
GRID,8966,0,197.3713,0.0,-1433.79,0
GRID,8967,0,194.1677,0.0,-1436.06,0
GRID,8968,0,190.9463,0.0,-1438.29,0
GRID,8969,0,187.7074,0.0,-1440.49,0
GRID,8970,0,184.4515,0.0,-1442.66,0
GRID,8971,0,181.1791,0.0,-1444.8,0
GRID,8972,0,177.8906,0.0,-1446.9,0
GRID,8973,0,174.5864,0.0,-1448.97,0
GRID,8974,0,171.2671,0.0,-1451.01,0
GRID,8975,0,167.9331,0.0,-1453.01,0
GRID,8976,0,164.5849,0.0,-1454.98,0
GRID,8977,0,161.223,0.0,-1456.92,0
GRID,8978,0,157.8479,0.0,-1458.82,0
GRID,8979,0,154.4599,0.0,-1460.69,0
GRID,8980,0,151.0597,0.0,-1462.53,0
GRID,8981,0,147.6477,0.0,-1464.33,0
GRID,8982,0,144.2111,0.0,-1466.09,0
GRID,8983,0,140.7444,0.0,-1467.79,0
GRID,8984,0,137.2486,0.0,-1469.44,0
GRID,8985,0,133.7243,0.0,-1471.03,0
GRID,8986,0,130.1725,0.0,-1472.57,0
GRID,8987,0,126.5941,0.0,-1474.05,0
GRID,8988,0,122.99,0.0,-1475.47,0
GRID,8989,0,119.3612,0.0,-1476.84,0
GRID,8990,0,115.7087,0.0,-1478.14,0
GRID,8991,0,112.0334,0.0,-1479.39,0
GRID,8992,0,108.3363,0.0,-1480.58,0
GRID,8993,0,104.6184,0.0,-1481.71,0
GRID,8994,0,100.8807,0.0,-1482.78,0
GRID,8995,0,97.12407,0.0,-1483.79,0
GRID,8996,0,93.34967,0.0,-1484.73,0
GRID,8997,0,89.55843,0.0,-1485.62,0
GRID,8998,0,85.75138,0.0,-1486.45,0
GRID,8999,0,81.92952,0.0,-1487.21,0
GRID,9000,0,78.09388,0.0,-1487.91,0
GRID,9001,0,74.24551,0.0,-1488.55,0
GRID,9002,0,70.38543,0.0,-1489.13,0
GRID,9003,0,66.51468,0.0,-1489.65,0
GRID,9004,0,62.63429,0.0,-1490.1,0
GRID,9005,0,58.74531,0.0,-1490.49,0
GRID,9006,0,54.8488,0.0,-1490.82,0
GRID,9007,0,50.94582,0.0,-1491.08,0
GRID,9008,0,47.03741,0.0,-1491.28,0
GRID,9009,0,43.12463,0.0,-1491.42,0
GRID,9010,0,39.20854,0.0,-1491.49,0
GRID,9011,0,35.2902,0.0,-1491.5,0
GRID,9012,0,31.37068,0.0,-1491.45,0
GRID,9013,0,27.45105,0.0,-1491.33,0
GRID,9014,0,23.53237,0.0,-1491.15,0
GRID,9015,0,19.61573,0.0,-1490.9,0
GRID,9016,0,15.70218,0.0,-1490.59,0
GRID,9017,0,11.79278,0.0,-1490.22,0
GRID,9018,0,7.888577,0.0,-1489.78,0
GRID,9019,0,3.990633,0.0,-1489.28,0
GRID,9020,0,354.05,0.0,-1053.87,0
GRID,9021,0,354.05,0.0,-1057.74,0
GRID,9022,0,354.05,0.0,-1061.6,0
GRID,9023,0,354.05,0.0,-1065.47,0
GRID,9024,0,354.05,0.0,-1069.34,0
GRID,9025,0,354.0422,0.0,-1073.21,0
GRID,9026,0,354.0192,0.0,-1077.09,0
GRID,9027,0,353.981,0.0,-1080.96,0
GRID,9028,0,353.9277,0.0,-1084.83,0
GRID,9029,0,353.8592,0.0,-1088.7,0
GRID,9030,0,353.7755,0.0,-1092.57,0
GRID,9031,0,353.6765,0.0,-1096.44,0
GRID,9032,0,353.5624,0.0,-1100.31,0
GRID,9033,0,353.433,0.0,-1104.18,0
GRID,9034,0,353.2883,0.0,-1108.05,0
GRID,9035,0,353.1285,0.0,-1111.91,0
GRID,9036,0,352.9536,0.0,-1115.78,0
GRID,9037,0,352.7635,0.0,-1119.64,0
GRID,9038,0,352.5583,0.0,-1123.5,0
GRID,9039,0,352.3379,0.0,-1127.36,0
GRID,9040,0,352.1025,0.0,-1131.21,0
GRID,9041,0,351.8521,0.0,-1135.06,0
GRID,9042,0,351.5866,0.0,-1138.91,0
GRID,9043,0,351.3061,0.0,-1142.76,0
GRID,9044,0,351.0105,0.0,-1146.61,0
GRID,9045,0,350.7001,0.0,-1150.45,0
GRID,9046,0,350.3747,0.0,-1154.29,0
GRID,9047,0,350.0344,0.0,-1158.13,0
GRID,9048,0,349.6792,0.0,-1161.96,0
GRID,9049,0,349.3092,0.0,-1165.79,0
GRID,9050,0,348.9244,0.0,-1169.61,0
GRID,9051,0,348.5249,0.0,-1173.43,0
GRID,9052,0,348.1106,0.0,-1177.25,0
GRID,9053,0,347.6816,0.0,-1181.07,0
GRID,9054,0,347.238,0.0,-1184.87,0
GRID,9055,0,346.7798,0.0,-1188.68,0
GRID,9056,0,346.2896,0.0,-1192.44,0
GRID,9057,0,345.751,0.0,-1196.2,0
GRID,9058,0,345.1638,0.0,-1199.95,0
GRID,9059,0,344.5282,0.0,-1203.7,0
GRID,9060,0,343.844,0.0,-1207.43,0
GRID,9061,0,343.1114,0.0,-1211.16,0
GRID,9062,0,342.3304,0.0,-1214.89,0
GRID,9063,0,341.5012,0.0,-1218.6,0
GRID,9064,0,340.6238,0.0,-1222.3,0
GRID,9065,0,339.6986,0.0,-1225.99,0
GRID,9066,0,338.7255,0.0,-1229.68,0
GRID,9067,0,337.7046,0.0,-1233.34,0
GRID,9068,0,336.6362,0.0,-1237.0,0
GRID,9069,0,335.5204,0.0,-1240.65,0
GRID,9070,0,334.3574,0.0,-1244.28,0
GRID,9071,0,333.1473,0.0,-1247.89,0
GRID,9072,0,331.8903,0.0,-1251.5,0
GRID,9073,0,330.5866,0.0,-1255.08,0
GRID,9074,0,329.2365,0.0,-1258.65,0
GRID,9075,0,327.84,0.0,-1262.2,0
GRID,9076,0,326.3976,0.0,-1265.74,0
GRID,9077,0,324.9093,0.0,-1269.26,0
GRID,9078,0,323.3754,0.0,-1272.76,0
GRID,9079,0,321.7962,0.0,-1276.24,0
GRID,9080,0,320.1719,0.0,-1279.7,0
GRID,9081,0,318.5027,0.0,-1283.14,0
GRID,9082,0,316.789,0.0,-1286.55,0
GRID,9083,0,315.0311,0.0,-1289.95,0
GRID,9084,0,313.2291,0.0,-1293.33,0
GRID,9085,0,311.3835,0.0,-1296.68,0
GRID,9086,0,309.4944,0.0,-1300.01,0
GRID,9087,0,307.5623,0.0,-1303.31,0
GRID,9088,0,305.5875,0.0,-1306.59,0
GRID,9089,0,303.5702,0.0,-1309.84,0
GRID,9090,0,301.5108,0.0,-1313.07,0
GRID,9091,0,299.4097,0.0,-1316.27,0
GRID,9092,0,297.2671,0.0,-1319.45,0
GRID,9093,0,295.0836,0.0,-1322.6,0
GRID,9094,0,292.8594,0.0,-1325.72,0
GRID,9095,0,290.5949,0.0,-1328.81,0
GRID,9096,0,288.2905,0.0,-1331.87,0
GRID,9097,0,285.9466,0.0,-1334.9,0
GRID,9098,0,283.5635,0.0,-1337.9,0
GRID,9099,0,281.1417,0.0,-1340.88,0
GRID,9100,0,278.6817,0.0,-1343.82,0
GRID,9101,0,276.1837,0.0,-1346.72,0
GRID,9102,0,273.6483,0.0,-1349.6,0
GRID,9103,0,271.0759,0.0,-1352.44,0
GRID,9104,0,268.467,0.0,-1355.25,0
GRID,9105,0,265.822,0.0,-1358.03,0
GRID,9106,0,263.1299,0.0,-1360.8,0
GRID,9107,0,260.4133,0.0,-1363.54,0
GRID,9108,0,257.7298,0.0,-1366.22,0
GRID,9109,0,255.0463,0.0,-1368.9,0
GRID,9110,0,252.3627,0.0,-1371.59,0
GRID,9111,0,249.6792,0.0,-1374.27,0
GRID,9112,0,246.9957,0.0,-1376.95,0
GRID,9113,0,244.3122,0.0,-1379.64,0
GRID,9114,0,241.5647,0.0,-1382.36,0
GRID,9115,0,238.7948,0.0,-1385.06,0
GRID,9116,0,236.0028,0.0,-1387.74,0
GRID,9117,0,233.189,0.0,-1390.4,0
GRID,9118,0,230.3537,0.0,-1393.03,0
GRID,9119,0,227.4972,0.0,-1395.63,0
GRID,9120,0,224.6199,0.0,-1398.21,0
GRID,9121,0,221.7221,0.0,-1400.77,0
GRID,9122,0,218.8042,0.0,-1403.3,0
GRID,9123,0,215.8666,0.0,-1405.8,0
GRID,9124,0,212.9096,0.0,-1408.28,0
GRID,9125,0,209.9336,0.0,-1410.74,0
GRID,9126,0,206.9389,0.0,-1413.16,0
GRID,9127,0,203.9261,0.0,-1415.56,0
GRID,9128,0,200.8953,0.0,-1417.94,0
GRID,9129,0,197.847,0.0,-1420.28,0
GRID,9130,0,194.7817,0.0,-1422.6,0
GRID,9131,0,191.6996,0.0,-1424.89,0
GRID,9132,0,188.6013,0.0,-1427.16,0
GRID,9133,0,185.487,0.0,-1429.39,0
GRID,9134,0,182.3571,0.0,-1431.6,0
GRID,9135,0,179.2122,0.0,-1433.78,0
GRID,9136,0,176.0526,0.0,-1435.92,0
GRID,9137,0,172.8786,0.0,-1438.05,0
GRID,9138,0,169.6908,0.0,-1440.14,0
GRID,9139,0,166.4895,0.0,-1442.2,0
GRID,9140,0,163.2752,0.0,-1444.23,0
GRID,9141,0,160.0482,0.0,-1446.23,0
GRID,9142,0,156.809,0.0,-1448.21,0
GRID,9143,0,153.5581,0.0,-1450.15,0
GRID,9144,0,150.2958,0.0,-1452.06,0
GRID,9145,0,147.0225,0.0,-1453.94,0
GRID,9146,0,143.7388,0.0,-1455.8,0
GRID,9147,0,140.4299,0.0,-1457.61,0
GRID,9148,0,137.0894,0.0,-1459.37,0
GRID,9149,0,133.7181,0.0,-1461.07,0
GRID,9150,0,130.3169,0.0,-1462.72,0
GRID,9151,0,126.8865,0.0,-1464.32,0
GRID,9152,0,123.428,0.0,-1465.85,0
GRID,9153,0,119.9422,0.0,-1467.33,0
GRID,9154,0,116.4302,0.0,-1468.76,0
GRID,9155,0,112.893,0.0,-1470.13,0
GRID,9156,0,109.3314,0.0,-1471.43,0
GRID,9157,0,105.7466,0.0,-1472.68,0
GRID,9158,0,102.1394,0.0,-1473.87,0
GRID,9159,0,98.5109,0.0,-1475.01,0
GRID,9160,0,94.86209,0.0,-1476.08,0
GRID,9161,0,91.19398,0.0,-1477.09,0
GRID,9162,0,87.50759,0.0,-1478.04,0
GRID,9163,0,83.80395,0.0,-1478.93,0
GRID,9164,0,80.08408,0.0,-1479.76,0
GRID,9165,0,76.34902,0.0,-1480.53,0
GRID,9166,0,72.59984,0.0,-1481.23,0
GRID,9167,0,68.83758,0.0,-1481.88,0
GRID,9168,0,65.06329,0.0,-1482.46,0
GRID,9169,0,61.27802,0.0,-1482.98,0
GRID,9170,0,57.48284,0.0,-1483.44,0
GRID,9171,0,53.67883,0.0,-1483.83,0
GRID,9172,0,49.86706,0.0,-1484.16,0
GRID,9173,0,46.04861,0.0,-1484.43,0
GRID,9174,0,42.22454,0.0,-1484.63,0
GRID,9175,0,38.39594,0.0,-1484.77,0
GRID,9176,0,34.56389,0.0,-1484.85,0
GRID,9177,0,30.72949,0.0,-1484.87,0
GRID,9178,0,26.89382,0.0,-1484.82,0
GRID,9179,0,23.05796,0.0,-1484.7,0
GRID,9180,0,19.22302,0.0,-1484.53,0
GRID,9181,0,15.39009,0.0,-1484.28,0
GRID,9182,0,11.56025,0.0,-1483.98,0
GRID,9183,0,7.734562,0.0,-1483.61,0
GRID,9184,0,3.91412,0.0,-1483.18,0
GRID,9185,0,347.2938,0.0,-1053.78,0
GRID,9186,0,347.2938,0.0,-1057.55,0
GRID,9187,0,347.2938,0.0,-1061.33,0
GRID,9188,0,347.2938,0.0,-1065.11,0
GRID,9189,0,347.2938,0.0,-1068.88,0
GRID,9190,0,347.2849,0.0,-1072.66,0
GRID,9191,0,347.2591,0.0,-1076.45,0
GRID,9192,0,347.2162,0.0,-1080.23,0
GRID,9193,0,347.1562,0.0,-1084.01,0
GRID,9194,0,347.0791,0.0,-1087.79,0
GRID,9195,0,346.9849,0.0,-1091.57,0
GRID,9196,0,346.8736,0.0,-1095.35,0
GRID,9197,0,346.7452,0.0,-1099.12,0
GRID,9198,0,346.5996,0.0,-1102.9,0
GRID,9199,0,346.4369,0.0,-1106.68,0
GRID,9200,0,346.2571,0.0,-1110.45,0
GRID,9201,0,346.0603,0.0,-1114.22,0
GRID,9202,0,345.8464,0.0,-1117.99,0
GRID,9203,0,345.6155,0.0,-1121.76,0
GRID,9204,0,345.3677,0.0,-1125.52,0
GRID,9205,0,345.1029,0.0,-1129.28,0
GRID,9206,0,344.8211,0.0,-1133.04,0
GRID,9207,0,344.5224,0.0,-1136.8,0
GRID,9208,0,344.2068,0.0,-1140.55,0
GRID,9209,0,343.8744,0.0,-1144.3,0
GRID,9210,0,343.5251,0.0,-1148.05,0
GRID,9211,0,343.159,0.0,-1151.79,0
GRID,9212,0,342.7762,0.0,-1155.53,0
GRID,9213,0,342.3766,0.0,-1159.27,0
GRID,9214,0,341.9604,0.0,-1163.0,0
GRID,9215,0,341.5275,0.0,-1166.73,0
GRID,9216,0,341.078,0.0,-1170.46,0
GRID,9217,0,340.6119,0.0,-1174.18,0
GRID,9218,0,340.1293,0.0,-1177.89,0
GRID,9219,0,339.6302,0.0,-1181.6,0
GRID,9220,0,339.1147,0.0,-1185.31,0
GRID,9221,0,338.5677,0.0,-1188.97,0
GRID,9222,0,337.9745,0.0,-1192.63,0
GRID,9223,0,337.3353,0.0,-1196.29,0
GRID,9224,0,336.6501,0.0,-1199.94,0
GRID,9225,0,335.9188,0.0,-1203.58,0
GRID,9226,0,335.1415,0.0,-1207.21,0
GRID,9227,0,334.3184,0.0,-1210.83,0
GRID,9228,0,333.4494,0.0,-1214.45,0
GRID,9229,0,332.5349,0.0,-1218.05,0
GRID,9230,0,331.5749,0.0,-1221.65,0
GRID,9231,0,330.5695,0.0,-1225.23,0
GRID,9232,0,329.5188,0.0,-1228.8,0
GRID,9233,0,328.423,0.0,-1232.36,0
GRID,9234,0,327.2823,0.0,-1235.91,0
GRID,9235,0,326.0968,0.0,-1239.44,0
GRID,9236,0,324.8667,0.0,-1242.96,0
GRID,9237,0,323.5921,0.0,-1246.46,0
GRID,9238,0,322.2733,0.0,-1249.95,0
GRID,9239,0,320.9104,0.0,-1253.42,0
GRID,9240,0,319.5037,0.0,-1256.88,0
GRID,9241,0,318.0533,0.0,-1260.32,0
GRID,9242,0,316.5595,0.0,-1263.74,0
GRID,9243,0,315.0225,0.0,-1267.14,0
GRID,9244,0,313.4425,0.0,-1270.52,0
GRID,9245,0,311.8197,0.0,-1273.89,0
GRID,9246,0,310.1545,0.0,-1277.23,0
GRID,9247,0,308.447,0.0,-1280.56,0
GRID,9248,0,306.6976,0.0,-1283.86,0
GRID,9249,0,304.9065,0.0,-1287.14,0
GRID,9250,0,303.074,0.0,-1290.4,0
GRID,9251,0,301.2004,0.0,-1293.64,0
GRID,9252,0,299.2859,0.0,-1296.86,0
GRID,9253,0,297.3309,0.0,-1300.05,0
GRID,9254,0,295.3356,0.0,-1303.21,0
GRID,9255,0,293.3005,0.0,-1306.35,0
GRID,9256,0,291.2258,0.0,-1309.47,0
GRID,9257,0,289.1118,0.0,-1312.56,0
GRID,9258,0,286.9589,0.0,-1315.62,0
GRID,9259,0,284.7674,0.0,-1318.66,0
GRID,9260,0,282.5378,0.0,-1321.67,0
GRID,9261,0,280.2703,0.0,-1324.65,0
GRID,9262,0,277.9652,0.0,-1327.6,0
GRID,9263,0,275.623,0.0,-1330.53,0
GRID,9264,0,273.244,0.0,-1333.42,0
GRID,9265,0,270.8287,0.0,-1336.29,0
GRID,9266,0,268.3774,0.0,-1339.12,0
GRID,9267,0,265.8906,0.0,-1341.93,0
GRID,9268,0,263.3687,0.0,-1344.7,0
GRID,9269,0,260.812,0.0,-1347.44,0
GRID,9270,0,258.2211,0.0,-1350.15,0
GRID,9271,0,255.5833,0.0,-1352.85,0
GRID,9272,0,252.9242,0.0,-1355.53,0
GRID,9273,0,250.2939,0.0,-1358.16,0
GRID,9274,0,247.6637,0.0,-1360.79,0
GRID,9275,0,245.0335,0.0,-1363.42,0
GRID,9276,0,242.4032,0.0,-1366.05,0
GRID,9277,0,239.773,0.0,-1368.68,0
GRID,9278,0,237.1428,0.0,-1371.31,0
GRID,9279,0,234.4566,0.0,-1373.98,0
GRID,9280,0,231.7507,0.0,-1376.63,0
GRID,9281,0,229.0256,0.0,-1379.25,0
GRID,9282,0,226.2814,0.0,-1381.86,0
GRID,9283,0,223.5183,0.0,-1384.44,0
GRID,9284,0,220.7368,0.0,-1387.0,0
GRID,9285,0,217.9369,0.0,-1389.54,0
GRID,9286,0,215.1192,0.0,-1392.06,0
GRID,9287,0,212.2839,0.0,-1394.56,0
GRID,9288,0,209.4313,0.0,-1397.03,0
GRID,9289,0,206.5618,0.0,-1399.48,0
GRID,9290,0,203.6756,0.0,-1401.91,0
GRID,9291,0,200.7732,0.0,-1404.32,0
GRID,9292,0,197.8547,0.0,-1406.7,0
GRID,9293,0,194.9207,0.0,-1409.06,0
GRID,9294,0,191.9713,0.0,-1411.39,0
GRID,9295,0,189.007,0.0,-1413.7,0
GRID,9296,0,186.028,0.0,-1415.99,0
GRID,9297,0,183.0348,0.0,-1418.25,0
GRID,9298,0,180.0276,0.0,-1420.49,0
GRID,9299,0,177.0069,0.0,-1422.7,0
GRID,9300,0,173.9729,0.0,-1424.89,0
GRID,9301,0,170.9261,0.0,-1427.05,0
GRID,9302,0,167.8667,0.0,-1429.19,0
GRID,9303,0,164.7952,0.0,-1431.3,0
GRID,9304,0,161.7119,0.0,-1433.39,0
GRID,9305,0,158.6172,0.0,-1435.45,0
GRID,9306,0,155.5115,0.0,-1437.49,0
GRID,9307,0,152.395,0.0,-1439.49,0
GRID,9308,0,149.2683,0.0,-1441.48,0
GRID,9309,0,146.1316,0.0,-1443.43,0
GRID,9310,0,142.9854,0.0,-1445.36,0
GRID,9311,0,139.83,0.0,-1447.26,0
GRID,9312,0,136.6487,0.0,-1449.13,0
GRID,9313,0,133.4344,0.0,-1450.94,0
GRID,9314,0,130.1876,0.0,-1452.7,0
GRID,9315,0,126.9094,0.0,-1454.41,0
GRID,9316,0,123.6005,0.0,-1456.06,0
GRID,9317,0,120.2619,0.0,-1457.66,0
GRID,9318,0,116.8944,0.0,-1459.2,0
GRID,9319,0,113.4993,0.0,-1460.68,0
GRID,9320,0,110.0773,0.0,-1462.11,0
GRID,9321,0,106.6295,0.0,-1463.48,0
GRID,9322,0,103.1569,0.0,-1464.79,0
GRID,9323,0,99.66041,0.0,-1466.04,0
GRID,9324,0,96.14115,0.0,-1467.23,0
GRID,9325,0,92.6001,0.0,-1468.37,0
GRID,9326,0,89.03829,0.0,-1469.44,0
GRID,9327,0,85.45675,0.0,-1470.46,0
GRID,9328,0,81.85652,0.0,-1471.41,0
GRID,9329,0,78.23863,0.0,-1472.31,0
GRID,9330,0,74.60416,0.0,-1473.14,0
GRID,9331,0,70.95417,0.0,-1473.91,0
GRID,9332,0,67.28973,0.0,-1474.62,0
GRID,9333,0,63.61189,0.0,-1475.27,0
GRID,9334,0,59.92175,0.0,-1475.86,0
GRID,9335,0,56.22037,0.0,-1476.38,0
GRID,9336,0,52.50886,0.0,-1476.84,0
GRID,9337,0,48.78831,0.0,-1477.24,0
GRID,9338,0,45.05981,0.0,-1477.58,0
GRID,9339,0,41.32445,0.0,-1477.85,0
GRID,9340,0,37.58335,0.0,-1478.06,0
GRID,9341,0,33.83759,0.0,-1478.2,0
GRID,9342,0,30.0883,0.0,-1478.29,0
GRID,9343,0,26.33658,0.0,-1478.3,0
GRID,9344,0,22.58355,0.0,-1478.26,0
GRID,9345,0,18.83032,0.0,-1478.15,0
GRID,9346,0,15.07801,0.0,-1477.98,0
GRID,9347,0,11.32772,0.0,-1477.74,0
GRID,9348,0,7.580548,0.0,-1477.44,0
GRID,9349,0,3.837607,0.0,-1477.07,0
GRID,9350,0,340.5375,0.0,-1053.68,0
GRID,9351,0,340.5375,0.0,-1057.37,0
GRID,9352,0,340.5375,0.0,-1061.05,0
GRID,9353,0,340.5375,0.0,-1064.74,0
GRID,9354,0,340.5375,0.0,-1068.42,0
GRID,9355,0,340.5277,0.0,-1072.11,0
GRID,9356,0,340.499,0.0,-1075.8,0
GRID,9357,0,340.4513,0.0,-1079.5,0
GRID,9358,0,340.3846,0.0,-1083.18,0
GRID,9359,0,340.299,0.0,-1086.87,0
GRID,9360,0,340.1943,0.0,-1090.56,0
GRID,9361,0,340.0707,0.0,-1094.25,0
GRID,9362,0,339.928,0.0,-1097.94,0
GRID,9363,0,339.7662,0.0,-1101.62,0
GRID,9364,0,339.5854,0.0,-1105.3,0
GRID,9365,0,339.3857,0.0,-1108.98,0
GRID,9366,0,339.167,0.0,-1112.66,0
GRID,9367,0,338.9293,0.0,-1116.34,0
GRID,9368,0,338.6728,0.0,-1120.01,0
GRID,9369,0,338.3974,0.0,-1123.68,0
GRID,9370,0,338.1032,0.0,-1127.35,0
GRID,9371,0,337.7901,0.0,-1131.02,0
GRID,9372,0,337.4582,0.0,-1134.68,0
GRID,9373,0,337.1076,0.0,-1138.34,0
GRID,9374,0,336.7382,0.0,-1142.0,0
GRID,9375,0,336.3501,0.0,-1145.65,0
GRID,9376,0,335.9433,0.0,-1149.3,0
GRID,9377,0,335.518,0.0,-1152.94,0
GRID,9378,0,335.074,0.0,-1156.58,0
GRID,9379,0,334.6115,0.0,-1160.22,0
GRID,9380,0,334.1305,0.0,-1163.85,0
GRID,9381,0,333.6311,0.0,-1167.48,0
GRID,9382,0,333.1132,0.0,-1171.1,0
GRID,9383,0,332.577,0.0,-1174.72,0
GRID,9384,0,332.0225,0.0,-1178.33,0
GRID,9385,0,331.4497,0.0,-1181.93,0
GRID,9386,0,330.8457,0.0,-1185.5,0
GRID,9387,0,330.1981,0.0,-1189.07,0
GRID,9388,0,329.5068,0.0,-1192.63,0
GRID,9389,0,328.772,0.0,-1196.18,0
GRID,9390,0,327.9936,0.0,-1199.72,0
GRID,9391,0,327.1717,0.0,-1203.26,0
GRID,9392,0,326.3063,0.0,-1206.78,0
GRID,9393,0,325.3977,0.0,-1210.3,0
GRID,9394,0,324.4459,0.0,-1213.81,0
GRID,9395,0,323.4512,0.0,-1217.3,0
GRID,9396,0,322.4135,0.0,-1220.79,0
GRID,9397,0,321.333,0.0,-1224.26,0
GRID,9398,0,320.2098,0.0,-1227.72,0
GRID,9399,0,319.0442,0.0,-1231.17,0
GRID,9400,0,317.8362,0.0,-1234.6,0
GRID,9401,0,316.5861,0.0,-1238.02,0
GRID,9402,0,315.294,0.0,-1241.43,0
GRID,9403,0,313.96,0.0,-1244.82,0
GRID,9404,0,312.5844,0.0,-1248.19,0
GRID,9405,0,311.1673,0.0,-1251.55,0
GRID,9406,0,309.7091,0.0,-1254.89,0
GRID,9407,0,308.2097,0.0,-1258.22,0
GRID,9408,0,306.6696,0.0,-1261.52,0
GRID,9409,0,305.0888,0.0,-1264.81,0
GRID,9410,0,303.4676,0.0,-1268.08,0
GRID,9411,0,301.8063,0.0,-1271.33,0
GRID,9412,0,300.1051,0.0,-1274.56,0
GRID,9413,0,298.3642,0.0,-1277.77,0
GRID,9414,0,296.584,0.0,-1280.96,0
GRID,9415,0,294.7646,0.0,-1284.13,0
GRID,9416,0,292.9063,0.0,-1287.28,0
GRID,9417,0,291.0095,0.0,-1290.4,0
GRID,9418,0,289.0743,0.0,-1293.5,0
GRID,9419,0,287.1011,0.0,-1296.58,0
GRID,9420,0,285.0902,0.0,-1299.64,0
GRID,9421,0,283.0419,0.0,-1302.67,0
GRID,9422,0,280.9564,0.0,-1305.67,0
GRID,9423,0,278.8342,0.0,-1308.65,0
GRID,9424,0,276.6755,0.0,-1311.6,0
GRID,9425,0,274.4806,0.0,-1314.53,0
GRID,9426,0,272.25,0.0,-1317.43,0
GRID,9427,0,269.9838,0.0,-1320.31,0
GRID,9428,0,267.6824,0.0,-1323.15,0
GRID,9429,0,265.3463,0.0,-1325.97,0
GRID,9430,0,262.9757,0.0,-1328.76,0
GRID,9431,0,260.5712,0.0,-1331.52,0
GRID,9432,0,258.1329,0.0,-1334.26,0
GRID,9433,0,255.6614,0.0,-1336.96,0
GRID,9434,0,253.157,0.0,-1339.63,0
GRID,9435,0,250.6202,0.0,-1342.27,0
GRID,9436,0,248.0368,0.0,-1344.91,0
GRID,9437,0,245.435,0.0,-1347.53,0
GRID,9438,0,242.8581,0.0,-1350.1,0
GRID,9439,0,240.2811,0.0,-1352.68,0
GRID,9440,0,237.7042,0.0,-1355.26,0
GRID,9441,0,235.1273,0.0,-1357.84,0
GRID,9442,0,232.5503,0.0,-1360.41,0
GRID,9443,0,229.9734,0.0,-1362.99,0
GRID,9444,0,227.3484,0.0,-1365.6,0
GRID,9445,0,224.7067,0.0,-1368.19,0
GRID,9446,0,222.0484,0.0,-1370.76,0
GRID,9447,0,219.3737,0.0,-1373.32,0
GRID,9448,0,216.683,0.0,-1375.85,0
GRID,9449,0,213.9763,0.0,-1378.37,0
GRID,9450,0,211.254,0.0,-1380.87,0
GRID,9451,0,208.5163,0.0,-1383.35,0
GRID,9452,0,205.7636,0.0,-1385.81,0
GRID,9453,0,202.9961,0.0,-1388.26,0
GRID,9454,0,200.214,0.0,-1390.68,0
GRID,9455,0,197.4177,0.0,-1393.09,0
GRID,9456,0,194.6074,0.0,-1395.47,0
GRID,9457,0,191.7834,0.0,-1397.83,0
GRID,9458,0,188.9461,0.0,-1400.18,0
GRID,9459,0,186.0956,0.0,-1402.5,0
GRID,9460,0,183.2322,0.0,-1404.81,0
GRID,9461,0,180.3564,0.0,-1407.09,0
GRID,9462,0,177.4683,0.0,-1409.35,0
GRID,9463,0,174.5683,0.0,-1411.59,0
GRID,9464,0,171.6566,0.0,-1413.81,0
GRID,9465,0,168.7336,0.0,-1416.01,0
GRID,9466,0,165.7995,0.0,-1418.18,0
GRID,9467,0,162.8548,0.0,-1420.34,0
GRID,9468,0,159.8996,0.0,-1422.47,0
GRID,9469,0,156.9343,0.0,-1424.58,0
GRID,9470,0,153.9593,0.0,-1426.67,0
GRID,9471,0,150.9747,0.0,-1428.74,0
GRID,9472,0,147.981,0.0,-1430.78,0
GRID,9473,0,144.9785,0.0,-1432.8,0
GRID,9474,0,141.9675,0.0,-1434.8,0
GRID,9475,0,138.9482,0.0,-1436.78,0
GRID,9476,0,135.9211,0.0,-1438.73,0
GRID,9477,0,132.8676,0.0,-1440.65,0
GRID,9478,0,129.7793,0.0,-1442.52,0
GRID,9479,0,126.6572,0.0,-1444.33,0
GRID,9480,0,123.502,0.0,-1446.1,0
GRID,9481,0,120.3145,0.0,-1447.8,0
GRID,9482,0,117.0958,0.0,-1449.46,0
GRID,9483,0,113.8467,0.0,-1451.06,0
GRID,9484,0,110.5683,0.0,-1452.6,0
GRID,9485,0,107.2616,0.0,-1454.09,0
GRID,9486,0,103.9275,0.0,-1455.52,0
GRID,9487,0,100.5671,0.0,-1456.89,0
GRID,9488,0,97.18142,0.0,-1458.21,0
GRID,9489,0,93.7714,0.0,-1459.46,0
GRID,9490,0,90.33811,0.0,-1460.66,0
GRID,9491,0,86.8826,0.0,-1461.8,0
GRID,9492,0,83.40591,0.0,-1462.88,0
GRID,9493,0,79.90909,0.0,-1463.9,0
GRID,9494,0,76.39319,0.0,-1464.86,0
GRID,9495,0,72.8593,0.0,-1465.76,0
GRID,9496,0,69.3085,0.0,-1466.59,0
GRID,9497,0,65.74187,0.0,-1467.37,0
GRID,9498,0,62.1605,0.0,-1468.09,0
GRID,9499,0,58.56548,0.0,-1468.74,0
GRID,9500,0,54.9579,0.0,-1469.33,0
GRID,9501,0,51.33889,0.0,-1469.86,0
GRID,9502,0,47.70956,0.0,-1470.32,0
GRID,9503,0,44.07101,0.0,-1470.73,0
GRID,9504,0,40.42437,0.0,-1471.07,0
GRID,9505,0,36.77075,0.0,-1471.34,0
GRID,9506,0,33.11129,0.0,-1471.56,0
GRID,9507,0,29.44711,0.0,-1471.71,0
GRID,9508,0,25.77935,0.0,-1471.79,0
GRID,9509,0,22.10914,0.0,-1471.81,0
GRID,9510,0,18.43762,0.0,-1471.77,0
GRID,9511,0,14.76593,0.0,-1471.67,0
GRID,9512,0,11.09519,0.0,-1471.5,0
GRID,9513,0,7.426533,0.0,-1471.27,0
GRID,9514,0,3.761094,0.0,-1470.97,0
GRID,9515,0,333.7813,0.0,-1053.59,0
GRID,9516,0,333.7813,0.0,-1057.19,0
GRID,9517,0,333.7813,0.0,-1060.78,0
GRID,9518,0,333.7813,0.0,-1064.37,0
GRID,9519,0,333.7813,0.0,-1067.96,0
GRID,9520,0,333.7705,0.0,-1071.56,0
GRID,9521,0,333.7389,0.0,-1075.16,0
GRID,9522,0,333.6864,0.0,-1078.76,0
GRID,9523,0,333.6131,0.0,-1082.36,0
GRID,9524,0,333.5189,0.0,-1085.96,0
GRID,9525,0,333.4038,0.0,-1089.56,0
GRID,9526,0,333.2677,0.0,-1093.15,0
GRID,9527,0,333.1108,0.0,-1096.75,0
GRID,9528,0,332.9328,0.0,-1100.34,0
GRID,9529,0,332.734,0.0,-1103.93,0
GRID,9530,0,332.5142,0.0,-1107.52,0
GRID,9531,0,332.2737,0.0,-1111.11,0
GRID,9532,0,332.0123,0.0,-1114.69,0
GRID,9533,0,331.7301,0.0,-1118.27,0
GRID,9534,0,331.4272,0.0,-1121.85,0
GRID,9535,0,331.1035,0.0,-1125.42,0
GRID,9536,0,330.7591,0.0,-1129.0,0
GRID,9537,0,330.394,0.0,-1132.57,0
GRID,9538,0,330.0083,0.0,-1136.13,0
GRID,9539,0,329.602,0.0,-1139.69,0
GRID,9540,0,329.1751,0.0,-1143.25,0
GRID,9541,0,328.7277,0.0,-1146.8,0
GRID,9542,0,328.2598,0.0,-1150.35,0
GRID,9543,0,327.7714,0.0,-1153.9,0
GRID,9544,0,327.2627,0.0,-1157.44,0
GRID,9545,0,326.7336,0.0,-1160.97,0
GRID,9546,0,326.1842,0.0,-1164.5,0
GRID,9547,0,325.6146,0.0,-1168.02,0
GRID,9548,0,325.0247,0.0,-1171.54,0
GRID,9549,0,324.4147,0.0,-1175.05,0
GRID,9550,0,323.7847,0.0,-1178.56,0
GRID,9551,0,323.1237,0.0,-1182.03,0
GRID,9552,0,322.4216,0.0,-1185.5,0
GRID,9553,0,321.6783,0.0,-1188.97,0
GRID,9554,0,320.8939,0.0,-1192.42,0
GRID,9555,0,320.0684,0.0,-1195.87,0
GRID,9556,0,319.2018,0.0,-1199.3,0
GRID,9557,0,318.2943,0.0,-1202.73,0
GRID,9558,0,317.346,0.0,-1206.15,0
GRID,9559,0,316.357,0.0,-1209.56,0
GRID,9560,0,315.3274,0.0,-1212.96,0
GRID,9561,0,314.2575,0.0,-1216.34,0
GRID,9562,0,313.1471,0.0,-1219.72,0
GRID,9563,0,311.9966,0.0,-1223.08,0
GRID,9564,0,310.8061,0.0,-1226.43,0
GRID,9565,0,309.5757,0.0,-1229.76,0
GRID,9566,0,308.3055,0.0,-1233.08,0
GRID,9567,0,306.9958,0.0,-1236.39,0
GRID,9568,0,305.6467,0.0,-1239.68,0
GRID,9569,0,304.2584,0.0,-1242.96,0
GRID,9570,0,302.831,0.0,-1246.22,0
GRID,9571,0,301.3648,0.0,-1249.47,0
GRID,9572,0,299.8599,0.0,-1252.69,0
GRID,9573,0,298.3166,0.0,-1255.91,0
GRID,9574,0,296.7351,0.0,-1259.1,0
GRID,9575,0,295.1155,0.0,-1262.27,0
GRID,9576,0,293.4581,0.0,-1265.43,0
GRID,9577,0,291.7631,0.0,-1268.57,0
GRID,9578,0,290.0308,0.0,-1271.68,0
GRID,9579,0,288.2614,0.0,-1274.78,0
GRID,9580,0,286.4552,0.0,-1277.86,0
GRID,9581,0,284.6123,0.0,-1280.91,0
GRID,9582,0,282.7331,0.0,-1283.95,0
GRID,9583,0,280.8177,0.0,-1286.96,0
GRID,9584,0,278.8666,0.0,-1289.95,0
GRID,9585,0,276.8799,0.0,-1292.92,0
GRID,9586,0,274.858,0.0,-1295.86,0
GRID,9587,0,272.8011,0.0,-1298.78,0
GRID,9588,0,270.7095,0.0,-1301.68,0
GRID,9589,0,268.5835,0.0,-1304.55,0
GRID,9590,0,266.4235,0.0,-1307.4,0
GRID,9591,0,264.2297,0.0,-1310.22,0
GRID,9592,0,262.0024,0.0,-1313.01,0
GRID,9593,0,259.7419,0.0,-1315.78,0
GRID,9594,0,257.4486,0.0,-1318.52,0
GRID,9595,0,255.1228,0.0,-1321.24,0
GRID,9596,0,252.7649,0.0,-1323.92,0
GRID,9597,0,250.3752,0.0,-1326.58,0
GRID,9598,0,247.9541,0.0,-1329.21,0
GRID,9599,0,245.502,0.0,-1331.82,0
GRID,9600,0,243.0193,0.0,-1334.39,0
GRID,9601,0,240.4902,0.0,-1336.96,0
GRID,9602,0,237.9459,0.0,-1339.52,0
GRID,9603,0,235.4222,0.0,-1342.05,0
GRID,9604,0,232.8986,0.0,-1344.57,0
GRID,9605,0,230.3749,0.0,-1347.09,0
GRID,9606,0,227.8513,0.0,-1349.62,0
GRID,9607,0,225.3276,0.0,-1352.14,0
GRID,9608,0,222.8039,0.0,-1354.67,0
GRID,9609,0,220.2403,0.0,-1357.21,0
GRID,9610,0,217.6626,0.0,-1359.75,0
GRID,9611,0,215.0712,0.0,-1362.27,0
GRID,9612,0,212.4661,0.0,-1364.77,0
GRID,9613,0,209.8476,0.0,-1367.26,0
GRID,9614,0,207.2158,0.0,-1369.74,0
GRID,9615,0,204.571,0.0,-1372.2,0
GRID,9616,0,201.9134,0.0,-1374.64,0
GRID,9617,0,199.2433,0.0,-1377.07,0
GRID,9618,0,196.5608,0.0,-1379.48,0
GRID,9619,0,193.8662,0.0,-1381.88,0
GRID,9620,0,191.1598,0.0,-1384.26,0
GRID,9621,0,188.4416,0.0,-1386.62,0
GRID,9622,0,185.7121,0.0,-1388.97,0
GRID,9623,0,182.9714,0.0,-1391.3,0
GRID,9624,0,180.2198,0.0,-1393.61,0
GRID,9625,0,177.4575,0.0,-1395.91,0
GRID,9626,0,174.6848,0.0,-1398.19,0
GRID,9627,0,171.9018,0.0,-1400.45,0
GRID,9628,0,169.1089,0.0,-1402.69,0
GRID,9629,0,166.3063,0.0,-1404.92,0
GRID,9630,0,163.4943,0.0,-1407.12,0
GRID,9631,0,160.673,0.0,-1409.31,0
GRID,9632,0,157.8429,0.0,-1411.48,0
GRID,9633,0,155.004,0.0,-1413.64,0
GRID,9634,0,152.1567,0.0,-1415.77,0
GRID,9635,0,149.3013,0.0,-1417.89,0
GRID,9636,0,146.438,0.0,-1419.99,0
GRID,9637,0,143.567,0.0,-1422.07,0
GRID,9638,0,140.6887,0.0,-1424.13,0
GRID,9639,0,137.8033,0.0,-1426.17,0
GRID,9640,0,134.9111,0.0,-1428.19,0
GRID,9641,0,132.0123,0.0,-1430.2,0
GRID,9642,0,129.0864,0.0,-1432.17,0
GRID,9643,0,126.1243,0.0,-1434.09,0
GRID,9644,0,123.1267,0.0,-1435.96,0
GRID,9645,0,120.0945,0.0,-1437.78,0
GRID,9646,0,117.0286,0.0,-1439.55,0
GRID,9647,0,113.9297,0.0,-1441.26,0
GRID,9648,0,110.7989,0.0,-1442.92,0
GRID,9649,0,107.6373,0.0,-1444.52,0
GRID,9650,0,104.4459,0.0,-1446.07,0
GRID,9651,0,101.2256,0.0,-1447.56,0
GRID,9652,0,97.97742,0.0,-1448.99,0
GRID,9653,0,94.70243,0.0,-1450.37,0
GRID,9654,0,91.40165,0.0,-1451.69,0
GRID,9655,0,88.07612,0.0,-1452.95,0
GRID,9656,0,84.72691,0.0,-1454.15,0
GRID,9657,0,81.35507,0.0,-1455.3,0
GRID,9658,0,77.96166,0.0,-1456.38,0
GRID,9659,0,74.54775,0.0,-1457.41,0
GRID,9660,0,71.11444,0.0,-1458.37,0
GRID,9661,0,67.66283,0.0,-1459.28,0
GRID,9662,0,64.19402,0.0,-1460.12,0
GRID,9663,0,60.70911,0.0,-1460.9,0
GRID,9664,0,57.20921,0.0,-1461.62,0
GRID,9665,0,53.69543,0.0,-1462.28,0
GRID,9666,0,50.16892,0.0,-1462.87,0
GRID,9667,0,46.6308,0.0,-1463.4,0
GRID,9668,0,43.08221,0.0,-1463.87,0
GRID,9669,0,39.52428,0.0,-1464.28,0
GRID,9670,0,35.95815,0.0,-1464.63,0
GRID,9671,0,32.38498,0.0,-1464.91,0
GRID,9672,0,28.80592,0.0,-1465.12,0
GRID,9673,0,25.22211,0.0,-1465.28,0
GRID,9674,0,21.63472,0.0,-1465.37,0
GRID,9675,0,18.04492,0.0,-1465.4,0
GRID,9676,0,14.45384,0.0,-1465.36,0
GRID,9677,0,10.86266,0.0,-1465.26,0
GRID,9678,0,7.272519,0.0,-1465.09,0
GRID,9679,0,3.68458,0.0,-1464.87,0
GRID,9680,0,327.025,0.0,-1053.5,0
GRID,9681,0,327.025,0.0,-1057.0,0
GRID,9682,0,327.025,0.0,-1060.5,0
GRID,9683,0,327.025,0.0,-1064.0,0
GRID,9684,0,327.025,0.0,-1067.51,0
GRID,9685,0,327.0133,0.0,-1071.01,0
GRID,9686,0,326.9788,0.0,-1074.52,0
GRID,9687,0,326.9216,0.0,-1078.03,0
GRID,9688,0,326.8416,0.0,-1081.54,0
GRID,9689,0,326.7388,0.0,-1085.05,0
GRID,9690,0,326.6132,0.0,-1088.55,0
GRID,9691,0,326.4648,0.0,-1092.05,0
GRID,9692,0,326.2936,0.0,-1095.56,0
GRID,9693,0,326.0995,0.0,-1099.06,0
GRID,9694,0,325.8825,0.0,-1102.56,0
GRID,9695,0,325.6428,0.0,-1106.05,0
GRID,9696,0,325.3804,0.0,-1109.55,0
GRID,9697,0,325.0952,0.0,-1113.04,0
GRID,9698,0,324.7874,0.0,-1116.53,0
GRID,9699,0,324.4569,0.0,-1120.01,0
GRID,9700,0,324.1038,0.0,-1123.5,0
GRID,9701,0,323.7281,0.0,-1126.97,0
GRID,9702,0,323.3299,0.0,-1130.45,0
GRID,9703,0,322.9091,0.0,-1133.92,0
GRID,9704,0,322.4658,0.0,-1137.39,0
GRID,9705,0,322.0001,0.0,-1140.85,0
GRID,9706,0,321.512,0.0,-1144.31,0
GRID,9707,0,321.0015,0.0,-1147.76,0
GRID,9708,0,320.4688,0.0,-1151.21,0
GRID,9709,0,319.9138,0.0,-1154.65,0
GRID,9710,0,319.3366,0.0,-1158.09,0
GRID,9711,0,318.7373,0.0,-1161.52,0
GRID,9712,0,318.1159,0.0,-1164.95,0
GRID,9713,0,317.4724,0.0,-1168.36,0
GRID,9714,0,316.807,0.0,-1171.78,0
GRID,9715,0,316.1196,0.0,-1175.18,0
GRID,9716,0,315.4018,0.0,-1178.56,0
GRID,9717,0,314.6452,0.0,-1181.94,0
GRID,9718,0,313.8498,0.0,-1185.3,0
GRID,9719,0,313.0158,0.0,-1188.66,0
GRID,9720,0,312.1432,0.0,-1192.01,0
GRID,9721,0,311.232,0.0,-1195.35,0
GRID,9722,0,310.2823,0.0,-1198.68,0
GRID,9723,0,309.2943,0.0,-1202.0,0
GRID,9724,0,308.268,0.0,-1205.31,0
GRID,9725,0,307.2037,0.0,-1208.61,0
GRID,9726,0,306.1015,0.0,-1211.9,0
GRID,9727,0,304.9613,0.0,-1215.17,0
GRID,9728,0,303.7835,0.0,-1218.44,0
GRID,9729,0,302.568,0.0,-1221.69,0
GRID,9730,0,301.3151,0.0,-1224.92,0
GRID,9731,0,300.025,0.0,-1228.15,0
GRID,9732,0,298.6977,0.0,-1231.36,0
GRID,9733,0,297.3334,0.0,-1234.55,0
GRID,9734,0,295.9323,0.0,-1237.73,0
GRID,9735,0,294.4947,0.0,-1240.89,0
GRID,9736,0,293.0205,0.0,-1244.04,0
GRID,9737,0,291.5102,0.0,-1247.17,0
GRID,9738,0,289.9637,0.0,-1250.29,0
GRID,9739,0,288.3814,0.0,-1253.39,0
GRID,9740,0,286.7634,0.0,-1256.47,0
GRID,9741,0,285.1099,0.0,-1259.53,0
GRID,9742,0,283.4212,0.0,-1262.57,0
GRID,9743,0,281.6974,0.0,-1265.6,0
GRID,9744,0,279.9389,0.0,-1268.6,0
GRID,9745,0,278.1457,0.0,-1271.59,0
GRID,9746,0,276.3182,0.0,-1274.55,0
GRID,9747,0,274.4566,0.0,-1277.5,0
GRID,9748,0,272.5612,0.0,-1280.42,0
GRID,9749,0,270.6321,0.0,-1283.32,0
GRID,9750,0,268.6696,0.0,-1286.2,0
GRID,9751,0,266.6741,0.0,-1289.06,0
GRID,9752,0,264.6457,0.0,-1291.89,0
GRID,9753,0,262.5848,0.0,-1294.7,0
GRID,9754,0,260.4916,0.0,-1297.49,0
GRID,9755,0,258.3663,0.0,-1300.26,0
GRID,9756,0,256.2094,0.0,-1303.0,0
GRID,9757,0,254.0209,0.0,-1305.71,0
GRID,9758,0,251.8013,0.0,-1308.4,0
GRID,9759,0,249.5508,0.0,-1311.07,0
GRID,9760,0,247.2698,0.0,-1313.71,0
GRID,9761,0,244.9586,0.0,-1316.32,0
GRID,9762,0,242.6175,0.0,-1318.91,0
GRID,9763,0,240.2469,0.0,-1321.47,0
GRID,9764,0,237.847,0.0,-1324.0,0
GRID,9765,0,235.4184,0.0,-1326.51,0
GRID,9766,0,232.9437,0.0,-1329.02,0
GRID,9767,0,230.4568,0.0,-1331.52,0
GRID,9768,0,227.9864,0.0,-1333.99,0
GRID,9769,0,225.516,0.0,-1336.46,0
GRID,9770,0,223.0457,0.0,-1338.93,0
GRID,9771,0,220.5753,0.0,-1341.4,0
GRID,9772,0,218.1049,0.0,-1343.87,0
GRID,9773,0,215.6345,0.0,-1346.34,0
GRID,9774,0,213.1322,0.0,-1348.83,0
GRID,9775,0,210.6186,0.0,-1351.31,0
GRID,9776,0,208.094,0.0,-1353.78,0
GRID,9777,0,205.5585,0.0,-1356.23,0
GRID,9778,0,203.0122,0.0,-1358.68,0
GRID,9779,0,200.4553,0.0,-1361.11,0
GRID,9780,0,197.888,0.0,-1363.53,0
GRID,9781,0,195.3105,0.0,-1365.93,0
GRID,9782,0,192.723,0.0,-1368.33,0
GRID,9783,0,190.1255,0.0,-1370.71,0
GRID,9784,0,187.5184,0.0,-1373.08,0
GRID,9785,0,184.9018,0.0,-1375.43,0
GRID,9786,0,182.2759,0.0,-1377.78,0
GRID,9787,0,179.6408,0.0,-1380.1,0
GRID,9788,0,176.9968,0.0,-1382.42,0
GRID,9789,0,174.3441,0.0,-1384.72,0
GRID,9790,0,171.6828,0.0,-1387.01,0
GRID,9791,0,169.0131,0.0,-1389.28,0
GRID,9792,0,166.3353,0.0,-1391.54,0
GRID,9793,0,163.6496,0.0,-1393.79,0
GRID,9794,0,160.956,0.0,-1396.02,0
GRID,9795,0,158.2549,0.0,-1398.24,0
GRID,9796,0,155.5465,0.0,-1400.44,0
GRID,9797,0,152.8309,0.0,-1402.63,0
GRID,9798,0,150.1084,0.0,-1404.81,0
GRID,9799,0,147.3791,0.0,-1406.96,0
GRID,9800,0,144.6433,0.0,-1409.11,0
GRID,9801,0,141.9012,0.0,-1411.24,0
GRID,9802,0,139.153,0.0,-1413.35,0
GRID,9803,0,136.3989,0.0,-1415.45,0
GRID,9804,0,133.6392,0.0,-1417.54,0
GRID,9805,0,130.8739,0.0,-1419.61,0
GRID,9806,0,128.1035,0.0,-1421.66,0
GRID,9807,0,125.3053,0.0,-1423.69,0
GRID,9808,0,122.4692,0.0,-1425.67,0
GRID,9809,0,119.5962,0.0,-1427.59,0
GRID,9810,0,116.6871,0.0,-1429.47,0
GRID,9811,0,113.7426,0.0,-1431.29,0
GRID,9812,0,110.7636,0.0,-1433.06,0
GRID,9813,0,107.7512,0.0,-1434.78,0
GRID,9814,0,104.7063,0.0,-1436.44,0
GRID,9815,0,101.6302,0.0,-1438.05,0
GRID,9816,0,98.52361,0.0,-1439.6,0
GRID,9817,0,95.3877,0.0,-1441.1,0
GRID,9818,0,92.22344,0.0,-1442.54,0
GRID,9819,0,89.0319,0.0,-1443.92,0
GRID,9820,0,85.81414,0.0,-1445.24,0
GRID,9821,0,82.57123,0.0,-1446.51,0
GRID,9822,0,79.30423,0.0,-1447.72,0
GRID,9823,0,76.01423,0.0,-1448.87,0
GRID,9824,0,72.70231,0.0,-1449.96,0
GRID,9825,0,69.36958,0.0,-1450.99,0
GRID,9826,0,66.01716,0.0,-1451.96,0
GRID,9827,0,62.64617,0.0,-1452.86,0
GRID,9828,0,59.25772,0.0,-1453.71,0
GRID,9829,0,55.85294,0.0,-1454.5,0
GRID,9830,0,52.43296,0.0,-1455.22,0
GRID,9831,0,48.99895,0.0,-1455.89,0
GRID,9832,0,45.55205,0.0,-1456.49,0
GRID,9833,0,42.09341,0.0,-1457.02,0
GRID,9834,0,38.6242,0.0,-1457.5,0
GRID,9835,0,35.14556,0.0,-1457.91,0
GRID,9836,0,31.65868,0.0,-1458.26,0
GRID,9837,0,28.16472,0.0,-1458.54,0
GRID,9838,0,24.66488,0.0,-1458.77,0
GRID,9839,0,21.16031,0.0,-1458.93,0
GRID,9840,0,17.65221,0.0,-1459.02,0
GRID,9841,0,14.14176,0.0,-1459.05,0
GRID,9842,0,10.63013,0.0,-1459.02,0
GRID,9843,0,7.118504,0.0,-1458.92,0
GRID,9844,0,3.608067,0.0,-1458.76,0
GRID,9845,0,320.2688,0.0,-1053.41,0
GRID,9846,0,320.2688,0.0,-1056.82,0
GRID,9847,0,320.2688,0.0,-1060.23,0
GRID,9848,0,320.2688,0.0,-1063.64,0
GRID,9849,0,320.2688,0.0,-1067.05,0
GRID,9850,0,320.256,0.0,-1070.46,0
GRID,9851,0,320.2187,0.0,-1073.88,0
GRID,9852,0,320.1567,0.0,-1077.3,0
GRID,9853,0,320.07,0.0,-1080.72,0
GRID,9854,0,319.9587,0.0,-1084.13,0
GRID,9855,0,319.8226,0.0,-1087.54,0
GRID,9856,0,319.6619,0.0,-1090.96,0
GRID,9857,0,319.4764,0.0,-1094.37,0
GRID,9858,0,319.2661,0.0,-1097.78,0
GRID,9859,0,319.0311,0.0,-1101.18,0
GRID,9860,0,318.7714,0.0,-1104.59,0
GRID,9861,0,318.4871,0.0,-1107.99,0
GRID,9862,0,318.1782,0.0,-1111.39,0
GRID,9863,0,317.8447,0.0,-1114.79,0
GRID,9864,0,317.4867,0.0,-1118.18,0
GRID,9865,0,317.1041,0.0,-1121.57,0
GRID,9866,0,316.6971,0.0,-1124.95,0
GRID,9867,0,316.2657,0.0,-1128.33,0
GRID,9868,0,315.8098,0.0,-1131.71,0
GRID,9869,0,315.3296,0.0,-1135.08,0
GRID,9870,0,314.8251,0.0,-1138.45,0
GRID,9871,0,314.2963,0.0,-1141.81,0
GRID,9872,0,313.7433,0.0,-1145.17,0
GRID,9873,0,313.1662,0.0,-1148.52,0
GRID,9874,0,312.565,0.0,-1151.87,0
GRID,9875,0,311.9397,0.0,-1155.21,0
GRID,9876,0,311.2904,0.0,-1158.54,0
GRID,9877,0,310.6172,0.0,-1161.87,0
GRID,9878,0,309.9201,0.0,-1165.19,0
GRID,9879,0,309.1992,0.0,-1168.5,0
GRID,9880,0,308.4546,0.0,-1171.81,0
GRID,9881,0,307.6798,0.0,-1175.1,0
GRID,9882,0,306.8687,0.0,-1178.37,0
GRID,9883,0,306.0213,0.0,-1181.64,0
GRID,9884,0,305.1377,0.0,-1184.9,0
GRID,9885,0,304.218,0.0,-1188.16,0
GRID,9886,0,303.2621,0.0,-1191.4,0
GRID,9887,0,302.2702,0.0,-1194.63,0
GRID,9888,0,301.2425,0.0,-1197.85,0
GRID,9889,0,300.1791,0.0,-1201.06,0
GRID,9890,0,299.08,0.0,-1204.26,0
GRID,9891,0,297.9455,0.0,-1207.45,0
GRID,9892,0,296.7755,0.0,-1210.63,0
GRID,9893,0,295.5703,0.0,-1213.79,0
GRID,9894,0,294.3299,0.0,-1216.95,0
GRID,9895,0,293.0546,0.0,-1220.08,0
GRID,9896,0,291.7444,0.0,-1223.21,0
GRID,9897,0,290.3995,0.0,-1226.32,0
GRID,9898,0,289.0201,0.0,-1229.42,0
GRID,9899,0,287.6063,0.0,-1232.5,0
GRID,9900,0,286.1583,0.0,-1235.57,0
GRID,9901,0,284.6763,0.0,-1238.62,0
GRID,9902,0,283.1604,0.0,-1241.65,0
GRID,9903,0,281.6108,0.0,-1244.67,0
GRID,9904,0,280.0277,0.0,-1247.67,0
GRID,9905,0,278.4112,0.0,-1250.66,0
GRID,9906,0,276.7617,0.0,-1253.63,0
GRID,9907,0,275.0792,0.0,-1256.58,0
GRID,9908,0,273.364,0.0,-1259.51,0
GRID,9909,0,271.6163,0.0,-1262.42,0
GRID,9910,0,269.8363,0.0,-1265.31,0
GRID,9911,0,268.0242,0.0,-1268.19,0
GRID,9912,0,266.1802,0.0,-1271.04,0
GRID,9913,0,264.3046,0.0,-1273.88,0
GRID,9914,0,262.3976,0.0,-1276.69,0
GRID,9915,0,260.4593,0.0,-1279.48,0
GRID,9916,0,258.4902,0.0,-1282.25,0
GRID,9917,0,256.4903,0.0,-1285.0,0
GRID,9918,0,254.4601,0.0,-1287.73,0
GRID,9919,0,252.3996,0.0,-1290.44,0
GRID,9920,0,250.3092,0.0,-1293.12,0
GRID,9921,0,248.1891,0.0,-1295.78,0
GRID,9922,0,246.0395,0.0,-1298.42,0
GRID,9923,0,243.8608,0.0,-1301.03,0
GRID,9924,0,241.6531,0.0,-1303.62,0
GRID,9925,0,239.4169,0.0,-1306.18,0
GRID,9926,0,237.1524,0.0,-1308.72,0
GRID,9927,0,234.8598,0.0,-1311.24,0
GRID,9928,0,232.5396,0.0,-1313.73,0
GRID,9929,0,230.1921,0.0,-1316.19,0
GRID,9930,0,227.8175,0.0,-1318.63,0
GRID,9931,0,225.3971,0.0,-1321.08,0
GRID,9932,0,222.9676,0.0,-1323.51,0
GRID,9933,0,220.5506,0.0,-1325.93,0
GRID,9934,0,218.1335,0.0,-1328.35,0
GRID,9935,0,215.7164,0.0,-1330.77,0
GRID,9936,0,213.2993,0.0,-1333.18,0
GRID,9937,0,210.8822,0.0,-1335.6,0
GRID,9938,0,208.4651,0.0,-1338.02,0
GRID,9939,0,206.024,0.0,-1340.45,0
GRID,9940,0,203.5745,0.0,-1342.87,0
GRID,9941,0,201.1168,0.0,-1345.29,0
GRID,9942,0,198.6508,0.0,-1347.69,0
GRID,9943,0,196.1768,0.0,-1350.09,0
GRID,9944,0,193.6949,0.0,-1352.48,0
GRID,9945,0,191.2051,0.0,-1354.86,0
GRID,9946,0,188.7076,0.0,-1357.23,0
GRID,9947,0,186.2027,0.0,-1359.59,0
GRID,9948,0,183.6903,0.0,-1361.94,0
GRID,9949,0,181.1706,0.0,-1364.28,0
GRID,9950,0,178.6439,0.0,-1366.61,0
GRID,9951,0,176.1101,0.0,-1368.93,0
GRID,9952,0,173.5695,0.0,-1371.24,0
GRID,9953,0,171.0222,0.0,-1373.54,0
GRID,9954,0,168.4683,0.0,-1375.83,0
GRID,9955,0,165.9081,0.0,-1378.11,0
GRID,9956,0,163.3415,0.0,-1380.38,0
GRID,9957,0,160.7688,0.0,-1382.64,0
GRID,9958,0,158.1902,0.0,-1384.89,0
GRID,9959,0,155.6058,0.0,-1387.13,0
GRID,9960,0,153.0156,0.0,-1389.35,0
GRID,9961,0,150.42,0.0,-1391.57,0
GRID,9962,0,147.819,0.0,-1393.78,0
GRID,9963,0,145.2128,0.0,-1395.97,0
GRID,9964,0,142.6015,0.0,-1398.16,0
GRID,9965,0,139.9854,0.0,-1400.33,0
GRID,9966,0,137.3645,0.0,-1402.49,0
GRID,9967,0,134.739,0.0,-1404.64,0
GRID,9968,0,132.1092,0.0,-1406.78,0
GRID,9969,0,129.475,0.0,-1408.91,0
GRID,9970,0,126.8368,0.0,-1411.03,0
GRID,9971,0,124.1946,0.0,-1413.13,0
GRID,9972,0,121.5241,0.0,-1415.21,0
GRID,9973,0,118.8142,0.0,-1417.24,0
GRID,9974,0,116.0658,0.0,-1419.23,0
GRID,9975,0,113.2796,0.0,-1421.16,0
GRID,9976,0,110.4566,0.0,-1423.04,0
GRID,9977,0,107.5975,0.0,-1424.86,0
GRID,9978,0,104.7034,0.0,-1426.64,0
GRID,9979,0,101.7754,0.0,-1428.36,0
GRID,9980,0,98.81446,0.0,-1430.03,0
GRID,9981,0,95.82165,0.0,-1431.64,0
GRID,9982,0,92.79797,0.0,-1433.2,0
GRID,9983,0,89.74445,0.0,-1434.7,0
GRID,9984,0,86.66215,0.0,-1436.15,0
GRID,9985,0,83.55215,0.0,-1437.53,0
GRID,9986,0,80.41554,0.0,-1438.86,0
GRID,9987,0,77.25339,0.0,-1440.14,0
GRID,9988,0,74.0668,0.0,-1441.35,0
GRID,9989,0,70.85687,0.0,-1442.51,0
GRID,9990,0,67.62472,0.0,-1443.6,0
GRID,9991,0,64.37149,0.0,-1444.64,0
GRID,9992,0,61.09831,0.0,-1445.61,0
GRID,9993,0,57.80633,0.0,-1446.52,0
GRID,9994,0,54.49666,0.0,-1447.38,0
GRID,9995,0,51.17049,0.0,-1448.17,0
GRID,9996,0,47.82898,0.0,-1448.9,0
GRID,9997,0,44.47329,0.0,-1449.57,0
GRID,9998,0,41.10461,0.0,-1450.17,0
GRID,9999,0,37.72411,0.0,-1450.71,0
GRID,10000,0,34.33296,0.0,-1451.19,0
GRID,10001,0,30.93237,0.0,-1451.61,0
GRID,10002,0,27.52353,0.0,-1451.96,0
GRID,10003,0,24.10764,0.0,-1452.25,0
GRID,10004,0,20.6859,0.0,-1452.48,0
GRID,10005,0,17.25951,0.0,-1452.64,0
GRID,10006,0,13.82968,0.0,-1452.74,0
GRID,10007,0,10.3976,0.0,-1452.78,0
GRID,10008,0,6.96449,0.0,-1452.75,0
GRID,10009,0,3.531554,0.0,-1452.66,0
GRID,10010,0,313.5125,0.0,-1053.32,0
GRID,10011,0,313.5125,0.0,-1056.64,0
GRID,10012,0,313.5125,0.0,-1059.95,0
GRID,10013,0,313.5125,0.0,-1063.27,0
GRID,10014,0,313.5125,0.0,-1066.59,0
GRID,10015,0,313.4988,0.0,-1069.91,0
GRID,10016,0,313.4586,0.0,-1073.24,0
GRID,10017,0,313.3918,0.0,-1076.57,0
GRID,10018,0,313.2985,0.0,-1079.89,0
GRID,10019,0,313.1786,0.0,-1083.22,0
GRID,10020,0,313.0321,0.0,-1086.54,0
GRID,10021,0,312.8589,0.0,-1089.86,0
GRID,10022,0,312.6592,0.0,-1093.18,0
GRID,10023,0,312.4327,0.0,-1096.5,0
GRID,10024,0,312.1796,0.0,-1099.81,0
GRID,10025,0,311.8999,0.0,-1103.12,0
GRID,10026,0,311.5938,0.0,-1106.43,0
GRID,10027,0,311.2611,0.0,-1109.74,0
GRID,10028,0,310.902,0.0,-1113.04,0
GRID,10029,0,310.5164,0.0,-1116.34,0
GRID,10030,0,310.1044,0.0,-1119.64,0
GRID,10031,0,309.6661,0.0,-1122.93,0
GRID,10032,0,309.2015,0.0,-1126.22,0
GRID,10033,0,308.7106,0.0,-1129.5,0
GRID,10034,0,308.1934,0.0,-1132.78,0
GRID,10035,0,307.6501,0.0,-1136.05,0
GRID,10036,0,307.0807,0.0,-1139.32,0
GRID,10037,0,306.4851,0.0,-1142.58,0
GRID,10038,0,305.8636,0.0,-1145.83,0
GRID,10039,0,305.2161,0.0,-1149.08,0
GRID,10040,0,304.5427,0.0,-1152.33,0
GRID,10041,0,303.8435,0.0,-1155.56,0
GRID,10042,0,303.1185,0.0,-1158.79,0
GRID,10043,0,302.3678,0.0,-1162.01,0
GRID,10044,0,301.5915,0.0,-1165.23,0
GRID,10045,0,300.7896,0.0,-1168.44,0
GRID,10046,0,299.9579,0.0,-1171.63,0
GRID,10047,0,299.0922,0.0,-1174.81,0
GRID,10048,0,298.1928,0.0,-1177.98,0
GRID,10049,0,297.2596,0.0,-1181.14,0
GRID,10050,0,296.2927,0.0,-1184.3,0
GRID,10051,0,295.2922,0.0,-1187.44,0
GRID,10052,0,294.2582,0.0,-1190.58,0
GRID,10053,0,293.1908,0.0,-1193.7,0
GRID,10054,0,292.0901,0.0,-1196.82,0
GRID,10055,0,290.9563,0.0,-1199.92,0
GRID,10056,0,289.7894,0.0,-1203.01,0
GRID,10057,0,288.5897,0.0,-1206.09,0
GRID,10058,0,287.3571,0.0,-1209.15,0
GRID,10059,0,286.0918,0.0,-1212.21,0
GRID,10060,0,284.794,0.0,-1215.25,0
GRID,10061,0,283.4638,0.0,-1218.27,0
GRID,10062,0,282.1013,0.0,-1221.29,0
GRID,10063,0,280.7068,0.0,-1224.28,0
GRID,10064,0,279.2803,0.0,-1227.27,0
GRID,10065,0,277.822,0.0,-1230.24,0
GRID,10066,0,276.332,0.0,-1233.19,0
GRID,10067,0,274.8106,0.0,-1236.13,0
GRID,10068,0,273.2579,0.0,-1239.05,0
GRID,10069,0,271.674,0.0,-1241.96,0
GRID,10070,0,270.0591,0.0,-1244.85,0
GRID,10071,0,268.4135,0.0,-1247.72,0
GRID,10072,0,266.7373,0.0,-1250.58,0
GRID,10073,0,265.0306,0.0,-1253.42,0
GRID,10074,0,263.2938,0.0,-1256.24,0
GRID,10075,0,261.5269,0.0,-1259.04,0
GRID,10076,0,259.7302,0.0,-1261.82,0
GRID,10077,0,257.9038,0.0,-1264.59,0
GRID,10078,0,256.048,0.0,-1267.33,0
GRID,10079,0,254.163,0.0,-1270.06,0
GRID,10080,0,252.2491,0.0,-1272.76,0
GRID,10081,0,250.3063,0.0,-1275.45,0
GRID,10082,0,248.335,0.0,-1278.11,0
GRID,10083,0,246.3354,0.0,-1280.76,0
GRID,10084,0,244.3076,0.0,-1283.38,0
GRID,10085,0,242.252,0.0,-1285.98,0
GRID,10086,0,240.1688,0.0,-1288.56,0
GRID,10087,0,238.0581,0.0,-1291.12,0
GRID,10088,0,235.9202,0.0,-1293.65,0
GRID,10089,0,233.7554,0.0,-1296.17,0
GRID,10090,0,231.5639,0.0,-1298.66,0
GRID,10091,0,229.3461,0.0,-1301.12,0
GRID,10092,0,227.1021,0.0,-1303.56,0
GRID,10093,0,224.8324,0.0,-1305.98,0
GRID,10094,0,222.5371,0.0,-1308.38,0
GRID,10095,0,220.2166,0.0,-1310.75,0
GRID,10096,0,217.8506,0.0,-1313.13,0
GRID,10097,0,215.4785,0.0,-1315.51,0
GRID,10098,0,213.1147,0.0,-1317.87,0
GRID,10099,0,210.7509,0.0,-1320.24,0
GRID,10100,0,208.3871,0.0,-1322.6,0
GRID,10101,0,206.0233,0.0,-1324.96,0
GRID,10102,0,203.6595,0.0,-1327.33,0
GRID,10103,0,201.2957,0.0,-1329.69,0
GRID,10104,0,198.9159,0.0,-1332.07,0
GRID,10105,0,196.5305,0.0,-1334.43,0
GRID,10106,0,194.1396,0.0,-1336.8,0
GRID,10107,0,191.7432,0.0,-1339.15,0
GRID,10108,0,189.3414,0.0,-1341.5,0
GRID,10109,0,186.9344,0.0,-1343.85,0
GRID,10110,0,184.5221,0.0,-1346.19,0
GRID,10111,0,182.1048,0.0,-1348.52,0
GRID,10112,0,179.6824,0.0,-1350.84,0
GRID,10113,0,177.255,0.0,-1353.16,0
GRID,10114,0,174.8229,0.0,-1355.48,0
GRID,10115,0,172.3859,0.0,-1357.78,0
GRID,10116,0,169.9443,0.0,-1360.08,0
GRID,10117,0,167.4982,0.0,-1362.37,0
GRID,10118,0,165.0476,0.0,-1364.66,0
GRID,10119,0,162.5926,0.0,-1366.94,0
GRID,10120,0,160.1333,0.0,-1369.21,0
GRID,10121,0,157.6699,0.0,-1371.48,0
GRID,10122,0,155.2024,0.0,-1373.74,0
GRID,10123,0,152.7309,0.0,-1375.99,0
GRID,10124,0,150.2555,0.0,-1378.23,0
GRID,10125,0,147.7763,0.0,-1380.47,0
GRID,10126,0,145.2935,0.0,-1382.7,0
GRID,10127,0,142.8071,0.0,-1384.92,0
GRID,10128,0,140.3172,0.0,-1387.14,0
GRID,10129,0,137.8239,0.0,-1389.35,0
GRID,10130,0,135.3274,0.0,-1391.55,0
GRID,10131,0,132.8278,0.0,-1393.74,0
GRID,10132,0,130.325,0.0,-1395.93,0
GRID,10133,0,127.8194,0.0,-1398.11,0
GRID,10134,0,125.3109,0.0,-1400.28,0
GRID,10135,0,122.7996,0.0,-1402.44,0
GRID,10136,0,120.2858,0.0,-1404.6,0
GRID,10137,0,117.7429,0.0,-1406.73,0
GRID,10138,0,115.1592,0.0,-1408.82,0
GRID,10139,0,112.5353,0.0,-1410.86,0
GRID,10140,0,109.8722,0.0,-1412.84,0
GRID,10141,0,107.1706,0.0,-1414.78,0
GRID,10142,0,104.4314,0.0,-1416.67,0
GRID,10143,0,101.6556,0.0,-1418.5,0
GRID,10144,0,98.84441,0.0,-1420.28,0
GRID,10145,0,95.99876,0.0,-1422.01,0
GRID,10146,0,93.1197,0.0,-1423.68,0
GRID,10147,0,90.20825,0.0,-1425.3,0
GRID,10148,0,87.26546,0.0,-1426.87,0
GRID,10149,0,84.2924,0.0,-1428.37,0
GRID,10150,0,81.29016,0.0,-1429.83,0
GRID,10151,0,78.25985,0.0,-1431.22,0
GRID,10152,0,75.20256,0.0,-1432.56,0
GRID,10153,0,72.11938,0.0,-1433.83,0
GRID,10154,0,69.01143,0.0,-1435.05,0
GRID,10155,0,65.87986,0.0,-1436.22,0
GRID,10156,0,62.72582,0.0,-1437.32,0
GRID,10157,0,59.55046,0.0,-1438.36,0
GRID,10158,0,56.35493,0.0,-1439.34,0
GRID,10159,0,53.14039,0.0,-1440.26,0
GRID,10160,0,49.90802,0.0,-1441.12,0
GRID,10161,0,46.659,0.0,-1441.91,0
GRID,10162,0,43.39454,0.0,-1442.65,0
GRID,10163,0,40.11582,0.0,-1443.32,0
GRID,10164,0,36.82402,0.0,-1443.93,0
GRID,10165,0,33.52037,0.0,-1444.48,0
GRID,10166,0,30.20607,0.0,-1444.96,0
GRID,10167,0,26.88234,0.0,-1445.38,0
GRID,10168,0,23.55041,0.0,-1445.74,0
GRID,10169,0,20.21149,0.0,-1446.04,0
GRID,10170,0,16.86681,0.0,-1446.27,0
GRID,10171,0,13.51759,0.0,-1446.43,0
GRID,10172,0,10.16507,0.0,-1446.54,0
GRID,10173,0,6.810475,0.0,-1446.58,0
GRID,10174,0,3.45504,0.0,-1446.55,0
GRID,10175,0,306.7563,0.0,-1053.23,0
GRID,10176,0,306.7563,0.0,-1056.45,0
GRID,10177,0,306.7563,0.0,-1059.68,0
GRID,10178,0,306.7563,0.0,-1062.9,0
GRID,10179,0,306.7563,0.0,-1066.13,0
GRID,10180,0,306.7416,0.0,-1069.36,0
GRID,10181,0,306.6985,0.0,-1072.6,0
GRID,10182,0,306.6269,0.0,-1075.83,0
GRID,10183,0,306.527,0.0,-1079.07,0
GRID,10184,0,306.3985,0.0,-1082.3,0
GRID,10185,0,306.2415,0.0,-1085.53,0
GRID,10186,0,306.056,0.0,-1088.76,0
GRID,10187,0,305.8419,0.0,-1091.99,0
GRID,10188,0,305.5993,0.0,-1095.22,0
GRID,10189,0,305.3281,0.0,-1098.44,0
GRID,10190,0,305.0285,0.0,-1101.66,0
GRID,10191,0,304.7005,0.0,-1104.88,0
GRID,10192,0,304.344,0.0,-1108.09,0
GRID,10193,0,303.9592,0.0,-1111.3,0
GRID,10194,0,303.5461,0.0,-1114.51,0
GRID,10195,0,303.1048,0.0,-1117.71,0
GRID,10196,0,302.6351,0.0,-1120.91,0
GRID,10197,0,302.1373,0.0,-1124.1,0
GRID,10198,0,301.6113,0.0,-1127.29,0
GRID,10199,0,301.0572,0.0,-1130.47,0
GRID,10200,0,300.4751,0.0,-1133.65,0
GRID,10201,0,299.865,0.0,-1136.82,0
GRID,10202,0,299.2269,0.0,-1139.99,0
GRID,10203,0,298.561,0.0,-1143.15,0
GRID,10204,0,297.8673,0.0,-1146.3,0
GRID,10205,0,297.1458,0.0,-1149.45,0
GRID,10206,0,296.3966,0.0,-1152.58,0
GRID,10207,0,295.6198,0.0,-1155.72,0
GRID,10208,0,294.8155,0.0,-1158.84,0
GRID,10209,0,293.9837,0.0,-1161.96,0
GRID,10210,0,293.1245,0.0,-1165.06,0
GRID,10211,0,292.2359,0.0,-1168.16,0
GRID,10212,0,291.3158,0.0,-1171.24,0
GRID,10213,0,290.3643,0.0,-1174.32,0
GRID,10214,0,289.3815,0.0,-1177.39,0
GRID,10215,0,288.3675,0.0,-1180.44,0
GRID,10216,0,287.3224,0.0,-1183.49,0
GRID,10217,0,286.2462,0.0,-1186.53,0
GRID,10218,0,285.1391,0.0,-1189.55,0
GRID,10219,0,284.0012,0.0,-1192.57,0
GRID,10220,0,282.8326,0.0,-1195.57,0
GRID,10221,0,281.6334,0.0,-1198.56,0
GRID,10222,0,280.4038,0.0,-1201.54,0
GRID,10223,0,279.1439,0.0,-1204.51,0
GRID,10224,0,277.8537,0.0,-1207.47,0
GRID,10225,0,276.5334,0.0,-1210.41,0
GRID,10226,0,275.1832,0.0,-1213.34,0
GRID,10227,0,273.8032,0.0,-1216.25,0
GRID,10228,0,272.3935,0.0,-1219.15,0
GRID,10229,0,270.9542,0.0,-1222.04,0
GRID,10230,0,269.4856,0.0,-1224.91,0
GRID,10231,0,267.9878,0.0,-1227.77,0
GRID,10232,0,266.4608,0.0,-1230.61,0
GRID,10233,0,264.9049,0.0,-1233.44,0
GRID,10234,0,263.3203,0.0,-1236.25,0
GRID,10235,0,261.707,0.0,-1239.04,0
GRID,10236,0,260.0653,0.0,-1241.82,0
GRID,10237,0,258.3953,0.0,-1244.58,0
GRID,10238,0,256.6972,0.0,-1247.33,0
GRID,10239,0,254.9712,0.0,-1250.06,0
GRID,10240,0,253.2174,0.0,-1252.77,0
GRID,10241,0,251.4361,0.0,-1255.46,0
GRID,10242,0,249.6274,0.0,-1258.13,0
GRID,10243,0,247.7915,0.0,-1260.79,0
GRID,10244,0,245.9285,0.0,-1263.43,0
GRID,10245,0,244.0388,0.0,-1266.05,0
GRID,10246,0,242.1224,0.0,-1268.65,0
GRID,10247,0,240.1796,0.0,-1271.23,0
GRID,10248,0,238.2106,0.0,-1273.79,0
GRID,10249,0,236.2157,0.0,-1276.33,0
GRID,10250,0,234.1949,0.0,-1278.85,0
GRID,10251,0,232.1485,0.0,-1281.34,0
GRID,10252,0,230.0767,0.0,-1283.82,0
GRID,10253,0,227.9797,0.0,-1286.28,0
GRID,10254,0,225.8577,0.0,-1288.72,0
GRID,10255,0,223.711,0.0,-1291.13,0
GRID,10256,0,221.5398,0.0,-1293.52,0
GRID,10257,0,219.3444,0.0,-1295.89,0
GRID,10258,0,217.1251,0.0,-1298.24,0
GRID,10259,0,214.8821,0.0,-1300.56,0
GRID,10260,0,212.6157,0.0,-1302.87,0
GRID,10261,0,210.304,0.0,-1305.19,0
GRID,10262,0,207.9894,0.0,-1307.5,0
GRID,10263,0,205.6789,0.0,-1309.82,0
GRID,10264,0,203.3684,0.0,-1312.13,0
GRID,10265,0,201.0578,0.0,-1314.44,0
GRID,10266,0,198.7473,0.0,-1316.75,0
GRID,10267,0,196.4368,0.0,-1319.06,0
GRID,10268,0,194.1263,0.0,-1321.37,0
GRID,10269,0,191.8078,0.0,-1323.68,0
GRID,10270,0,189.4864,0.0,-1326.0,0
GRID,10271,0,187.1624,0.0,-1328.31,0
GRID,10272,0,184.8356,0.0,-1330.61,0
GRID,10273,0,182.5061,0.0,-1332.92,0
GRID,10274,0,180.1739,0.0,-1335.22,0
GRID,10275,0,177.8392,0.0,-1337.51,0
GRID,10276,0,175.5019,0.0,-1339.81,0
GRID,10277,0,173.1621,0.0,-1342.1,0
GRID,10278,0,170.8198,0.0,-1344.39,0
GRID,10279,0,168.4751,0.0,-1346.67,0
GRID,10280,0,166.128,0.0,-1348.96,0
GRID,10281,0,163.7786,0.0,-1351.23,0
GRID,10282,0,161.4269,0.0,-1353.51,0
GRID,10283,0,159.073,0.0,-1355.78,0
GRID,10284,0,156.7168,0.0,-1358.05,0
GRID,10285,0,154.3586,0.0,-1360.31,0
GRID,10286,0,151.9983,0.0,-1362.58,0
GRID,10287,0,149.6359,0.0,-1364.83,0
GRID,10288,0,147.2715,0.0,-1367.09,0
GRID,10289,0,144.9052,0.0,-1369.34,0
GRID,10290,0,142.537,0.0,-1371.59,0
GRID,10291,0,140.167,0.0,-1373.83,0
GRID,10292,0,137.7951,0.0,-1376.07,0
GRID,10293,0,135.4216,0.0,-1378.31,0
GRID,10294,0,133.0463,0.0,-1380.54,0
GRID,10295,0,130.6695,0.0,-1382.77,0
GRID,10296,0,128.291,0.0,-1384.99,0
GRID,10297,0,125.911,0.0,-1387.22,0
GRID,10298,0,123.5296,0.0,-1389.43,0
GRID,10299,0,121.1467,0.0,-1391.65,0
GRID,10300,0,118.7625,0.0,-1393.86,0
GRID,10301,0,116.3769,0.0,-1396.06,0
GRID,10302,0,113.9618,0.0,-1398.25,0
GRID,10303,0,111.5041,0.0,-1400.39,0
GRID,10304,0,109.0048,0.0,-1402.49,0
GRID,10305,0,106.4647,0.0,-1404.53,0
GRID,10306,0,103.8846,0.0,-1406.53,0
GRID,10307,0,101.2653,0.0,-1408.47,0
GRID,10308,0,98.60785,0.0,-1410.36,0
GRID,10309,0,95.91344,0.0,-1412.2,0
GRID,10310,0,93.18306,0.0,-1413.99,0
GRID,10311,0,90.41774,0.0,-1415.73,0
GRID,10312,0,87.61853,0.0,-1417.41,0
GRID,10313,0,84.78647,0.0,-1419.03,0
GRID,10314,0,81.92264,0.0,-1420.6,0
GRID,10315,0,79.02817,0.0,-1422.12,0
GRID,10316,0,76.10416,0.0,-1423.57,0
GRID,10317,0,73.15172,0.0,-1424.98,0
GRID,10318,0,70.17195,0.0,-1426.32,0
GRID,10319,0,67.16599,0.0,-1427.6,0
GRID,10320,0,64.135,0.0,-1428.83,0
GRID,10321,0,61.08015,0.0,-1430.0,0
GRID,10322,0,58.00261,0.0,-1431.1,0
GRID,10323,0,54.90354,0.0,-1432.15,0
GRID,10324,0,51.78412,0.0,-1433.14,0
GRID,10325,0,48.64555,0.0,-1434.06,0
GRID,10326,0,45.48903,0.0,-1434.93,0
GRID,10327,0,42.31578,0.0,-1435.73,0
GRID,10328,0,39.12702,0.0,-1436.47,0
GRID,10329,0,35.92394,0.0,-1437.15,0
GRID,10330,0,32.70777,0.0,-1437.76,0
GRID,10331,0,29.47976,0.0,-1438.31,0
GRID,10332,0,26.24115,0.0,-1438.8,0
GRID,10333,0,22.99317,0.0,-1439.23,0
GRID,10334,0,19.73707,0.0,-1439.59,0
GRID,10335,0,16.47411,0.0,-1439.89,0
GRID,10336,0,13.20551,0.0,-1440.13,0
GRID,10337,0,9.932542,0.0,-1440.3,0
GRID,10338,0,6.656461,0.0,-1440.41,0
GRID,10339,0,3.378527,0.0,-1440.45,0
GRID,10340,0,.1,0.0,401.3437,0
GRID,10341,0,.1,0.0,394.5875,0
GRID,10342,0,.1,0.0,387.8312,0
GRID,10343,0,.1,0.0,381.075,0
GRID,10344,0,.1,0.0,374.3187,0
GRID,10345,0,.1,0.0,367.5625,0
GRID,10346,0,.1,0.0,360.8062,0
GRID,10347,0,.1,0.0,354.05,0
GRID,10348,0,.1,0.0,347.2937,0
GRID,10349,0,.1,0.0,340.5375,0
GRID,10350,0,.1,0.0,333.7812,0
GRID,10351,0,.1,0.0,327.025,0
GRID,10352,0,.1,0.0,320.2687,0
GRID,10353,0,.1,0.0,313.5125,0
GRID,10354,0,.1,0.0,306.7562,0
GRID,10355,0,3.441332,0.0,299.9798,0
GRID,10356,0,6.782239,0.0,299.9227,0
GRID,10357,0,10.12231,0.0,299.8285,0
GRID,10358,0,13.46112,0.0,299.6973,0
GRID,10359,0,16.79826,0.0,299.5289,0
GRID,10360,0,20.13332,0.0,299.3234,0
GRID,10361,0,23.46588,0.0,299.0808,0
GRID,10362,0,26.79553,0.0,298.8009,0
GRID,10363,0,30.12185,0.0,298.4839,0
GRID,10364,0,33.44444,0.0,298.1299,0
GRID,10365,0,36.76287,0.0,297.7389,0
GRID,10366,0,40.07675,0.0,297.311,0
GRID,10367,0,43.38566,0.0,296.8462,0
GRID,10368,0,46.68919,0.0,296.3446,0
GRID,10369,0,49.98692,0.0,295.8062,0
GRID,10370,0,53.27845,0.0,295.2311,0
GRID,10371,0,56.56337,0.0,294.6194,0
GRID,10372,0,59.84127,0.0,293.9711,0
GRID,10373,0,63.11175,0.0,293.2863,0
GRID,10374,0,66.3744,0.0,292.5652,0
GRID,10375,0,69.62882,0.0,291.8078,0
GRID,10376,0,72.87461,0.0,291.0142,0
GRID,10377,0,76.11135,0.0,290.1845,0
GRID,10378,0,79.33865,0.0,289.3188,0
GRID,10379,0,82.5561,0.0,288.4172,0
GRID,10380,0,85.76331,0.0,287.4798,0
GRID,10381,0,88.95988,0.0,286.5067,0
GRID,10382,0,92.14541,0.0,285.4981,0
GRID,10383,0,95.31953,0.0,284.4541,0
GRID,10384,0,98.48181,0.0,283.3749,0
GRID,10385,0,101.6319,0.0,282.2604,0
GRID,10386,0,104.7693,0.0,281.111,0
GRID,10387,0,107.8938,0.0,279.9266,0
GRID,10388,0,111.0049,0.0,278.7075,0
GRID,10389,0,114.1022,0.0,277.4539,0
GRID,10390,0,117.1853,0.0,276.1658,0
GRID,10391,0,120.2539,0.0,274.8435,0
GRID,10392,0,123.3076,0.0,273.4872,0
GRID,10393,0,126.3461,0.0,272.0968,0
GRID,10394,0,129.3688,0.0,270.6727,0
GRID,10395,0,132.3754,0.0,269.215,0
GRID,10396,0,135.3657,0.0,267.7239,0
GRID,10397,0,138.3391,0.0,266.1997,0
GRID,10398,0,141.2954,0.0,264.6423,0
GRID,10399,0,144.2342,0.0,263.0522,0
GRID,10400,0,147.1551,0.0,261.4295,0
GRID,10401,0,150.0577,0.0,259.7743,0
GRID,10402,0,152.9417,0.0,258.0868,0
GRID,10403,0,155.8068,0.0,256.3674,0
GRID,10404,0,158.6525,0.0,254.6161,0
GRID,10405,0,161.4785,0.0,252.8333,0
GRID,10406,0,164.2845,0.0,251.0191,0
GRID,10407,0,167.0701,0.0,249.1738,0
GRID,10408,0,169.835,0.0,247.2975,0
GRID,10409,0,172.5788,0.0,245.3906,0
GRID,10410,0,175.3012,0.0,243.4532,0
GRID,10411,0,178.0019,0.0,241.4857,0
GRID,10412,0,180.6804,0.0,239.4881,0
GRID,10413,0,183.3366,0.0,237.4609,0
GRID,10414,0,185.97,0.0,235.4042,0
GRID,10415,0,188.5804,0.0,233.3183,0
GRID,10416,0,191.1674,0.0,231.2035,0
GRID,10417,0,193.7306,0.0,229.0599,0
GRID,10418,0,196.2698,0.0,226.888,0
GRID,10419,0,198.7846,0.0,224.6879,0
GRID,10420,0,201.2748,0.0,222.4599,0
GRID,10421,0,203.7401,0.0,220.2044,0
GRID,10422,0,206.18,0.0,217.9215,0
GRID,10423,0,208.5944,0.0,215.6116,0
GRID,10424,0,210.9829,0.0,213.2749,0
GRID,10425,0,213.3453,0.0,210.9118,0
GRID,10426,0,215.6811,0.0,208.5225,0
GRID,10427,0,217.9902,0.0,206.1074,0
GRID,10428,0,220.2723,0.0,203.6667,0
GRID,10429,0,222.527,0.0,201.2007,0
GRID,10430,0,224.7541,0.0,198.7097,0
GRID,10431,0,226.9534,0.0,196.1942,0
GRID,10432,0,229.1245,0.0,193.6542,0
GRID,10433,0,231.2672,0.0,191.0903,0
GRID,10434,0,233.3811,0.0,188.5026,0
GRID,10435,0,235.4662,0.0,185.8915,0
GRID,10436,0,237.522,0.0,183.2574,0
GRID,10437,0,239.5483,0.0,180.6006,0
GRID,10438,0,241.545,0.0,177.9214,0
GRID,10439,0,243.5117,0.0,175.2201,0
GRID,10440,0,245.4481,0.0,172.497,0
GRID,10441,0,247.3541,0.0,169.7525,0
GRID,10442,0,249.2294,0.0,166.987,0
GRID,10443,0,251.0738,0.0,164.2008,0
GRID,10444,0,252.8871,0.0,161.3942,0
GRID,10445,0,254.669,0.0,158.5676,0
GRID,10446,0,256.4193,0.0,155.7213,0
GRID,10447,0,258.1378,0.0,152.8557,0
GRID,10448,0,259.8243,0.0,149.9711,0
GRID,10449,0,261.4785,0.0,147.068,0
GRID,10450,0,263.1003,0.0,144.1465,0
GRID,10451,0,264.6894,0.0,141.2072,0
GRID,10452,0,266.2458,0.0,138.2504,0
GRID,10453,0,267.7691,0.0,135.2764,0
GRID,10454,0,269.2591,0.0,132.2857,0
GRID,10455,0,270.7158,0.0,129.2785,0
GRID,10456,0,272.1389,0.0,126.2553,0
GRID,10457,0,273.5282,0.0,123.2165,0
GRID,10458,0,274.8836,0.0,120.1623,0
GRID,10459,0,276.2049,0.0,117.0933,0
GRID,10460,0,277.4919,0.0,114.0097,0
GRID,10461,0,278.7445,0.0,110.912,0
GRID,10462,0,279.9626,0.0,107.8005,0
GRID,10463,0,281.1459,0.0,104.6756,0
GRID,10464,0,282.2943,0.0,101.5378,0
GRID,10465,0,283.4077,0.0,98.38735,0
GRID,10466,0,284.4859,0.0,95.2247,0
GRID,10467,0,285.5289,0.0,92.05025,0
GRID,10468,0,286.5364,0.0,88.86437,0
GRID,10469,0,287.5084,0.0,85.66748,0
GRID,10470,0,288.4447,0.0,82.45996,0
GRID,10471,0,289.3453,0.0,79.24221,0
GRID,10472,0,290.2099,0.0,76.01462,0
GRID,10473,0,291.0385,0.0,72.7776,0
GRID,10474,0,291.831,0.0,69.53155,0
GRID,10475,0,292.5873,0.0,66.27688,0
GRID,10476,0,293.3074,0.0,63.01399,0
GRID,10477,0,293.991,0.0,59.74328,0
GRID,10478,0,294.6382,0.0,56.46516,0
GRID,10479,0,295.2488,0.0,53.18004,0
GRID,10480,0,295.8228,0.0,49.88831,0
GRID,10481,0,296.3601,0.0,46.5904,0
GRID,10482,0,296.8606,0.0,43.28671,0
GRID,10483,0,297.3243,0.0,39.97764,0
GRID,10484,0,297.7512,0.0,36.66362,0
GRID,10485,0,298.141,0.0,33.34506,0
GRID,10486,0,298.494,0.0,30.02235,0
GRID,10487,0,298.8098,0.0,26.69593,0
GRID,10488,0,299.0886,0.0,23.36619,0
GRID,10489,0,299.3301,0.0,20.03355,0
GRID,10490,0,299.5345,0.0,16.69842,0
GRID,10491,0,299.7017,0.0,13.36122,0
GRID,10492,0,299.8319,0.0,10.02236,0
GRID,10493,0,299.9249,0.0,6.682264,0
GRID,10494,0,299.981,0.0,3.341338,0
GRID,10495,0,408.0743,0.0,4.545592,0
GRID,10496,0,407.9983,0.0,9.090621,0
GRID,10497,0,407.8717,0.0,13.63452,0
GRID,10498,0,407.6947,0.0,18.17674,0
GRID,10499,0,407.4671,0.0,22.71669,0
GRID,10500,0,407.1889,0.0,27.25383,0
GRID,10501,0,406.8601,0.0,31.78758,0
GRID,10502,0,406.4808,0.0,36.31739,0
GRID,10503,0,406.0511,0.0,40.8427,0
GRID,10504,0,405.5709,0.0,45.36293,0
GRID,10505,0,405.0405,0.0,49.87755,0
GRID,10506,0,404.4598,0.0,54.38597,0
GRID,10507,0,403.829,0.0,58.88764,0
GRID,10508,0,403.148,0.0,63.38201,0
GRID,10509,0,402.417,0.0,67.86851,0
GRID,10510,0,401.6361,0.0,72.3466,0
GRID,10511,0,400.8053,0.0,76.8157,0
GRID,10512,0,399.9249,0.0,81.27528,0
GRID,10513,0,398.9948,0.0,85.72478,0
GRID,10514,0,398.0152,0.0,90.16364,0
GRID,10515,0,396.9862,0.0,94.59131,0
GRID,10516,0,395.908,0.0,99.00724,0
GRID,10517,0,394.7807,0.0,103.4109,0
GRID,10518,0,393.6043,0.0,107.8017,0
GRID,10519,0,392.3792,0.0,112.1792,0
GRID,10520,0,391.1054,0.0,116.5427,0
GRID,10521,0,389.783,0.0,120.8918,0
GRID,10522,0,388.4123,0.0,125.2258,0
GRID,10523,0,386.9933,0.0,129.5444,0
GRID,10524,0,385.5264,0.0,133.8468,0
GRID,10525,0,384.0116,0.0,138.1327,0
GRID,10526,0,382.4492,0.0,142.4014,0
GRID,10527,0,380.8394,0.0,146.6525,0
GRID,10528,0,379.1823,0.0,150.8853,0
GRID,10529,0,377.4781,0.0,155.0995,0
GRID,10530,0,375.7271,0.0,159.2943,0
GRID,10531,0,373.9295,0.0,163.4695,0
GRID,10532,0,372.0856,0.0,167.6243,0
GRID,10533,0,370.1954,0.0,171.7584,0
GRID,10534,0,368.2594,0.0,175.8711,0
GRID,10535,0,366.2776,0.0,179.962,0
GRID,10536,0,364.2504,0.0,184.0306,0
GRID,10537,0,362.1779,0.0,188.0764,0
GRID,10538,0,360.0606,0.0,192.0988,0
GRID,10539,0,357.8986,0.0,196.0974,0
GRID,10540,0,355.6922,0.0,200.0717,0
GRID,10541,0,353.4416,0.0,204.0211,0
GRID,10542,0,351.1472,0.0,207.9453,0
GRID,10543,0,348.8092,0.0,211.8436,0
GRID,10544,0,346.428,0.0,215.7156,0
GRID,10545,0,344.0038,0.0,219.5609,0
GRID,10546,0,341.5369,0.0,223.3789,0
GRID,10547,0,339.0276,0.0,227.1693,0
GRID,10548,0,336.4763,0.0,230.9314,0
GRID,10549,0,333.8832,0.0,234.6649,0
GRID,10550,0,331.2487,0.0,238.3693,0
GRID,10551,0,328.573,0.0,242.0441,0
GRID,10552,0,325.8567,0.0,245.6889,0
GRID,10553,0,323.0999,0.0,249.3032,0
GRID,10554,0,320.303,0.0,252.8865,0
GRID,10555,0,317.4664,0.0,256.4385,0
GRID,10556,0,314.5903,0.0,259.9587,0
GRID,10557,0,311.6753,0.0,263.4466,0
GRID,10558,0,308.7216,0.0,266.9018,0
GRID,10559,0,305.7296,0.0,270.3239,0
GRID,10560,0,302.6996,0.0,273.7125,0
GRID,10561,0,299.6321,0.0,277.0671,0
GRID,10562,0,296.5274,0.0,280.3874,0
GRID,10563,0,293.3859,0.0,283.6728,0
GRID,10564,0,290.2081,0.0,286.9231,0
GRID,10565,0,286.9942,0.0,290.1377,0
GRID,10566,0,283.7447,0.0,293.3164,0
GRID,10567,0,280.46,0.0,296.4587,0
GRID,10568,0,277.1406,0.0,299.5642,0
GRID,10569,0,273.7867,0.0,302.6325,0
GRID,10570,0,270.3988,0.0,305.6633,0
GRID,10571,0,266.9775,0.0,308.6562,0
GRID,10572,0,263.5229,0.0,311.6107,0
GRID,10573,0,260.0358,0.0,314.5266,0
GRID,10574,0,256.5163,0.0,317.4035,0
GRID,10575,0,252.965,0.0,320.241,0
GRID,10576,0,249.3823,0.0,323.0388,0
GRID,10577,0,245.7687,0.0,325.7965,0
GRID,10578,0,242.1246,0.0,328.5137,0
GRID,10579,0,238.4504,0.0,331.1902,0
GRID,10580,0,234.7467,0.0,333.8257,0
GRID,10581,0,231.0139,0.0,336.4197,0
GRID,10582,0,227.2524,0.0,338.9719,0
GRID,10583,0,223.4626,0.0,341.4821,0
GRID,10584,0,219.6452,0.0,343.95,0
GRID,10585,0,215.8005,0.0,346.3751,0
GRID,10586,0,211.929,0.0,348.7573,0
GRID,10587,0,208.0313,0.0,351.0963,0
GRID,10588,0,204.1077,0.0,353.3916,0
GRID,10589,0,200.1588,0.0,355.6431,0
GRID,10590,0,196.1851,0.0,357.8505,0
GRID,10591,0,192.187,0.0,360.0135,0
GRID,10592,0,188.1651,0.0,362.1318,0
GRID,10593,0,184.1199,0.0,364.2052,0
GRID,10594,0,180.0518,0.0,366.2335,0
GRID,10595,0,175.9614,0.0,368.2162,0
GRID,10596,0,171.8491,0.0,370.1533,0
GRID,10597,0,167.7155,0.0,372.0445,0
GRID,10598,0,163.5611,0.0,373.8895,0
GRID,10599,0,159.3864,0.0,375.6881,0
GRID,10600,0,155.1919,0.0,377.4401,0
GRID,10601,0,150.9782,0.0,379.1453,0
GRID,10602,0,146.7458,0.0,380.8035,0
GRID,10603,0,142.4951,0.0,382.4143,0
GRID,10604,0,138.2268,0.0,383.9778,0
GRID,10605,0,133.9413,0.0,385.4936,0
GRID,10606,0,129.6392,0.0,386.9616,0
GRID,10607,0,125.321,0.0,388.3816,0
GRID,10608,0,120.9873,0.0,389.7533,0
GRID,10609,0,116.6385,0.0,391.0768,0
GRID,10610,0,112.2753,0.0,392.3517,0
GRID,10611,0,107.8982,0.0,393.5779,0
GRID,10612,0,103.5076,0.0,394.7553,0
GRID,10613,0,99.10425,0.0,395.8837,0
GRID,10614,0,94.68859,0.0,396.9631,0
GRID,10615,0,90.26117,0.0,397.9931,0
GRID,10616,0,85.82255,0.0,398.9738,0
GRID,10617,0,81.37328,0.0,399.905,0
GRID,10618,0,76.91391,0.0,400.7865,0
GRID,10619,0,72.44501,0.0,401.6183,0
GRID,10620,0,67.96712,0.0,402.4004,0
GRID,10621,0,63.4808,0.0,403.1325,0
GRID,10622,0,58.9866,0.0,403.8145,0
GRID,10623,0,54.48507,0.0,404.4465,0
GRID,10624,0,49.97679,0.0,405.0283,0
GRID,10625,0,45.46231,0.0,405.5598,0
GRID,10626,0,40.94219,0.0,406.041,0
GRID,10627,0,36.417,0.0,406.4719,0
GRID,10628,0,31.88728,0.0,406.8523,0
GRID,10629,0,27.35361,0.0,407.1822,0
GRID,10630,0,22.81654,0.0,407.4615,0
GRID,10631,0,18.27664,0.0,407.6902,0
GRID,10632,0,13.73447,0.0,407.8684,0
GRID,10633,0,9.190596,0.0,407.996,0
GRID,10634,0,4.645585,0.0,408.0732,0
GRID,10635,0,306.7563,0.0,3.12E-15,0
GRID,10636,0,313.5125,0.0,6.25E-15,0
GRID,10637,0,320.2688,0.0,9.37E-15,0
GRID,10638,0,327.025,0.0,1.25E-14,0
GRID,10639,0,333.7813,0.0,1.56E-14,0
GRID,10640,0,340.5375,0.0,1.87E-14,0
GRID,10641,0,347.2938,0.0,2.19E-14,0
GRID,10642,0,354.05,0.0,2.5E-14,0
GRID,10643,0,360.8063,0.0,2.81E-14,0
GRID,10644,0,367.5625,0.0,3.12E-14,0
GRID,10645,0,374.3188,0.0,3.44E-14,0
GRID,10646,0,381.075,0.0,3.75E-14,0
GRID,10647,0,387.8313,0.0,4.06E-14,0
GRID,10648,0,394.5875,0.0,4.37E-14,0
GRID,10649,0,401.3438,0.0,4.69E-14,0
GRID,10650,0,407.79,0.0,-5.0,0
GRID,10651,0,407.79,0.0,-10.0,0
GRID,10652,0,407.79,0.0,-15.0,0
GRID,10653,0,407.79,0.0,-20.0,0
GRID,10654,0,407.79,0.0,-25.0,0
GRID,10655,0,407.79,0.0,-30.0,0
GRID,10656,0,407.79,0.0,-35.0,0
GRID,10657,0,407.79,0.0,-40.0,0
GRID,10658,0,407.79,0.0,-45.0,0
GRID,10659,0,407.79,0.0,-50.0,0
GRID,10660,0,407.79,0.0,-55.0,0
GRID,10661,0,407.79,0.0,-60.0,0
GRID,10662,0,407.79,0.0,-65.0,0
GRID,10663,0,407.79,0.0,-70.0,0
GRID,10664,0,407.79,0.0,-75.0,0
GRID,10665,0,407.79,0.0,-80.0,0
GRID,10666,0,407.79,0.0,-85.0,0
GRID,10667,0,407.79,0.0,-90.0,0
GRID,10668,0,407.79,0.0,-95.0,0
GRID,10669,0,407.79,0.0,-100.0,0
GRID,10670,0,407.79,0.0,-105.0,0
GRID,10671,0,407.79,0.0,-110.0,0
GRID,10672,0,407.79,0.0,-115.0,0
GRID,10673,0,407.79,0.0,-120.0,0
GRID,10674,0,407.79,0.0,-125.0,0
GRID,10675,0,407.79,0.0,-130.0,0
GRID,10676,0,407.79,0.0,-135.0,0
GRID,10677,0,407.79,0.0,-140.0,0
GRID,10678,0,407.79,0.0,-145.0,0
GRID,10679,0,407.79,0.0,-150.0,0
GRID,10680,0,407.79,0.0,-155.0,0
GRID,10681,0,407.79,0.0,-160.0,0
GRID,10682,0,407.79,0.0,-165.0,0
GRID,10683,0,407.79,0.0,-170.0,0
GRID,10684,0,407.79,0.0,-175.0,0
GRID,10685,0,407.79,0.0,-180.0,0
GRID,10686,0,407.79,0.0,-185.0,0
GRID,10687,0,407.79,0.0,-190.0,0
GRID,10688,0,407.79,0.0,-195.0,0
GRID,10689,0,407.79,0.0,-200.0,0
GRID,10690,0,407.79,0.0,-205.0,0
GRID,10691,0,407.79,0.0,-210.0,0
GRID,10692,0,407.79,0.0,-215.0,0
GRID,10693,0,407.79,0.0,-220.0,0
GRID,10694,0,407.79,0.0,-225.0,0
GRID,10695,0,407.79,0.0,-230.0,0
GRID,10696,0,407.79,0.0,-235.0,0
GRID,10697,0,407.79,0.0,-240.0,0
GRID,10698,0,407.79,0.0,-245.0,0
GRID,10699,0,407.79,0.0,-250.0,0
GRID,10700,0,407.79,0.0,-255.0,0
GRID,10701,0,407.79,0.0,-260.0,0
GRID,10702,0,407.79,0.0,-265.0,0
GRID,10703,0,407.79,0.0,-270.0,0
GRID,10704,0,407.79,0.0,-275.0,0
GRID,10705,0,407.79,0.0,-280.0,0
GRID,10706,0,407.79,0.0,-285.0,0
GRID,10707,0,407.79,0.0,-290.0,0
GRID,10708,0,407.79,0.0,-295.0,0
GRID,10709,0,407.79,0.0,-300.0,0
GRID,10710,0,407.79,0.0,-305.0,0
GRID,10711,0,407.79,0.0,-310.0,0
GRID,10712,0,407.79,0.0,-315.0,0
GRID,10713,0,407.79,0.0,-320.0,0
GRID,10714,0,407.79,0.0,-325.0,0
GRID,10715,0,407.79,0.0,-330.0,0
GRID,10716,0,407.79,0.0,-335.0,0
GRID,10717,0,407.79,0.0,-340.0,0
GRID,10718,0,407.79,0.0,-345.0,0
GRID,10719,0,407.79,0.0,-350.0,0
GRID,10720,0,407.79,0.0,-355.0,0
GRID,10721,0,407.79,0.0,-360.0,0
GRID,10722,0,407.79,0.0,-365.0,0
GRID,10723,0,407.79,0.0,-370.0,0
GRID,10724,0,407.79,0.0,-375.0,0
GRID,10725,0,407.79,0.0,-380.0,0
GRID,10726,0,407.79,0.0,-385.0,0
GRID,10727,0,407.79,0.0,-390.0,0
GRID,10728,0,407.79,0.0,-395.0,0
GRID,10729,0,407.79,0.0,-400.0,0
GRID,10730,0,407.79,0.0,-405.0,0
GRID,10731,0,407.79,0.0,-410.0,0
GRID,10732,0,407.79,0.0,-415.0,0
GRID,10733,0,407.79,0.0,-420.0,0
GRID,10734,0,407.79,0.0,-425.0,0
GRID,10735,0,407.79,0.0,-430.0,0
GRID,10736,0,407.79,0.0,-435.0,0
GRID,10737,0,407.79,0.0,-440.0,0
GRID,10738,0,407.79,0.0,-445.0,0
GRID,10739,0,407.79,0.0,-450.0,0
GRID,10740,0,407.79,0.0,-455.0,0
GRID,10741,0,407.79,0.0,-460.0,0
GRID,10742,0,407.79,0.0,-465.0,0
GRID,10743,0,407.79,0.0,-470.0,0
GRID,10744,0,407.79,0.0,-475.0,0
GRID,10745,0,407.79,0.0,-480.0,0
GRID,10746,0,407.79,0.0,-485.0,0
GRID,10747,0,407.79,0.0,-490.0,0
GRID,10748,0,407.79,0.0,-495.0,0
GRID,10749,0,407.79,0.0,-500.0,0
GRID,10750,0,407.79,0.0,-505.0,0
GRID,10751,0,407.79,0.0,-510.0,0
GRID,10752,0,407.79,0.0,-515.0,0
GRID,10753,0,407.79,0.0,-520.0,0
GRID,10754,0,407.79,0.0,-525.0,0
GRID,10755,0,407.79,0.0,-530.0,0
GRID,10756,0,407.79,0.0,-535.0,0
GRID,10757,0,407.79,0.0,-540.0,0
GRID,10758,0,407.79,0.0,-545.0,0
GRID,10759,0,407.79,0.0,-550.0,0
GRID,10760,0,407.79,0.0,-555.0,0
GRID,10761,0,407.79,0.0,-560.0,0
GRID,10762,0,407.79,0.0,-565.0,0
GRID,10763,0,407.79,0.0,-570.0,0
GRID,10764,0,407.79,0.0,-575.0,0
GRID,10765,0,407.79,0.0,-580.0,0
GRID,10766,0,407.79,0.0,-585.0,0
GRID,10767,0,407.79,0.0,-590.0,0
GRID,10768,0,407.79,0.0,-595.0,0
GRID,10769,0,407.79,0.0,-600.0,0
GRID,10770,0,407.79,0.0,-605.0,0
GRID,10771,0,407.79,0.0,-610.0,0
GRID,10772,0,407.79,0.0,-615.0,0
GRID,10773,0,407.79,0.0,-620.0,0
GRID,10774,0,407.79,0.0,-625.0,0
GRID,10775,0,407.79,0.0,-630.0,0
GRID,10776,0,407.79,0.0,-635.0,0
GRID,10777,0,407.79,0.0,-640.0,0
GRID,10778,0,407.79,0.0,-645.0,0
GRID,10779,0,407.79,0.0,-650.0,0
GRID,10780,0,407.79,0.0,-655.0,0
GRID,10781,0,407.79,0.0,-660.0,0
GRID,10782,0,407.79,0.0,-665.0,0
GRID,10783,0,407.79,0.0,-670.0,0
GRID,10784,0,407.79,0.0,-675.0,0
GRID,10785,0,407.79,0.0,-680.0,0
GRID,10786,0,407.79,0.0,-685.0,0
GRID,10787,0,407.79,0.0,-690.0,0
GRID,10788,0,407.79,0.0,-695.0,0
GRID,10789,0,407.79,0.0,-700.0,0
GRID,10790,0,407.79,0.0,-705.0,0
GRID,10791,0,407.79,0.0,-710.0,0
GRID,10792,0,407.79,0.0,-715.0,0
GRID,10793,0,407.79,0.0,-720.0,0
GRID,10794,0,407.79,0.0,-725.0,0
GRID,10795,0,407.79,0.0,-730.0,0
GRID,10796,0,407.79,0.0,-735.0,0
GRID,10797,0,407.79,0.0,-740.0,0
GRID,10798,0,407.79,0.0,-745.0,0
GRID,10799,0,407.79,0.0,-750.0,0
GRID,10800,0,407.79,0.0,-755.0,0
GRID,10801,0,407.79,0.0,-760.0,0
GRID,10802,0,407.79,0.0,-765.0,0
GRID,10803,0,407.79,0.0,-770.0,0
GRID,10804,0,407.79,0.0,-775.0,0
GRID,10805,0,407.79,0.0,-780.0,0
GRID,10806,0,407.79,0.0,-785.0,0
GRID,10807,0,407.79,0.0,-790.0,0
GRID,10808,0,407.79,0.0,-795.0,0
GRID,10809,0,407.79,0.0,-800.0,0
GRID,10810,0,407.79,0.0,-805.0,0
GRID,10811,0,407.79,0.0,-810.0,0
GRID,10812,0,407.79,0.0,-815.0,0
GRID,10813,0,407.79,0.0,-820.0,0
GRID,10814,0,407.79,0.0,-825.0,0
GRID,10815,0,407.79,0.0,-830.0,0
GRID,10816,0,407.79,0.0,-835.0,0
GRID,10817,0,407.79,0.0,-840.0,0
GRID,10818,0,407.79,0.0,-845.0,0
GRID,10819,0,407.79,0.0,-850.0,0
GRID,10820,0,407.79,0.0,-855.0,0
GRID,10821,0,407.79,0.0,-860.0,0
GRID,10822,0,407.79,0.0,-865.0,0
GRID,10823,0,407.79,0.0,-870.0,0
GRID,10824,0,407.79,0.0,-875.0,0
GRID,10825,0,407.79,0.0,-880.0,0
GRID,10826,0,407.79,0.0,-885.0,0
GRID,10827,0,407.79,0.0,-890.0,0
GRID,10828,0,407.79,0.0,-895.0,0
GRID,10829,0,407.79,0.0,-900.0,0
GRID,10830,0,407.79,0.0,-905.0,0
GRID,10831,0,407.79,0.0,-910.0,0
GRID,10832,0,407.79,0.0,-915.0,0
GRID,10833,0,407.79,0.0,-920.0,0
GRID,10834,0,407.79,0.0,-925.0,0
GRID,10835,0,407.79,0.0,-930.0,0
GRID,10836,0,407.79,0.0,-935.0,0
GRID,10837,0,407.79,0.0,-940.0,0
GRID,10838,0,407.79,0.0,-945.0,0
GRID,10839,0,407.79,0.0,-950.0,0
GRID,10840,0,407.79,0.0,-955.0,0
GRID,10841,0,407.79,0.0,-960.0,0
GRID,10842,0,407.79,0.0,-965.0,0
GRID,10843,0,407.79,0.0,-970.0,0
GRID,10844,0,407.79,0.0,-975.0,0
GRID,10845,0,407.79,0.0,-980.0,0
GRID,10846,0,407.79,0.0,-985.0,0
GRID,10847,0,407.79,0.0,-990.0,0
GRID,10848,0,407.79,0.0,-995.0,0
GRID,10849,0,407.79,0.0,-1000.0,0
GRID,10850,0,407.79,0.0,-1005.0,0
GRID,10851,0,407.79,0.0,-1010.0,0
GRID,10852,0,407.79,0.0,-1015.0,0
GRID,10853,0,407.79,0.0,-1020.0,0
GRID,10854,0,407.79,0.0,-1025.0,0
GRID,10855,0,407.79,0.0,-1030.0,0
GRID,10856,0,407.79,0.0,-1035.0,0
GRID,10857,0,407.79,0.0,-1040.0,0
GRID,10858,0,407.79,0.0,-1045.0,0
GRID,10859,0,407.79,0.0,-1050.0,0
GRID,10860,0,407.79,0.0,-1055.0,0
GRID,10861,0,407.79,0.0,-1060.0,0
GRID,10862,0,407.79,0.0,-1065.0,0
GRID,10863,0,407.79,0.0,-1070.0,0
GRID,10864,0,407.79,0.0,-1075.0,0
GRID,10865,0,407.79,0.0,-1080.0,0
GRID,10866,0,407.79,0.0,-1085.0,0
GRID,10867,0,407.79,0.0,-1090.0,0
GRID,10868,0,407.79,0.0,-1095.0,0
GRID,10869,0,407.79,0.0,-1100.0,0
GRID,10870,0,407.79,0.0,-1105.0,0
GRID,10871,0,407.79,0.0,-1110.0,0
GRID,10872,0,407.79,0.0,-1115.0,0
GRID,10873,0,407.79,0.0,-1120.0,0
GRID,10874,0,407.79,0.0,-1125.0,0
GRID,10875,0,407.79,0.0,-1130.0,0
GRID,10876,0,407.79,0.0,-1135.0,0
GRID,10877,0,407.79,0.0,-1140.0,0
GRID,10878,0,407.79,0.0,-1145.0,0
GRID,10879,0,407.79,0.0,-1150.0,0
GRID,10880,0,407.79,0.0,-1155.0,0
GRID,10881,0,407.79,0.0,-1160.0,0
GRID,10882,0,407.79,0.0,-1165.0,0
GRID,10883,0,407.79,0.0,-1170.0,0
GRID,10884,0,407.79,0.0,-1175.0,0
GRID,10885,0,407.79,0.0,-1180.0,0
GRID,10886,0,407.79,0.0,-1185.0,0
GRID,10887,0,407.79,0.0,-1190.0,0
GRID,10888,0,407.79,0.0,-1195.0,0
GRID,10889,0,414.3817,0.0,-1200.0,0
GRID,10890,0,420.9733,0.0,-1200.0,0
GRID,10891,0,427.565,0.0,-1200.0,0
GRID,10892,0,434.1567,0.0,-1200.0,0
GRID,10893,0,440.7483,0.0,-1200.0,0
GRID,10894,0,447.34,0.0,-1200.0,0
GRID,10895,0,453.9317,0.0,-1200.0,0
GRID,10896,0,460.5233,0.0,-1200.0,0
GRID,10897,0,467.115,0.0,-1200.0,0
GRID,10898,0,473.7067,0.0,-1200.0,0
GRID,10899,0,480.2983,0.0,-1200.0,0
GRID,10900,0,480.2983,0.0,0.0,0
GRID,10901,0,473.7067,0.0,0.0,0
GRID,10902,0,467.115,0.0,0.0,0
GRID,10903,0,460.5233,0.0,0.0,0
GRID,10904,0,453.9317,0.0,0.0,0
GRID,10905,0,447.34,0.0,0.0,0
GRID,10906,0,440.7483,0.0,0.0,0
GRID,10907,0,434.1567,0.0,0.0,0
GRID,10908,0,427.565,0.0,0.0,0
GRID,10909,0,420.9733,0.0,0.0,0
GRID,10910,0,414.3817,0.0,0.0,0
GRID,10911,0,486.89,0.0,-1195.0,0
GRID,10912,0,486.89,0.0,-1190.0,0
GRID,10913,0,486.89,0.0,-1185.0,0
GRID,10914,0,486.89,0.0,-1180.0,0
GRID,10915,0,486.89,0.0,-1175.0,0
GRID,10916,0,486.89,0.0,-1170.0,0
GRID,10917,0,486.89,0.0,-1165.0,0
GRID,10918,0,486.89,0.0,-1160.0,0
GRID,10919,0,486.89,0.0,-1155.0,0
GRID,10920,0,486.89,0.0,-1150.0,0
GRID,10921,0,486.89,0.0,-1145.0,0
GRID,10922,0,486.89,0.0,-1140.0,0
GRID,10923,0,486.89,0.0,-1135.0,0
GRID,10924,0,486.89,0.0,-1130.0,0
GRID,10925,0,486.89,0.0,-1125.0,0
GRID,10926,0,486.89,0.0,-1120.0,0
GRID,10927,0,486.89,0.0,-1115.0,0
GRID,10928,0,486.89,0.0,-1110.0,0
GRID,10929,0,486.89,0.0,-1105.0,0
GRID,10930,0,486.89,0.0,-1100.0,0
GRID,10931,0,486.89,0.0,-1095.0,0
GRID,10932,0,486.89,0.0,-1090.0,0
GRID,10933,0,486.89,0.0,-1085.0,0
GRID,10934,0,486.89,0.0,-1080.0,0
GRID,10935,0,486.89,0.0,-1075.0,0
GRID,10936,0,486.89,0.0,-1070.0,0
GRID,10937,0,486.89,0.0,-1065.0,0
GRID,10938,0,486.89,0.0,-1060.0,0
GRID,10939,0,486.89,0.0,-1055.0,0
GRID,10940,0,486.89,0.0,-1050.0,0
GRID,10941,0,486.89,0.0,-1045.0,0
GRID,10942,0,486.89,0.0,-1040.0,0
GRID,10943,0,486.89,0.0,-1035.0,0
GRID,10944,0,486.89,0.0,-1030.0,0
GRID,10945,0,486.89,0.0,-1025.0,0
GRID,10946,0,486.89,0.0,-1020.0,0
GRID,10947,0,486.89,0.0,-1015.0,0
GRID,10948,0,486.89,0.0,-1010.0,0
GRID,10949,0,486.89,0.0,-1005.0,0
GRID,10950,0,486.89,0.0,-1000.0,0
GRID,10951,0,486.89,0.0,-995.0,0
GRID,10952,0,486.89,0.0,-990.0,0
GRID,10953,0,486.89,0.0,-985.0,0
GRID,10954,0,486.89,0.0,-980.0,0
GRID,10955,0,486.89,0.0,-975.0,0
GRID,10956,0,486.89,0.0,-970.0,0
GRID,10957,0,486.89,0.0,-965.0,0
GRID,10958,0,486.89,0.0,-960.0,0
GRID,10959,0,486.89,0.0,-955.0,0
GRID,10960,0,486.89,0.0,-950.0,0
GRID,10961,0,486.89,0.0,-945.0,0
GRID,10962,0,486.89,0.0,-940.0,0
GRID,10963,0,486.89,0.0,-935.0,0
GRID,10964,0,486.89,0.0,-930.0,0
GRID,10965,0,486.89,0.0,-925.0,0
GRID,10966,0,486.89,0.0,-920.0,0
GRID,10967,0,486.89,0.0,-915.0,0
GRID,10968,0,486.89,0.0,-910.0,0
GRID,10969,0,486.89,0.0,-905.0,0
GRID,10970,0,486.89,0.0,-900.0,0
GRID,10971,0,486.89,0.0,-895.0,0
GRID,10972,0,486.89,0.0,-890.0,0
GRID,10973,0,486.89,0.0,-885.0,0
GRID,10974,0,486.89,0.0,-880.0,0
GRID,10975,0,486.89,0.0,-875.0,0
GRID,10976,0,486.89,0.0,-870.0,0
GRID,10977,0,486.89,0.0,-865.0,0
GRID,10978,0,486.89,0.0,-860.0,0
GRID,10979,0,486.89,0.0,-855.0,0
GRID,10980,0,486.89,0.0,-850.0,0
GRID,10981,0,486.89,0.0,-845.0,0
GRID,10982,0,486.89,0.0,-840.0,0
GRID,10983,0,486.89,0.0,-835.0,0
GRID,10984,0,486.89,0.0,-830.0,0
GRID,10985,0,486.89,0.0,-825.0,0
GRID,10986,0,486.89,0.0,-820.0,0
GRID,10987,0,486.89,0.0,-815.0,0
GRID,10988,0,486.89,0.0,-810.0,0
GRID,10989,0,486.89,0.0,-805.0,0
GRID,10990,0,486.89,0.0,-800.0,0
GRID,10991,0,486.89,0.0,-795.0,0
GRID,10992,0,486.89,0.0,-790.0,0
GRID,10993,0,486.89,0.0,-785.0,0
GRID,10994,0,486.89,0.0,-780.0,0
GRID,10995,0,486.89,0.0,-775.0,0
GRID,10996,0,486.89,0.0,-770.0,0
GRID,10997,0,486.89,0.0,-765.0,0
GRID,10998,0,486.89,0.0,-760.0,0
GRID,10999,0,486.89,0.0,-755.0,0
GRID,11000,0,486.89,0.0,-750.0,0
GRID,11001,0,486.89,0.0,-745.0,0
GRID,11002,0,486.89,0.0,-740.0,0
GRID,11003,0,486.89,0.0,-735.0,0
GRID,11004,0,486.89,0.0,-730.0,0
GRID,11005,0,486.89,0.0,-725.0,0
GRID,11006,0,486.89,0.0,-720.0,0
GRID,11007,0,486.89,0.0,-715.0,0
GRID,11008,0,486.89,0.0,-710.0,0
GRID,11009,0,486.89,0.0,-705.0,0
GRID,11010,0,486.89,0.0,-700.0,0
GRID,11011,0,486.89,0.0,-695.0,0
GRID,11012,0,486.89,0.0,-690.0,0
GRID,11013,0,486.89,0.0,-685.0,0
GRID,11014,0,486.89,0.0,-680.0,0
GRID,11015,0,486.89,0.0,-675.0,0
GRID,11016,0,486.89,0.0,-670.0,0
GRID,11017,0,486.89,0.0,-665.0,0
GRID,11018,0,486.89,0.0,-660.0,0
GRID,11019,0,486.89,0.0,-655.0,0
GRID,11020,0,486.89,0.0,-650.0,0
GRID,11021,0,486.89,0.0,-645.0,0
GRID,11022,0,486.89,0.0,-640.0,0
GRID,11023,0,486.89,0.0,-635.0,0
GRID,11024,0,486.89,0.0,-630.0,0
GRID,11025,0,486.89,0.0,-625.0,0
GRID,11026,0,486.89,0.0,-620.0,0
GRID,11027,0,486.89,0.0,-615.0,0
GRID,11028,0,486.89,0.0,-610.0,0
GRID,11029,0,486.89,0.0,-605.0,0
GRID,11030,0,486.89,0.0,-600.0,0
GRID,11031,0,486.89,0.0,-595.0,0
GRID,11032,0,486.89,0.0,-590.0,0
GRID,11033,0,486.89,0.0,-585.0,0
GRID,11034,0,486.89,0.0,-580.0,0
GRID,11035,0,486.89,0.0,-575.0,0
GRID,11036,0,486.89,0.0,-570.0,0
GRID,11037,0,486.89,0.0,-565.0,0
GRID,11038,0,486.89,0.0,-560.0,0
GRID,11039,0,486.89,0.0,-555.0,0
GRID,11040,0,486.89,0.0,-550.0,0
GRID,11041,0,486.89,0.0,-545.0,0
GRID,11042,0,486.89,0.0,-540.0,0
GRID,11043,0,486.89,0.0,-535.0,0
GRID,11044,0,486.89,0.0,-530.0,0
GRID,11045,0,486.89,0.0,-525.0,0
GRID,11046,0,486.89,0.0,-520.0,0
GRID,11047,0,486.89,0.0,-515.0,0
GRID,11048,0,486.89,0.0,-510.0,0
GRID,11049,0,486.89,0.0,-505.0,0
GRID,11050,0,486.89,0.0,-500.0,0
GRID,11051,0,486.89,0.0,-495.0,0
GRID,11052,0,486.89,0.0,-490.0,0
GRID,11053,0,486.89,0.0,-485.0,0
GRID,11054,0,486.89,0.0,-480.0,0
GRID,11055,0,486.89,0.0,-475.0,0
GRID,11056,0,486.89,0.0,-470.0,0
GRID,11057,0,486.89,0.0,-465.0,0
GRID,11058,0,486.89,0.0,-460.0,0
GRID,11059,0,486.89,0.0,-455.0,0
GRID,11060,0,486.89,0.0,-450.0,0
GRID,11061,0,486.89,0.0,-445.0,0
GRID,11062,0,486.89,0.0,-440.0,0
GRID,11063,0,486.89,0.0,-435.0,0
GRID,11064,0,486.89,0.0,-430.0,0
GRID,11065,0,486.89,0.0,-425.0,0
GRID,11066,0,486.89,0.0,-420.0,0
GRID,11067,0,486.89,0.0,-415.0,0
GRID,11068,0,486.89,0.0,-410.0,0
GRID,11069,0,486.89,0.0,-405.0,0
GRID,11070,0,486.89,0.0,-400.0,0
GRID,11071,0,486.89,0.0,-395.0,0
GRID,11072,0,486.89,0.0,-390.0,0
GRID,11073,0,486.89,0.0,-385.0,0
GRID,11074,0,486.89,0.0,-380.0,0
GRID,11075,0,486.89,0.0,-375.0,0
GRID,11076,0,486.89,0.0,-370.0,0
GRID,11077,0,486.89,0.0,-365.0,0
GRID,11078,0,486.89,0.0,-360.0,0
GRID,11079,0,486.89,0.0,-355.0,0
GRID,11080,0,486.89,0.0,-350.0,0
GRID,11081,0,486.89,0.0,-345.0,0
GRID,11082,0,486.89,0.0,-340.0,0
GRID,11083,0,486.89,0.0,-335.0,0
GRID,11084,0,486.89,0.0,-330.0,0
GRID,11085,0,486.89,0.0,-325.0,0
GRID,11086,0,486.89,0.0,-320.0,0
GRID,11087,0,486.89,0.0,-315.0,0
GRID,11088,0,486.89,0.0,-310.0,0
GRID,11089,0,486.89,0.0,-305.0,0
GRID,11090,0,486.89,0.0,-300.0,0
GRID,11091,0,486.89,0.0,-295.0,0
GRID,11092,0,486.89,0.0,-290.0,0
GRID,11093,0,486.89,0.0,-285.0,0
GRID,11094,0,486.89,0.0,-280.0,0
GRID,11095,0,486.89,0.0,-275.0,0
GRID,11096,0,486.89,0.0,-270.0,0
GRID,11097,0,486.89,0.0,-265.0,0
GRID,11098,0,486.89,0.0,-260.0,0
GRID,11099,0,486.89,0.0,-255.0,0
GRID,11100,0,486.89,0.0,-250.0,0
GRID,11101,0,486.89,0.0,-245.0,0
GRID,11102,0,486.89,0.0,-240.0,0
GRID,11103,0,486.89,0.0,-235.0,0
GRID,11104,0,486.89,0.0,-230.0,0
GRID,11105,0,486.89,0.0,-225.0,0
GRID,11106,0,486.89,0.0,-220.0,0
GRID,11107,0,486.89,0.0,-215.0,0
GRID,11108,0,486.89,0.0,-210.0,0
GRID,11109,0,486.89,0.0,-205.0,0
GRID,11110,0,486.89,0.0,-200.0,0
GRID,11111,0,486.89,0.0,-195.0,0
GRID,11112,0,486.89,0.0,-190.0,0
GRID,11113,0,486.89,0.0,-185.0,0
GRID,11114,0,486.89,0.0,-180.0,0
GRID,11115,0,486.89,0.0,-175.0,0
GRID,11116,0,486.89,0.0,-170.0,0
GRID,11117,0,486.89,0.0,-165.0,0
GRID,11118,0,486.89,0.0,-160.0,0
GRID,11119,0,486.89,0.0,-155.0,0
GRID,11120,0,486.89,0.0,-150.0,0
GRID,11121,0,486.89,0.0,-145.0,0
GRID,11122,0,486.89,0.0,-140.0,0
GRID,11123,0,486.89,0.0,-135.0,0
GRID,11124,0,486.89,0.0,-130.0,0
GRID,11125,0,486.89,0.0,-125.0,0
GRID,11126,0,486.89,0.0,-120.0,0
GRID,11127,0,486.89,0.0,-115.0,0
GRID,11128,0,486.89,0.0,-110.0,0
GRID,11129,0,486.89,0.0,-105.0,0
GRID,11130,0,486.89,0.0,-100.0,0
GRID,11131,0,486.89,0.0,-95.0,0
GRID,11132,0,486.89,0.0,-90.0,0
GRID,11133,0,486.89,0.0,-85.0,0
GRID,11134,0,486.89,0.0,-80.0,0
GRID,11135,0,486.89,0.0,-75.0,0
GRID,11136,0,486.89,0.0,-70.0,0
GRID,11137,0,486.89,0.0,-65.0,0
GRID,11138,0,486.89,0.0,-60.0,0
GRID,11139,0,486.89,0.0,-55.0,0
GRID,11140,0,486.89,0.0,-50.0,0
GRID,11141,0,486.89,0.0,-45.0,0
GRID,11142,0,486.89,0.0,-40.0,0
GRID,11143,0,486.89,0.0,-35.0,0
GRID,11144,0,486.89,0.0,-30.0,0
GRID,11145,0,486.89,0.0,-25.0,0
GRID,11146,0,486.89,0.0,-20.0,0
GRID,11147,0,486.89,0.0,-15.0,0
GRID,11148,0,486.89,0.0,-10.0,0
GRID,11149,0,486.89,0.0,-5.0,0
GRID,11150,0,.1,0.0,-1440.43,0
GRID,11151,0,.1,0.0,-1446.47,0
GRID,11152,0,.1,0.0,-1452.5,0
GRID,11153,0,.1,0.0,-1458.54,0
GRID,11154,0,.1,0.0,-1464.58,0
GRID,11155,0,.1,0.0,-1470.61,0
GRID,11156,0,.1,0.0,-1476.65,0
GRID,11157,0,.1,0.0,-1482.68,0
GRID,11158,0,.1,0.0,-1488.72,0
GRID,11159,0,.1,0.0,-1494.76,0
GRID,11160,0,.1,0.0,-1500.79,0
GRID,11161,0,.1,0.0,-1506.83,0
GRID,11162,0,.1,0.0,-1512.87,0
GRID,11163,0,.1,0.0,-1518.9,0
GRID,11164,0,.1,0.0,-1524.94,0
GRID,11165,0,110.1806,0.0,-1389.77,0
GRID,11166,0,107.8491,0.0,-1391.97,0
GRID,11167,0,105.4744,0.0,-1394.12,0
GRID,11168,0,103.0573,0.0,-1396.22,0
GRID,11169,0,100.5986,0.0,-1398.27,0
GRID,11170,0,98.09915,0.0,-1400.27,0
GRID,11171,0,95.56008,0.0,-1402.22,0
GRID,11172,0,92.98247,0.0,-1404.12,0
GRID,11173,0,90.36735,0.0,-1405.97,0
GRID,11174,0,87.71579,0.0,-1407.77,0
GRID,11175,0,85.02881,0.0,-1409.51,0
GRID,11176,0,82.30747,0.0,-1411.2,0
GRID,11177,0,79.55289,0.0,-1412.83,0
GRID,11178,0,76.76619,0.0,-1414.41,0
GRID,11179,0,73.94847,0.0,-1415.93,0
GRID,11180,0,71.10088,0.0,-1417.4,0
GRID,11181,0,68.22452,0.0,-1418.8,0
GRID,11182,0,65.32054,0.0,-1420.15,0
GRID,11183,0,62.39014,0.0,-1421.44,0
GRID,11184,0,59.43448,0.0,-1422.68,0
GRID,11185,0,56.45476,0.0,-1423.85,0
GRID,11186,0,53.45215,0.0,-1424.96,0
GRID,11187,0,50.42785,0.0,-1426.02,0
GRID,11188,0,47.38308,0.0,-1427.01,0
GRID,11189,0,44.31906,0.0,-1427.94,0
GRID,11190,0,41.23703,0.0,-1428.81,0
GRID,11191,0,38.13822,0.0,-1429.62,0
GRID,11192,0,35.02385,0.0,-1430.36,0
GRID,11193,0,31.89518,0.0,-1431.05,0
GRID,11194,0,28.75346,0.0,-1431.67,0
GRID,11195,0,25.59996,0.0,-1432.22,0
GRID,11196,0,22.43594,0.0,-1432.72,0
GRID,11197,0,19.26266,0.0,-1433.15,0
GRID,11198,0,16.0814,0.0,-1433.52,0
GRID,11199,0,12.89343,0.0,-1433.82,0
GRID,11200,0,9.700012,0.0,-1434.06,0
GRID,11201,0,6.502446,0.0,-1434.23,0
GRID,11202,0,3.302014,0.0,-1434.34,0
GRID,11203,0,202.7575,0.0,-1297.24,0
GRID,11204,0,200.5003,0.0,-1299.5,0
GRID,11205,0,198.243,0.0,-1301.76,0
GRID,11206,0,195.9858,0.0,-1304.01,0
GRID,11207,0,193.7286,0.0,-1306.27,0
GRID,11208,0,191.4713,0.0,-1308.53,0
GRID,11209,0,189.2141,0.0,-1310.79,0
GRID,11210,0,186.9569,0.0,-1313.04,0
GRID,11211,0,184.6996,0.0,-1315.3,0
GRID,11212,0,182.4424,0.0,-1317.56,0
GRID,11213,0,180.1852,0.0,-1319.81,0
GRID,11214,0,177.9279,0.0,-1322.07,0
GRID,11215,0,175.6707,0.0,-1324.33,0
GRID,11216,0,173.4135,0.0,-1326.59,0
GRID,11217,0,171.1562,0.0,-1328.84,0
GRID,11218,0,168.899,0.0,-1331.1,0
GRID,11219,0,166.6417,0.0,-1333.36,0
GRID,11220,0,164.3845,0.0,-1335.62,0
GRID,11221,0,162.1273,0.0,-1337.87,0
GRID,11222,0,159.87,0.0,-1340.13,0
GRID,11223,0,157.6128,0.0,-1342.39,0
GRID,11224,0,155.3556,0.0,-1344.64,0
GRID,11225,0,153.0983,0.0,-1346.9,0
GRID,11226,0,150.8411,0.0,-1349.16,0
GRID,11227,0,148.5839,0.0,-1351.42,0
GRID,11228,0,146.3266,0.0,-1353.67,0
GRID,11229,0,144.0694,0.0,-1355.93,0
GRID,11230,0,141.8122,0.0,-1358.19,0
GRID,11231,0,139.5549,0.0,-1360.45,0
GRID,11232,0,137.2977,0.0,-1362.7,0
GRID,11233,0,135.0405,0.0,-1364.96,0
GRID,11234,0,132.7832,0.0,-1367.22,0
GRID,11235,0,130.526,0.0,-1369.47,0
GRID,11236,0,128.2688,0.0,-1371.73,0
GRID,11237,0,126.0115,0.0,-1373.99,0
GRID,11238,0,123.7543,0.0,-1376.25,0
GRID,11239,0,121.497,0.0,-1378.5,0
GRID,11240,0,119.2398,0.0,-1380.76,0
GRID,11241,0,116.9826,0.0,-1383.02,0
GRID,11242,0,114.7253,0.0,-1385.27,0
GRID,11243,0,4.526226,0.0,-1532.01,0
GRID,11244,0,8.966678,0.0,-1532.99,0
GRID,11245,0,13.42048,0.0,-1533.9,0
GRID,11246,0,17.88676,0.0,-1534.75,0
GRID,11247,0,22.36464,0.0,-1535.54,0
GRID,11248,0,26.85326,0.0,-1536.26,0
GRID,11249,0,31.35169,0.0,-1536.91,0
GRID,11250,0,35.85902,0.0,-1537.51,0
GRID,11251,0,40.37433,0.0,-1538.04,0
GRID,11252,0,44.8967,0.0,-1538.5,0
GRID,11253,0,49.42523,0.0,-1538.9,0
GRID,11254,0,53.959,0.0,-1539.24,0
GRID,11255,0,58.4971,0.0,-1539.51,0
GRID,11256,0,63.03861,0.0,-1539.72,0
GRID,11257,0,67.58261,0.0,-1539.86,0
GRID,11258,0,72.12819,0.0,-1539.94,0
GRID,11259,0,76.67442,0.0,-1539.96,0
GRID,11260,0,81.2204,0.0,-1539.91,0
GRID,11261,0,85.7652,0.0,-1539.79,0
GRID,11262,0,90.30791,0.0,-1539.61,0
GRID,11263,0,94.84761,0.0,-1539.37,0
GRID,11264,0,99.38338,0.0,-1539.06,0
GRID,11265,0,103.9143,0.0,-1538.69,0
GRID,11266,0,108.4395,0.0,-1538.25,0
GRID,11267,0,112.958,0.0,-1537.75,0
GRID,11268,0,117.4689,0.0,-1537.18,0
GRID,11269,0,121.9713,0.0,-1536.55,0
GRID,11270,0,126.4644,0.0,-1535.86,0
GRID,11271,0,130.9471,0.0,-1535.1,0
GRID,11272,0,135.4186,0.0,-1534.28,0
GRID,11273,0,139.878,0.0,-1533.39,0
GRID,11274,0,144.3243,0.0,-1532.45,0
GRID,11275,0,148.7568,0.0,-1531.44,0
GRID,11276,0,153.1745,0.0,-1530.36,0
GRID,11277,0,157.5764,0.0,-1529.23,0
GRID,11278,0,161.9618,0.0,-1528.03,0
GRID,11279,0,166.3297,0.0,-1526.77,0
GRID,11280,0,170.6792,0.0,-1525.44,0
GRID,11281,0,175.0095,0.0,-1524.06,0
GRID,11282,0,179.3197,0.0,-1522.61,0
GRID,11283,0,183.609,0.0,-1521.11,0
GRID,11284,0,187.8763,0.0,-1519.54,0
GRID,11285,0,192.121,0.0,-1517.91,0
GRID,11286,0,196.3421,0.0,-1516.22,0
GRID,11287,0,200.5388,0.0,-1514.47,0
GRID,11288,0,204.7103,0.0,-1512.67,0
GRID,11289,0,208.8556,0.0,-1510.8,0
GRID,11290,0,212.974,0.0,-1508.87,0
GRID,11291,0,217.0647,0.0,-1506.89,0
GRID,11292,0,221.1267,0.0,-1504.85,0
GRID,11293,0,225.1593,0.0,-1502.75,0
GRID,11294,0,229.1617,0.0,-1500.59,0
GRID,11295,0,233.1331,0.0,-1498.38,0
GRID,11296,0,237.0726,0.0,-1496.11,0
GRID,11297,0,240.9795,0.0,-1493.79,0
GRID,11298,0,244.853,0.0,-1491.41,0
GRID,11299,0,248.6922,0.0,-1488.97,0
GRID,11300,0,252.4965,0.0,-1486.48,0
GRID,11301,0,256.2651,0.0,-1483.94,0
GRID,11302,0,259.9971,0.0,-1481.34,0
GRID,11303,0,263.6919,0.0,-1478.69,0
GRID,11304,0,267.3486,0.0,-1475.99,0
GRID,11305,0,270.9666,0.0,-1473.24,0
GRID,11306,0,274.5452,0.0,-1470.44,0
GRID,11307,0,278.0835,0.0,-1467.58,0
GRID,11308,0,281.581,0.0,-1464.68,0
GRID,11309,0,285.0367,0.0,-1461.72,0
GRID,11310,0,288.4501,0.0,-1458.72,0
GRID,11311,0,291.8204,0.0,-1455.67,0
GRID,11312,0,295.1472,0.0,-1452.57,0
GRID,11313,0,298.4297,0.0,-1449.43,0
GRID,11314,0,299.9843,0.0,-1068.81,0
GRID,11315,0,299.9384,0.0,-1071.96,0
GRID,11316,0,299.8621,0.0,-1075.1,0
GRID,11317,0,299.7554,0.0,-1078.25,0
GRID,11318,0,299.6184,0.0,-1081.39,0
GRID,11319,0,299.4509,0.0,-1084.53,0
GRID,11320,0,299.2531,0.0,-1087.67,0
GRID,11321,0,299.0247,0.0,-1090.8,0
GRID,11322,0,298.7659,0.0,-1093.94,0
GRID,11323,0,298.4767,0.0,-1097.07,0
GRID,11324,0,298.1571,0.0,-1100.19,0
GRID,11325,0,297.8072,0.0,-1103.32,0
GRID,11326,0,297.427,0.0,-1106.44,0
GRID,11327,0,297.0165,0.0,-1109.56,0
GRID,11328,0,296.5759,0.0,-1112.67,0
GRID,11329,0,296.1051,0.0,-1115.78,0
GRID,11330,0,295.6042,0.0,-1118.89,0
GRID,11331,0,295.0731,0.0,-1121.98,0
GRID,11332,0,294.5121,0.0,-1125.08,0
GRID,11333,0,293.9211,0.0,-1128.17,0
GRID,11334,0,293.3001,0.0,-1131.25,0
GRID,11335,0,292.6493,0.0,-1134.33,0
GRID,11336,0,291.9687,0.0,-1137.4,0
GRID,11337,0,291.2584,0.0,-1140.46,0
GRID,11338,0,290.5184,0.0,-1143.52,0
GRID,11339,0,289.7489,0.0,-1146.56,0
GRID,11340,0,288.9497,0.0,-1149.61,0
GRID,11341,0,288.1212,0.0,-1152.64,0
GRID,11342,0,287.2632,0.0,-1155.66,0
GRID,11343,0,286.376,0.0,-1158.68,0
GRID,11344,0,285.4595,0.0,-1161.69,0
GRID,11345,0,284.5139,0.0,-1164.69,0
GRID,11346,0,283.5393,0.0,-1167.68,0
GRID,11347,0,282.5358,0.0,-1170.66,0
GRID,11348,0,281.5034,0.0,-1173.63,0
GRID,11349,0,280.4423,0.0,-1176.59,0
GRID,11350,0,279.3525,0.0,-1179.54,0
GRID,11351,0,278.2342,0.0,-1182.48,0
GRID,11352,0,277.0874,0.0,-1185.4,0
GRID,11353,0,275.9122,0.0,-1188.32,0
GRID,11354,0,274.7089,0.0,-1191.23,0
GRID,11355,0,273.4774,0.0,-1194.12,0
GRID,11356,0,272.218,0.0,-1197.0,0
GRID,11357,0,270.9307,0.0,-1199.87,0
GRID,11358,0,269.6156,0.0,-1202.73,0
GRID,11359,0,268.2729,0.0,-1205.57,0
GRID,11360,0,266.9026,0.0,-1208.4,0
GRID,11361,0,265.505,0.0,-1211.22,0
GRID,11362,0,264.0802,0.0,-1214.02,0
GRID,11363,0,262.6282,0.0,-1216.81,0
GRID,11364,0,261.1493,0.0,-1219.58,0
GRID,11365,0,259.6435,0.0,-1222.34,0
GRID,11366,0,258.111,0.0,-1225.09,0
GRID,11367,0,256.552,0.0,-1227.82,0
GRID,11368,0,254.9666,0.0,-1230.54,0
GRID,11369,0,253.3549,0.0,-1233.24,0
GRID,11370,0,251.7171,0.0,-1235.92,0
GRID,11371,0,250.0533,0.0,-1238.59,0
GRID,11372,0,248.3638,0.0,-1241.24,0
GRID,11373,0,246.6486,0.0,-1243.88,0
GRID,11374,0,244.908,0.0,-1246.5,0
GRID,11375,0,243.1421,0.0,-1249.1,0
GRID,11376,0,241.351,0.0,-1251.68,0
GRID,11377,0,239.5349,0.0,-1254.25,0
GRID,11378,0,237.694,0.0,-1256.8,0
GRID,11379,0,235.8285,0.0,-1259.33,0
GRID,11380,0,233.9385,0.0,-1261.84,0
GRID,11381,0,232.0243,0.0,-1264.34,0
GRID,11382,0,230.0859,0.0,-1266.81,0
GRID,11383,0,228.1237,0.0,-1269.27,0
GRID,11384,0,226.1377,0.0,-1271.71,0
GRID,11385,0,224.1282,0.0,-1274.13,0
GRID,11386,0,222.0953,0.0,-1276.53,0
GRID,11387,0,220.0391,0.0,-1278.9,0
GRID,11388,0,217.9599,0.0,-1281.26,0
GRID,11389,0,215.858,0.0,-1283.6,0
GRID,11390,0,213.7335,0.0,-1285.92,0
GRID,11391,0,211.5867,0.0,-1288.22,0
GRID,11392,0,209.4179,0.0,-1290.5,0
GRID,11393,0,207.2271,0.0,-1292.75,0
GRID,11394,0,300.0,0.0,-1053.13,0
GRID,11395,0,300.0,0.0,-1056.27,0
GRID,11396,0,300.0,0.0,-1059.4,0
GRID,11397,0,300.0,0.0,-1062.54,0
GRID,11398,0,304.7773,0.0,-1443.12,0
GRID,11399,0,307.8871,0.0,-1440.01,0
GRID,11400,0,310.9969,0.0,-1436.9,0
GRID,11401,0,314.1067,0.0,-1433.79,0
GRID,11402,0,317.2165,0.0,-1430.68,0
GRID,11403,0,323.5022,0.0,-1424.35,0
GRID,11404,0,326.6293,0.0,-1421.08,0
GRID,11405,0,329.7068,0.0,-1417.76,0
GRID,11406,0,332.734,0.0,-1414.39,0
GRID,11407,0,335.7099,0.0,-1410.98,0
GRID,11408,0,338.6339,0.0,-1407.53,0
GRID,11409,0,341.5053,0.0,-1404.03,0
GRID,11410,0,344.3235,0.0,-1400.49,0
GRID,11411,0,347.088,0.0,-1396.9,0
GRID,11412,0,349.798,0.0,-1393.28,0
GRID,11413,0,352.4529,0.0,-1389.61,0
GRID,11414,0,355.0522,0.0,-1385.91,0
GRID,11415,0,357.5951,0.0,-1382.16,0
GRID,11416,0,360.0813,0.0,-1378.38,0
GRID,11417,0,362.51,0.0,-1374.56,0
GRID,11418,0,364.8808,0.0,-1370.71,0
GRID,11419,0,367.1931,0.0,-1366.81,0
GRID,11420,0,369.4463,0.0,-1362.89,0
GRID,11421,0,371.64,0.0,-1358.93,0
GRID,11422,0,373.7737,0.0,-1354.94,0
GRID,11423,0,375.8468,0.0,-1350.91,0
GRID,11424,0,377.8589,0.0,-1346.86,0
GRID,11425,0,379.8096,0.0,-1342.78,0
GRID,11426,0,381.6983,0.0,-1338.66,0
GRID,11427,0,383.5247,0.0,-1334.52,0
GRID,11428,0,385.2883,0.0,-1330.35,0
GRID,11429,0,386.9888,0.0,-1326.16,0
GRID,11430,0,388.6258,0.0,-1321.94,0
GRID,11431,0,390.1988,0.0,-1317.69,0
GRID,11432,0,391.7075,0.0,-1313.43,0
GRID,11433,0,393.1516,0.0,-1309.14,0
GRID,11434,0,394.5308,0.0,-1304.83,0
GRID,11435,0,395.8447,0.0,-1300.49,0
GRID,11436,0,397.0931,0.0,-1296.14,0
GRID,11437,0,398.2755,0.0,-1291.77,0
GRID,11438,0,399.3919,0.0,-1287.39,0
GRID,11439,0,400.4418,0.0,-1282.99,0
GRID,11440,0,401.4252,0.0,-1278.57,0
GRID,11441,0,402.3417,0.0,-1274.13,0
GRID,11442,0,403.1912,0.0,-1269.69,0
GRID,11443,0,403.9735,0.0,-1265.23,0
GRID,11444,0,404.6883,0.0,-1260.76,0
GRID,11445,0,405.3355,0.0,-1256.28,0
GRID,11446,0,405.915,0.0,-1251.79,0
GRID,11447,0,406.4266,0.0,-1247.3,0
GRID,11448,0,406.8703,0.0,-1242.79,0
GRID,11449,0,407.2458,0.0,-1238.28,0
GRID,11450,0,407.5529,0.0,-1233.76,0
GRID,11451,0,407.7918,0.0,-1229.24,0
GRID,11452,0,407.9626,0.0,-1224.72,0
GRID,11453,0,408.0653,0.0,-1220.2,0
GRID,11454,0,408.1,0.0,-1211.07,0
GRID,11455,0,408.1,0.0,-1206.47,0
GRID,11456,0,408.1,0.0,-1201.86,0
GRID,11457,0,408.1,0.0,-1197.26,0
GRID,11458,0,408.1,0.0,-1192.66,0
GRID,11459,0,408.1,0.0,-1188.06,0
GRID,11460,0,408.1,0.0,-1183.46,0
GRID,11461,0,408.1,0.0,-1178.85,0
GRID,11462,0,408.1,0.0,-1174.25,0
GRID,11463,0,408.1,0.0,-1169.65,0
GRID,11464,0,408.1,0.0,-1165.05,0
GRID,11465,0,408.1,0.0,-1160.45,0
GRID,11466,0,408.1,0.0,-1155.85,0
GRID,11467,0,408.1,0.0,-1151.24,0
GRID,11468,0,408.1,0.0,-1146.64,0
GRID,11469,0,408.1,0.0,-1142.04,0
GRID,11470,0,408.1,0.0,-1137.44,0
GRID,11471,0,408.1,0.0,-1132.84,0
GRID,11472,0,408.1,0.0,-1128.23,0
GRID,11473,0,408.1,0.0,-1123.63,0
GRID,11474,0,408.1,0.0,-1119.03,0
GRID,11475,0,408.1,0.0,-1114.43,0
GRID,11476,0,408.1,0.0,-1109.83,0
GRID,11477,0,408.1,0.0,-1105.22,0
GRID,11478,0,408.1,0.0,-1100.62,0
GRID,11479,0,408.1,0.0,-1096.02,0
GRID,11480,0,408.1,0.0,-1091.42,0
GRID,11481,0,408.1,0.0,-1086.82,0
GRID,11482,0,408.1,0.0,-1082.21,0
GRID,11483,0,408.1,0.0,-1077.61,0
GRID,11484,0,408.1,0.0,-1073.01,0
GRID,11485,0,408.1,0.0,-1068.41,0
GRID,11486,0,408.1,0.0,-1063.81,0
GRID,11487,0,408.1,0.0,-1059.2,0
GRID,11488,0,408.1,0.0,-1054.6,0
GRID,11489,0,300.0,0.0,-5.0,0
GRID,11490,0,300.0,0.0,-10.0,0
GRID,11491,0,300.0,0.0,-15.0,0
GRID,11492,0,300.0,0.0,-20.0,0
GRID,11493,0,300.0,0.0,-25.0,0
GRID,11494,0,300.0,0.0,-30.0,0
GRID,11495,0,300.0,0.0,-35.0,0
GRID,11496,0,300.0,0.0,-40.0,0
GRID,11497,0,300.0,0.0,-45.0,0
GRID,11498,0,300.0,0.0,-50.0,0
GRID,11499,0,300.0,0.0,-55.0,0
GRID,11500,0,300.0,0.0,-60.0,0
GRID,11501,0,300.0,0.0,-65.0,0
GRID,11502,0,300.0,0.0,-70.0,0
GRID,11503,0,300.0,0.0,-75.0,0
GRID,11504,0,300.0,0.0,-80.0,0
GRID,11505,0,300.0,0.0,-85.0,0
GRID,11506,0,300.0,0.0,-90.0,0
GRID,11507,0,300.0,0.0,-95.0,0
GRID,11508,0,300.0,0.0,-100.0,0
GRID,11509,0,300.0,0.0,-105.0,0
GRID,11510,0,300.0,0.0,-110.0,0
GRID,11511,0,300.0,0.0,-115.0,0
GRID,11512,0,300.0,0.0,-120.0,0
GRID,11513,0,300.0,0.0,-125.0,0
GRID,11514,0,300.0,0.0,-130.0,0
GRID,11515,0,300.0,0.0,-135.0,0
GRID,11516,0,300.0,0.0,-140.0,0
GRID,11517,0,300.0,0.0,-145.0,0
GRID,11518,0,300.0,0.0,-150.0,0
GRID,11519,0,300.0,0.0,-155.0,0
GRID,11520,0,300.0,0.0,-160.0,0
GRID,11521,0,300.0,0.0,-165.0,0
GRID,11522,0,300.0,0.0,-170.0,0
GRID,11523,0,300.0,0.0,-175.0,0
GRID,11524,0,300.0,0.0,-180.0,0
GRID,11525,0,300.0,0.0,-185.0,0
GRID,11526,0,300.0,0.0,-190.0,0
GRID,11527,0,300.0,0.0,-195.0,0
GRID,11528,0,300.0,0.0,-200.0,0
GRID,11529,0,300.0,0.0,-205.0,0
GRID,11530,0,300.0,0.0,-210.0,0
GRID,11531,0,300.0,0.0,-215.0,0
GRID,11532,0,300.0,0.0,-220.0,0
GRID,11533,0,300.0,0.0,-225.0,0
GRID,11534,0,300.0,0.0,-230.0,0
GRID,11535,0,300.0,0.0,-235.0,0
GRID,11536,0,300.0,0.0,-240.0,0
GRID,11537,0,300.0,0.0,-245.0,0
GRID,11538,0,300.0,0.0,-250.0,0
GRID,11539,0,300.0,0.0,-255.0,0
GRID,11540,0,300.0,0.0,-260.0,0
GRID,11541,0,300.0,0.0,-265.0,0
GRID,11542,0,300.0,0.0,-270.0,0
GRID,11543,0,300.0,0.0,-275.0,0
GRID,11544,0,300.0,0.0,-280.0,0
GRID,11545,0,300.0,0.0,-285.0,0
GRID,11546,0,300.0,0.0,-290.0,0
GRID,11547,0,300.0,0.0,-295.0,0
GRID,11548,0,300.0,0.0,-300.0,0
GRID,11549,0,300.0,0.0,-305.0,0
GRID,11550,0,300.0,0.0,-310.0,0
GRID,11551,0,300.0,0.0,-315.0,0
GRID,11552,0,300.0,0.0,-320.0,0
GRID,11553,0,300.0,0.0,-325.0,0
GRID,11554,0,300.0,0.0,-330.0,0
GRID,11555,0,300.0,0.0,-335.0,0
GRID,11556,0,300.0,0.0,-340.0,0
GRID,11557,0,300.0,0.0,-345.0,0
GRID,11558,0,300.0,0.0,-350.0,0
GRID,11559,0,300.0,0.0,-355.0,0
GRID,11560,0,300.0,0.0,-360.0,0
GRID,11561,0,300.0,0.0,-365.0,0
GRID,11562,0,300.0,0.0,-370.0,0
GRID,11563,0,300.0,0.0,-375.0,0
GRID,11564,0,300.0,0.0,-380.0,0
GRID,11565,0,300.0,0.0,-385.0,0
GRID,11566,0,300.0,0.0,-390.0,0
GRID,11567,0,300.0,0.0,-395.0,0
GRID,11568,0,300.0,0.0,-400.0,0
GRID,11569,0,300.0,0.0,-405.0,0
GRID,11570,0,300.0,0.0,-410.0,0
GRID,11571,0,300.0,0.0,-415.0,0
GRID,11572,0,300.0,0.0,-420.0,0
GRID,11573,0,300.0,0.0,-425.0,0
GRID,11574,0,300.0,0.0,-430.0,0
GRID,11575,0,300.0,0.0,-435.0,0
GRID,11576,0,300.0,0.0,-440.0,0
GRID,11577,0,300.0,0.0,-445.0,0
GRID,11578,0,300.0,0.0,-450.0,0
GRID,11579,0,300.0,0.0,-455.0,0
GRID,11580,0,300.0,0.0,-460.0,0
GRID,11581,0,300.0,0.0,-465.0,0
GRID,11582,0,300.0,0.0,-470.0,0
GRID,11583,0,300.0,0.0,-475.0,0
GRID,11584,0,300.0,0.0,-480.0,0
GRID,11585,0,300.0,0.0,-485.0,0
GRID,11586,0,300.0,0.0,-490.0,0
GRID,11587,0,300.0,0.0,-495.0,0
GRID,11588,0,300.0,0.0,-500.0,0
GRID,11589,0,300.0,0.0,-505.0,0
GRID,11590,0,300.0,0.0,-510.0,0
GRID,11591,0,300.0,0.0,-515.0,0
GRID,11592,0,300.0,0.0,-520.0,0
GRID,11593,0,300.0,0.0,-525.0,0
GRID,11594,0,300.0,0.0,-530.0,0
GRID,11595,0,300.0,0.0,-535.0,0
GRID,11596,0,300.0,0.0,-540.0,0
GRID,11597,0,300.0,0.0,-545.0,0
GRID,11598,0,300.0,0.0,-550.0,0
GRID,11599,0,300.0,0.0,-555.0,0
GRID,11600,0,300.0,0.0,-560.0,0
GRID,11601,0,300.0,0.0,-565.0,0
GRID,11602,0,300.0,0.0,-570.0,0
GRID,11603,0,300.0,0.0,-575.0,0
GRID,11604,0,300.0,0.0,-580.0,0
GRID,11605,0,300.0,0.0,-585.0,0
GRID,11606,0,300.0,0.0,-590.0,0
GRID,11607,0,300.0,0.0,-595.0,0
GRID,11608,0,300.0,0.0,-600.0,0
GRID,11609,0,300.0,0.0,-605.0,0
GRID,11610,0,300.0,0.0,-610.0,0
GRID,11611,0,300.0,0.0,-615.0,0
GRID,11612,0,300.0,0.0,-620.0,0
GRID,11613,0,300.0,0.0,-625.0,0
GRID,11614,0,300.0,0.0,-630.0,0
GRID,11615,0,300.0,0.0,-635.0,0
GRID,11616,0,300.0,0.0,-640.0,0
GRID,11617,0,300.0,0.0,-645.0,0
GRID,11618,0,300.0,0.0,-650.0,0
GRID,11619,0,300.0,0.0,-655.0,0
GRID,11620,0,300.0,0.0,-660.0,0
GRID,11621,0,300.0,0.0,-665.0,0
GRID,11622,0,300.0,0.0,-670.0,0
GRID,11623,0,300.0,0.0,-675.0,0
GRID,11624,0,300.0,0.0,-680.0,0
GRID,11625,0,300.0,0.0,-685.0,0
GRID,11626,0,300.0,0.0,-690.0,0
GRID,11627,0,300.0,0.0,-695.0,0
GRID,11628,0,300.0,0.0,-700.0,0
GRID,11629,0,300.0,0.0,-705.0,0
GRID,11630,0,300.0,0.0,-710.0,0
GRID,11631,0,300.0,0.0,-715.0,0
GRID,11632,0,300.0,0.0,-720.0,0
GRID,11633,0,300.0,0.0,-725.0,0
GRID,11634,0,300.0,0.0,-730.0,0
GRID,11635,0,300.0,0.0,-735.0,0
GRID,11636,0,300.0,0.0,-740.0,0
GRID,11637,0,300.0,0.0,-745.0,0
GRID,11638,0,300.0,0.0,-750.0,0
GRID,11639,0,300.0,0.0,-755.0,0
GRID,11640,0,300.0,0.0,-760.0,0
GRID,11641,0,300.0,0.0,-765.0,0
GRID,11642,0,300.0,0.0,-770.0,0
GRID,11643,0,300.0,0.0,-775.0,0
GRID,11644,0,300.0,0.0,-780.0,0
GRID,11645,0,300.0,0.0,-785.0,0
GRID,11646,0,300.0,0.0,-790.0,0
GRID,11647,0,300.0,0.0,-795.0,0
GRID,11648,0,300.0,0.0,-800.0,0
GRID,11649,0,300.0,0.0,-805.0,0
GRID,11650,0,300.0,0.0,-810.0,0
GRID,11651,0,300.0,0.0,-815.0,0
GRID,11652,0,300.0,0.0,-820.0,0
GRID,11653,0,300.0,0.0,-825.0,0
GRID,11654,0,300.0,0.0,-830.0,0
GRID,11655,0,300.0,0.0,-835.0,0
GRID,11656,0,300.0,0.0,-840.0,0
GRID,11657,0,300.0,0.0,-845.0,0
GRID,11658,0,300.0,0.0,-850.0,0
GRID,11659,0,300.0,0.0,-855.0,0
GRID,11660,0,300.0,0.0,-860.0,0
GRID,11661,0,300.0,0.0,-865.0,0
GRID,11662,0,300.0,0.0,-870.0,0
GRID,11663,0,300.0,0.0,-875.0,0
GRID,11664,0,300.0,0.0,-880.0,0
GRID,11665,0,300.0,0.0,-885.0,0
GRID,11666,0,300.0,0.0,-890.0,0
GRID,11667,0,300.0,0.0,-895.0,0
GRID,11668,0,300.0,0.0,-900.0,0
GRID,11669,0,300.0,0.0,-905.0,0
GRID,11670,0,300.0,0.0,-910.0,0
GRID,11671,0,300.0,0.0,-915.0,0
GRID,11672,0,300.0,0.0,-920.0,0
GRID,11673,0,300.0,0.0,-925.0,0
GRID,11674,0,300.0,0.0,-930.0,0
GRID,11675,0,300.0,0.0,-935.0,0
GRID,11676,0,300.0,0.0,-940.0,0
GRID,11677,0,300.0,0.0,-945.0,0
GRID,11678,0,300.0,0.0,-950.0,0
GRID,11679,0,300.0,0.0,-955.0,0
GRID,11680,0,300.0,0.0,-960.0,0
GRID,11681,0,300.0,0.0,-965.0,0
GRID,11682,0,300.0,0.0,-970.0,0
GRID,11683,0,300.0,0.0,-975.0,0
GRID,11684,0,300.0,0.0,-980.0,0
GRID,11685,0,300.0,0.0,-985.0,0
GRID,11686,0,300.0,0.0,-990.0,0
GRID,11687,0,300.0,0.0,-995.0,0
GRID,11688,0,300.0,0.0,-1000.0,0
GRID,11689,0,300.0,0.0,-1005.0,0
GRID,11690,0,300.0,0.0,-1010.0,0
GRID,11691,0,300.0,0.0,-1015.0,0
GRID,11692,0,300.0,0.0,-1020.0,0
GRID,11693,0,300.0,0.0,-1025.0,0
GRID,11694,0,300.0,0.0,-1030.0,0
GRID,11695,0,300.0,0.0,-1035.0,0
GRID,11696,0,300.0,0.0,-1040.0,0
GRID,11697,0,300.0,0.0,-1045.0,0
GRID,11698,0,306.7563,0.0,-1050.0,0
GRID,11699,0,313.5125,0.0,-1050.0,0
GRID,11700,0,320.2688,0.0,-1050.0,0
GRID,11701,0,327.025,0.0,-1050.0,0
GRID,11702,0,333.7813,0.0,-1050.0,0
GRID,11703,0,340.5375,0.0,-1050.0,0
GRID,11704,0,347.2938,0.0,-1050.0,0
GRID,11705,0,354.05,0.0,-1050.0,0
GRID,11706,0,360.8063,0.0,-1050.0,0
GRID,11707,0,367.5625,0.0,-1050.0,0
GRID,11708,0,374.3188,0.0,-1050.0,0
GRID,11709,0,381.075,0.0,-1050.0,0
GRID,11710,0,387.8313,0.0,-1050.0,0
GRID,11711,0,394.5875,0.0,-1050.0,0
GRID,11712,0,401.3438,0.0,-1050.0,0
GRID,11713,0,408.1,0.0,-1045.0,0
GRID,11714,0,408.1,0.0,-1040.0,0
GRID,11715,0,408.1,0.0,-1035.0,0
GRID,11716,0,408.1,0.0,-1030.0,0
GRID,11717,0,408.1,0.0,-1025.0,0
GRID,11718,0,408.1,0.0,-1020.0,0
GRID,11719,0,408.1,0.0,-1015.0,0
GRID,11720,0,408.1,0.0,-1010.0,0
GRID,11721,0,408.1,0.0,-1005.0,0
GRID,11722,0,408.1,0.0,-1000.0,0
GRID,11723,0,408.1,0.0,-995.0,0
GRID,11724,0,408.1,0.0,-990.0,0
GRID,11725,0,408.1,0.0,-985.0,0
GRID,11726,0,408.1,0.0,-980.0,0
GRID,11727,0,408.1,0.0,-975.0,0
GRID,11728,0,408.1,0.0,-970.0,0
GRID,11729,0,408.1,0.0,-965.0,0
GRID,11730,0,408.1,0.0,-960.0,0
GRID,11731,0,408.1,0.0,-955.0,0
GRID,11732,0,408.1,0.0,-950.0,0
GRID,11733,0,408.1,0.0,-945.0,0
GRID,11734,0,408.1,0.0,-940.0,0
GRID,11735,0,408.1,0.0,-935.0,0
GRID,11736,0,408.1,0.0,-930.0,0
GRID,11737,0,408.1,0.0,-925.0,0
GRID,11738,0,408.1,0.0,-920.0,0
GRID,11739,0,408.1,0.0,-915.0,0
GRID,11740,0,408.1,0.0,-910.0,0
GRID,11741,0,408.1,0.0,-905.0,0
GRID,11742,0,408.1,0.0,-900.0,0
GRID,11743,0,408.1,0.0,-895.0,0
GRID,11744,0,408.1,0.0,-890.0,0
GRID,11745,0,408.1,0.0,-885.0,0
GRID,11746,0,408.1,0.0,-880.0,0
GRID,11747,0,408.1,0.0,-875.0,0
GRID,11748,0,408.1,0.0,-870.0,0
GRID,11749,0,408.1,0.0,-865.0,0
GRID,11750,0,408.1,0.0,-860.0,0
GRID,11751,0,408.1,0.0,-855.0,0
GRID,11752,0,408.1,0.0,-850.0,0
GRID,11753,0,408.1,0.0,-845.0,0
GRID,11754,0,408.1,0.0,-840.0,0
GRID,11755,0,408.1,0.0,-835.0,0
GRID,11756,0,408.1,0.0,-830.0,0
GRID,11757,0,408.1,0.0,-825.0,0
GRID,11758,0,408.1,0.0,-820.0,0
GRID,11759,0,408.1,0.0,-815.0,0
GRID,11760,0,408.1,0.0,-810.0,0
GRID,11761,0,408.1,0.0,-805.0,0
GRID,11762,0,408.1,0.0,-800.0,0
GRID,11763,0,408.1,0.0,-795.0,0
GRID,11764,0,408.1,0.0,-790.0,0
GRID,11765,0,408.1,0.0,-785.0,0
GRID,11766,0,408.1,0.0,-780.0,0
GRID,11767,0,408.1,0.0,-775.0,0
GRID,11768,0,408.1,0.0,-770.0,0
GRID,11769,0,408.1,0.0,-765.0,0
GRID,11770,0,408.1,0.0,-760.0,0
GRID,11771,0,408.1,0.0,-755.0,0
GRID,11772,0,408.1,0.0,-750.0,0
GRID,11773,0,408.1,0.0,-745.0,0
GRID,11774,0,408.1,0.0,-740.0,0
GRID,11775,0,408.1,0.0,-735.0,0
GRID,11776,0,408.1,0.0,-730.0,0
GRID,11777,0,408.1,0.0,-725.0,0
GRID,11778,0,408.1,0.0,-720.0,0
GRID,11779,0,408.1,0.0,-715.0,0
GRID,11780,0,408.1,0.0,-710.0,0
GRID,11781,0,408.1,0.0,-705.0,0
GRID,11782,0,408.1,0.0,-700.0,0
GRID,11783,0,408.1,0.0,-695.0,0
GRID,11784,0,408.1,0.0,-690.0,0
GRID,11785,0,408.1,0.0,-685.0,0
GRID,11786,0,408.1,0.0,-680.0,0
GRID,11787,0,408.1,0.0,-675.0,0
GRID,11788,0,408.1,0.0,-670.0,0
GRID,11789,0,408.1,0.0,-665.0,0
GRID,11790,0,408.1,0.0,-660.0,0
GRID,11791,0,408.1,0.0,-655.0,0
GRID,11792,0,408.1,0.0,-650.0,0
GRID,11793,0,408.1,0.0,-645.0,0
GRID,11794,0,408.1,0.0,-640.0,0
GRID,11795,0,408.1,0.0,-635.0,0
GRID,11796,0,408.1,0.0,-630.0,0
GRID,11797,0,408.1,0.0,-625.0,0
GRID,11798,0,408.1,0.0,-620.0,0
GRID,11799,0,408.1,0.0,-615.0,0
GRID,11800,0,408.1,0.0,-610.0,0
GRID,11801,0,408.1,0.0,-605.0,0
GRID,11802,0,408.1,0.0,-600.0,0
GRID,11803,0,408.1,0.0,-595.0,0
GRID,11804,0,408.1,0.0,-590.0,0
GRID,11805,0,408.1,0.0,-585.0,0
GRID,11806,0,408.1,0.0,-580.0,0
GRID,11807,0,408.1,0.0,-575.0,0
GRID,11808,0,408.1,0.0,-570.0,0
GRID,11809,0,408.1,0.0,-565.0,0
GRID,11810,0,408.1,0.0,-560.0,0
GRID,11811,0,408.1,0.0,-555.0,0
GRID,11812,0,408.1,0.0,-550.0,0
GRID,11813,0,408.1,0.0,-545.0,0
GRID,11814,0,408.1,0.0,-540.0,0
GRID,11815,0,408.1,0.0,-535.0,0
GRID,11816,0,408.1,0.0,-530.0,0
GRID,11817,0,408.1,0.0,-525.0,0
GRID,11818,0,408.1,0.0,-520.0,0
GRID,11819,0,408.1,0.0,-515.0,0
GRID,11820,0,408.1,0.0,-510.0,0
GRID,11821,0,408.1,0.0,-505.0,0
GRID,11822,0,408.1,0.0,-500.0,0
GRID,11823,0,408.1,0.0,-495.0,0
GRID,11824,0,408.1,0.0,-490.0,0
GRID,11825,0,408.1,0.0,-485.0,0
GRID,11826,0,408.1,0.0,-480.0,0
GRID,11827,0,408.1,0.0,-475.0,0
GRID,11828,0,408.1,0.0,-470.0,0
GRID,11829,0,408.1,0.0,-465.0,0
GRID,11830,0,408.1,0.0,-460.0,0
GRID,11831,0,408.1,0.0,-455.0,0
GRID,11832,0,408.1,0.0,-450.0,0
GRID,11833,0,408.1,0.0,-445.0,0
GRID,11834,0,408.1,0.0,-440.0,0
GRID,11835,0,408.1,0.0,-435.0,0
GRID,11836,0,408.1,0.0,-430.0,0
GRID,11837,0,408.1,0.0,-425.0,0
GRID,11838,0,408.1,0.0,-420.0,0
GRID,11839,0,408.1,0.0,-415.0,0
GRID,11840,0,408.1,0.0,-410.0,0
GRID,11841,0,408.1,0.0,-405.0,0
GRID,11842,0,408.1,0.0,-400.0,0
GRID,11843,0,408.1,0.0,-395.0,0
GRID,11844,0,408.1,0.0,-390.0,0
GRID,11845,0,408.1,0.0,-385.0,0
GRID,11846,0,408.1,0.0,-380.0,0
GRID,11847,0,408.1,0.0,-375.0,0
GRID,11848,0,408.1,0.0,-370.0,0
GRID,11849,0,408.1,0.0,-365.0,0
GRID,11850,0,408.1,0.0,-360.0,0
GRID,11851,0,408.1,0.0,-355.0,0
GRID,11852,0,408.1,0.0,-350.0,0
GRID,11853,0,408.1,0.0,-345.0,0
GRID,11854,0,408.1,0.0,-340.0,0
GRID,11855,0,408.1,0.0,-335.0,0
GRID,11856,0,408.1,0.0,-330.0,0
GRID,11857,0,408.1,0.0,-325.0,0
GRID,11858,0,408.1,0.0,-320.0,0
GRID,11859,0,408.1,0.0,-315.0,0
GRID,11860,0,408.1,0.0,-310.0,0
GRID,11861,0,408.1,0.0,-305.0,0
GRID,11862,0,408.1,0.0,-300.0,0
GRID,11863,0,408.1,0.0,-295.0,0
GRID,11864,0,408.1,0.0,-290.0,0
GRID,11865,0,408.1,0.0,-285.0,0
GRID,11866,0,408.1,0.0,-280.0,0
GRID,11867,0,408.1,0.0,-275.0,0
GRID,11868,0,408.1,0.0,-270.0,0
GRID,11869,0,408.1,0.0,-265.0,0
GRID,11870,0,408.1,0.0,-260.0,0
GRID,11871,0,408.1,0.0,-255.0,0
GRID,11872,0,408.1,0.0,-250.0,0
GRID,11873,0,408.1,0.0,-245.0,0
GRID,11874,0,408.1,0.0,-240.0,0
GRID,11875,0,408.1,0.0,-235.0,0
GRID,11876,0,408.1,0.0,-230.0,0
GRID,11877,0,408.1,0.0,-225.0,0
GRID,11878,0,408.1,0.0,-220.0,0
GRID,11879,0,408.1,0.0,-215.0,0
GRID,11880,0,408.1,0.0,-210.0,0
GRID,11881,0,408.1,0.0,-205.0,0
GRID,11882,0,408.1,0.0,-200.0,0
GRID,11883,0,408.1,0.0,-195.0,0
GRID,11884,0,408.1,0.0,-190.0,0
GRID,11885,0,408.1,0.0,-185.0,0
GRID,11886,0,408.1,0.0,-180.0,0
GRID,11887,0,408.1,0.0,-175.0,0
GRID,11888,0,408.1,0.0,-170.0,0
GRID,11889,0,408.1,0.0,-165.0,0
GRID,11890,0,408.1,0.0,-160.0,0
GRID,11891,0,408.1,0.0,-155.0,0
GRID,11892,0,408.1,0.0,-150.0,0
GRID,11893,0,408.1,0.0,-145.0,0
GRID,11894,0,408.1,0.0,-140.0,0
GRID,11895,0,408.1,0.0,-135.0,0
GRID,11896,0,408.1,0.0,-130.0,0
GRID,11897,0,408.1,0.0,-125.0,0
GRID,11898,0,408.1,0.0,-120.0,0
GRID,11899,0,408.1,0.0,-115.0,0
GRID,11900,0,408.1,0.0,-110.0,0
GRID,11901,0,408.1,0.0,-105.0,0
GRID,11902,0,408.1,0.0,-100.0,0
GRID,11903,0,408.1,0.0,-95.0,0
GRID,11904,0,408.1,0.0,-90.0,0
GRID,11905,0,408.1,0.0,-85.0,0
GRID,11906,0,408.1,0.0,-80.0,0
GRID,11907,0,408.1,0.0,-75.0,0
GRID,11908,0,408.1,0.0,-70.0,0
GRID,11909,0,408.1,0.0,-65.0,0
GRID,11910,0,408.1,0.0,-60.0,0
GRID,11911,0,408.1,0.0,-55.0,0
GRID,11912,0,408.1,0.0,-50.0,0
GRID,11913,0,408.1,0.0,-45.0,0
GRID,11914,0,408.1,0.0,-40.0,0
GRID,11915,0,408.1,0.0,-35.0,0
GRID,11916,0,408.1,0.0,-30.0,0
GRID,11917,0,408.1,0.0,-25.0,0
GRID,11918,0,408.1,0.0,-20.0,0
GRID,11919,0,408.1,0.0,-15.0,0
GRID,11920,0,408.1,0.0,-10.0,0
GRID,11921,0,408.1,0.0,-5.0,0
GRID,11922,0,.1,0.0,408.1,0
GRID,11923,0,.1,0.0,300.0,0
GRID,11924,0,300.0,0.0,0.0,0
GRID,11925,0,408.1,0.0,5.0E-14,0
GRID,11926,0,407.79,0.0,0.0,0
GRID,11927,0,407.79,0.0,-1200.0,0
GRID,11928,0,486.89,0.0,-1200.0,0
GRID,11929,0,486.89,0.0,0.0,0
GRID,11930,0,.1,0.0,-1434.39,0
GRID,11931,0,.1,0.0,-1530.98,0
GRID,11932,0,112.4681,0.0,-1387.53,0
GRID,11933,0,205.0147,0.0,-1294.99,0
GRID,11934,0,301.6675,0.0,-1446.23,0
GRID,11935,0,300.0,0.0,-1065.67,0
GRID,11936,0,320.3263,0.0,-1427.57,0
GRID,11937,0,408.1,0.0,-1215.67,0
GRID,11938,0,300.0,0.0,-1050.0,0
GRID,11939,0,408.1,0.0,-1050.0,0
CQUADX4,1,1,1,16,17,2
CQUADX4,2,1,2,17,18,3
CQUADX4,3,1,3,18,19,4
CQUADX4,4,1,4,19,20,5
CQUADX4,5,1,5,20,21,6
CQUADX4,6,1,6,21,22,7
CQUADX4,7,1,7,22,23,8
CQUADX4,8,1,8,23,24,9
CQUADX4,9,1,9,24,25,10
CQUADX4,10,1,10,25,26,11
CQUADX4,11,1,11,26,27,12
CQUADX4,12,1,12,27,28,13
CQUADX4,13,1,13,28,29,14
CQUADX4,14,1,14,29,30,15
CQUADX4,15,1,16,31,32,17
CQUADX4,16,1,17,32,33,18
CQUADX4,17,1,18,33,34,19
CQUADX4,18,1,19,34,35,20
CQUADX4,19,1,20,35,36,21
CQUADX4,20,1,21,36,37,22
CQUADX4,21,1,22,37,38,23
CQUADX4,22,1,23,38,39,24
CQUADX4,23,1,24,39,40,25
CQUADX4,24,1,25,40,41,26
CQUADX4,25,1,26,41,42,27
CQUADX4,26,1,27,42,43,28
CQUADX4,27,1,28,43,44,29
CQUADX4,28,1,29,44,45,30
CQUADX4,29,1,31,46,47,32
CQUADX4,30,1,32,47,48,33
CQUADX4,31,1,33,48,49,34
CQUADX4,32,1,34,49,50,35
CQUADX4,33,1,35,50,51,36
CQUADX4,34,1,36,51,52,37
CQUADX4,35,1,37,52,53,38
CQUADX4,36,1,38,53,54,39
CQUADX4,37,1,39,54,55,40
CQUADX4,38,1,40,55,56,41
CQUADX4,39,1,41,56,57,42
CQUADX4,40,1,42,57,58,43
CQUADX4,41,1,43,58,59,44
CQUADX4,42,1,44,59,60,45
CQUADX4,43,1,46,61,62,47
CQUADX4,44,1,47,62,63,48
CQUADX4,45,1,48,63,64,49
CQUADX4,46,1,49,64,65,50
CQUADX4,47,1,50,65,66,51
CQUADX4,48,1,51,66,67,52
CQUADX4,49,1,52,67,68,53
CQUADX4,50,1,53,68,69,54
CQUADX4,51,1,54,69,70,55
CQUADX4,52,1,55,70,71,56
CQUADX4,53,1,56,71,72,57
CQUADX4,54,1,57,72,73,58
CQUADX4,55,1,58,73,74,59
CQUADX4,56,1,59,74,75,60
CQUADX4,57,1,61,76,77,62
CQUADX4,58,1,62,77,78,63
CQUADX4,59,1,63,78,79,64
CQUADX4,60,1,64,79,80,65
CQUADX4,61,1,65,80,81,66
CQUADX4,62,1,66,81,82,67
CQUADX4,63,1,67,82,83,68
CQUADX4,64,1,68,83,84,69
CQUADX4,65,1,69,84,85,70
CQUADX4,66,1,70,85,86,71
CQUADX4,67,1,71,86,87,72
CQUADX4,68,1,72,87,88,73
CQUADX4,69,1,73,88,89,74
CQUADX4,70,1,74,89,90,75
CQUADX4,71,1,76,91,92,77
CQUADX4,72,1,77,92,93,78
CQUADX4,73,1,78,93,94,79
CQUADX4,74,1,79,94,95,80
CQUADX4,75,1,80,95,96,81
CQUADX4,76,1,81,96,97,82
CQUADX4,77,1,82,97,98,83
CQUADX4,78,1,83,98,99,84
CQUADX4,79,1,84,99,100,85
CQUADX4,80,1,85,100,101,86
CQUADX4,81,1,86,101,102,87
CQUADX4,82,1,87,102,103,88
CQUADX4,83,1,88,103,104,89
CQUADX4,84,1,89,104,105,90
CQUADX4,85,1,91,106,107,92
CQUADX4,86,1,92,107,108,93
CQUADX4,87,1,93,108,109,94
CQUADX4,88,1,94,109,110,95
CQUADX4,89,1,95,110,111,96
CQUADX4,90,1,96,111,112,97
CQUADX4,91,1,97,112,113,98
CQUADX4,92,1,98,113,114,99
CQUADX4,93,1,99,114,115,100
CQUADX4,94,1,100,115,116,101
CQUADX4,95,1,101,116,117,102
CQUADX4,96,1,102,117,118,103
CQUADX4,97,1,103,118,119,104
CQUADX4,98,1,104,119,120,105
CQUADX4,99,1,106,121,122,107
CQUADX4,100,1,107,122,123,108
CQUADX4,101,1,108,123,124,109
CQUADX4,102,1,109,124,125,110
CQUADX4,103,1,110,125,126,111
CQUADX4,104,1,111,126,127,112
CQUADX4,105,1,112,127,128,113
CQUADX4,106,1,113,128,129,114
CQUADX4,107,1,114,129,130,115
CQUADX4,108,1,115,130,131,116
CQUADX4,109,1,116,131,132,117
CQUADX4,110,1,117,132,133,118
CQUADX4,111,1,118,133,134,119
CQUADX4,112,1,119,134,135,120
CQUADX4,113,1,121,136,137,122
CQUADX4,114,1,122,137,138,123
CQUADX4,115,1,123,138,139,124
CQUADX4,116,1,124,139,140,125
CQUADX4,117,1,125,140,141,126
CQUADX4,118,1,126,141,142,127
CQUADX4,119,1,127,142,143,128
CQUADX4,120,1,128,143,144,129
CQUADX4,121,1,129,144,145,130
CQUADX4,122,1,130,145,146,131
CQUADX4,123,1,131,146,147,132
CQUADX4,124,1,132,147,148,133
CQUADX4,125,1,133,148,149,134
CQUADX4,126,1,134,149,150,135
CQUADX4,127,1,136,151,152,137
CQUADX4,128,1,137,152,153,138
CQUADX4,129,1,138,153,154,139
CQUADX4,130,1,139,154,155,140
CQUADX4,131,1,140,155,156,141
CQUADX4,132,1,141,156,157,142
CQUADX4,133,1,142,157,158,143
CQUADX4,134,1,143,158,159,144
CQUADX4,135,1,144,159,160,145
CQUADX4,136,1,145,160,161,146
CQUADX4,137,1,146,161,162,147
CQUADX4,138,1,147,162,163,148
CQUADX4,139,1,148,163,164,149
CQUADX4,140,1,149,164,165,150
CQUADX4,141,1,151,166,167,152
CQUADX4,142,1,152,167,168,153
CQUADX4,143,1,153,168,169,154
CQUADX4,144,1,154,169,170,155
CQUADX4,145,1,155,170,171,156
CQUADX4,146,1,156,171,172,157
CQUADX4,147,1,157,172,173,158
CQUADX4,148,1,158,173,174,159
CQUADX4,149,1,159,174,175,160
CQUADX4,150,1,160,175,176,161
CQUADX4,151,1,161,176,177,162
CQUADX4,152,1,162,177,178,163
CQUADX4,153,1,163,178,179,164
CQUADX4,154,1,164,179,180,165
CQUADX4,155,1,166,181,182,167
CQUADX4,156,1,167,182,183,168
CQUADX4,157,1,168,183,184,169
CQUADX4,158,1,169,184,185,170
CQUADX4,159,1,170,185,186,171
CQUADX4,160,1,171,186,187,172
CQUADX4,161,1,172,187,188,173
CQUADX4,162,1,173,188,189,174
CQUADX4,163,1,174,189,190,175
CQUADX4,164,1,175,190,191,176
CQUADX4,165,1,176,191,192,177
CQUADX4,166,1,177,192,193,178
CQUADX4,167,1,178,193,194,179
CQUADX4,168,1,179,194,195,180
CQUADX4,169,1,181,196,197,182
CQUADX4,170,1,182,197,198,183
CQUADX4,171,1,183,198,199,184
CQUADX4,172,1,184,199,200,185
CQUADX4,173,1,185,200,201,186
CQUADX4,174,1,186,201,202,187
CQUADX4,175,1,187,202,203,188
CQUADX4,176,1,188,203,204,189
CQUADX4,177,1,189,204,205,190
CQUADX4,178,1,190,205,206,191
CQUADX4,179,1,191,206,207,192
CQUADX4,180,1,192,207,208,193
CQUADX4,181,1,193,208,209,194
CQUADX4,182,1,194,209,210,195
CQUADX4,183,1,196,211,212,197
CQUADX4,184,1,197,212,213,198
CQUADX4,185,1,198,213,214,199
CQUADX4,186,1,199,214,215,200
CQUADX4,187,1,200,215,216,201
CQUADX4,188,1,201,216,217,202
CQUADX4,189,1,202,217,218,203
CQUADX4,190,1,203,218,219,204
CQUADX4,191,1,204,219,220,205
CQUADX4,192,1,205,220,221,206
CQUADX4,193,1,206,221,222,207
CQUADX4,194,1,207,222,223,208
CQUADX4,195,1,208,223,224,209
CQUADX4,196,1,209,224,225,210
CQUADX4,197,1,211,226,227,212
CQUADX4,198,1,212,227,228,213
CQUADX4,199,1,213,228,229,214
CQUADX4,200,1,214,229,230,215
CQUADX4,201,1,215,230,231,216
CQUADX4,202,1,216,231,232,217
CQUADX4,203,1,217,232,233,218
CQUADX4,204,1,218,233,234,219
CQUADX4,205,1,219,234,235,220
CQUADX4,206,1,220,235,236,221
CQUADX4,207,1,221,236,237,222
CQUADX4,208,1,222,237,238,223
CQUADX4,209,1,223,238,239,224
CQUADX4,210,1,224,239,240,225
CQUADX4,211,1,226,241,242,227
CQUADX4,212,1,227,242,243,228
CQUADX4,213,1,228,243,244,229
CQUADX4,214,1,229,244,245,230
CQUADX4,215,1,230,245,246,231
CQUADX4,216,1,231,246,247,232
CQUADX4,217,1,232,247,248,233
CQUADX4,218,1,233,248,249,234
CQUADX4,219,1,234,249,250,235
CQUADX4,220,1,235,250,251,236
CQUADX4,221,1,236,251,252,237
CQUADX4,222,1,237,252,253,238
CQUADX4,223,1,238,253,254,239
CQUADX4,224,1,239,254,255,240
CQUADX4,225,1,241,256,257,242
CQUADX4,226,1,242,257,258,243
CQUADX4,227,1,243,258,259,244
CQUADX4,228,1,244,259,260,245
CQUADX4,229,1,245,260,261,246
CQUADX4,230,1,246,261,262,247
CQUADX4,231,1,247,262,263,248
CQUADX4,232,1,248,263,264,249
CQUADX4,233,1,249,264,265,250
CQUADX4,234,1,250,265,266,251
CQUADX4,235,1,251,266,267,252
CQUADX4,236,1,252,267,268,253
CQUADX4,237,1,253,268,269,254
CQUADX4,238,1,254,269,270,255
CQUADX4,239,1,256,271,272,257
CQUADX4,240,1,257,272,273,258
CQUADX4,241,1,258,273,274,259
CQUADX4,242,1,259,274,275,260
CQUADX4,243,1,260,275,276,261
CQUADX4,244,1,261,276,277,262
CQUADX4,245,1,262,277,278,263
CQUADX4,246,1,263,278,279,264
CQUADX4,247,1,264,279,280,265
CQUADX4,248,1,265,280,281,266
CQUADX4,249,1,266,281,282,267
CQUADX4,250,1,267,282,283,268
CQUADX4,251,1,268,283,284,269
CQUADX4,252,1,269,284,285,270
CQUADX4,253,1,271,286,287,272
CQUADX4,254,1,272,287,288,273
CQUADX4,255,1,273,288,289,274
CQUADX4,256,1,274,289,290,275
CQUADX4,257,1,275,290,291,276
CQUADX4,258,1,276,291,292,277
CQUADX4,259,1,277,292,293,278
CQUADX4,260,1,278,293,294,279
CQUADX4,261,1,279,294,295,280
CQUADX4,262,1,280,295,296,281
CQUADX4,263,1,281,296,297,282
CQUADX4,264,1,282,297,298,283
CQUADX4,265,1,283,298,299,284
CQUADX4,266,1,284,299,300,285
CQUADX4,267,1,286,301,302,287
CQUADX4,268,1,287,302,303,288
CQUADX4,269,1,288,303,304,289
CQUADX4,270,1,289,304,305,290
CQUADX4,271,1,290,305,306,291
CQUADX4,272,1,291,306,307,292
CQUADX4,273,1,292,307,308,293
CQUADX4,274,1,293,308,309,294
CQUADX4,275,1,294,309,310,295
CQUADX4,276,1,295,310,311,296
CQUADX4,277,1,296,311,312,297
CQUADX4,278,1,297,312,313,298
CQUADX4,279,1,298,313,314,299
CQUADX4,280,1,299,314,315,300
CQUADX4,281,1,301,316,317,302
CQUADX4,282,1,302,317,318,303
CQUADX4,283,1,303,318,319,304
CQUADX4,284,1,304,319,320,305
CQUADX4,285,1,305,320,321,306
CQUADX4,286,1,306,321,322,307
CQUADX4,287,1,307,322,323,308
CQUADX4,288,1,308,323,324,309
CQUADX4,289,1,309,324,325,310
CQUADX4,290,1,310,325,326,311
CQUADX4,291,1,311,326,327,312
CQUADX4,292,1,312,327,328,313
CQUADX4,293,1,313,328,329,314
CQUADX4,294,1,314,329,330,315
CQUADX4,295,1,316,331,332,317
CQUADX4,296,1,317,332,333,318
CQUADX4,297,1,318,333,334,319
CQUADX4,298,1,319,334,335,320
CQUADX4,299,1,320,335,336,321
CQUADX4,300,1,321,336,337,322
CQUADX4,301,1,322,337,338,323
CQUADX4,302,1,323,338,339,324
CQUADX4,303,1,324,339,340,325
CQUADX4,304,1,325,340,341,326
CQUADX4,305,1,326,341,342,327
CQUADX4,306,1,327,342,343,328
CQUADX4,307,1,328,343,344,329
CQUADX4,308,1,329,344,345,330
CQUADX4,309,1,331,346,347,332
CQUADX4,310,1,332,347,348,333
CQUADX4,311,1,333,348,349,334
CQUADX4,312,1,334,349,350,335
CQUADX4,313,1,335,350,351,336
CQUADX4,314,1,336,351,352,337
CQUADX4,315,1,337,352,353,338
CQUADX4,316,1,338,353,354,339
CQUADX4,317,1,339,354,355,340
CQUADX4,318,1,340,355,356,341
CQUADX4,319,1,341,356,357,342
CQUADX4,320,1,342,357,358,343
CQUADX4,321,1,343,358,359,344
CQUADX4,322,1,344,359,360,345
CQUADX4,323,1,346,361,362,347
CQUADX4,324,1,347,362,363,348
CQUADX4,325,1,348,363,364,349
CQUADX4,326,1,349,364,365,350
CQUADX4,327,1,350,365,366,351
CQUADX4,328,1,351,366,367,352
CQUADX4,329,1,352,367,368,353
CQUADX4,330,1,353,368,369,354
CQUADX4,331,1,354,369,370,355
CQUADX4,332,1,355,370,371,356
CQUADX4,333,1,356,371,372,357
CQUADX4,334,1,357,372,373,358
CQUADX4,335,1,358,373,374,359
CQUADX4,336,1,359,374,375,360
CQUADX4,337,1,361,376,377,362
CQUADX4,338,1,362,377,378,363
CQUADX4,339,1,363,378,379,364
CQUADX4,340,1,364,379,380,365
CQUADX4,341,1,365,380,381,366
CQUADX4,342,1,366,381,382,367
CQUADX4,343,1,367,382,383,368
CQUADX4,344,1,368,383,384,369
CQUADX4,345,1,369,384,385,370
CQUADX4,346,1,370,385,386,371
CQUADX4,347,1,371,386,387,372
CQUADX4,348,1,372,387,388,373
CQUADX4,349,1,373,388,389,374
CQUADX4,350,1,374,389,390,375
CQUADX4,351,1,376,391,392,377
CQUADX4,352,1,377,392,393,378
CQUADX4,353,1,378,393,394,379
CQUADX4,354,1,379,394,395,380
CQUADX4,355,1,380,395,396,381
CQUADX4,356,1,381,396,397,382
CQUADX4,357,1,382,397,398,383
CQUADX4,358,1,383,398,399,384
CQUADX4,359,1,384,399,400,385
CQUADX4,360,1,385,400,401,386
CQUADX4,361,1,386,401,402,387
CQUADX4,362,1,387,402,403,388
CQUADX4,363,1,388,403,404,389
CQUADX4,364,1,389,404,405,390
CQUADX4,365,1,391,406,407,392
CQUADX4,366,1,392,407,408,393
CQUADX4,367,1,393,408,409,394
CQUADX4,368,1,394,409,410,395
CQUADX4,369,1,395,410,411,396
CQUADX4,370,1,396,411,412,397
CQUADX4,371,1,397,412,413,398
CQUADX4,372,1,398,413,414,399
CQUADX4,373,1,399,414,415,400
CQUADX4,374,1,400,415,416,401
CQUADX4,375,1,401,416,417,402
CQUADX4,376,1,402,417,418,403
CQUADX4,377,1,403,418,419,404
CQUADX4,378,1,404,419,420,405
CQUADX4,379,1,406,421,422,407
CQUADX4,380,1,407,422,423,408
CQUADX4,381,1,408,423,424,409
CQUADX4,382,1,409,424,425,410
CQUADX4,383,1,410,425,426,411
CQUADX4,384,1,411,426,427,412
CQUADX4,385,1,412,427,428,413
CQUADX4,386,1,413,428,429,414
CQUADX4,387,1,414,429,430,415
CQUADX4,388,1,415,430,431,416
CQUADX4,389,1,416,431,432,417
CQUADX4,390,1,417,432,433,418
CQUADX4,391,1,418,433,434,419
CQUADX4,392,1,419,434,435,420
CQUADX4,393,1,421,436,437,422
CQUADX4,394,1,422,437,438,423
CQUADX4,395,1,423,438,439,424
CQUADX4,396,1,424,439,440,425
CQUADX4,397,1,425,440,441,426
CQUADX4,398,1,426,441,442,427
CQUADX4,399,1,427,442,443,428
CQUADX4,400,1,428,443,444,429
CQUADX4,401,1,429,444,445,430
CQUADX4,402,1,430,445,446,431
CQUADX4,403,1,431,446,447,432
CQUADX4,404,1,432,447,448,433
CQUADX4,405,1,433,448,449,434
CQUADX4,406,1,434,449,450,435
CQUADX4,407,1,436,451,452,437
CQUADX4,408,1,437,452,453,438
CQUADX4,409,1,438,453,454,439
CQUADX4,410,1,439,454,455,440
CQUADX4,411,1,440,455,456,441
CQUADX4,412,1,441,456,457,442
CQUADX4,413,1,442,457,458,443
CQUADX4,414,1,443,458,459,444
CQUADX4,415,1,444,459,460,445
CQUADX4,416,1,445,460,461,446
CQUADX4,417,1,446,461,462,447
CQUADX4,418,1,447,462,463,448
CQUADX4,419,1,448,463,464,449
CQUADX4,420,1,449,464,465,450
CQUADX4,421,1,451,466,467,452
CQUADX4,422,1,452,467,468,453
CQUADX4,423,1,453,468,469,454
CQUADX4,424,1,454,469,470,455
CQUADX4,425,1,455,470,471,456
CQUADX4,426,1,456,471,472,457
CQUADX4,427,1,457,472,473,458
CQUADX4,428,1,458,473,474,459
CQUADX4,429,1,459,474,475,460
CQUADX4,430,1,460,475,476,461
CQUADX4,431,1,461,476,477,462
CQUADX4,432,1,462,477,478,463
CQUADX4,433,1,463,478,479,464
CQUADX4,434,1,464,479,480,465
CQUADX4,435,1,466,481,482,467
CQUADX4,436,1,467,482,483,468
CQUADX4,437,1,468,483,484,469
CQUADX4,438,1,469,484,485,470
CQUADX4,439,1,470,485,486,471
CQUADX4,440,1,471,486,487,472
CQUADX4,441,1,472,487,488,473
CQUADX4,442,1,473,488,489,474
CQUADX4,443,1,474,489,490,475
CQUADX4,444,1,475,490,491,476
CQUADX4,445,1,476,491,492,477
CQUADX4,446,1,477,492,493,478
CQUADX4,447,1,478,493,494,479
CQUADX4,448,1,479,494,495,480
CQUADX4,449,1,481,496,497,482
CQUADX4,450,1,482,497,498,483
CQUADX4,451,1,483,498,499,484
CQUADX4,452,1,484,499,500,485
CQUADX4,453,1,485,500,501,486
CQUADX4,454,1,486,501,502,487
CQUADX4,455,1,487,502,503,488
CQUADX4,456,1,488,503,504,489
CQUADX4,457,1,489,504,505,490
CQUADX4,458,1,490,505,506,491
CQUADX4,459,1,491,506,507,492
CQUADX4,460,1,492,507,508,493
CQUADX4,461,1,493,508,509,494
CQUADX4,462,1,494,509,510,495
CQUADX4,463,1,496,511,512,497
CQUADX4,464,1,497,512,513,498
CQUADX4,465,1,498,513,514,499
CQUADX4,466,1,499,514,515,500
CQUADX4,467,1,500,515,516,501
CQUADX4,468,1,501,516,517,502
CQUADX4,469,1,502,517,518,503
CQUADX4,470,1,503,518,519,504
CQUADX4,471,1,504,519,520,505
CQUADX4,472,1,505,520,521,506
CQUADX4,473,1,506,521,522,507
CQUADX4,474,1,507,522,523,508
CQUADX4,475,1,508,523,524,509
CQUADX4,476,1,509,524,525,510
CQUADX4,477,1,511,526,527,512
CQUADX4,478,1,512,527,528,513
CQUADX4,479,1,513,528,529,514
CQUADX4,480,1,514,529,530,515
CQUADX4,481,1,515,530,531,516
CQUADX4,482,1,516,531,532,517
CQUADX4,483,1,517,532,533,518
CQUADX4,484,1,518,533,534,519
CQUADX4,485,1,519,534,535,520
CQUADX4,486,1,520,535,536,521
CQUADX4,487,1,521,536,537,522
CQUADX4,488,1,522,537,538,523
CQUADX4,489,1,523,538,539,524
CQUADX4,490,1,524,539,540,525
CQUADX4,491,1,526,541,542,527
CQUADX4,492,1,527,542,543,528
CQUADX4,493,1,528,543,544,529
CQUADX4,494,1,529,544,545,530
CQUADX4,495,1,530,545,546,531
CQUADX4,496,1,531,546,547,532
CQUADX4,497,1,532,547,548,533
CQUADX4,498,1,533,548,549,534
CQUADX4,499,1,534,549,550,535
CQUADX4,500,1,535,550,551,536
CQUADX4,501,1,536,551,552,537
CQUADX4,502,1,537,552,553,538
CQUADX4,503,1,538,553,554,539
CQUADX4,504,1,539,554,555,540
CQUADX4,505,1,541,556,557,542
CQUADX4,506,1,542,557,558,543
CQUADX4,507,1,543,558,559,544
CQUADX4,508,1,544,559,560,545
CQUADX4,509,1,545,560,561,546
CQUADX4,510,1,546,561,562,547
CQUADX4,511,1,547,562,563,548
CQUADX4,512,1,548,563,564,549
CQUADX4,513,1,549,564,565,550
CQUADX4,514,1,550,565,566,551
CQUADX4,515,1,551,566,567,552
CQUADX4,516,1,552,567,568,553
CQUADX4,517,1,553,568,569,554
CQUADX4,518,1,554,569,570,555
CQUADX4,519,1,556,571,572,557
CQUADX4,520,1,557,572,573,558
CQUADX4,521,1,558,573,574,559
CQUADX4,522,1,559,574,575,560
CQUADX4,523,1,560,575,576,561
CQUADX4,524,1,561,576,577,562
CQUADX4,525,1,562,577,578,563
CQUADX4,526,1,563,578,579,564
CQUADX4,527,1,564,579,580,565
CQUADX4,528,1,565,580,581,566
CQUADX4,529,1,566,581,582,567
CQUADX4,530,1,567,582,583,568
CQUADX4,531,1,568,583,584,569
CQUADX4,532,1,569,584,585,570
CQUADX4,533,1,571,586,587,572
CQUADX4,534,1,572,587,588,573
CQUADX4,535,1,573,588,589,574
CQUADX4,536,1,574,589,590,575
CQUADX4,537,1,575,590,591,576
CQUADX4,538,1,576,591,592,577
CQUADX4,539,1,577,592,593,578
CQUADX4,540,1,578,593,594,579
CQUADX4,541,1,579,594,595,580
CQUADX4,542,1,580,595,596,581
CQUADX4,543,1,581,596,597,582
CQUADX4,544,1,582,597,598,583
CQUADX4,545,1,583,598,599,584
CQUADX4,546,1,584,599,600,585
CQUADX4,547,1,586,601,602,587
CQUADX4,548,1,587,602,603,588
CQUADX4,549,1,588,603,604,589
CQUADX4,550,1,589,604,605,590
CQUADX4,551,1,590,605,606,591
CQUADX4,552,1,591,606,607,592
CQUADX4,553,1,592,607,608,593
CQUADX4,554,1,593,608,609,594
CQUADX4,555,1,594,609,610,595
CQUADX4,556,1,595,610,611,596
CQUADX4,557,1,596,611,612,597
CQUADX4,558,1,597,612,613,598
CQUADX4,559,1,598,613,614,599
CQUADX4,560,1,599,614,615,600
CQUADX4,561,1,601,616,617,602
CQUADX4,562,1,602,617,618,603
CQUADX4,563,1,603,618,619,604
CQUADX4,564,1,604,619,620,605
CQUADX4,565,1,605,620,621,606
CQUADX4,566,1,606,621,622,607
CQUADX4,567,1,607,622,623,608
CQUADX4,568,1,608,623,624,609
CQUADX4,569,1,609,624,625,610
CQUADX4,570,1,610,625,626,611
CQUADX4,571,1,611,626,627,612
CQUADX4,572,1,612,627,628,613
CQUADX4,573,1,613,628,629,614
CQUADX4,574,1,614,629,630,615
CQUADX4,575,1,616,631,632,617
CQUADX4,576,1,617,632,633,618
CQUADX4,577,1,618,633,634,619
CQUADX4,578,1,619,634,635,620
CQUADX4,579,1,620,635,636,621
CQUADX4,580,1,621,636,637,622
CQUADX4,581,1,622,637,638,623
CQUADX4,582,1,623,638,639,624
CQUADX4,583,1,624,639,640,625
CQUADX4,584,1,625,640,641,626
CQUADX4,585,1,626,641,642,627
CQUADX4,586,1,627,642,643,628
CQUADX4,587,1,628,643,644,629
CQUADX4,588,1,629,644,645,630
CQUADX4,589,1,631,646,647,632
CQUADX4,590,1,632,647,648,633
CQUADX4,591,1,633,648,649,634
CQUADX4,592,1,634,649,650,635
CQUADX4,593,1,635,650,651,636
CQUADX4,594,1,636,651,652,637
CQUADX4,595,1,637,652,653,638
CQUADX4,596,1,638,653,654,639
CQUADX4,597,1,639,654,655,640
CQUADX4,598,1,640,655,656,641
CQUADX4,599,1,641,656,657,642
CQUADX4,600,1,642,657,658,643
CQUADX4,601,1,643,658,659,644
CQUADX4,602,1,644,659,660,645
CQUADX4,603,1,646,661,662,647
CQUADX4,604,1,647,662,663,648
CQUADX4,605,1,648,663,664,649
CQUADX4,606,1,649,664,665,650
CQUADX4,607,1,650,665,666,651
CQUADX4,608,1,651,666,667,652
CQUADX4,609,1,652,667,668,653
CQUADX4,610,1,653,668,669,654
CQUADX4,611,1,654,669,670,655
CQUADX4,612,1,655,670,671,656
CQUADX4,613,1,656,671,672,657
CQUADX4,614,1,657,672,673,658
CQUADX4,615,1,658,673,674,659
CQUADX4,616,1,659,674,675,660
CQUADX4,617,1,661,676,677,662
CQUADX4,618,1,662,677,678,663
CQUADX4,619,1,663,678,679,664
CQUADX4,620,1,664,679,680,665
CQUADX4,621,1,665,680,681,666
CQUADX4,622,1,666,681,682,667
CQUADX4,623,1,667,682,683,668
CQUADX4,624,1,668,683,684,669
CQUADX4,625,1,669,684,685,670
CQUADX4,626,1,670,685,686,671
CQUADX4,627,1,671,686,687,672
CQUADX4,628,1,672,687,688,673
CQUADX4,629,1,673,688,689,674
CQUADX4,630,1,674,689,690,675
CQUADX4,631,1,676,691,692,677
CQUADX4,632,1,677,692,693,678
CQUADX4,633,1,678,693,694,679
CQUADX4,634,1,679,694,695,680
CQUADX4,635,1,680,695,696,681
CQUADX4,636,1,681,696,697,682
CQUADX4,637,1,682,697,698,683
CQUADX4,638,1,683,698,699,684
CQUADX4,639,1,684,699,700,685
CQUADX4,640,1,685,700,701,686
CQUADX4,641,1,686,701,702,687
CQUADX4,642,1,687,702,703,688
CQUADX4,643,1,688,703,704,689
CQUADX4,644,1,689,704,705,690
CQUADX4,645,1,691,706,707,692
CQUADX4,646,1,692,707,708,693
CQUADX4,647,1,693,708,709,694
CQUADX4,648,1,694,709,710,695
CQUADX4,649,1,695,710,711,696
CQUADX4,650,1,696,711,712,697
CQUADX4,651,1,697,712,713,698
CQUADX4,652,1,698,713,714,699
CQUADX4,653,1,699,714,715,700
CQUADX4,654,1,700,715,716,701
CQUADX4,655,1,701,716,717,702
CQUADX4,656,1,702,717,718,703
CQUADX4,657,1,703,718,719,704
CQUADX4,658,1,704,719,720,705
CQUADX4,659,1,706,721,722,707
CQUADX4,660,1,707,722,723,708
CQUADX4,661,1,708,723,724,709
CQUADX4,662,1,709,724,725,710
CQUADX4,663,1,710,725,726,711
CQUADX4,664,1,711,726,727,712
CQUADX4,665,1,712,727,728,713
CQUADX4,666,1,713,728,729,714
CQUADX4,667,1,714,729,730,715
CQUADX4,668,1,715,730,731,716
CQUADX4,669,1,716,731,732,717
CQUADX4,670,1,717,732,733,718
CQUADX4,671,1,718,733,734,719
CQUADX4,672,1,719,734,735,720
CQUADX4,673,1,721,736,737,722
CQUADX4,674,1,722,737,738,723
CQUADX4,675,1,723,738,739,724
CQUADX4,676,1,724,739,740,725
CQUADX4,677,1,725,740,741,726
CQUADX4,678,1,726,741,742,727
CQUADX4,679,1,727,742,743,728
CQUADX4,680,1,728,743,744,729
CQUADX4,681,1,729,744,745,730
CQUADX4,682,1,730,745,746,731
CQUADX4,683,1,731,746,747,732
CQUADX4,684,1,732,747,748,733
CQUADX4,685,1,733,748,749,734
CQUADX4,686,1,734,749,750,735
CQUADX4,687,1,736,751,752,737
CQUADX4,688,1,737,752,753,738
CQUADX4,689,1,738,753,754,739
CQUADX4,690,1,739,754,755,740
CQUADX4,691,1,740,755,756,741
CQUADX4,692,1,741,756,757,742
CQUADX4,693,1,742,757,758,743
CQUADX4,694,1,743,758,759,744
CQUADX4,695,1,744,759,760,745
CQUADX4,696,1,745,760,761,746
CQUADX4,697,1,746,761,762,747
CQUADX4,698,1,747,762,763,748
CQUADX4,699,1,748,763,764,749
CQUADX4,700,1,749,764,765,750
CQUADX4,701,1,751,766,767,752
CQUADX4,702,1,752,767,768,753
CQUADX4,703,1,753,768,769,754
CQUADX4,704,1,754,769,770,755
CQUADX4,705,1,755,770,771,756
CQUADX4,706,1,756,771,772,757
CQUADX4,707,1,757,772,773,758
CQUADX4,708,1,758,773,774,759
CQUADX4,709,1,759,774,775,760
CQUADX4,710,1,760,775,776,761
CQUADX4,711,1,761,776,777,762
CQUADX4,712,1,762,777,778,763
CQUADX4,713,1,763,778,779,764
CQUADX4,714,1,764,779,780,765
CQUADX4,715,1,766,781,782,767
CQUADX4,716,1,767,782,783,768
CQUADX4,717,1,768,783,784,769
CQUADX4,718,1,769,784,785,770
CQUADX4,719,1,770,785,786,771
CQUADX4,720,1,771,786,787,772
CQUADX4,721,1,772,787,788,773
CQUADX4,722,1,773,788,789,774
CQUADX4,723,1,774,789,790,775
CQUADX4,724,1,775,790,791,776
CQUADX4,725,1,776,791,792,777
CQUADX4,726,1,777,792,793,778
CQUADX4,727,1,778,793,794,779
CQUADX4,728,1,779,794,795,780
CQUADX4,729,1,781,796,797,782
CQUADX4,730,1,782,797,798,783
CQUADX4,731,1,783,798,799,784
CQUADX4,732,1,784,799,800,785
CQUADX4,733,1,785,800,801,786
CQUADX4,734,1,786,801,802,787
CQUADX4,735,1,787,802,803,788
CQUADX4,736,1,788,803,804,789
CQUADX4,737,1,789,804,805,790
CQUADX4,738,1,790,805,806,791
CQUADX4,739,1,791,806,807,792
CQUADX4,740,1,792,807,808,793
CQUADX4,741,1,793,808,809,794
CQUADX4,742,1,794,809,810,795
CQUADX4,743,1,796,811,812,797
CQUADX4,744,1,797,812,813,798
CQUADX4,745,1,798,813,814,799
CQUADX4,746,1,799,814,815,800
CQUADX4,747,1,800,815,816,801
CQUADX4,748,1,801,816,817,802
CQUADX4,749,1,802,817,818,803
CQUADX4,750,1,803,818,819,804
CQUADX4,751,1,804,819,820,805
CQUADX4,752,1,805,820,821,806
CQUADX4,753,1,806,821,822,807
CQUADX4,754,1,807,822,823,808
CQUADX4,755,1,808,823,824,809
CQUADX4,756,1,809,824,825,810
CQUADX4,757,1,811,826,827,812
CQUADX4,758,1,812,827,828,813
CQUADX4,759,1,813,828,829,814
CQUADX4,760,1,814,829,830,815
CQUADX4,761,1,815,830,831,816
CQUADX4,762,1,816,831,832,817
CQUADX4,763,1,817,832,833,818
CQUADX4,764,1,818,833,834,819
CQUADX4,765,1,819,834,835,820
CQUADX4,766,1,820,835,836,821
CQUADX4,767,1,821,836,837,822
CQUADX4,768,1,822,837,838,823
CQUADX4,769,1,823,838,839,824
CQUADX4,770,1,824,839,840,825
CQUADX4,771,1,826,841,842,827
CQUADX4,772,1,827,842,843,828
CQUADX4,773,1,828,843,844,829
CQUADX4,774,1,829,844,845,830
CQUADX4,775,1,830,845,846,831
CQUADX4,776,1,831,846,847,832
CQUADX4,777,1,832,847,848,833
CQUADX4,778,1,833,848,849,834
CQUADX4,779,1,834,849,850,835
CQUADX4,780,1,835,850,851,836
CQUADX4,781,1,836,851,852,837
CQUADX4,782,1,837,852,853,838
CQUADX4,783,1,838,853,854,839
CQUADX4,784,1,839,854,855,840
CQUADX4,785,1,841,856,857,842
CQUADX4,786,1,842,857,858,843
CQUADX4,787,1,843,858,859,844
CQUADX4,788,1,844,859,860,845
CQUADX4,789,1,845,860,861,846
CQUADX4,790,1,846,861,862,847
CQUADX4,791,1,847,862,863,848
CQUADX4,792,1,848,863,864,849
CQUADX4,793,1,849,864,865,850
CQUADX4,794,1,850,865,866,851
CQUADX4,795,1,851,866,867,852
CQUADX4,796,1,852,867,868,853
CQUADX4,797,1,853,868,869,854
CQUADX4,798,1,854,869,870,855
CQUADX4,799,1,856,871,872,857
CQUADX4,800,1,857,872,873,858
CQUADX4,801,1,858,873,874,859
CQUADX4,802,1,859,874,875,860
CQUADX4,803,1,860,875,876,861
CQUADX4,804,1,861,876,877,862
CQUADX4,805,1,862,877,878,863
CQUADX4,806,1,863,878,879,864
CQUADX4,807,1,864,879,880,865
CQUADX4,808,1,865,880,881,866
CQUADX4,809,1,866,881,882,867
CQUADX4,810,1,867,882,883,868
CQUADX4,811,1,868,883,884,869
CQUADX4,812,1,869,884,885,870
CQUADX4,813,1,871,886,887,872
CQUADX4,814,1,872,887,888,873
CQUADX4,815,1,873,888,889,874
CQUADX4,816,1,874,889,890,875
CQUADX4,817,1,875,890,891,876
CQUADX4,818,1,876,891,892,877
CQUADX4,819,1,877,892,893,878
CQUADX4,820,1,878,893,894,879
CQUADX4,821,1,879,894,895,880
CQUADX4,822,1,880,895,896,881
CQUADX4,823,1,881,896,897,882
CQUADX4,824,1,882,897,898,883
CQUADX4,825,1,883,898,899,884
CQUADX4,826,1,884,899,900,885
CQUADX4,827,1,886,901,902,887
CQUADX4,828,1,887,902,903,888
CQUADX4,829,1,888,903,904,889
CQUADX4,830,1,889,904,905,890
CQUADX4,831,1,890,905,906,891
CQUADX4,832,1,891,906,907,892
CQUADX4,833,1,892,907,908,893
CQUADX4,834,1,893,908,909,894
CQUADX4,835,1,894,909,910,895
CQUADX4,836,1,895,910,911,896
CQUADX4,837,1,896,911,912,897
CQUADX4,838,1,897,912,913,898
CQUADX4,839,1,898,913,914,899
CQUADX4,840,1,899,914,915,900
CQUADX4,841,1,901,916,917,902
CQUADX4,842,1,902,917,918,903
CQUADX4,843,1,903,918,919,904
CQUADX4,844,1,904,919,920,905
CQUADX4,845,1,905,920,921,906
CQUADX4,846,1,906,921,922,907
CQUADX4,847,1,907,922,923,908
CQUADX4,848,1,908,923,924,909
CQUADX4,849,1,909,924,925,910
CQUADX4,850,1,910,925,926,911
CQUADX4,851,1,911,926,927,912
CQUADX4,852,1,912,927,928,913
CQUADX4,853,1,913,928,929,914
CQUADX4,854,1,914,929,930,915
CQUADX4,855,1,916,931,932,917
CQUADX4,856,1,917,932,933,918
CQUADX4,857,1,918,933,934,919
CQUADX4,858,1,919,934,935,920
CQUADX4,859,1,920,935,936,921
CQUADX4,860,1,921,936,937,922
CQUADX4,861,1,922,937,938,923
CQUADX4,862,1,923,938,939,924
CQUADX4,863,1,924,939,940,925
CQUADX4,864,1,925,940,941,926
CQUADX4,865,1,926,941,942,927
CQUADX4,866,1,927,942,943,928
CQUADX4,867,1,928,943,944,929
CQUADX4,868,1,929,944,945,930
CQUADX4,869,1,931,946,947,932
CQUADX4,870,1,932,947,948,933
CQUADX4,871,1,933,948,949,934
CQUADX4,872,1,934,949,950,935
CQUADX4,873,1,935,950,951,936
CQUADX4,874,1,936,951,952,937
CQUADX4,875,1,937,952,953,938
CQUADX4,876,1,938,953,954,939
CQUADX4,877,1,939,954,955,940
CQUADX4,878,1,940,955,956,941
CQUADX4,879,1,941,956,957,942
CQUADX4,880,1,942,957,958,943
CQUADX4,881,1,943,958,959,944
CQUADX4,882,1,944,959,960,945
CQUADX4,883,1,946,961,962,947
CQUADX4,884,1,947,962,963,948
CQUADX4,885,1,948,963,964,949
CQUADX4,886,1,949,964,965,950
CQUADX4,887,1,950,965,966,951
CQUADX4,888,1,951,966,967,952
CQUADX4,889,1,952,967,968,953
CQUADX4,890,1,953,968,969,954
CQUADX4,891,1,954,969,970,955
CQUADX4,892,1,955,970,971,956
CQUADX4,893,1,956,971,972,957
CQUADX4,894,1,957,972,973,958
CQUADX4,895,1,958,973,974,959
CQUADX4,896,1,959,974,975,960
CQUADX4,897,1,961,976,977,962
CQUADX4,898,1,962,977,978,963
CQUADX4,899,1,963,978,979,964
CQUADX4,900,1,964,979,980,965
CQUADX4,901,1,965,980,981,966
CQUADX4,902,1,966,981,982,967
CQUADX4,903,1,967,982,983,968
CQUADX4,904,1,968,983,984,969
CQUADX4,905,1,969,984,985,970
CQUADX4,906,1,970,985,986,971
CQUADX4,907,1,971,986,987,972
CQUADX4,908,1,972,987,988,973
CQUADX4,909,1,973,988,989,974
CQUADX4,910,1,974,989,990,975
CQUADX4,911,1,976,991,992,977
CQUADX4,912,1,977,992,993,978
CQUADX4,913,1,978,993,994,979
CQUADX4,914,1,979,994,995,980
CQUADX4,915,1,980,995,996,981
CQUADX4,916,1,981,996,997,982
CQUADX4,917,1,982,997,998,983
CQUADX4,918,1,983,998,999,984
CQUADX4,919,1,984,999,1000,985
CQUADX4,920,1,985,1000,1001,986
CQUADX4,921,1,986,1001,1002,987
CQUADX4,922,1,987,1002,1003,988
CQUADX4,923,1,988,1003,1004,989
CQUADX4,924,1,989,1004,1005,990
CQUADX4,925,1,991,1006,1007,992
CQUADX4,926,1,992,1007,1008,993
CQUADX4,927,1,993,1008,1009,994
CQUADX4,928,1,994,1009,1010,995
CQUADX4,929,1,995,1010,1011,996
CQUADX4,930,1,996,1011,1012,997
CQUADX4,931,1,997,1012,1013,998
CQUADX4,932,1,998,1013,1014,999
CQUADX4,933,1,999,1014,1015,1000
CQUADX4,934,1,1000,1015,1016,1001
CQUADX4,935,1,1001,1016,1017,1002
CQUADX4,936,1,1002,1017,1018,1003
CQUADX4,937,1,1003,1018,1019,1004
CQUADX4,938,1,1004,1019,1020,1005
CQUADX4,939,1,1006,1021,1022,1007
CQUADX4,940,1,1007,1022,1023,1008
CQUADX4,941,1,1008,1023,1024,1009
CQUADX4,942,1,1009,1024,1025,1010
CQUADX4,943,1,1010,1025,1026,1011
CQUADX4,944,1,1011,1026,1027,1012
CQUADX4,945,1,1012,1027,1028,1013
CQUADX4,946,1,1013,1028,1029,1014
CQUADX4,947,1,1014,1029,1030,1015
CQUADX4,948,1,1015,1030,1031,1016
CQUADX4,949,1,1016,1031,1032,1017
CQUADX4,950,1,1017,1032,1033,1018
CQUADX4,951,1,1018,1033,1034,1019
CQUADX4,952,1,1019,1034,1035,1020
CQUADX4,953,1,1021,1036,1037,1022
CQUADX4,954,1,1022,1037,1038,1023
CQUADX4,955,1,1023,1038,1039,1024
CQUADX4,956,1,1024,1039,1040,1025
CQUADX4,957,1,1025,1040,1041,1026
CQUADX4,958,1,1026,1041,1042,1027
CQUADX4,959,1,1027,1042,1043,1028
CQUADX4,960,1,1028,1043,1044,1029
CQUADX4,961,1,1029,1044,1045,1030
CQUADX4,962,1,1030,1045,1046,1031
CQUADX4,963,1,1031,1046,1047,1032
CQUADX4,964,1,1032,1047,1048,1033
CQUADX4,965,1,1033,1048,1049,1034
CQUADX4,966,1,1034,1049,1050,1035
CQUADX4,967,1,1036,1051,1052,1037
CQUADX4,968,1,1037,1052,1053,1038
CQUADX4,969,1,1038,1053,1054,1039
CQUADX4,970,1,1039,1054,1055,1040
CQUADX4,971,1,1040,1055,1056,1041
CQUADX4,972,1,1041,1056,1057,1042
CQUADX4,973,1,1042,1057,1058,1043
CQUADX4,974,1,1043,1058,1059,1044
CQUADX4,975,1,1044,1059,1060,1045
CQUADX4,976,1,1045,1060,1061,1046
CQUADX4,977,1,1046,1061,1062,1047
CQUADX4,978,1,1047,1062,1063,1048
CQUADX4,979,1,1048,1063,1064,1049
CQUADX4,980,1,1049,1064,1065,1050
CQUADX4,981,1,1051,1066,1067,1052
CQUADX4,982,1,1052,1067,1068,1053
CQUADX4,983,1,1053,1068,1069,1054
CQUADX4,984,1,1054,1069,1070,1055
CQUADX4,985,1,1055,1070,1071,1056
CQUADX4,986,1,1056,1071,1072,1057
CQUADX4,987,1,1057,1072,1073,1058
CQUADX4,988,1,1058,1073,1074,1059
CQUADX4,989,1,1059,1074,1075,1060
CQUADX4,990,1,1060,1075,1076,1061
CQUADX4,991,1,1061,1076,1077,1062
CQUADX4,992,1,1062,1077,1078,1063
CQUADX4,993,1,1063,1078,1079,1064
CQUADX4,994,1,1064,1079,1080,1065
CQUADX4,995,1,1066,1081,1082,1067
CQUADX4,996,1,1067,1082,1083,1068
CQUADX4,997,1,1068,1083,1084,1069
CQUADX4,998,1,1069,1084,1085,1070
CQUADX4,999,1,1070,1085,1086,1071
CQUADX4,1000,1,1071,1086,1087,1072
CQUADX4,1001,1,1072,1087,1088,1073
CQUADX4,1002,1,1073,1088,1089,1074
CQUADX4,1003,1,1074,1089,1090,1075
CQUADX4,1004,1,1075,1090,1091,1076
CQUADX4,1005,1,1076,1091,1092,1077
CQUADX4,1006,1,1077,1092,1093,1078
CQUADX4,1007,1,1078,1093,1094,1079
CQUADX4,1008,1,1079,1094,1095,1080
CQUADX4,1009,1,1081,1096,1097,1082
CQUADX4,1010,1,1082,1097,1098,1083
CQUADX4,1011,1,1083,1098,1099,1084
CQUADX4,1012,1,1084,1099,1100,1085
CQUADX4,1013,1,1085,1100,1101,1086
CQUADX4,1014,1,1086,1101,1102,1087
CQUADX4,1015,1,1087,1102,1103,1088
CQUADX4,1016,1,1088,1103,1104,1089
CQUADX4,1017,1,1089,1104,1105,1090
CQUADX4,1018,1,1090,1105,1106,1091
CQUADX4,1019,1,1091,1106,1107,1092
CQUADX4,1020,1,1092,1107,1108,1093
CQUADX4,1021,1,1093,1108,1109,1094
CQUADX4,1022,1,1094,1109,1110,1095
CQUADX4,1023,1,1096,1111,1112,1097
CQUADX4,1024,1,1097,1112,1113,1098
CQUADX4,1025,1,1098,1113,1114,1099
CQUADX4,1026,1,1099,1114,1115,1100
CQUADX4,1027,1,1100,1115,1116,1101
CQUADX4,1028,1,1101,1116,1117,1102
CQUADX4,1029,1,1102,1117,1118,1103
CQUADX4,1030,1,1103,1118,1119,1104
CQUADX4,1031,1,1104,1119,1120,1105
CQUADX4,1032,1,1105,1120,1121,1106
CQUADX4,1033,1,1106,1121,1122,1107
CQUADX4,1034,1,1107,1122,1123,1108
CQUADX4,1035,1,1108,1123,1124,1109
CQUADX4,1036,1,1109,1124,1125,1110
CQUADX4,1037,1,1111,1126,1127,1112
CQUADX4,1038,1,1112,1127,1128,1113
CQUADX4,1039,1,1113,1128,1129,1114
CQUADX4,1040,1,1114,1129,1130,1115
CQUADX4,1041,1,1115,1130,1131,1116
CQUADX4,1042,1,1116,1131,1132,1117
CQUADX4,1043,1,1117,1132,1133,1118
CQUADX4,1044,1,1118,1133,1134,1119
CQUADX4,1045,1,1119,1134,1135,1120
CQUADX4,1046,1,1120,1135,1136,1121
CQUADX4,1047,1,1121,1136,1137,1122
CQUADX4,1048,1,1122,1137,1138,1123
CQUADX4,1049,1,1123,1138,1139,1124
CQUADX4,1050,1,1124,1139,1140,1125
CQUADX4,1051,1,1126,1141,1142,1127
CQUADX4,1052,1,1127,1142,1143,1128
CQUADX4,1053,1,1128,1143,1144,1129
CQUADX4,1054,1,1129,1144,1145,1130
CQUADX4,1055,1,1130,1145,1146,1131
CQUADX4,1056,1,1131,1146,1147,1132
CQUADX4,1057,1,1132,1147,1148,1133
CQUADX4,1058,1,1133,1148,1149,1134
CQUADX4,1059,1,1134,1149,1150,1135
CQUADX4,1060,1,1135,1150,1151,1136
CQUADX4,1061,1,1136,1151,1152,1137
CQUADX4,1062,1,1137,1152,1153,1138
CQUADX4,1063,1,1138,1153,1154,1139
CQUADX4,1064,1,1139,1154,1155,1140
CQUADX4,1065,1,1141,1156,1157,1142
CQUADX4,1066,1,1142,1157,1158,1143
CQUADX4,1067,1,1143,1158,1159,1144
CQUADX4,1068,1,1144,1159,1160,1145
CQUADX4,1069,1,1145,1160,1161,1146
CQUADX4,1070,1,1146,1161,1162,1147
CQUADX4,1071,1,1147,1162,1163,1148
CQUADX4,1072,1,1148,1163,1164,1149
CQUADX4,1073,1,1149,1164,1165,1150
CQUADX4,1074,1,1150,1165,1166,1151
CQUADX4,1075,1,1151,1166,1167,1152
CQUADX4,1076,1,1152,1167,1168,1153
CQUADX4,1077,1,1153,1168,1169,1154
CQUADX4,1078,1,1154,1169,1170,1155
CQUADX4,1079,1,1156,1171,1172,1157
CQUADX4,1080,1,1157,1172,1173,1158
CQUADX4,1081,1,1158,1173,1174,1159
CQUADX4,1082,1,1159,1174,1175,1160
CQUADX4,1083,1,1160,1175,1176,1161
CQUADX4,1084,1,1161,1176,1177,1162
CQUADX4,1085,1,1162,1177,1178,1163
CQUADX4,1086,1,1163,1178,1179,1164
CQUADX4,1087,1,1164,1179,1180,1165
CQUADX4,1088,1,1165,1180,1181,1166
CQUADX4,1089,1,1166,1181,1182,1167
CQUADX4,1090,1,1167,1182,1183,1168
CQUADX4,1091,1,1168,1183,1184,1169
CQUADX4,1092,1,1169,1184,1185,1170
CQUADX4,1093,1,1171,1186,1187,1172
CQUADX4,1094,1,1172,1187,1188,1173
CQUADX4,1095,1,1173,1188,1189,1174
CQUADX4,1096,1,1174,1189,1190,1175
CQUADX4,1097,1,1175,1190,1191,1176
CQUADX4,1098,1,1176,1191,1192,1177
CQUADX4,1099,1,1177,1192,1193,1178
CQUADX4,1100,1,1178,1193,1194,1179
CQUADX4,1101,1,1179,1194,1195,1180
CQUADX4,1102,1,1180,1195,1196,1181
CQUADX4,1103,1,1181,1196,1197,1182
CQUADX4,1104,1,1182,1197,1198,1183
CQUADX4,1105,1,1183,1198,1199,1184
CQUADX4,1106,1,1184,1199,1200,1185
CQUADX4,1107,1,1186,1201,1202,1187
CQUADX4,1108,1,1187,1202,1203,1188
CQUADX4,1109,1,1188,1203,1204,1189
CQUADX4,1110,1,1189,1204,1205,1190
CQUADX4,1111,1,1190,1205,1206,1191
CQUADX4,1112,1,1191,1206,1207,1192
CQUADX4,1113,1,1192,1207,1208,1193
CQUADX4,1114,1,1193,1208,1209,1194
CQUADX4,1115,1,1194,1209,1210,1195
CQUADX4,1116,1,1195,1210,1211,1196
CQUADX4,1117,1,1196,1211,1212,1197
CQUADX4,1118,1,1197,1212,1213,1198
CQUADX4,1119,1,1198,1213,1214,1199
CQUADX4,1120,1,1199,1214,1215,1200
CQUADX4,1121,1,1201,1216,1217,1202
CQUADX4,1122,1,1202,1217,1218,1203
CQUADX4,1123,1,1203,1218,1219,1204
CQUADX4,1124,1,1204,1219,1220,1205
CQUADX4,1125,1,1205,1220,1221,1206
CQUADX4,1126,1,1206,1221,1222,1207
CQUADX4,1127,1,1207,1222,1223,1208
CQUADX4,1128,1,1208,1223,1224,1209
CQUADX4,1129,1,1209,1224,1225,1210
CQUADX4,1130,1,1210,1225,1226,1211
CQUADX4,1131,1,1211,1226,1227,1212
CQUADX4,1132,1,1212,1227,1228,1213
CQUADX4,1133,1,1213,1228,1229,1214
CQUADX4,1134,1,1214,1229,1230,1215
CQUADX4,1135,1,1216,1231,1232,1217
CQUADX4,1136,1,1217,1232,1233,1218
CQUADX4,1137,1,1218,1233,1234,1219
CQUADX4,1138,1,1219,1234,1235,1220
CQUADX4,1139,1,1220,1235,1236,1221
CQUADX4,1140,1,1221,1236,1237,1222
CQUADX4,1141,1,1222,1237,1238,1223
CQUADX4,1142,1,1223,1238,1239,1224
CQUADX4,1143,1,1224,1239,1240,1225
CQUADX4,1144,1,1225,1240,1241,1226
CQUADX4,1145,1,1226,1241,1242,1227
CQUADX4,1146,1,1227,1242,1243,1228
CQUADX4,1147,1,1228,1243,1244,1229
CQUADX4,1148,1,1229,1244,1245,1230
CQUADX4,1149,1,1231,1246,1247,1232
CQUADX4,1150,1,1232,1247,1248,1233
CQUADX4,1151,1,1233,1248,1249,1234
CQUADX4,1152,1,1234,1249,1250,1235
CQUADX4,1153,1,1235,1250,1251,1236
CQUADX4,1154,1,1236,1251,1252,1237
CQUADX4,1155,1,1237,1252,1253,1238
CQUADX4,1156,1,1238,1253,1254,1239
CQUADX4,1157,1,1239,1254,1255,1240
CQUADX4,1158,1,1240,1255,1256,1241
CQUADX4,1159,1,1241,1256,1257,1242
CQUADX4,1160,1,1242,1257,1258,1243
CQUADX4,1161,1,1243,1258,1259,1244
CQUADX4,1162,1,1244,1259,1260,1245
CQUADX4,1163,1,1246,1261,1262,1247
CQUADX4,1164,1,1247,1262,1263,1248
CQUADX4,1165,1,1248,1263,1264,1249
CQUADX4,1166,1,1249,1264,1265,1250
CQUADX4,1167,1,1250,1265,1266,1251
CQUADX4,1168,1,1251,1266,1267,1252
CQUADX4,1169,1,1252,1267,1268,1253
CQUADX4,1170,1,1253,1268,1269,1254
CQUADX4,1171,1,1254,1269,1270,1255
CQUADX4,1172,1,1255,1270,1271,1256
CQUADX4,1173,1,1256,1271,1272,1257
CQUADX4,1174,1,1257,1272,1273,1258
CQUADX4,1175,1,1258,1273,1274,1259
CQUADX4,1176,1,1259,1274,1275,1260
CQUADX4,1177,1,1261,1276,1277,1262
CQUADX4,1178,1,1262,1277,1278,1263
CQUADX4,1179,1,1263,1278,1279,1264
CQUADX4,1180,1,1264,1279,1280,1265
CQUADX4,1181,1,1265,1280,1281,1266
CQUADX4,1182,1,1266,1281,1282,1267
CQUADX4,1183,1,1267,1282,1283,1268
CQUADX4,1184,1,1268,1283,1284,1269
CQUADX4,1185,1,1269,1284,1285,1270
CQUADX4,1186,1,1270,1285,1286,1271
CQUADX4,1187,1,1271,1286,1287,1272
CQUADX4,1188,1,1272,1287,1288,1273
CQUADX4,1189,1,1273,1288,1289,1274
CQUADX4,1190,1,1274,1289,1290,1275
CQUADX4,1191,1,1276,1291,1292,1277
CQUADX4,1192,1,1277,1292,1293,1278
CQUADX4,1193,1,1278,1293,1294,1279
CQUADX4,1194,1,1279,1294,1295,1280
CQUADX4,1195,1,1280,1295,1296,1281
CQUADX4,1196,1,1281,1296,1297,1282
CQUADX4,1197,1,1282,1297,1298,1283
CQUADX4,1198,1,1283,1298,1299,1284
CQUADX4,1199,1,1284,1299,1300,1285
CQUADX4,1200,1,1285,1300,1301,1286
CQUADX4,1201,1,1286,1301,1302,1287
CQUADX4,1202,1,1287,1302,1303,1288
CQUADX4,1203,1,1288,1303,1304,1289
CQUADX4,1204,1,1289,1304,1305,1290
CQUADX4,1205,1,1291,1306,1307,1292
CQUADX4,1206,1,1292,1307,1308,1293
CQUADX4,1207,1,1293,1308,1309,1294
CQUADX4,1208,1,1294,1309,1310,1295
CQUADX4,1209,1,1295,1310,1311,1296
CQUADX4,1210,1,1296,1311,1312,1297
CQUADX4,1211,1,1297,1312,1313,1298
CQUADX4,1212,1,1298,1313,1314,1299
CQUADX4,1213,1,1299,1314,1315,1300
CQUADX4,1214,1,1300,1315,1316,1301
CQUADX4,1215,1,1301,1316,1317,1302
CQUADX4,1216,1,1302,1317,1318,1303
CQUADX4,1217,1,1303,1318,1319,1304
CQUADX4,1218,1,1304,1319,1320,1305
CQUADX4,1219,1,1306,1321,1322,1307
CQUADX4,1220,1,1307,1322,1323,1308
CQUADX4,1221,1,1308,1323,1324,1309
CQUADX4,1222,1,1309,1324,1325,1310
CQUADX4,1223,1,1310,1325,1326,1311
CQUADX4,1224,1,1311,1326,1327,1312
CQUADX4,1225,1,1312,1327,1328,1313
CQUADX4,1226,1,1313,1328,1329,1314
CQUADX4,1227,1,1314,1329,1330,1315
CQUADX4,1228,1,1315,1330,1331,1316
CQUADX4,1229,1,1316,1331,1332,1317
CQUADX4,1230,1,1317,1332,1333,1318
CQUADX4,1231,1,1318,1333,1334,1319
CQUADX4,1232,1,1319,1334,1335,1320
CQUADX4,1233,1,1321,1336,1337,1322
CQUADX4,1234,1,1322,1337,1338,1323
CQUADX4,1235,1,1323,1338,1339,1324
CQUADX4,1236,1,1324,1339,1340,1325
CQUADX4,1237,1,1325,1340,1341,1326
CQUADX4,1238,1,1326,1341,1342,1327
CQUADX4,1239,1,1327,1342,1343,1328
CQUADX4,1240,1,1328,1343,1344,1329
CQUADX4,1241,1,1329,1344,1345,1330
CQUADX4,1242,1,1330,1345,1346,1331
CQUADX4,1243,1,1331,1346,1347,1332
CQUADX4,1244,1,1332,1347,1348,1333
CQUADX4,1245,1,1333,1348,1349,1334
CQUADX4,1246,1,1334,1349,1350,1335
CQUADX4,1247,1,1336,1351,1352,1337
CQUADX4,1248,1,1337,1352,1353,1338
CQUADX4,1249,1,1338,1353,1354,1339
CQUADX4,1250,1,1339,1354,1355,1340
CQUADX4,1251,1,1340,1355,1356,1341
CQUADX4,1252,1,1341,1356,1357,1342
CQUADX4,1253,1,1342,1357,1358,1343
CQUADX4,1254,1,1343,1358,1359,1344
CQUADX4,1255,1,1344,1359,1360,1345
CQUADX4,1256,1,1345,1360,1361,1346
CQUADX4,1257,1,1346,1361,1362,1347
CQUADX4,1258,1,1347,1362,1363,1348
CQUADX4,1259,1,1348,1363,1364,1349
CQUADX4,1260,1,1349,1364,1365,1350
CQUADX4,1261,1,1351,1366,1367,1352
CQUADX4,1262,1,1352,1367,1368,1353
CQUADX4,1263,1,1353,1368,1369,1354
CQUADX4,1264,1,1354,1369,1370,1355
CQUADX4,1265,1,1355,1370,1371,1356
CQUADX4,1266,1,1356,1371,1372,1357
CQUADX4,1267,1,1357,1372,1373,1358
CQUADX4,1268,1,1358,1373,1374,1359
CQUADX4,1269,1,1359,1374,1375,1360
CQUADX4,1270,1,1360,1375,1376,1361
CQUADX4,1271,1,1361,1376,1377,1362
CQUADX4,1272,1,1362,1377,1378,1363
CQUADX4,1273,1,1363,1378,1379,1364
CQUADX4,1274,1,1364,1379,1380,1365
CQUADX4,1275,1,1366,1381,1382,1367
CQUADX4,1276,1,1367,1382,1383,1368
CQUADX4,1277,1,1368,1383,1384,1369
CQUADX4,1278,1,1369,1384,1385,1370
CQUADX4,1279,1,1370,1385,1386,1371
CQUADX4,1280,1,1371,1386,1387,1372
CQUADX4,1281,1,1372,1387,1388,1373
CQUADX4,1282,1,1373,1388,1389,1374
CQUADX4,1283,1,1374,1389,1390,1375
CQUADX4,1284,1,1375,1390,1391,1376
CQUADX4,1285,1,1376,1391,1392,1377
CQUADX4,1286,1,1377,1392,1393,1378
CQUADX4,1287,1,1378,1393,1394,1379
CQUADX4,1288,1,1379,1394,1395,1380
CQUADX4,1289,1,1381,1396,1397,1382
CQUADX4,1290,1,1382,1397,1398,1383
CQUADX4,1291,1,1383,1398,1399,1384
CQUADX4,1292,1,1384,1399,1400,1385
CQUADX4,1293,1,1385,1400,1401,1386
CQUADX4,1294,1,1386,1401,1402,1387
CQUADX4,1295,1,1387,1402,1403,1388
CQUADX4,1296,1,1388,1403,1404,1389
CQUADX4,1297,1,1389,1404,1405,1390
CQUADX4,1298,1,1390,1405,1406,1391
CQUADX4,1299,1,1391,1406,1407,1392
CQUADX4,1300,1,1392,1407,1408,1393
CQUADX4,1301,1,1393,1408,1409,1394
CQUADX4,1302,1,1394,1409,1410,1395
CQUADX4,1303,1,1396,1411,1412,1397
CQUADX4,1304,1,1397,1412,1413,1398
CQUADX4,1305,1,1398,1413,1414,1399
CQUADX4,1306,1,1399,1414,1415,1400
CQUADX4,1307,1,1400,1415,1416,1401
CQUADX4,1308,1,1401,1416,1417,1402
CQUADX4,1309,1,1402,1417,1418,1403
CQUADX4,1310,1,1403,1418,1419,1404
CQUADX4,1311,1,1404,1419,1420,1405
CQUADX4,1312,1,1405,1420,1421,1406
CQUADX4,1313,1,1406,1421,1422,1407
CQUADX4,1314,1,1407,1422,1423,1408
CQUADX4,1315,1,1408,1423,1424,1409
CQUADX4,1316,1,1409,1424,1425,1410
CQUADX4,1317,1,1411,1426,1427,1412
CQUADX4,1318,1,1412,1427,1428,1413
CQUADX4,1319,1,1413,1428,1429,1414
CQUADX4,1320,1,1414,1429,1430,1415
CQUADX4,1321,1,1415,1430,1431,1416
CQUADX4,1322,1,1416,1431,1432,1417
CQUADX4,1323,1,1417,1432,1433,1418
CQUADX4,1324,1,1418,1433,1434,1419
CQUADX4,1325,1,1419,1434,1435,1420
CQUADX4,1326,1,1420,1435,1436,1421
CQUADX4,1327,1,1421,1436,1437,1422
CQUADX4,1328,1,1422,1437,1438,1423
CQUADX4,1329,1,1423,1438,1439,1424
CQUADX4,1330,1,1424,1439,1440,1425
CQUADX4,1331,1,1426,1441,1442,1427
CQUADX4,1332,1,1427,1442,1443,1428
CQUADX4,1333,1,1428,1443,1444,1429
CQUADX4,1334,1,1429,1444,1445,1430
CQUADX4,1335,1,1430,1445,1446,1431
CQUADX4,1336,1,1431,1446,1447,1432
CQUADX4,1337,1,1432,1447,1448,1433
CQUADX4,1338,1,1433,1448,1449,1434
CQUADX4,1339,1,1434,1449,1450,1435
CQUADX4,1340,1,1435,1450,1451,1436
CQUADX4,1341,1,1436,1451,1452,1437
CQUADX4,1342,1,1437,1452,1453,1438
CQUADX4,1343,1,1438,1453,1454,1439
CQUADX4,1344,1,1439,1454,1455,1440
CQUADX4,1345,1,1441,1456,1457,1442
CQUADX4,1346,1,1442,1457,1458,1443
CQUADX4,1347,1,1443,1458,1459,1444
CQUADX4,1348,1,1444,1459,1460,1445
CQUADX4,1349,1,1445,1460,1461,1446
CQUADX4,1350,1,1446,1461,1462,1447
CQUADX4,1351,1,1447,1462,1463,1448
CQUADX4,1352,1,1448,1463,1464,1449
CQUADX4,1353,1,1449,1464,1465,1450
CQUADX4,1354,1,1450,1465,1466,1451
CQUADX4,1355,1,1451,1466,1467,1452
CQUADX4,1356,1,1452,1467,1468,1453
CQUADX4,1357,1,1453,1468,1469,1454
CQUADX4,1358,1,1454,1469,1470,1455
CQUADX4,1359,1,1456,1471,1472,1457
CQUADX4,1360,1,1457,1472,1473,1458
CQUADX4,1361,1,1458,1473,1474,1459
CQUADX4,1362,1,1459,1474,1475,1460
CQUADX4,1363,1,1460,1475,1476,1461
CQUADX4,1364,1,1461,1476,1477,1462
CQUADX4,1365,1,1462,1477,1478,1463
CQUADX4,1366,1,1463,1478,1479,1464
CQUADX4,1367,1,1464,1479,1480,1465
CQUADX4,1368,1,1465,1480,1481,1466
CQUADX4,1369,1,1466,1481,1482,1467
CQUADX4,1370,1,1467,1482,1483,1468
CQUADX4,1371,1,1468,1483,1484,1469
CQUADX4,1372,1,1469,1484,1485,1470
CQUADX4,1373,1,1471,1486,1487,1472
CQUADX4,1374,1,1472,1487,1488,1473
CQUADX4,1375,1,1473,1488,1489,1474
CQUADX4,1376,1,1474,1489,1490,1475
CQUADX4,1377,1,1475,1490,1491,1476
CQUADX4,1378,1,1476,1491,1492,1477
CQUADX4,1379,1,1477,1492,1493,1478
CQUADX4,1380,1,1478,1493,1494,1479
CQUADX4,1381,1,1479,1494,1495,1480
CQUADX4,1382,1,1480,1495,1496,1481
CQUADX4,1383,1,1481,1496,1497,1482
CQUADX4,1384,1,1482,1497,1498,1483
CQUADX4,1385,1,1483,1498,1499,1484
CQUADX4,1386,1,1484,1499,1500,1485
CQUADX4,1387,1,1486,1501,1502,1487
CQUADX4,1388,1,1487,1502,1503,1488
CQUADX4,1389,1,1488,1503,1504,1489
CQUADX4,1390,1,1489,1504,1505,1490
CQUADX4,1391,1,1490,1505,1506,1491
CQUADX4,1392,1,1491,1506,1507,1492
CQUADX4,1393,1,1492,1507,1508,1493
CQUADX4,1394,1,1493,1508,1509,1494
CQUADX4,1395,1,1494,1509,1510,1495
CQUADX4,1396,1,1495,1510,1511,1496
CQUADX4,1397,1,1496,1511,1512,1497
CQUADX4,1398,1,1497,1512,1513,1498
CQUADX4,1399,1,1498,1513,1514,1499
CQUADX4,1400,1,1499,1514,1515,1500
CQUADX4,1401,1,1501,1516,1517,1502
CQUADX4,1402,1,1502,1517,1518,1503
CQUADX4,1403,1,1503,1518,1519,1504
CQUADX4,1404,1,1504,1519,1520,1505
CQUADX4,1405,1,1505,1520,1521,1506
CQUADX4,1406,1,1506,1521,1522,1507
CQUADX4,1407,1,1507,1522,1523,1508
CQUADX4,1408,1,1508,1523,1524,1509
CQUADX4,1409,1,1509,1524,1525,1510
CQUADX4,1410,1,1510,1525,1526,1511
CQUADX4,1411,1,1511,1526,1527,1512
CQUADX4,1412,1,1512,1527,1528,1513
CQUADX4,1413,1,1513,1528,1529,1514
CQUADX4,1414,1,1514,1529,1530,1515
CQUADX4,1415,1,1516,1531,1532,1517
CQUADX4,1416,1,1517,1532,1533,1518
CQUADX4,1417,1,1518,1533,1534,1519
CQUADX4,1418,1,1519,1534,1535,1520
CQUADX4,1419,1,1520,1535,1536,1521
CQUADX4,1420,1,1521,1536,1537,1522
CQUADX4,1421,1,1522,1537,1538,1523
CQUADX4,1422,1,1523,1538,1539,1524
CQUADX4,1423,1,1524,1539,1540,1525
CQUADX4,1424,1,1525,1540,1541,1526
CQUADX4,1425,1,1526,1541,1542,1527
CQUADX4,1426,1,1527,1542,1543,1528
CQUADX4,1427,1,1528,1543,1544,1529
CQUADX4,1428,1,1529,1544,1545,1530
CQUADX4,1429,1,1531,1546,1547,1532
CQUADX4,1430,1,1532,1547,1548,1533
CQUADX4,1431,1,1533,1548,1549,1534
CQUADX4,1432,1,1534,1549,1550,1535
CQUADX4,1433,1,1535,1550,1551,1536
CQUADX4,1434,1,1536,1551,1552,1537
CQUADX4,1435,1,1537,1552,1553,1538
CQUADX4,1436,1,1538,1553,1554,1539
CQUADX4,1437,1,1539,1554,1555,1540
CQUADX4,1438,1,1540,1555,1556,1541
CQUADX4,1439,1,1541,1556,1557,1542
CQUADX4,1440,1,1542,1557,1558,1543
CQUADX4,1441,1,1543,1558,1559,1544
CQUADX4,1442,1,1544,1559,1560,1545
CQUADX4,1443,1,1546,1561,1562,1547
CQUADX4,1444,1,1547,1562,1563,1548
CQUADX4,1445,1,1548,1563,1564,1549
CQUADX4,1446,1,1549,1564,1565,1550
CQUADX4,1447,1,1550,1565,1566,1551
CQUADX4,1448,1,1551,1566,1567,1552
CQUADX4,1449,1,1552,1567,1568,1553
CQUADX4,1450,1,1553,1568,1569,1554
CQUADX4,1451,1,1554,1569,1570,1555
CQUADX4,1452,1,1555,1570,1571,1556
CQUADX4,1453,1,1556,1571,1572,1557
CQUADX4,1454,1,1557,1572,1573,1558
CQUADX4,1455,1,1558,1573,1574,1559
CQUADX4,1456,1,1559,1574,1575,1560
CQUADX4,1457,1,1561,1576,1577,1562
CQUADX4,1458,1,1562,1577,1578,1563
CQUADX4,1459,1,1563,1578,1579,1564
CQUADX4,1460,1,1564,1579,1580,1565
CQUADX4,1461,1,1565,1580,1581,1566
CQUADX4,1462,1,1566,1581,1582,1567
CQUADX4,1463,1,1567,1582,1583,1568
CQUADX4,1464,1,1568,1583,1584,1569
CQUADX4,1465,1,1569,1584,1585,1570
CQUADX4,1466,1,1570,1585,1586,1571
CQUADX4,1467,1,1571,1586,1587,1572
CQUADX4,1468,1,1572,1587,1588,1573
CQUADX4,1469,1,1573,1588,1589,1574
CQUADX4,1470,1,1574,1589,1590,1575
CQUADX4,1471,1,1576,1591,1592,1577
CQUADX4,1472,1,1577,1592,1593,1578
CQUADX4,1473,1,1578,1593,1594,1579
CQUADX4,1474,1,1579,1594,1595,1580
CQUADX4,1475,1,1580,1595,1596,1581
CQUADX4,1476,1,1581,1596,1597,1582
CQUADX4,1477,1,1582,1597,1598,1583
CQUADX4,1478,1,1583,1598,1599,1584
CQUADX4,1479,1,1584,1599,1600,1585
CQUADX4,1480,1,1585,1600,1601,1586
CQUADX4,1481,1,1586,1601,1602,1587
CQUADX4,1482,1,1587,1602,1603,1588
CQUADX4,1483,1,1588,1603,1604,1589
CQUADX4,1484,1,1589,1604,1605,1590
CQUADX4,1485,1,1591,1606,1607,1592
CQUADX4,1486,1,1592,1607,1608,1593
CQUADX4,1487,1,1593,1608,1609,1594
CQUADX4,1488,1,1594,1609,1610,1595
CQUADX4,1489,1,1595,1610,1611,1596
CQUADX4,1490,1,1596,1611,1612,1597
CQUADX4,1491,1,1597,1612,1613,1598
CQUADX4,1492,1,1598,1613,1614,1599
CQUADX4,1493,1,1599,1614,1615,1600
CQUADX4,1494,1,1600,1615,1616,1601
CQUADX4,1495,1,1601,1616,1617,1602
CQUADX4,1496,1,1602,1617,1618,1603
CQUADX4,1497,1,1603,1618,1619,1604
CQUADX4,1498,1,1604,1619,1620,1605
CQUADX4,1499,1,1606,1621,1622,1607
CQUADX4,1500,1,1607,1622,1623,1608
CQUADX4,1501,1,1608,1623,1624,1609
CQUADX4,1502,1,1609,1624,1625,1610
CQUADX4,1503,1,1610,1625,1626,1611
CQUADX4,1504,1,1611,1626,1627,1612
CQUADX4,1505,1,1612,1627,1628,1613
CQUADX4,1506,1,1613,1628,1629,1614
CQUADX4,1507,1,1614,1629,1630,1615
CQUADX4,1508,1,1615,1630,1631,1616
CQUADX4,1509,1,1616,1631,1632,1617
CQUADX4,1510,1,1617,1632,1633,1618
CQUADX4,1511,1,1618,1633,1634,1619
CQUADX4,1512,1,1619,1634,1635,1620
CQUADX4,1513,1,1621,1636,1637,1622
CQUADX4,1514,1,1622,1637,1638,1623
CQUADX4,1515,1,1623,1638,1639,1624
CQUADX4,1516,1,1624,1639,1640,1625
CQUADX4,1517,1,1625,1640,1641,1626
CQUADX4,1518,1,1626,1641,1642,1627
CQUADX4,1519,1,1627,1642,1643,1628
CQUADX4,1520,1,1628,1643,1644,1629
CQUADX4,1521,1,1629,1644,1645,1630
CQUADX4,1522,1,1630,1645,1646,1631
CQUADX4,1523,1,1631,1646,1647,1632
CQUADX4,1524,1,1632,1647,1648,1633
CQUADX4,1525,1,1633,1648,1649,1634
CQUADX4,1526,1,1634,1649,1650,1635
CQUADX4,1527,1,1636,1651,1652,1637
CQUADX4,1528,1,1637,1652,1653,1638
CQUADX4,1529,1,1638,1653,1654,1639
CQUADX4,1530,1,1639,1654,1655,1640
CQUADX4,1531,1,1640,1655,1656,1641
CQUADX4,1532,1,1641,1656,1657,1642
CQUADX4,1533,1,1642,1657,1658,1643
CQUADX4,1534,1,1643,1658,1659,1644
CQUADX4,1535,1,1644,1659,1660,1645
CQUADX4,1536,1,1645,1660,1661,1646
CQUADX4,1537,1,1646,1661,1662,1647
CQUADX4,1538,1,1647,1662,1663,1648
CQUADX4,1539,1,1648,1663,1664,1649
CQUADX4,1540,1,1649,1664,1665,1650
CQUADX4,1541,1,1651,1666,1667,1652
CQUADX4,1542,1,1652,1667,1668,1653
CQUADX4,1543,1,1653,1668,1669,1654
CQUADX4,1544,1,1654,1669,1670,1655
CQUADX4,1545,1,1655,1670,1671,1656
CQUADX4,1546,1,1656,1671,1672,1657
CQUADX4,1547,1,1657,1672,1673,1658
CQUADX4,1548,1,1658,1673,1674,1659
CQUADX4,1549,1,1659,1674,1675,1660
CQUADX4,1550,1,1660,1675,1676,1661
CQUADX4,1551,1,1661,1676,1677,1662
CQUADX4,1552,1,1662,1677,1678,1663
CQUADX4,1553,1,1663,1678,1679,1664
CQUADX4,1554,1,1664,1679,1680,1665
CQUADX4,1555,1,1666,1681,1682,1667
CQUADX4,1556,1,1667,1682,1683,1668
CQUADX4,1557,1,1668,1683,1684,1669
CQUADX4,1558,1,1669,1684,1685,1670
CQUADX4,1559,1,1670,1685,1686,1671
CQUADX4,1560,1,1671,1686,1687,1672
CQUADX4,1561,1,1672,1687,1688,1673
CQUADX4,1562,1,1673,1688,1689,1674
CQUADX4,1563,1,1674,1689,1690,1675
CQUADX4,1564,1,1675,1690,1691,1676
CQUADX4,1565,1,1676,1691,1692,1677
CQUADX4,1566,1,1677,1692,1693,1678
CQUADX4,1567,1,1678,1693,1694,1679
CQUADX4,1568,1,1679,1694,1695,1680
CQUADX4,1569,1,1681,1696,1697,1682
CQUADX4,1570,1,1682,1697,1698,1683
CQUADX4,1571,1,1683,1698,1699,1684
CQUADX4,1572,1,1684,1699,1700,1685
CQUADX4,1573,1,1685,1700,1701,1686
CQUADX4,1574,1,1686,1701,1702,1687
CQUADX4,1575,1,1687,1702,1703,1688
CQUADX4,1576,1,1688,1703,1704,1689
CQUADX4,1577,1,1689,1704,1705,1690
CQUADX4,1578,1,1690,1705,1706,1691
CQUADX4,1579,1,1691,1706,1707,1692
CQUADX4,1580,1,1692,1707,1708,1693
CQUADX4,1581,1,1693,1708,1709,1694
CQUADX4,1582,1,1694,1709,1710,1695
CQUADX4,1583,1,1696,1711,1712,1697
CQUADX4,1584,1,1697,1712,1713,1698
CQUADX4,1585,1,1698,1713,1714,1699
CQUADX4,1586,1,1699,1714,1715,1700
CQUADX4,1587,1,1700,1715,1716,1701
CQUADX4,1588,1,1701,1716,1717,1702
CQUADX4,1589,1,1702,1717,1718,1703
CQUADX4,1590,1,1703,1718,1719,1704
CQUADX4,1591,1,1704,1719,1720,1705
CQUADX4,1592,1,1705,1720,1721,1706
CQUADX4,1593,1,1706,1721,1722,1707
CQUADX4,1594,1,1707,1722,1723,1708
CQUADX4,1595,1,1708,1723,1724,1709
CQUADX4,1596,1,1709,1724,1725,1710
CQUADX4,1597,1,1711,1726,1727,1712
CQUADX4,1598,1,1712,1727,1728,1713
CQUADX4,1599,1,1713,1728,1729,1714
CQUADX4,1600,1,1714,1729,1730,1715
CQUADX4,1601,1,1715,1730,1731,1716
CQUADX4,1602,1,1716,1731,1732,1717
CQUADX4,1603,1,1717,1732,1733,1718
CQUADX4,1604,1,1718,1733,1734,1719
CQUADX4,1605,1,1719,1734,1735,1720
CQUADX4,1606,1,1720,1735,1736,1721
CQUADX4,1607,1,1721,1736,1737,1722
CQUADX4,1608,1,1722,1737,1738,1723
CQUADX4,1609,1,1723,1738,1739,1724
CQUADX4,1610,1,1724,1739,1740,1725
CQUADX4,1611,1,1726,1741,1742,1727
CQUADX4,1612,1,1727,1742,1743,1728
CQUADX4,1613,1,1728,1743,1744,1729
CQUADX4,1614,1,1729,1744,1745,1730
CQUADX4,1615,1,1730,1745,1746,1731
CQUADX4,1616,1,1731,1746,1747,1732
CQUADX4,1617,1,1732,1747,1748,1733
CQUADX4,1618,1,1733,1748,1749,1734
CQUADX4,1619,1,1734,1749,1750,1735
CQUADX4,1620,1,1735,1750,1751,1736
CQUADX4,1621,1,1736,1751,1752,1737
CQUADX4,1622,1,1737,1752,1753,1738
CQUADX4,1623,1,1738,1753,1754,1739
CQUADX4,1624,1,1739,1754,1755,1740
CQUADX4,1625,1,1741,1756,1757,1742
CQUADX4,1626,1,1742,1757,1758,1743
CQUADX4,1627,1,1743,1758,1759,1744
CQUADX4,1628,1,1744,1759,1760,1745
CQUADX4,1629,1,1745,1760,1761,1746
CQUADX4,1630,1,1746,1761,1762,1747
CQUADX4,1631,1,1747,1762,1763,1748
CQUADX4,1632,1,1748,1763,1764,1749
CQUADX4,1633,1,1749,1764,1765,1750
CQUADX4,1634,1,1750,1765,1766,1751
CQUADX4,1635,1,1751,1766,1767,1752
CQUADX4,1636,1,1752,1767,1768,1753
CQUADX4,1637,1,1753,1768,1769,1754
CQUADX4,1638,1,1754,1769,1770,1755
CQUADX4,1639,1,1756,1771,1772,1757
CQUADX4,1640,1,1757,1772,1773,1758
CQUADX4,1641,1,1758,1773,1774,1759
CQUADX4,1642,1,1759,1774,1775,1760
CQUADX4,1643,1,1760,1775,1776,1761
CQUADX4,1644,1,1761,1776,1777,1762
CQUADX4,1645,1,1762,1777,1778,1763
CQUADX4,1646,1,1763,1778,1779,1764
CQUADX4,1647,1,1764,1779,1780,1765
CQUADX4,1648,1,1765,1780,1781,1766
CQUADX4,1649,1,1766,1781,1782,1767
CQUADX4,1650,1,1767,1782,1783,1768
CQUADX4,1651,1,1768,1783,1784,1769
CQUADX4,1652,1,1769,1784,1785,1770
CQUADX4,1653,1,1771,1786,1787,1772
CQUADX4,1654,1,1772,1787,1788,1773
CQUADX4,1655,1,1773,1788,1789,1774
CQUADX4,1656,1,1774,1789,1790,1775
CQUADX4,1657,1,1775,1790,1791,1776
CQUADX4,1658,1,1776,1791,1792,1777
CQUADX4,1659,1,1777,1792,1793,1778
CQUADX4,1660,1,1778,1793,1794,1779
CQUADX4,1661,1,1779,1794,1795,1780
CQUADX4,1662,1,1780,1795,1796,1781
CQUADX4,1663,1,1781,1796,1797,1782
CQUADX4,1664,1,1782,1797,1798,1783
CQUADX4,1665,1,1783,1798,1799,1784
CQUADX4,1666,1,1784,1799,1800,1785
CQUADX4,1667,1,1786,1801,1802,1787
CQUADX4,1668,1,1787,1802,1803,1788
CQUADX4,1669,1,1788,1803,1804,1789
CQUADX4,1670,1,1789,1804,1805,1790
CQUADX4,1671,1,1790,1805,1806,1791
CQUADX4,1672,1,1791,1806,1807,1792
CQUADX4,1673,1,1792,1807,1808,1793
CQUADX4,1674,1,1793,1808,1809,1794
CQUADX4,1675,1,1794,1809,1810,1795
CQUADX4,1676,1,1795,1810,1811,1796
CQUADX4,1677,1,1796,1811,1812,1797
CQUADX4,1678,1,1797,1812,1813,1798
CQUADX4,1679,1,1798,1813,1814,1799
CQUADX4,1680,1,1799,1814,1815,1800
CQUADX4,1681,1,1801,1816,1817,1802
CQUADX4,1682,1,1802,1817,1818,1803
CQUADX4,1683,1,1803,1818,1819,1804
CQUADX4,1684,1,1804,1819,1820,1805
CQUADX4,1685,1,1805,1820,1821,1806
CQUADX4,1686,1,1806,1821,1822,1807
CQUADX4,1687,1,1807,1822,1823,1808
CQUADX4,1688,1,1808,1823,1824,1809
CQUADX4,1689,1,1809,1824,1825,1810
CQUADX4,1690,1,1810,1825,1826,1811
CQUADX4,1691,1,1811,1826,1827,1812
CQUADX4,1692,1,1812,1827,1828,1813
CQUADX4,1693,1,1813,1828,1829,1814
CQUADX4,1694,1,1814,1829,1830,1815
CQUADX4,1695,1,1816,1831,1832,1817
CQUADX4,1696,1,1817,1832,1833,1818
CQUADX4,1697,1,1818,1833,1834,1819
CQUADX4,1698,1,1819,1834,1835,1820
CQUADX4,1699,1,1820,1835,1836,1821
CQUADX4,1700,1,1821,1836,1837,1822
CQUADX4,1701,1,1822,1837,1838,1823
CQUADX4,1702,1,1823,1838,1839,1824
CQUADX4,1703,1,1824,1839,1840,1825
CQUADX4,1704,1,1825,1840,1841,1826
CQUADX4,1705,1,1826,1841,1842,1827
CQUADX4,1706,1,1827,1842,1843,1828
CQUADX4,1707,1,1828,1843,1844,1829
CQUADX4,1708,1,1829,1844,1845,1830
CQUADX4,1709,1,1831,1846,1847,1832
CQUADX4,1710,1,1832,1847,1848,1833
CQUADX4,1711,1,1833,1848,1849,1834
CQUADX4,1712,1,1834,1849,1850,1835
CQUADX4,1713,1,1835,1850,1851,1836
CQUADX4,1714,1,1836,1851,1852,1837
CQUADX4,1715,1,1837,1852,1853,1838
CQUADX4,1716,1,1838,1853,1854,1839
CQUADX4,1717,1,1839,1854,1855,1840
CQUADX4,1718,1,1840,1855,1856,1841
CQUADX4,1719,1,1841,1856,1857,1842
CQUADX4,1720,1,1842,1857,1858,1843
CQUADX4,1721,1,1843,1858,1859,1844
CQUADX4,1722,1,1844,1859,1860,1845
CQUADX4,1723,1,1846,1861,1862,1847
CQUADX4,1724,1,1847,1862,1863,1848
CQUADX4,1725,1,1848,1863,1864,1849
CQUADX4,1726,1,1849,1864,1865,1850
CQUADX4,1727,1,1850,1865,1866,1851
CQUADX4,1728,1,1851,1866,1867,1852
CQUADX4,1729,1,1852,1867,1868,1853
CQUADX4,1730,1,1853,1868,1869,1854
CQUADX4,1731,1,1854,1869,1870,1855
CQUADX4,1732,1,1855,1870,1871,1856
CQUADX4,1733,1,1856,1871,1872,1857
CQUADX4,1734,1,1857,1872,1873,1858
CQUADX4,1735,1,1858,1873,1874,1859
CQUADX4,1736,1,1859,1874,1875,1860
CQUADX4,1737,1,1861,1876,1877,1862
CQUADX4,1738,1,1862,1877,1878,1863
CQUADX4,1739,1,1863,1878,1879,1864
CQUADX4,1740,1,1864,1879,1880,1865
CQUADX4,1741,1,1865,1880,1881,1866
CQUADX4,1742,1,1866,1881,1882,1867
CQUADX4,1743,1,1867,1882,1883,1868
CQUADX4,1744,1,1868,1883,1884,1869
CQUADX4,1745,1,1869,1884,1885,1870
CQUADX4,1746,1,1870,1885,1886,1871
CQUADX4,1747,1,1871,1886,1887,1872
CQUADX4,1748,1,1872,1887,1888,1873
CQUADX4,1749,1,1873,1888,1889,1874
CQUADX4,1750,1,1874,1889,1890,1875
CQUADX4,1751,1,1876,1891,1892,1877
CQUADX4,1752,1,1877,1892,1893,1878
CQUADX4,1753,1,1878,1893,1894,1879
CQUADX4,1754,1,1879,1894,1895,1880
CQUADX4,1755,1,1880,1895,1896,1881
CQUADX4,1756,1,1881,1896,1897,1882
CQUADX4,1757,1,1882,1897,1898,1883
CQUADX4,1758,1,1883,1898,1899,1884
CQUADX4,1759,1,1884,1899,1900,1885
CQUADX4,1760,1,1885,1900,1901,1886
CQUADX4,1761,1,1886,1901,1902,1887
CQUADX4,1762,1,1887,1902,1903,1888
CQUADX4,1763,1,1888,1903,1904,1889
CQUADX4,1764,1,1889,1904,1905,1890
CQUADX4,1765,1,1891,1906,1907,1892
CQUADX4,1766,1,1892,1907,1908,1893
CQUADX4,1767,1,1893,1908,1909,1894
CQUADX4,1768,1,1894,1909,1910,1895
CQUADX4,1769,1,1895,1910,1911,1896
CQUADX4,1770,1,1896,1911,1912,1897
CQUADX4,1771,1,1897,1912,1913,1898
CQUADX4,1772,1,1898,1913,1914,1899
CQUADX4,1773,1,1899,1914,1915,1900
CQUADX4,1774,1,1900,1915,1916,1901
CQUADX4,1775,1,1901,1916,1917,1902
CQUADX4,1776,1,1902,1917,1918,1903
CQUADX4,1777,1,1903,1918,1919,1904
CQUADX4,1778,1,1904,1919,1920,1905
CQUADX4,1779,1,1906,1921,1922,1907
CQUADX4,1780,1,1907,1922,1923,1908
CQUADX4,1781,1,1908,1923,1924,1909
CQUADX4,1782,1,1909,1924,1925,1910
CQUADX4,1783,1,1910,1925,1926,1911
CQUADX4,1784,1,1911,1926,1927,1912
CQUADX4,1785,1,1912,1927,1928,1913
CQUADX4,1786,1,1913,1928,1929,1914
CQUADX4,1787,1,1914,1929,1930,1915
CQUADX4,1788,1,1915,1930,1931,1916
CQUADX4,1789,1,1916,1931,1932,1917
CQUADX4,1790,1,1917,1932,1933,1918
CQUADX4,1791,1,1918,1933,1934,1919
CQUADX4,1792,1,1919,1934,1935,1920
CQUADX4,1793,1,1921,1936,1937,1922
CQUADX4,1794,1,1922,1937,1938,1923
CQUADX4,1795,1,1923,1938,1939,1924
CQUADX4,1796,1,1924,1939,1940,1925
CQUADX4,1797,1,1925,1940,1941,1926
CQUADX4,1798,1,1926,1941,1942,1927
CQUADX4,1799,1,1927,1942,1943,1928
CQUADX4,1800,1,1928,1943,1944,1929
CQUADX4,1801,1,1929,1944,1945,1930
CQUADX4,1802,1,1930,1945,1946,1931
CQUADX4,1803,1,1931,1946,1947,1932
CQUADX4,1804,1,1932,1947,1948,1933
CQUADX4,1805,1,1933,1948,1949,1934
CQUADX4,1806,1,1934,1949,1950,1935
CQUADX4,1807,1,1936,1951,1952,1937
CQUADX4,1808,1,1937,1952,1953,1938
CQUADX4,1809,1,1938,1953,1954,1939
CQUADX4,1810,1,1939,1954,1955,1940
CQUADX4,1811,1,1940,1955,1956,1941
CQUADX4,1812,1,1941,1956,1957,1942
CQUADX4,1813,1,1942,1957,1958,1943
CQUADX4,1814,1,1943,1958,1959,1944
CQUADX4,1815,1,1944,1959,1960,1945
CQUADX4,1816,1,1945,1960,1961,1946
CQUADX4,1817,1,1946,1961,1962,1947
CQUADX4,1818,1,1947,1962,1963,1948
CQUADX4,1819,1,1948,1963,1964,1949
CQUADX4,1820,1,1949,1964,1965,1950
CQUADX4,1821,1,1951,1966,1967,1952
CQUADX4,1822,1,1952,1967,1968,1953
CQUADX4,1823,1,1953,1968,1969,1954
CQUADX4,1824,1,1954,1969,1970,1955
CQUADX4,1825,1,1955,1970,1971,1956
CQUADX4,1826,1,1956,1971,1972,1957
CQUADX4,1827,1,1957,1972,1973,1958
CQUADX4,1828,1,1958,1973,1974,1959
CQUADX4,1829,1,1959,1974,1975,1960
CQUADX4,1830,1,1960,1975,1976,1961
CQUADX4,1831,1,1961,1976,1977,1962
CQUADX4,1832,1,1962,1977,1978,1963
CQUADX4,1833,1,1963,1978,1979,1964
CQUADX4,1834,1,1964,1979,1980,1965
CQUADX4,1835,1,1966,1981,1982,1967
CQUADX4,1836,1,1967,1982,1983,1968
CQUADX4,1837,1,1968,1983,1984,1969
CQUADX4,1838,1,1969,1984,1985,1970
CQUADX4,1839,1,1970,1985,1986,1971
CQUADX4,1840,1,1971,1986,1987,1972
CQUADX4,1841,1,1972,1987,1988,1973
CQUADX4,1842,1,1973,1988,1989,1974
CQUADX4,1843,1,1974,1989,1990,1975
CQUADX4,1844,1,1975,1990,1991,1976
CQUADX4,1845,1,1976,1991,1992,1977
CQUADX4,1846,1,1977,1992,1993,1978
CQUADX4,1847,1,1978,1993,1994,1979
CQUADX4,1848,1,1979,1994,1995,1980
CQUADX4,1849,1,1981,1996,1997,1982
CQUADX4,1850,1,1982,1997,1998,1983
CQUADX4,1851,1,1983,1998,1999,1984
CQUADX4,1852,1,1984,1999,2000,1985
CQUADX4,1853,1,1985,2000,2001,1986
CQUADX4,1854,1,1986,2001,2002,1987
CQUADX4,1855,1,1987,2002,2003,1988
CQUADX4,1856,1,1988,2003,2004,1989
CQUADX4,1857,1,1989,2004,2005,1990
CQUADX4,1858,1,1990,2005,2006,1991
CQUADX4,1859,1,1991,2006,2007,1992
CQUADX4,1860,1,1992,2007,2008,1993
CQUADX4,1861,1,1993,2008,2009,1994
CQUADX4,1862,1,1994,2009,2010,1995
CQUADX4,1863,1,1996,2011,2012,1997
CQUADX4,1864,1,1997,2012,2013,1998
CQUADX4,1865,1,1998,2013,2014,1999
CQUADX4,1866,1,1999,2014,2015,2000
CQUADX4,1867,1,2000,2015,2016,2001
CQUADX4,1868,1,2001,2016,2017,2002
CQUADX4,1869,1,2002,2017,2018,2003
CQUADX4,1870,1,2003,2018,2019,2004
CQUADX4,1871,1,2004,2019,2020,2005
CQUADX4,1872,1,2005,2020,2021,2006
CQUADX4,1873,1,2006,2021,2022,2007
CQUADX4,1874,1,2007,2022,2023,2008
CQUADX4,1875,1,2008,2023,2024,2009
CQUADX4,1876,1,2009,2024,2025,2010
CQUADX4,1877,1,2011,2026,2027,2012
CQUADX4,1878,1,2012,2027,2028,2013
CQUADX4,1879,1,2013,2028,2029,2014
CQUADX4,1880,1,2014,2029,2030,2015
CQUADX4,1881,1,2015,2030,2031,2016
CQUADX4,1882,1,2016,2031,2032,2017
CQUADX4,1883,1,2017,2032,2033,2018
CQUADX4,1884,1,2018,2033,2034,2019
CQUADX4,1885,1,2019,2034,2035,2020
CQUADX4,1886,1,2020,2035,2036,2021
CQUADX4,1887,1,2021,2036,2037,2022
CQUADX4,1888,1,2022,2037,2038,2023
CQUADX4,1889,1,2023,2038,2039,2024
CQUADX4,1890,1,2024,2039,2040,2025
CQUADX4,1891,1,2026,2041,2042,2027
CQUADX4,1892,1,2027,2042,2043,2028
CQUADX4,1893,1,2028,2043,2044,2029
CQUADX4,1894,1,2029,2044,2045,2030
CQUADX4,1895,1,2030,2045,2046,2031
CQUADX4,1896,1,2031,2046,2047,2032
CQUADX4,1897,1,2032,2047,2048,2033
CQUADX4,1898,1,2033,2048,2049,2034
CQUADX4,1899,1,2034,2049,2050,2035
CQUADX4,1900,1,2035,2050,2051,2036
CQUADX4,1901,1,2036,2051,2052,2037
CQUADX4,1902,1,2037,2052,2053,2038
CQUADX4,1903,1,2038,2053,2054,2039
CQUADX4,1904,1,2039,2054,2055,2040
CQUADX4,1905,1,2041,2056,2057,2042
CQUADX4,1906,1,2042,2057,2058,2043
CQUADX4,1907,1,2043,2058,2059,2044
CQUADX4,1908,1,2044,2059,2060,2045
CQUADX4,1909,1,2045,2060,2061,2046
CQUADX4,1910,1,2046,2061,2062,2047
CQUADX4,1911,1,2047,2062,2063,2048
CQUADX4,1912,1,2048,2063,2064,2049
CQUADX4,1913,1,2049,2064,2065,2050
CQUADX4,1914,1,2050,2065,2066,2051
CQUADX4,1915,1,2051,2066,2067,2052
CQUADX4,1916,1,2052,2067,2068,2053
CQUADX4,1917,1,2053,2068,2069,2054
CQUADX4,1918,1,2054,2069,2070,2055
CQUADX4,1919,1,2056,2071,2072,2057
CQUADX4,1920,1,2057,2072,2073,2058
CQUADX4,1921,1,2058,2073,2074,2059
CQUADX4,1922,1,2059,2074,2075,2060
CQUADX4,1923,1,2060,2075,2076,2061
CQUADX4,1924,1,2061,2076,2077,2062
CQUADX4,1925,1,2062,2077,2078,2063
CQUADX4,1926,1,2063,2078,2079,2064
CQUADX4,1927,1,2064,2079,2080,2065
CQUADX4,1928,1,2065,2080,2081,2066
CQUADX4,1929,1,2066,2081,2082,2067
CQUADX4,1930,1,2067,2082,2083,2068
CQUADX4,1931,1,2068,2083,2084,2069
CQUADX4,1932,1,2069,2084,2085,2070
CQUADX4,1933,1,2071,2086,2087,2072
CQUADX4,1934,1,2072,2087,2088,2073
CQUADX4,1935,1,2073,2088,2089,2074
CQUADX4,1936,1,2074,2089,2090,2075
CQUADX4,1937,1,2075,2090,2091,2076
CQUADX4,1938,1,2076,2091,2092,2077
CQUADX4,1939,1,2077,2092,2093,2078
CQUADX4,1940,1,2078,2093,2094,2079
CQUADX4,1941,1,2079,2094,2095,2080
CQUADX4,1942,1,2080,2095,2096,2081
CQUADX4,1943,1,2081,2096,2097,2082
CQUADX4,1944,1,2082,2097,2098,2083
CQUADX4,1945,1,2083,2098,2099,2084
CQUADX4,1946,1,2084,2099,2100,2085
CQUADX4,1947,1,11925,10495,1,10649
CQUADX4,1948,1,10495,10496,16,1
CQUADX4,1949,1,10496,10497,31,16
CQUADX4,1950,1,10497,10498,46,31
CQUADX4,1951,1,10498,10499,61,46
CQUADX4,1952,1,10499,10500,76,61
CQUADX4,1953,1,10500,10501,91,76
CQUADX4,1954,1,10501,10502,106,91
CQUADX4,1955,1,10502,10503,121,106
CQUADX4,1956,1,10503,10504,136,121
CQUADX4,1957,1,10504,10505,151,136
CQUADX4,1958,1,10505,10506,166,151
CQUADX4,1959,1,10506,10507,181,166
CQUADX4,1960,1,10507,10508,196,181
CQUADX4,1961,1,10508,10509,211,196
CQUADX4,1962,1,10509,10510,226,211
CQUADX4,1963,1,10510,10511,241,226
CQUADX4,1964,1,10511,10512,256,241
CQUADX4,1965,1,10512,10513,271,256
CQUADX4,1966,1,10513,10514,286,271
CQUADX4,1967,1,10514,10515,301,286
CQUADX4,1968,1,10515,10516,316,301
CQUADX4,1969,1,10516,10517,331,316
CQUADX4,1970,1,10517,10518,346,331
CQUADX4,1971,1,10518,10519,361,346
CQUADX4,1972,1,10519,10520,376,361
CQUADX4,1973,1,10520,10521,391,376
CQUADX4,1974,1,10521,10522,406,391
CQUADX4,1975,1,10522,10523,421,406
CQUADX4,1976,1,10523,10524,436,421
CQUADX4,1977,1,10524,10525,451,436
CQUADX4,1978,1,10525,10526,466,451
CQUADX4,1979,1,10526,10527,481,466
CQUADX4,1980,1,10527,10528,496,481
CQUADX4,1981,1,10528,10529,511,496
CQUADX4,1982,1,10529,10530,526,511
CQUADX4,1983,1,10530,10531,541,526
CQUADX4,1984,1,10531,10532,556,541
CQUADX4,1985,1,10532,10533,571,556
CQUADX4,1986,1,10533,10534,586,571
CQUADX4,1987,1,10534,10535,601,586
CQUADX4,1988,1,10535,10536,616,601
CQUADX4,1989,1,10536,10537,631,616
CQUADX4,1990,1,10537,10538,646,631
CQUADX4,1991,1,10538,10539,661,646
CQUADX4,1992,1,10539,10540,676,661
CQUADX4,1993,1,10540,10541,691,676
CQUADX4,1994,1,10541,10542,706,691
CQUADX4,1995,1,10542,10543,721,706
CQUADX4,1996,1,10543,10544,736,721
CQUADX4,1997,1,10544,10545,751,736
CQUADX4,1998,1,10545,10546,766,751
CQUADX4,1999,1,10546,10547,781,766
CQUADX4,2000,1,10547,10548,796,781
CQUADX4,2001,1,10548,10549,811,796
CQUADX4,2002,1,10549,10550,826,811
CQUADX4,2003,1,10550,10551,841,826
CQUADX4,2004,1,10551,10552,856,841
CQUADX4,2005,1,10552,10553,871,856
CQUADX4,2006,1,10553,10554,886,871
CQUADX4,2007,1,10554,10555,901,886
CQUADX4,2008,1,10555,10556,916,901
CQUADX4,2009,1,10556,10557,931,916
CQUADX4,2010,1,10557,10558,946,931
CQUADX4,2011,1,10558,10559,961,946
CQUADX4,2012,1,10559,10560,976,961
CQUADX4,2013,1,10560,10561,991,976
CQUADX4,2014,1,10561,10562,1006,991
CQUADX4,2015,1,10562,10563,1021,1006
CQUADX4,2016,1,10563,10564,1036,1021
CQUADX4,2017,1,10564,10565,1051,1036
CQUADX4,2018,1,10565,10566,1066,1051
CQUADX4,2019,1,10566,10567,1081,1066
CQUADX4,2020,1,10567,10568,1096,1081
CQUADX4,2021,1,10568,10569,1111,1096
CQUADX4,2022,1,10569,10570,1126,1111
CQUADX4,2023,1,10570,10571,1141,1126
CQUADX4,2024,1,10571,10572,1156,1141
CQUADX4,2025,1,10572,10573,1171,1156
CQUADX4,2026,1,10573,10574,1186,1171
CQUADX4,2027,1,10574,10575,1201,1186
CQUADX4,2028,1,10575,10576,1216,1201
CQUADX4,2029,1,10576,10577,1231,1216
CQUADX4,2030,1,10577,10578,1246,1231
CQUADX4,2031,1,10578,10579,1261,1246
CQUADX4,2032,1,10579,10580,1276,1261
CQUADX4,2033,1,10580,10581,1291,1276
CQUADX4,2034,1,10581,10582,1306,1291
CQUADX4,2035,1,10582,10583,1321,1306
CQUADX4,2036,1,10583,10584,1336,1321
CQUADX4,2037,1,10584,10585,1351,1336
CQUADX4,2038,1,10585,10586,1366,1351
CQUADX4,2039,1,10586,10587,1381,1366
CQUADX4,2040,1,10587,10588,1396,1381
CQUADX4,2041,1,10588,10589,1411,1396
CQUADX4,2042,1,10589,10590,1426,1411
CQUADX4,2043,1,10590,10591,1441,1426
CQUADX4,2044,1,10591,10592,1456,1441
CQUADX4,2045,1,10592,10593,1471,1456
CQUADX4,2046,1,10593,10594,1486,1471
CQUADX4,2047,1,10594,10595,1501,1486
CQUADX4,2048,1,10595,10596,1516,1501
CQUADX4,2049,1,10596,10597,1531,1516
CQUADX4,2050,1,10597,10598,1546,1531
CQUADX4,2051,1,10598,10599,1561,1546
CQUADX4,2052,1,10599,10600,1576,1561
CQUADX4,2053,1,10600,10601,1591,1576
CQUADX4,2054,1,10601,10602,1606,1591
CQUADX4,2055,1,10602,10603,1621,1606
CQUADX4,2056,1,10603,10604,1636,1621
CQUADX4,2057,1,10604,10605,1651,1636
CQUADX4,2058,1,10605,10606,1666,1651
CQUADX4,2059,1,10606,10607,1681,1666
CQUADX4,2060,1,10607,10608,1696,1681
CQUADX4,2061,1,10608,10609,1711,1696
CQUADX4,2062,1,10609,10610,1726,1711
CQUADX4,2063,1,10610,10611,1741,1726
CQUADX4,2064,1,10611,10612,1756,1741
CQUADX4,2065,1,10612,10613,1771,1756
CQUADX4,2066,1,10613,10614,1786,1771
CQUADX4,2067,1,10614,10615,1801,1786
CQUADX4,2068,1,10615,10616,1816,1801
CQUADX4,2069,1,10616,10617,1831,1816
CQUADX4,2070,1,10617,10618,1846,1831
CQUADX4,2071,1,10618,10619,1861,1846
CQUADX4,2072,1,10619,10620,1876,1861
CQUADX4,2073,1,10620,10621,1891,1876
CQUADX4,2074,1,10621,10622,1906,1891
CQUADX4,2075,1,10622,10623,1921,1906
CQUADX4,2076,1,10623,10624,1936,1921
CQUADX4,2077,1,10624,10625,1951,1936
CQUADX4,2078,1,10625,10626,1966,1951
CQUADX4,2079,1,10626,10627,1981,1966
CQUADX4,2080,1,10627,10628,1996,1981
CQUADX4,2081,1,10628,10629,2011,1996
CQUADX4,2082,1,10629,10630,2026,2011
CQUADX4,2083,1,10630,10631,2041,2026
CQUADX4,2084,1,10631,10632,2056,2041
CQUADX4,2085,1,10632,10633,2071,2056
CQUADX4,2086,1,10633,10634,2086,2071
CQUADX4,2087,1,10634,11922,10340,2086
CQUADX4,2088,1,2086,10340,10341,2087
CQUADX4,2089,1,2087,10341,10342,2088
CQUADX4,2090,1,2088,10342,10343,2089
CQUADX4,2091,1,2089,10343,10344,2090
CQUADX4,2092,1,2090,10344,10345,2091
CQUADX4,2093,1,2091,10345,10346,2092
CQUADX4,2094,1,2092,10346,10347,2093
CQUADX4,2095,1,2093,10347,10348,2094
CQUADX4,2096,1,2094,10348,10349,2095
CQUADX4,2097,1,2095,10349,10350,2096
CQUADX4,2098,1,2096,10350,10351,2097
CQUADX4,2099,1,2097,10351,10352,2098
CQUADX4,2100,1,2098,10352,10353,2099
CQUADX4,2101,1,2099,10353,10354,2100
CQUADX4,2102,1,2100,10354,11923,10355
CQUADX4,2103,1,2085,2100,10355,10356
CQUADX4,2104,1,2070,2085,10356,10357
CQUADX4,2105,1,2055,2070,10357,10358
CQUADX4,2106,1,2040,2055,10358,10359
CQUADX4,2107,1,2025,2040,10359,10360
CQUADX4,2108,1,2010,2025,10360,10361
CQUADX4,2109,1,1995,2010,10361,10362
CQUADX4,2110,1,1980,1995,10362,10363
CQUADX4,2111,1,1965,1980,10363,10364
CQUADX4,2112,1,1950,1965,10364,10365
CQUADX4,2113,1,1935,1950,10365,10366
CQUADX4,2114,1,1920,1935,10366,10367
CQUADX4,2115,1,1905,1920,10367,10368
CQUADX4,2116,1,1890,1905,10368,10369
CQUADX4,2117,1,1875,1890,10369,10370
CQUADX4,2118,1,1860,1875,10370,10371
CQUADX4,2119,1,1845,1860,10371,10372
CQUADX4,2120,1,1830,1845,10372,10373
CQUADX4,2121,1,1815,1830,10373,10374
CQUADX4,2122,1,1800,1815,10374,10375
CQUADX4,2123,1,1785,1800,10375,10376
CQUADX4,2124,1,1770,1785,10376,10377
CQUADX4,2125,1,1755,1770,10377,10378
CQUADX4,2126,1,1740,1755,10378,10379
CQUADX4,2127,1,1725,1740,10379,10380
CQUADX4,2128,1,1710,1725,10380,10381
CQUADX4,2129,1,1695,1710,10381,10382
CQUADX4,2130,1,1680,1695,10382,10383
CQUADX4,2131,1,1665,1680,10383,10384
CQUADX4,2132,1,1650,1665,10384,10385
CQUADX4,2133,1,1635,1650,10385,10386
CQUADX4,2134,1,1620,1635,10386,10387
CQUADX4,2135,1,1605,1620,10387,10388
CQUADX4,2136,1,1590,1605,10388,10389
CQUADX4,2137,1,1575,1590,10389,10390
CQUADX4,2138,1,1560,1575,10390,10391
CQUADX4,2139,1,1545,1560,10391,10392
CQUADX4,2140,1,1530,1545,10392,10393
CQUADX4,2141,1,1515,1530,10393,10394
CQUADX4,2142,1,1500,1515,10394,10395
CQUADX4,2143,1,1485,1500,10395,10396
CQUADX4,2144,1,1470,1485,10396,10397
CQUADX4,2145,1,1455,1470,10397,10398
CQUADX4,2146,1,1440,1455,10398,10399
CQUADX4,2147,1,1425,1440,10399,10400
CQUADX4,2148,1,1410,1425,10400,10401
CQUADX4,2149,1,1395,1410,10401,10402
CQUADX4,2150,1,1380,1395,10402,10403
CQUADX4,2151,1,1365,1380,10403,10404
CQUADX4,2152,1,1350,1365,10404,10405
CQUADX4,2153,1,1335,1350,10405,10406
CQUADX4,2154,1,1320,1335,10406,10407
CQUADX4,2155,1,1305,1320,10407,10408
CQUADX4,2156,1,1290,1305,10408,10409
CQUADX4,2157,1,1275,1290,10409,10410
CQUADX4,2158,1,1260,1275,10410,10411
CQUADX4,2159,1,1245,1260,10411,10412
CQUADX4,2160,1,1230,1245,10412,10413
CQUADX4,2161,1,1215,1230,10413,10414
CQUADX4,2162,1,1200,1215,10414,10415
CQUADX4,2163,1,1185,1200,10415,10416
CQUADX4,2164,1,1170,1185,10416,10417
CQUADX4,2165,1,1155,1170,10417,10418
CQUADX4,2166,1,1140,1155,10418,10419
CQUADX4,2167,1,1125,1140,10419,10420
CQUADX4,2168,1,1110,1125,10420,10421
CQUADX4,2169,1,1095,1110,10421,10422
CQUADX4,2170,1,1080,1095,10422,10423
CQUADX4,2171,1,1065,1080,10423,10424
CQUADX4,2172,1,1050,1065,10424,10425
CQUADX4,2173,1,1035,1050,10425,10426
CQUADX4,2174,1,1020,1035,10426,10427
CQUADX4,2175,1,1005,1020,10427,10428
CQUADX4,2176,1,990,1005,10428,10429
CQUADX4,2177,1,975,990,10429,10430
CQUADX4,2178,1,960,975,10430,10431
CQUADX4,2179,1,945,960,10431,10432
CQUADX4,2180,1,930,945,10432,10433
CQUADX4,2181,1,915,930,10433,10434
CQUADX4,2182,1,900,915,10434,10435
CQUADX4,2183,1,885,900,10435,10436
CQUADX4,2184,1,870,885,10436,10437
CQUADX4,2185,1,855,870,10437,10438
CQUADX4,2186,1,840,855,10438,10439
CQUADX4,2187,1,825,840,10439,10440
CQUADX4,2188,1,810,825,10440,10441
CQUADX4,2189,1,795,810,10441,10442
CQUADX4,2190,1,780,795,10442,10443
CQUADX4,2191,1,765,780,10443,10444
CQUADX4,2192,1,750,765,10444,10445
CQUADX4,2193,1,735,750,10445,10446
CQUADX4,2194,1,720,735,10446,10447
CQUADX4,2195,1,705,720,10447,10448
CQUADX4,2196,1,690,705,10448,10449
CQUADX4,2197,1,675,690,10449,10450
CQUADX4,2198,1,660,675,10450,10451
CQUADX4,2199,1,645,660,10451,10452
CQUADX4,2200,1,630,645,10452,10453
CQUADX4,2201,1,615,630,10453,10454
CQUADX4,2202,1,600,615,10454,10455
CQUADX4,2203,1,585,600,10455,10456
CQUADX4,2204,1,570,585,10456,10457
CQUADX4,2205,1,555,570,10457,10458
CQUADX4,2206,1,540,555,10458,10459
CQUADX4,2207,1,525,540,10459,10460
CQUADX4,2208,1,510,525,10460,10461
CQUADX4,2209,1,495,510,10461,10462
CQUADX4,2210,1,480,495,10462,10463
CQUADX4,2211,1,465,480,10463,10464
CQUADX4,2212,1,450,465,10464,10465
CQUADX4,2213,1,435,450,10465,10466
CQUADX4,2214,1,420,435,10466,10467
CQUADX4,2215,1,405,420,10467,10468
CQUADX4,2216,1,390,405,10468,10469
CQUADX4,2217,1,375,390,10469,10470
CQUADX4,2218,1,360,375,10470,10471
CQUADX4,2219,1,345,360,10471,10472
CQUADX4,2220,1,330,345,10472,10473
CQUADX4,2221,1,315,330,10473,10474
CQUADX4,2222,1,300,315,10474,10475
CQUADX4,2223,1,285,300,10475,10476
CQUADX4,2224,1,270,285,10476,10477
CQUADX4,2225,1,255,270,10477,10478
CQUADX4,2226,1,240,255,10478,10479
CQUADX4,2227,1,225,240,10479,10480
CQUADX4,2228,1,210,225,10480,10481
CQUADX4,2229,1,195,210,10481,10482
CQUADX4,2230,1,180,195,10482,10483
CQUADX4,2231,1,165,180,10483,10484
CQUADX4,2232,1,150,165,10484,10485
CQUADX4,2233,1,135,150,10485,10486
CQUADX4,2234,1,120,135,10486,10487
CQUADX4,2235,1,105,120,10487,10488
CQUADX4,2236,1,90,105,10488,10489
CQUADX4,2237,1,75,90,10489,10490
CQUADX4,2238,1,60,75,10490,10491
CQUADX4,2239,1,45,60,10491,10492
CQUADX4,2240,1,30,45,10492,10493
CQUADX4,2241,1,15,30,10493,10494
CQUADX4,2242,1,10635,15,10494,11924
CQUADX4,2243,1,10636,14,15,10635
CQUADX4,2244,1,10637,13,14,10636
CQUADX4,2245,1,10638,12,13,10637
CQUADX4,2246,1,10639,11,12,10638
CQUADX4,2247,1,10640,10,11,10639
CQUADX4,2248,1,10641,9,10,10640
CQUADX4,2249,1,10642,8,9,10641
CQUADX4,2250,1,10643,7,8,10642
CQUADX4,2251,1,10644,6,7,10643
CQUADX4,2252,1,10645,5,6,10644
CQUADX4,2253,1,10646,4,5,10645
CQUADX4,2254,1,10647,3,4,10646
CQUADX4,2255,1,10648,2,3,10647
CQUADX4,2256,1,10649,1,2,10648
CQUADX4,2257,1,2101,2112,2113,2102
CQUADX4,2258,1,2102,2113,2114,2103
CQUADX4,2259,1,2103,2114,2115,2104
CQUADX4,2260,1,2104,2115,2116,2105
CQUADX4,2261,1,2105,2116,2117,2106
CQUADX4,2262,1,2106,2117,2118,2107
CQUADX4,2263,1,2107,2118,2119,2108
CQUADX4,2264,1,2108,2119,2120,2109
CQUADX4,2265,1,2109,2120,2121,2110
CQUADX4,2266,1,2110,2121,2122,2111
CQUADX4,2267,1,2112,2123,2124,2113
CQUADX4,2268,1,2113,2124,2125,2114
CQUADX4,2269,1,2114,2125,2126,2115
CQUADX4,2270,1,2115,2126,2127,2116
CQUADX4,2271,1,2116,2127,2128,2117
CQUADX4,2272,1,2117,2128,2129,2118
CQUADX4,2273,1,2118,2129,2130,2119
CQUADX4,2274,1,2119,2130,2131,2120
CQUADX4,2275,1,2120,2131,2132,2121
CQUADX4,2276,1,2121,2132,2133,2122
CQUADX4,2277,1,2123,2134,2135,2124
CQUADX4,2278,1,2124,2135,2136,2125
CQUADX4,2279,1,2125,2136,2137,2126
CQUADX4,2280,1,2126,2137,2138,2127
CQUADX4,2281,1,2127,2138,2139,2128
CQUADX4,2282,1,2128,2139,2140,2129
CQUADX4,2283,1,2129,2140,2141,2130
CQUADX4,2284,1,2130,2141,2142,2131
CQUADX4,2285,1,2131,2142,2143,2132
CQUADX4,2286,1,2132,2143,2144,2133
CQUADX4,2287,1,2134,2145,2146,2135
CQUADX4,2288,1,2135,2146,2147,2136
CQUADX4,2289,1,2136,2147,2148,2137
CQUADX4,2290,1,2137,2148,2149,2138
CQUADX4,2291,1,2138,2149,2150,2139
CQUADX4,2292,1,2139,2150,2151,2140
CQUADX4,2293,1,2140,2151,2152,2141
CQUADX4,2294,1,2141,2152,2153,2142
CQUADX4,2295,1,2142,2153,2154,2143
CQUADX4,2296,1,2143,2154,2155,2144
CQUADX4,2297,1,2145,2156,2157,2146
CQUADX4,2298,1,2146,2157,2158,2147
CQUADX4,2299,1,2147,2158,2159,2148
CQUADX4,2300,1,2148,2159,2160,2149
CQUADX4,2301,1,2149,2160,2161,2150
CQUADX4,2302,1,2150,2161,2162,2151
CQUADX4,2303,1,2151,2162,2163,2152
CQUADX4,2304,1,2152,2163,2164,2153
CQUADX4,2305,1,2153,2164,2165,2154
CQUADX4,2306,1,2154,2165,2166,2155
CQUADX4,2307,1,2156,2167,2168,2157
CQUADX4,2308,1,2157,2168,2169,2158
CQUADX4,2309,1,2158,2169,2170,2159
CQUADX4,2310,1,2159,2170,2171,2160
CQUADX4,2311,1,2160,2171,2172,2161
CQUADX4,2312,1,2161,2172,2173,2162
CQUADX4,2313,1,2162,2173,2174,2163
CQUADX4,2314,1,2163,2174,2175,2164
CQUADX4,2315,1,2164,2175,2176,2165
CQUADX4,2316,1,2165,2176,2177,2166
CQUADX4,2317,1,2167,2178,2179,2168
CQUADX4,2318,1,2168,2179,2180,2169
CQUADX4,2319,1,2169,2180,2181,2170
CQUADX4,2320,1,2170,2181,2182,2171
CQUADX4,2321,1,2171,2182,2183,2172
CQUADX4,2322,1,2172,2183,2184,2173
CQUADX4,2323,1,2173,2184,2185,2174
CQUADX4,2324,1,2174,2185,2186,2175
CQUADX4,2325,1,2175,2186,2187,2176
CQUADX4,2326,1,2176,2187,2188,2177
CQUADX4,2327,1,2178,2189,2190,2179
CQUADX4,2328,1,2179,2190,2191,2180
CQUADX4,2329,1,2180,2191,2192,2181
CQUADX4,2330,1,2181,2192,2193,2182
CQUADX4,2331,1,2182,2193,2194,2183
CQUADX4,2332,1,2183,2194,2195,2184
CQUADX4,2333,1,2184,2195,2196,2185
CQUADX4,2334,1,2185,2196,2197,2186
CQUADX4,2335,1,2186,2197,2198,2187
CQUADX4,2336,1,2187,2198,2199,2188
CQUADX4,2337,1,2189,2200,2201,2190
CQUADX4,2338,1,2190,2201,2202,2191
CQUADX4,2339,1,2191,2202,2203,2192
CQUADX4,2340,1,2192,2203,2204,2193
CQUADX4,2341,1,2193,2204,2205,2194
CQUADX4,2342,1,2194,2205,2206,2195
CQUADX4,2343,1,2195,2206,2207,2196
CQUADX4,2344,1,2196,2207,2208,2197
CQUADX4,2345,1,2197,2208,2209,2198
CQUADX4,2346,1,2198,2209,2210,2199
CQUADX4,2347,1,2200,2211,2212,2201
CQUADX4,2348,1,2201,2212,2213,2202
CQUADX4,2349,1,2202,2213,2214,2203
CQUADX4,2350,1,2203,2214,2215,2204
CQUADX4,2351,1,2204,2215,2216,2205
CQUADX4,2352,1,2205,2216,2217,2206
CQUADX4,2353,1,2206,2217,2218,2207
CQUADX4,2354,1,2207,2218,2219,2208
CQUADX4,2355,1,2208,2219,2220,2209
CQUADX4,2356,1,2209,2220,2221,2210
CQUADX4,2357,1,2211,2222,2223,2212
CQUADX4,2358,1,2212,2223,2224,2213
CQUADX4,2359,1,2213,2224,2225,2214
CQUADX4,2360,1,2214,2225,2226,2215
CQUADX4,2361,1,2215,2226,2227,2216
CQUADX4,2362,1,2216,2227,2228,2217
CQUADX4,2363,1,2217,2228,2229,2218
CQUADX4,2364,1,2218,2229,2230,2219
CQUADX4,2365,1,2219,2230,2231,2220
CQUADX4,2366,1,2220,2231,2232,2221
CQUADX4,2367,1,2222,2233,2234,2223
CQUADX4,2368,1,2223,2234,2235,2224
CQUADX4,2369,1,2224,2235,2236,2225
CQUADX4,2370,1,2225,2236,2237,2226
CQUADX4,2371,1,2226,2237,2238,2227
CQUADX4,2372,1,2227,2238,2239,2228
CQUADX4,2373,1,2228,2239,2240,2229
CQUADX4,2374,1,2229,2240,2241,2230
CQUADX4,2375,1,2230,2241,2242,2231
CQUADX4,2376,1,2231,2242,2243,2232
CQUADX4,2377,1,2233,2244,2245,2234
CQUADX4,2378,1,2234,2245,2246,2235
CQUADX4,2379,1,2235,2246,2247,2236
CQUADX4,2380,1,2236,2247,2248,2237
CQUADX4,2381,1,2237,2248,2249,2238
CQUADX4,2382,1,2238,2249,2250,2239
CQUADX4,2383,1,2239,2250,2251,2240
CQUADX4,2384,1,2240,2251,2252,2241
CQUADX4,2385,1,2241,2252,2253,2242
CQUADX4,2386,1,2242,2253,2254,2243
CQUADX4,2387,1,2244,2255,2256,2245
CQUADX4,2388,1,2245,2256,2257,2246
CQUADX4,2389,1,2246,2257,2258,2247
CQUADX4,2390,1,2247,2258,2259,2248
CQUADX4,2391,1,2248,2259,2260,2249
CQUADX4,2392,1,2249,2260,2261,2250
CQUADX4,2393,1,2250,2261,2262,2251
CQUADX4,2394,1,2251,2262,2263,2252
CQUADX4,2395,1,2252,2263,2264,2253
CQUADX4,2396,1,2253,2264,2265,2254
CQUADX4,2397,1,2255,2266,2267,2256
CQUADX4,2398,1,2256,2267,2268,2257
CQUADX4,2399,1,2257,2268,2269,2258
CQUADX4,2400,1,2258,2269,2270,2259
CQUADX4,2401,1,2259,2270,2271,2260
CQUADX4,2402,1,2260,2271,2272,2261
CQUADX4,2403,1,2261,2272,2273,2262
CQUADX4,2404,1,2262,2273,2274,2263
CQUADX4,2405,1,2263,2274,2275,2264
CQUADX4,2406,1,2264,2275,2276,2265
CQUADX4,2407,1,2266,2277,2278,2267
CQUADX4,2408,1,2267,2278,2279,2268
CQUADX4,2409,1,2268,2279,2280,2269
CQUADX4,2410,1,2269,2280,2281,2270
CQUADX4,2411,1,2270,2281,2282,2271
CQUADX4,2412,1,2271,2282,2283,2272
CQUADX4,2413,1,2272,2283,2284,2273
CQUADX4,2414,1,2273,2284,2285,2274
CQUADX4,2415,1,2274,2285,2286,2275
CQUADX4,2416,1,2275,2286,2287,2276
CQUADX4,2417,1,2277,2288,2289,2278
CQUADX4,2418,1,2278,2289,2290,2279
CQUADX4,2419,1,2279,2290,2291,2280
CQUADX4,2420,1,2280,2291,2292,2281
CQUADX4,2421,1,2281,2292,2293,2282
CQUADX4,2422,1,2282,2293,2294,2283
CQUADX4,2423,1,2283,2294,2295,2284
CQUADX4,2424,1,2284,2295,2296,2285
CQUADX4,2425,1,2285,2296,2297,2286
CQUADX4,2426,1,2286,2297,2298,2287
CQUADX4,2427,1,2288,2299,2300,2289
CQUADX4,2428,1,2289,2300,2301,2290
CQUADX4,2429,1,2290,2301,2302,2291
CQUADX4,2430,1,2291,2302,2303,2292
CQUADX4,2431,1,2292,2303,2304,2293
CQUADX4,2432,1,2293,2304,2305,2294
CQUADX4,2433,1,2294,2305,2306,2295
CQUADX4,2434,1,2295,2306,2307,2296
CQUADX4,2435,1,2296,2307,2308,2297
CQUADX4,2436,1,2297,2308,2309,2298
CQUADX4,2437,1,2299,2310,2311,2300
CQUADX4,2438,1,2300,2311,2312,2301
CQUADX4,2439,1,2301,2312,2313,2302
CQUADX4,2440,1,2302,2313,2314,2303
CQUADX4,2441,1,2303,2314,2315,2304
CQUADX4,2442,1,2304,2315,2316,2305
CQUADX4,2443,1,2305,2316,2317,2306
CQUADX4,2444,1,2306,2317,2318,2307
CQUADX4,2445,1,2307,2318,2319,2308
CQUADX4,2446,1,2308,2319,2320,2309
CQUADX4,2447,1,2310,2321,2322,2311
CQUADX4,2448,1,2311,2322,2323,2312
CQUADX4,2449,1,2312,2323,2324,2313
CQUADX4,2450,1,2313,2324,2325,2314
CQUADX4,2451,1,2314,2325,2326,2315
CQUADX4,2452,1,2315,2326,2327,2316
CQUADX4,2453,1,2316,2327,2328,2317
CQUADX4,2454,1,2317,2328,2329,2318
CQUADX4,2455,1,2318,2329,2330,2319
CQUADX4,2456,1,2319,2330,2331,2320
CQUADX4,2457,1,2321,2332,2333,2322
CQUADX4,2458,1,2322,2333,2334,2323
CQUADX4,2459,1,2323,2334,2335,2324
CQUADX4,2460,1,2324,2335,2336,2325
CQUADX4,2461,1,2325,2336,2337,2326
CQUADX4,2462,1,2326,2337,2338,2327
CQUADX4,2463,1,2327,2338,2339,2328
CQUADX4,2464,1,2328,2339,2340,2329
CQUADX4,2465,1,2329,2340,2341,2330
CQUADX4,2466,1,2330,2341,2342,2331
CQUADX4,2467,1,2332,2343,2344,2333
CQUADX4,2468,1,2333,2344,2345,2334
CQUADX4,2469,1,2334,2345,2346,2335
CQUADX4,2470,1,2335,2346,2347,2336
CQUADX4,2471,1,2336,2347,2348,2337
CQUADX4,2472,1,2337,2348,2349,2338
CQUADX4,2473,1,2338,2349,2350,2339
CQUADX4,2474,1,2339,2350,2351,2340
CQUADX4,2475,1,2340,2351,2352,2341
CQUADX4,2476,1,2341,2352,2353,2342
CQUADX4,2477,1,2343,2354,2355,2344
CQUADX4,2478,1,2344,2355,2356,2345
CQUADX4,2479,1,2345,2356,2357,2346
CQUADX4,2480,1,2346,2357,2358,2347
CQUADX4,2481,1,2347,2358,2359,2348
CQUADX4,2482,1,2348,2359,2360,2349
CQUADX4,2483,1,2349,2360,2361,2350
CQUADX4,2484,1,2350,2361,2362,2351
CQUADX4,2485,1,2351,2362,2363,2352
CQUADX4,2486,1,2352,2363,2364,2353
CQUADX4,2487,1,2354,2365,2366,2355
CQUADX4,2488,1,2355,2366,2367,2356
CQUADX4,2489,1,2356,2367,2368,2357
CQUADX4,2490,1,2357,2368,2369,2358
CQUADX4,2491,1,2358,2369,2370,2359
CQUADX4,2492,1,2359,2370,2371,2360
CQUADX4,2493,1,2360,2371,2372,2361
CQUADX4,2494,1,2361,2372,2373,2362
CQUADX4,2495,1,2362,2373,2374,2363
CQUADX4,2496,1,2363,2374,2375,2364
CQUADX4,2497,1,2365,2376,2377,2366
CQUADX4,2498,1,2366,2377,2378,2367
CQUADX4,2499,1,2367,2378,2379,2368
CQUADX4,2500,1,2368,2379,2380,2369
CQUADX4,2501,1,2369,2380,2381,2370
CQUADX4,2502,1,2370,2381,2382,2371
CQUADX4,2503,1,2371,2382,2383,2372
CQUADX4,2504,1,2372,2383,2384,2373
CQUADX4,2505,1,2373,2384,2385,2374
CQUADX4,2506,1,2374,2385,2386,2375
CQUADX4,2507,1,2376,2387,2388,2377
CQUADX4,2508,1,2377,2388,2389,2378
CQUADX4,2509,1,2378,2389,2390,2379
CQUADX4,2510,1,2379,2390,2391,2380
CQUADX4,2511,1,2380,2391,2392,2381
CQUADX4,2512,1,2381,2392,2393,2382
CQUADX4,2513,1,2382,2393,2394,2383
CQUADX4,2514,1,2383,2394,2395,2384
CQUADX4,2515,1,2384,2395,2396,2385
CQUADX4,2516,1,2385,2396,2397,2386
CQUADX4,2517,1,2387,2398,2399,2388
CQUADX4,2518,1,2388,2399,2400,2389
CQUADX4,2519,1,2389,2400,2401,2390
CQUADX4,2520,1,2390,2401,2402,2391
CQUADX4,2521,1,2391,2402,2403,2392
CQUADX4,2522,1,2392,2403,2404,2393
CQUADX4,2523,1,2393,2404,2405,2394
CQUADX4,2524,1,2394,2405,2406,2395
CQUADX4,2525,1,2395,2406,2407,2396
CQUADX4,2526,1,2396,2407,2408,2397
CQUADX4,2527,1,2398,2409,2410,2399
CQUADX4,2528,1,2399,2410,2411,2400
CQUADX4,2529,1,2400,2411,2412,2401
CQUADX4,2530,1,2401,2412,2413,2402
CQUADX4,2531,1,2402,2413,2414,2403
CQUADX4,2532,1,2403,2414,2415,2404
CQUADX4,2533,1,2404,2415,2416,2405
CQUADX4,2534,1,2405,2416,2417,2406
CQUADX4,2535,1,2406,2417,2418,2407
CQUADX4,2536,1,2407,2418,2419,2408
CQUADX4,2537,1,2409,2420,2421,2410
CQUADX4,2538,1,2410,2421,2422,2411
CQUADX4,2539,1,2411,2422,2423,2412
CQUADX4,2540,1,2412,2423,2424,2413
CQUADX4,2541,1,2413,2424,2425,2414
CQUADX4,2542,1,2414,2425,2426,2415
CQUADX4,2543,1,2415,2426,2427,2416
CQUADX4,2544,1,2416,2427,2428,2417
CQUADX4,2545,1,2417,2428,2429,2418
CQUADX4,2546,1,2418,2429,2430,2419
CQUADX4,2547,1,2420,2431,2432,2421
CQUADX4,2548,1,2421,2432,2433,2422
CQUADX4,2549,1,2422,2433,2434,2423
CQUADX4,2550,1,2423,2434,2435,2424
CQUADX4,2551,1,2424,2435,2436,2425
CQUADX4,2552,1,2425,2436,2437,2426
CQUADX4,2553,1,2426,2437,2438,2427
CQUADX4,2554,1,2427,2438,2439,2428
CQUADX4,2555,1,2428,2439,2440,2429
CQUADX4,2556,1,2429,2440,2441,2430
CQUADX4,2557,1,2431,2442,2443,2432
CQUADX4,2558,1,2432,2443,2444,2433
CQUADX4,2559,1,2433,2444,2445,2434
CQUADX4,2560,1,2434,2445,2446,2435
CQUADX4,2561,1,2435,2446,2447,2436
CQUADX4,2562,1,2436,2447,2448,2437
CQUADX4,2563,1,2437,2448,2449,2438
CQUADX4,2564,1,2438,2449,2450,2439
CQUADX4,2565,1,2439,2450,2451,2440
CQUADX4,2566,1,2440,2451,2452,2441
CQUADX4,2567,1,2442,2453,2454,2443
CQUADX4,2568,1,2443,2454,2455,2444
CQUADX4,2569,1,2444,2455,2456,2445
CQUADX4,2570,1,2445,2456,2457,2446
CQUADX4,2571,1,2446,2457,2458,2447
CQUADX4,2572,1,2447,2458,2459,2448
CQUADX4,2573,1,2448,2459,2460,2449
CQUADX4,2574,1,2449,2460,2461,2450
CQUADX4,2575,1,2450,2461,2462,2451
CQUADX4,2576,1,2451,2462,2463,2452
CQUADX4,2577,1,2453,2464,2465,2454
CQUADX4,2578,1,2454,2465,2466,2455
CQUADX4,2579,1,2455,2466,2467,2456
CQUADX4,2580,1,2456,2467,2468,2457
CQUADX4,2581,1,2457,2468,2469,2458
CQUADX4,2582,1,2458,2469,2470,2459
CQUADX4,2583,1,2459,2470,2471,2460
CQUADX4,2584,1,2460,2471,2472,2461
CQUADX4,2585,1,2461,2472,2473,2462
CQUADX4,2586,1,2462,2473,2474,2463
CQUADX4,2587,1,2464,2475,2476,2465
CQUADX4,2588,1,2465,2476,2477,2466
CQUADX4,2589,1,2466,2477,2478,2467
CQUADX4,2590,1,2467,2478,2479,2468
CQUADX4,2591,1,2468,2479,2480,2469
CQUADX4,2592,1,2469,2480,2481,2470
CQUADX4,2593,1,2470,2481,2482,2471
CQUADX4,2594,1,2471,2482,2483,2472
CQUADX4,2595,1,2472,2483,2484,2473
CQUADX4,2596,1,2473,2484,2485,2474
CQUADX4,2597,1,2475,2486,2487,2476
CQUADX4,2598,1,2476,2487,2488,2477
CQUADX4,2599,1,2477,2488,2489,2478
CQUADX4,2600,1,2478,2489,2490,2479
CQUADX4,2601,1,2479,2490,2491,2480
CQUADX4,2602,1,2480,2491,2492,2481
CQUADX4,2603,1,2481,2492,2493,2482
CQUADX4,2604,1,2482,2493,2494,2483
CQUADX4,2605,1,2483,2494,2495,2484
CQUADX4,2606,1,2484,2495,2496,2485
CQUADX4,2607,1,2486,2497,2498,2487
CQUADX4,2608,1,2487,2498,2499,2488
CQUADX4,2609,1,2488,2499,2500,2489
CQUADX4,2610,1,2489,2500,2501,2490
CQUADX4,2611,1,2490,2501,2502,2491
CQUADX4,2612,1,2491,2502,2503,2492
CQUADX4,2613,1,2492,2503,2504,2493
CQUADX4,2614,1,2493,2504,2505,2494
CQUADX4,2615,1,2494,2505,2506,2495
CQUADX4,2616,1,2495,2506,2507,2496
CQUADX4,2617,1,2497,2508,2509,2498
CQUADX4,2618,1,2498,2509,2510,2499
CQUADX4,2619,1,2499,2510,2511,2500
CQUADX4,2620,1,2500,2511,2512,2501
CQUADX4,2621,1,2501,2512,2513,2502
CQUADX4,2622,1,2502,2513,2514,2503
CQUADX4,2623,1,2503,2514,2515,2504
CQUADX4,2624,1,2504,2515,2516,2505
CQUADX4,2625,1,2505,2516,2517,2506
CQUADX4,2626,1,2506,2517,2518,2507
CQUADX4,2627,1,2508,2519,2520,2509
CQUADX4,2628,1,2509,2520,2521,2510
CQUADX4,2629,1,2510,2521,2522,2511
CQUADX4,2630,1,2511,2522,2523,2512
CQUADX4,2631,1,2512,2523,2524,2513
CQUADX4,2632,1,2513,2524,2525,2514
CQUADX4,2633,1,2514,2525,2526,2515
CQUADX4,2634,1,2515,2526,2527,2516
CQUADX4,2635,1,2516,2527,2528,2517
CQUADX4,2636,1,2517,2528,2529,2518
CQUADX4,2637,1,2519,2530,2531,2520
CQUADX4,2638,1,2520,2531,2532,2521
CQUADX4,2639,1,2521,2532,2533,2522
CQUADX4,2640,1,2522,2533,2534,2523
CQUADX4,2641,1,2523,2534,2535,2524
CQUADX4,2642,1,2524,2535,2536,2525
CQUADX4,2643,1,2525,2536,2537,2526
CQUADX4,2644,1,2526,2537,2538,2527
CQUADX4,2645,1,2527,2538,2539,2528
CQUADX4,2646,1,2528,2539,2540,2529
CQUADX4,2647,1,2530,2541,2542,2531
CQUADX4,2648,1,2531,2542,2543,2532
CQUADX4,2649,1,2532,2543,2544,2533
CQUADX4,2650,1,2533,2544,2545,2534
CQUADX4,2651,1,2534,2545,2546,2535
CQUADX4,2652,1,2535,2546,2547,2536
CQUADX4,2653,1,2536,2547,2548,2537
CQUADX4,2654,1,2537,2548,2549,2538
CQUADX4,2655,1,2538,2549,2550,2539
CQUADX4,2656,1,2539,2550,2551,2540
CQUADX4,2657,1,2541,2552,2553,2542
CQUADX4,2658,1,2542,2553,2554,2543
CQUADX4,2659,1,2543,2554,2555,2544
CQUADX4,2660,1,2544,2555,2556,2545
CQUADX4,2661,1,2545,2556,2557,2546
CQUADX4,2662,1,2546,2557,2558,2547
CQUADX4,2663,1,2547,2558,2559,2548
CQUADX4,2664,1,2548,2559,2560,2549
CQUADX4,2665,1,2549,2560,2561,2550
CQUADX4,2666,1,2550,2561,2562,2551
CQUADX4,2667,1,2552,2563,2564,2553
CQUADX4,2668,1,2553,2564,2565,2554
CQUADX4,2669,1,2554,2565,2566,2555
CQUADX4,2670,1,2555,2566,2567,2556
CQUADX4,2671,1,2556,2567,2568,2557
CQUADX4,2672,1,2557,2568,2569,2558
CQUADX4,2673,1,2558,2569,2570,2559
CQUADX4,2674,1,2559,2570,2571,2560
CQUADX4,2675,1,2560,2571,2572,2561
CQUADX4,2676,1,2561,2572,2573,2562
CQUADX4,2677,1,2563,2574,2575,2564
CQUADX4,2678,1,2564,2575,2576,2565
CQUADX4,2679,1,2565,2576,2577,2566
CQUADX4,2680,1,2566,2577,2578,2567
CQUADX4,2681,1,2567,2578,2579,2568
CQUADX4,2682,1,2568,2579,2580,2569
CQUADX4,2683,1,2569,2580,2581,2570
CQUADX4,2684,1,2570,2581,2582,2571
CQUADX4,2685,1,2571,2582,2583,2572
CQUADX4,2686,1,2572,2583,2584,2573
CQUADX4,2687,1,2574,2585,2586,2575
CQUADX4,2688,1,2575,2586,2587,2576
CQUADX4,2689,1,2576,2587,2588,2577
CQUADX4,2690,1,2577,2588,2589,2578
CQUADX4,2691,1,2578,2589,2590,2579
CQUADX4,2692,1,2579,2590,2591,2580
CQUADX4,2693,1,2580,2591,2592,2581
CQUADX4,2694,1,2581,2592,2593,2582
CQUADX4,2695,1,2582,2593,2594,2583
CQUADX4,2696,1,2583,2594,2595,2584
CQUADX4,2697,1,2585,2596,2597,2586
CQUADX4,2698,1,2586,2597,2598,2587
CQUADX4,2699,1,2587,2598,2599,2588
CQUADX4,2700,1,2588,2599,2600,2589
CQUADX4,2701,1,2589,2600,2601,2590
CQUADX4,2702,1,2590,2601,2602,2591
CQUADX4,2703,1,2591,2602,2603,2592
CQUADX4,2704,1,2592,2603,2604,2593
CQUADX4,2705,1,2593,2604,2605,2594
CQUADX4,2706,1,2594,2605,2606,2595
CQUADX4,2707,1,2596,2607,2608,2597
CQUADX4,2708,1,2597,2608,2609,2598
CQUADX4,2709,1,2598,2609,2610,2599
CQUADX4,2710,1,2599,2610,2611,2600
CQUADX4,2711,1,2600,2611,2612,2601
CQUADX4,2712,1,2601,2612,2613,2602
CQUADX4,2713,1,2602,2613,2614,2603
CQUADX4,2714,1,2603,2614,2615,2604
CQUADX4,2715,1,2604,2615,2616,2605
CQUADX4,2716,1,2605,2616,2617,2606
CQUADX4,2717,1,2607,2618,2619,2608
CQUADX4,2718,1,2608,2619,2620,2609
CQUADX4,2719,1,2609,2620,2621,2610
CQUADX4,2720,1,2610,2621,2622,2611
CQUADX4,2721,1,2611,2622,2623,2612
CQUADX4,2722,1,2612,2623,2624,2613
CQUADX4,2723,1,2613,2624,2625,2614
CQUADX4,2724,1,2614,2625,2626,2615
CQUADX4,2725,1,2615,2626,2627,2616
CQUADX4,2726,1,2616,2627,2628,2617
CQUADX4,2727,1,2618,2629,2630,2619
CQUADX4,2728,1,2619,2630,2631,2620
CQUADX4,2729,1,2620,2631,2632,2621
CQUADX4,2730,1,2621,2632,2633,2622
CQUADX4,2731,1,2622,2633,2634,2623
CQUADX4,2732,1,2623,2634,2635,2624
CQUADX4,2733,1,2624,2635,2636,2625
CQUADX4,2734,1,2625,2636,2637,2626
CQUADX4,2735,1,2626,2637,2638,2627
CQUADX4,2736,1,2627,2638,2639,2628
CQUADX4,2737,1,2629,2640,2641,2630
CQUADX4,2738,1,2630,2641,2642,2631
CQUADX4,2739,1,2631,2642,2643,2632
CQUADX4,2740,1,2632,2643,2644,2633
CQUADX4,2741,1,2633,2644,2645,2634
CQUADX4,2742,1,2634,2645,2646,2635
CQUADX4,2743,1,2635,2646,2647,2636
CQUADX4,2744,1,2636,2647,2648,2637
CQUADX4,2745,1,2637,2648,2649,2638
CQUADX4,2746,1,2638,2649,2650,2639
CQUADX4,2747,1,2640,2651,2652,2641
CQUADX4,2748,1,2641,2652,2653,2642
CQUADX4,2749,1,2642,2653,2654,2643
CQUADX4,2750,1,2643,2654,2655,2644
CQUADX4,2751,1,2644,2655,2656,2645
CQUADX4,2752,1,2645,2656,2657,2646
CQUADX4,2753,1,2646,2657,2658,2647
CQUADX4,2754,1,2647,2658,2659,2648
CQUADX4,2755,1,2648,2659,2660,2649
CQUADX4,2756,1,2649,2660,2661,2650
CQUADX4,2757,1,2651,2662,2663,2652
CQUADX4,2758,1,2652,2663,2664,2653
CQUADX4,2759,1,2653,2664,2665,2654
CQUADX4,2760,1,2654,2665,2666,2655
CQUADX4,2761,1,2655,2666,2667,2656
CQUADX4,2762,1,2656,2667,2668,2657
CQUADX4,2763,1,2657,2668,2669,2658
CQUADX4,2764,1,2658,2669,2670,2659
CQUADX4,2765,1,2659,2670,2671,2660
CQUADX4,2766,1,2660,2671,2672,2661
CQUADX4,2767,1,2662,2673,2674,2663
CQUADX4,2768,1,2663,2674,2675,2664
CQUADX4,2769,1,2664,2675,2676,2665
CQUADX4,2770,1,2665,2676,2677,2666
CQUADX4,2771,1,2666,2677,2678,2667
CQUADX4,2772,1,2667,2678,2679,2668
CQUADX4,2773,1,2668,2679,2680,2669
CQUADX4,2774,1,2669,2680,2681,2670
CQUADX4,2775,1,2670,2681,2682,2671
CQUADX4,2776,1,2671,2682,2683,2672
CQUADX4,2777,1,2673,2684,2685,2674
CQUADX4,2778,1,2674,2685,2686,2675
CQUADX4,2779,1,2675,2686,2687,2676
CQUADX4,2780,1,2676,2687,2688,2677
CQUADX4,2781,1,2677,2688,2689,2678
CQUADX4,2782,1,2678,2689,2690,2679
CQUADX4,2783,1,2679,2690,2691,2680
CQUADX4,2784,1,2680,2691,2692,2681
CQUADX4,2785,1,2681,2692,2693,2682
CQUADX4,2786,1,2682,2693,2694,2683
CQUADX4,2787,1,2684,2695,2696,2685
CQUADX4,2788,1,2685,2696,2697,2686
CQUADX4,2789,1,2686,2697,2698,2687
CQUADX4,2790,1,2687,2698,2699,2688
CQUADX4,2791,1,2688,2699,2700,2689
CQUADX4,2792,1,2689,2700,2701,2690
CQUADX4,2793,1,2690,2701,2702,2691
CQUADX4,2794,1,2691,2702,2703,2692
CQUADX4,2795,1,2692,2703,2704,2693
CQUADX4,2796,1,2693,2704,2705,2694
CQUADX4,2797,1,2695,2706,2707,2696
CQUADX4,2798,1,2696,2707,2708,2697
CQUADX4,2799,1,2697,2708,2709,2698
CQUADX4,2800,1,2698,2709,2710,2699
CQUADX4,2801,1,2699,2710,2711,2700
CQUADX4,2802,1,2700,2711,2712,2701
CQUADX4,2803,1,2701,2712,2713,2702
CQUADX4,2804,1,2702,2713,2714,2703
CQUADX4,2805,1,2703,2714,2715,2704
CQUADX4,2806,1,2704,2715,2716,2705
CQUADX4,2807,1,2706,2717,2718,2707
CQUADX4,2808,1,2707,2718,2719,2708
CQUADX4,2809,1,2708,2719,2720,2709
CQUADX4,2810,1,2709,2720,2721,2710
CQUADX4,2811,1,2710,2721,2722,2711
CQUADX4,2812,1,2711,2722,2723,2712
CQUADX4,2813,1,2712,2723,2724,2713
CQUADX4,2814,1,2713,2724,2725,2714
CQUADX4,2815,1,2714,2725,2726,2715
CQUADX4,2816,1,2715,2726,2727,2716
CQUADX4,2817,1,2717,2728,2729,2718
CQUADX4,2818,1,2718,2729,2730,2719
CQUADX4,2819,1,2719,2730,2731,2720
CQUADX4,2820,1,2720,2731,2732,2721
CQUADX4,2821,1,2721,2732,2733,2722
CQUADX4,2822,1,2722,2733,2734,2723
CQUADX4,2823,1,2723,2734,2735,2724
CQUADX4,2824,1,2724,2735,2736,2725
CQUADX4,2825,1,2725,2736,2737,2726
CQUADX4,2826,1,2726,2737,2738,2727
CQUADX4,2827,1,2728,2739,2740,2729
CQUADX4,2828,1,2729,2740,2741,2730
CQUADX4,2829,1,2730,2741,2742,2731
CQUADX4,2830,1,2731,2742,2743,2732
CQUADX4,2831,1,2732,2743,2744,2733
CQUADX4,2832,1,2733,2744,2745,2734
CQUADX4,2833,1,2734,2745,2746,2735
CQUADX4,2834,1,2735,2746,2747,2736
CQUADX4,2835,1,2736,2747,2748,2737
CQUADX4,2836,1,2737,2748,2749,2738
CQUADX4,2837,1,2739,2750,2751,2740
CQUADX4,2838,1,2740,2751,2752,2741
CQUADX4,2839,1,2741,2752,2753,2742
CQUADX4,2840,1,2742,2753,2754,2743
CQUADX4,2841,1,2743,2754,2755,2744
CQUADX4,2842,1,2744,2755,2756,2745
CQUADX4,2843,1,2745,2756,2757,2746
CQUADX4,2844,1,2746,2757,2758,2747
CQUADX4,2845,1,2747,2758,2759,2748
CQUADX4,2846,1,2748,2759,2760,2749
CQUADX4,2847,1,2750,2761,2762,2751
CQUADX4,2848,1,2751,2762,2763,2752
CQUADX4,2849,1,2752,2763,2764,2753
CQUADX4,2850,1,2753,2764,2765,2754
CQUADX4,2851,1,2754,2765,2766,2755
CQUADX4,2852,1,2755,2766,2767,2756
CQUADX4,2853,1,2756,2767,2768,2757
CQUADX4,2854,1,2757,2768,2769,2758
CQUADX4,2855,1,2758,2769,2770,2759
CQUADX4,2856,1,2759,2770,2771,2760
CQUADX4,2857,1,2761,2772,2773,2762
CQUADX4,2858,1,2762,2773,2774,2763
CQUADX4,2859,1,2763,2774,2775,2764
CQUADX4,2860,1,2764,2775,2776,2765
CQUADX4,2861,1,2765,2776,2777,2766
CQUADX4,2862,1,2766,2777,2778,2767
CQUADX4,2863,1,2767,2778,2779,2768
CQUADX4,2864,1,2768,2779,2780,2769
CQUADX4,2865,1,2769,2780,2781,2770
CQUADX4,2866,1,2770,2781,2782,2771
CQUADX4,2867,1,2772,2783,2784,2773
CQUADX4,2868,1,2773,2784,2785,2774
CQUADX4,2869,1,2774,2785,2786,2775
CQUADX4,2870,1,2775,2786,2787,2776
CQUADX4,2871,1,2776,2787,2788,2777
CQUADX4,2872,1,2777,2788,2789,2778
CQUADX4,2873,1,2778,2789,2790,2779
CQUADX4,2874,1,2779,2790,2791,2780
CQUADX4,2875,1,2780,2791,2792,2781
CQUADX4,2876,1,2781,2792,2793,2782
CQUADX4,2877,1,2783,2794,2795,2784
CQUADX4,2878,1,2784,2795,2796,2785
CQUADX4,2879,1,2785,2796,2797,2786
CQUADX4,2880,1,2786,2797,2798,2787
CQUADX4,2881,1,2787,2798,2799,2788
CQUADX4,2882,1,2788,2799,2800,2789
CQUADX4,2883,1,2789,2800,2801,2790
CQUADX4,2884,1,2790,2801,2802,2791
CQUADX4,2885,1,2791,2802,2803,2792
CQUADX4,2886,1,2792,2803,2804,2793
CQUADX4,2887,1,2794,2805,2806,2795
CQUADX4,2888,1,2795,2806,2807,2796
CQUADX4,2889,1,2796,2807,2808,2797
CQUADX4,2890,1,2797,2808,2809,2798
CQUADX4,2891,1,2798,2809,2810,2799
CQUADX4,2892,1,2799,2810,2811,2800
CQUADX4,2893,1,2800,2811,2812,2801
CQUADX4,2894,1,2801,2812,2813,2802
CQUADX4,2895,1,2802,2813,2814,2803
CQUADX4,2896,1,2803,2814,2815,2804
CQUADX4,2897,1,2805,2816,2817,2806
CQUADX4,2898,1,2806,2817,2818,2807
CQUADX4,2899,1,2807,2818,2819,2808
CQUADX4,2900,1,2808,2819,2820,2809
CQUADX4,2901,1,2809,2820,2821,2810
CQUADX4,2902,1,2810,2821,2822,2811
CQUADX4,2903,1,2811,2822,2823,2812
CQUADX4,2904,1,2812,2823,2824,2813
CQUADX4,2905,1,2813,2824,2825,2814
CQUADX4,2906,1,2814,2825,2826,2815
CQUADX4,2907,1,2816,2827,2828,2817
CQUADX4,2908,1,2817,2828,2829,2818
CQUADX4,2909,1,2818,2829,2830,2819
CQUADX4,2910,1,2819,2830,2831,2820
CQUADX4,2911,1,2820,2831,2832,2821
CQUADX4,2912,1,2821,2832,2833,2822
CQUADX4,2913,1,2822,2833,2834,2823
CQUADX4,2914,1,2823,2834,2835,2824
CQUADX4,2915,1,2824,2835,2836,2825
CQUADX4,2916,1,2825,2836,2837,2826
CQUADX4,2917,1,2827,2838,2839,2828
CQUADX4,2918,1,2828,2839,2840,2829
CQUADX4,2919,1,2829,2840,2841,2830
CQUADX4,2920,1,2830,2841,2842,2831
CQUADX4,2921,1,2831,2842,2843,2832
CQUADX4,2922,1,2832,2843,2844,2833
CQUADX4,2923,1,2833,2844,2845,2834
CQUADX4,2924,1,2834,2845,2846,2835
CQUADX4,2925,1,2835,2846,2847,2836
CQUADX4,2926,1,2836,2847,2848,2837
CQUADX4,2927,1,2838,2849,2850,2839
CQUADX4,2928,1,2839,2850,2851,2840
CQUADX4,2929,1,2840,2851,2852,2841
CQUADX4,2930,1,2841,2852,2853,2842
CQUADX4,2931,1,2842,2853,2854,2843
CQUADX4,2932,1,2843,2854,2855,2844
CQUADX4,2933,1,2844,2855,2856,2845
CQUADX4,2934,1,2845,2856,2857,2846
CQUADX4,2935,1,2846,2857,2858,2847
CQUADX4,2936,1,2847,2858,2859,2848
CQUADX4,2937,1,2849,2860,2861,2850
CQUADX4,2938,1,2850,2861,2862,2851
CQUADX4,2939,1,2851,2862,2863,2852
CQUADX4,2940,1,2852,2863,2864,2853
CQUADX4,2941,1,2853,2864,2865,2854
CQUADX4,2942,1,2854,2865,2866,2855
CQUADX4,2943,1,2855,2866,2867,2856
CQUADX4,2944,1,2856,2867,2868,2857
CQUADX4,2945,1,2857,2868,2869,2858
CQUADX4,2946,1,2858,2869,2870,2859
CQUADX4,2947,1,2860,2871,2872,2861
CQUADX4,2948,1,2861,2872,2873,2862
CQUADX4,2949,1,2862,2873,2874,2863
CQUADX4,2950,1,2863,2874,2875,2864
CQUADX4,2951,1,2864,2875,2876,2865
CQUADX4,2952,1,2865,2876,2877,2866
CQUADX4,2953,1,2866,2877,2878,2867
CQUADX4,2954,1,2867,2878,2879,2868
CQUADX4,2955,1,2868,2879,2880,2869
CQUADX4,2956,1,2869,2880,2881,2870
CQUADX4,2957,1,2871,2882,2883,2872
CQUADX4,2958,1,2872,2883,2884,2873
CQUADX4,2959,1,2873,2884,2885,2874
CQUADX4,2960,1,2874,2885,2886,2875
CQUADX4,2961,1,2875,2886,2887,2876
CQUADX4,2962,1,2876,2887,2888,2877
CQUADX4,2963,1,2877,2888,2889,2878
CQUADX4,2964,1,2878,2889,2890,2879
CQUADX4,2965,1,2879,2890,2891,2880
CQUADX4,2966,1,2880,2891,2892,2881
CQUADX4,2967,1,2882,2893,2894,2883
CQUADX4,2968,1,2883,2894,2895,2884
CQUADX4,2969,1,2884,2895,2896,2885
CQUADX4,2970,1,2885,2896,2897,2886
CQUADX4,2971,1,2886,2897,2898,2887
CQUADX4,2972,1,2887,2898,2899,2888
CQUADX4,2973,1,2888,2899,2900,2889
CQUADX4,2974,1,2889,2900,2901,2890
CQUADX4,2975,1,2890,2901,2902,2891
CQUADX4,2976,1,2891,2902,2903,2892
CQUADX4,2977,1,2893,2904,2905,2894
CQUADX4,2978,1,2894,2905,2906,2895
CQUADX4,2979,1,2895,2906,2907,2896
CQUADX4,2980,1,2896,2907,2908,2897
CQUADX4,2981,1,2897,2908,2909,2898
CQUADX4,2982,1,2898,2909,2910,2899
CQUADX4,2983,1,2899,2910,2911,2900
CQUADX4,2984,1,2900,2911,2912,2901
CQUADX4,2985,1,2901,2912,2913,2902
CQUADX4,2986,1,2902,2913,2914,2903
CQUADX4,2987,1,2904,2915,2916,2905
CQUADX4,2988,1,2905,2916,2917,2906
CQUADX4,2989,1,2906,2917,2918,2907
CQUADX4,2990,1,2907,2918,2919,2908
CQUADX4,2991,1,2908,2919,2920,2909
CQUADX4,2992,1,2909,2920,2921,2910
CQUADX4,2993,1,2910,2921,2922,2911
CQUADX4,2994,1,2911,2922,2923,2912
CQUADX4,2995,1,2912,2923,2924,2913
CQUADX4,2996,1,2913,2924,2925,2914
CQUADX4,2997,1,2915,2926,2927,2916
CQUADX4,2998,1,2916,2927,2928,2917
CQUADX4,2999,1,2917,2928,2929,2918
CQUADX4,3000,1,2918,2929,2930,2919
CQUADX4,3001,1,2919,2930,2931,2920
CQUADX4,3002,1,2920,2931,2932,2921
CQUADX4,3003,1,2921,2932,2933,2922
CQUADX4,3004,1,2922,2933,2934,2923
CQUADX4,3005,1,2923,2934,2935,2924
CQUADX4,3006,1,2924,2935,2936,2925
CQUADX4,3007,1,2926,2937,2938,2927
CQUADX4,3008,1,2927,2938,2939,2928
CQUADX4,3009,1,2928,2939,2940,2929
CQUADX4,3010,1,2929,2940,2941,2930
CQUADX4,3011,1,2930,2941,2942,2931
CQUADX4,3012,1,2931,2942,2943,2932
CQUADX4,3013,1,2932,2943,2944,2933
CQUADX4,3014,1,2933,2944,2945,2934
CQUADX4,3015,1,2934,2945,2946,2935
CQUADX4,3016,1,2935,2946,2947,2936
CQUADX4,3017,1,2937,2948,2949,2938
CQUADX4,3018,1,2938,2949,2950,2939
CQUADX4,3019,1,2939,2950,2951,2940
CQUADX4,3020,1,2940,2951,2952,2941
CQUADX4,3021,1,2941,2952,2953,2942
CQUADX4,3022,1,2942,2953,2954,2943
CQUADX4,3023,1,2943,2954,2955,2944
CQUADX4,3024,1,2944,2955,2956,2945
CQUADX4,3025,1,2945,2956,2957,2946
CQUADX4,3026,1,2946,2957,2958,2947
CQUADX4,3027,1,2948,2959,2960,2949
CQUADX4,3028,1,2949,2960,2961,2950
CQUADX4,3029,1,2950,2961,2962,2951
CQUADX4,3030,1,2951,2962,2963,2952
CQUADX4,3031,1,2952,2963,2964,2953
CQUADX4,3032,1,2953,2964,2965,2954
CQUADX4,3033,1,2954,2965,2966,2955
CQUADX4,3034,1,2955,2966,2967,2956
CQUADX4,3035,1,2956,2967,2968,2957
CQUADX4,3036,1,2957,2968,2969,2958
CQUADX4,3037,1,2959,2970,2971,2960
CQUADX4,3038,1,2960,2971,2972,2961
CQUADX4,3039,1,2961,2972,2973,2962
CQUADX4,3040,1,2962,2973,2974,2963
CQUADX4,3041,1,2963,2974,2975,2964
CQUADX4,3042,1,2964,2975,2976,2965
CQUADX4,3043,1,2965,2976,2977,2966
CQUADX4,3044,1,2966,2977,2978,2967
CQUADX4,3045,1,2967,2978,2979,2968
CQUADX4,3046,1,2968,2979,2980,2969
CQUADX4,3047,1,2970,2981,2982,2971
CQUADX4,3048,1,2971,2982,2983,2972
CQUADX4,3049,1,2972,2983,2984,2973
CQUADX4,3050,1,2973,2984,2985,2974
CQUADX4,3051,1,2974,2985,2986,2975
CQUADX4,3052,1,2975,2986,2987,2976
CQUADX4,3053,1,2976,2987,2988,2977
CQUADX4,3054,1,2977,2988,2989,2978
CQUADX4,3055,1,2978,2989,2990,2979
CQUADX4,3056,1,2979,2990,2991,2980
CQUADX4,3057,1,2981,2992,2993,2982
CQUADX4,3058,1,2982,2993,2994,2983
CQUADX4,3059,1,2983,2994,2995,2984
CQUADX4,3060,1,2984,2995,2996,2985
CQUADX4,3061,1,2985,2996,2997,2986
CQUADX4,3062,1,2986,2997,2998,2987
CQUADX4,3063,1,2987,2998,2999,2988
CQUADX4,3064,1,2988,2999,3000,2989
CQUADX4,3065,1,2989,3000,3001,2990
CQUADX4,3066,1,2990,3001,3002,2991
CQUADX4,3067,1,2992,3003,3004,2993
CQUADX4,3068,1,2993,3004,3005,2994
CQUADX4,3069,1,2994,3005,3006,2995
CQUADX4,3070,1,2995,3006,3007,2996
CQUADX4,3071,1,2996,3007,3008,2997
CQUADX4,3072,1,2997,3008,3009,2998
CQUADX4,3073,1,2998,3009,3010,2999
CQUADX4,3074,1,2999,3010,3011,3000
CQUADX4,3075,1,3000,3011,3012,3001
CQUADX4,3076,1,3001,3012,3013,3002
CQUADX4,3077,1,3003,3014,3015,3004
CQUADX4,3078,1,3004,3015,3016,3005
CQUADX4,3079,1,3005,3016,3017,3006
CQUADX4,3080,1,3006,3017,3018,3007
CQUADX4,3081,1,3007,3018,3019,3008
CQUADX4,3082,1,3008,3019,3020,3009
CQUADX4,3083,1,3009,3020,3021,3010
CQUADX4,3084,1,3010,3021,3022,3011
CQUADX4,3085,1,3011,3022,3023,3012
CQUADX4,3086,1,3012,3023,3024,3013
CQUADX4,3087,1,3014,3025,3026,3015
CQUADX4,3088,1,3015,3026,3027,3016
CQUADX4,3089,1,3016,3027,3028,3017
CQUADX4,3090,1,3017,3028,3029,3018
CQUADX4,3091,1,3018,3029,3030,3019
CQUADX4,3092,1,3019,3030,3031,3020
CQUADX4,3093,1,3020,3031,3032,3021
CQUADX4,3094,1,3021,3032,3033,3022
CQUADX4,3095,1,3022,3033,3034,3023
CQUADX4,3096,1,3023,3034,3035,3024
CQUADX4,3097,1,3025,3036,3037,3026
CQUADX4,3098,1,3026,3037,3038,3027
CQUADX4,3099,1,3027,3038,3039,3028
CQUADX4,3100,1,3028,3039,3040,3029
CQUADX4,3101,1,3029,3040,3041,3030
CQUADX4,3102,1,3030,3041,3042,3031
CQUADX4,3103,1,3031,3042,3043,3032
CQUADX4,3104,1,3032,3043,3044,3033
CQUADX4,3105,1,3033,3044,3045,3034
CQUADX4,3106,1,3034,3045,3046,3035
CQUADX4,3107,1,3036,3047,3048,3037
CQUADX4,3108,1,3037,3048,3049,3038
CQUADX4,3109,1,3038,3049,3050,3039
CQUADX4,3110,1,3039,3050,3051,3040
CQUADX4,3111,1,3040,3051,3052,3041
CQUADX4,3112,1,3041,3052,3053,3042
CQUADX4,3113,1,3042,3053,3054,3043
CQUADX4,3114,1,3043,3054,3055,3044
CQUADX4,3115,1,3044,3055,3056,3045
CQUADX4,3116,1,3045,3056,3057,3046
CQUADX4,3117,1,3047,3058,3059,3048
CQUADX4,3118,1,3048,3059,3060,3049
CQUADX4,3119,1,3049,3060,3061,3050
CQUADX4,3120,1,3050,3061,3062,3051
CQUADX4,3121,1,3051,3062,3063,3052
CQUADX4,3122,1,3052,3063,3064,3053
CQUADX4,3123,1,3053,3064,3065,3054
CQUADX4,3124,1,3054,3065,3066,3055
CQUADX4,3125,1,3055,3066,3067,3056
CQUADX4,3126,1,3056,3067,3068,3057
CQUADX4,3127,1,3058,3069,3070,3059
CQUADX4,3128,1,3059,3070,3071,3060
CQUADX4,3129,1,3060,3071,3072,3061
CQUADX4,3130,1,3061,3072,3073,3062
CQUADX4,3131,1,3062,3073,3074,3063
CQUADX4,3132,1,3063,3074,3075,3064
CQUADX4,3133,1,3064,3075,3076,3065
CQUADX4,3134,1,3065,3076,3077,3066
CQUADX4,3135,1,3066,3077,3078,3067
CQUADX4,3136,1,3067,3078,3079,3068
CQUADX4,3137,1,3069,3080,3081,3070
CQUADX4,3138,1,3070,3081,3082,3071
CQUADX4,3139,1,3071,3082,3083,3072
CQUADX4,3140,1,3072,3083,3084,3073
CQUADX4,3141,1,3073,3084,3085,3074
CQUADX4,3142,1,3074,3085,3086,3075
CQUADX4,3143,1,3075,3086,3087,3076
CQUADX4,3144,1,3076,3087,3088,3077
CQUADX4,3145,1,3077,3088,3089,3078
CQUADX4,3146,1,3078,3089,3090,3079
CQUADX4,3147,1,3080,3091,3092,3081
CQUADX4,3148,1,3081,3092,3093,3082
CQUADX4,3149,1,3082,3093,3094,3083
CQUADX4,3150,1,3083,3094,3095,3084
CQUADX4,3151,1,3084,3095,3096,3085
CQUADX4,3152,1,3085,3096,3097,3086
CQUADX4,3153,1,3086,3097,3098,3087
CQUADX4,3154,1,3087,3098,3099,3088
CQUADX4,3155,1,3088,3099,3100,3089
CQUADX4,3156,1,3089,3100,3101,3090
CQUADX4,3157,1,3091,3102,3103,3092
CQUADX4,3158,1,3092,3103,3104,3093
CQUADX4,3159,1,3093,3104,3105,3094
CQUADX4,3160,1,3094,3105,3106,3095
CQUADX4,3161,1,3095,3106,3107,3096
CQUADX4,3162,1,3096,3107,3108,3097
CQUADX4,3163,1,3097,3108,3109,3098
CQUADX4,3164,1,3098,3109,3110,3099
CQUADX4,3165,1,3099,3110,3111,3100
CQUADX4,3166,1,3100,3111,3112,3101
CQUADX4,3167,1,3102,3113,3114,3103
CQUADX4,3168,1,3103,3114,3115,3104
CQUADX4,3169,1,3104,3115,3116,3105
CQUADX4,3170,1,3105,3116,3117,3106
CQUADX4,3171,1,3106,3117,3118,3107
CQUADX4,3172,1,3107,3118,3119,3108
CQUADX4,3173,1,3108,3119,3120,3109
CQUADX4,3174,1,3109,3120,3121,3110
CQUADX4,3175,1,3110,3121,3122,3111
CQUADX4,3176,1,3111,3122,3123,3112
CQUADX4,3177,1,3113,3124,3125,3114
CQUADX4,3178,1,3114,3125,3126,3115
CQUADX4,3179,1,3115,3126,3127,3116
CQUADX4,3180,1,3116,3127,3128,3117
CQUADX4,3181,1,3117,3128,3129,3118
CQUADX4,3182,1,3118,3129,3130,3119
CQUADX4,3183,1,3119,3130,3131,3120
CQUADX4,3184,1,3120,3131,3132,3121
CQUADX4,3185,1,3121,3132,3133,3122
CQUADX4,3186,1,3122,3133,3134,3123
CQUADX4,3187,1,3124,3135,3136,3125
CQUADX4,3188,1,3125,3136,3137,3126
CQUADX4,3189,1,3126,3137,3138,3127
CQUADX4,3190,1,3127,3138,3139,3128
CQUADX4,3191,1,3128,3139,3140,3129
CQUADX4,3192,1,3129,3140,3141,3130
CQUADX4,3193,1,3130,3141,3142,3131
CQUADX4,3194,1,3131,3142,3143,3132
CQUADX4,3195,1,3132,3143,3144,3133
CQUADX4,3196,1,3133,3144,3145,3134
CQUADX4,3197,1,3135,3146,3147,3136
CQUADX4,3198,1,3136,3147,3148,3137
CQUADX4,3199,1,3137,3148,3149,3138
CQUADX4,3200,1,3138,3149,3150,3139
CQUADX4,3201,1,3139,3150,3151,3140
CQUADX4,3202,1,3140,3151,3152,3141
CQUADX4,3203,1,3141,3152,3153,3142
CQUADX4,3204,1,3142,3153,3154,3143
CQUADX4,3205,1,3143,3154,3155,3144
CQUADX4,3206,1,3144,3155,3156,3145
CQUADX4,3207,1,3146,3157,3158,3147
CQUADX4,3208,1,3147,3158,3159,3148
CQUADX4,3209,1,3148,3159,3160,3149
CQUADX4,3210,1,3149,3160,3161,3150
CQUADX4,3211,1,3150,3161,3162,3151
CQUADX4,3212,1,3151,3162,3163,3152
CQUADX4,3213,1,3152,3163,3164,3153
CQUADX4,3214,1,3153,3164,3165,3154
CQUADX4,3215,1,3154,3165,3166,3155
CQUADX4,3216,1,3155,3166,3167,3156
CQUADX4,3217,1,3157,3168,3169,3158
CQUADX4,3218,1,3158,3169,3170,3159
CQUADX4,3219,1,3159,3170,3171,3160
CQUADX4,3220,1,3160,3171,3172,3161
CQUADX4,3221,1,3161,3172,3173,3162
CQUADX4,3222,1,3162,3173,3174,3163
CQUADX4,3223,1,3163,3174,3175,3164
CQUADX4,3224,1,3164,3175,3176,3165
CQUADX4,3225,1,3165,3176,3177,3166
CQUADX4,3226,1,3166,3177,3178,3167
CQUADX4,3227,1,3168,3179,3180,3169
CQUADX4,3228,1,3169,3180,3181,3170
CQUADX4,3229,1,3170,3181,3182,3171
CQUADX4,3230,1,3171,3182,3183,3172
CQUADX4,3231,1,3172,3183,3184,3173
CQUADX4,3232,1,3173,3184,3185,3174
CQUADX4,3233,1,3174,3185,3186,3175
CQUADX4,3234,1,3175,3186,3187,3176
CQUADX4,3235,1,3176,3187,3188,3177
CQUADX4,3236,1,3177,3188,3189,3178
CQUADX4,3237,1,3179,3190,3191,3180
CQUADX4,3238,1,3180,3191,3192,3181
CQUADX4,3239,1,3181,3192,3193,3182
CQUADX4,3240,1,3182,3193,3194,3183
CQUADX4,3241,1,3183,3194,3195,3184
CQUADX4,3242,1,3184,3195,3196,3185
CQUADX4,3243,1,3185,3196,3197,3186
CQUADX4,3244,1,3186,3197,3198,3187
CQUADX4,3245,1,3187,3198,3199,3188
CQUADX4,3246,1,3188,3199,3200,3189
CQUADX4,3247,1,3190,3201,3202,3191
CQUADX4,3248,1,3191,3202,3203,3192
CQUADX4,3249,1,3192,3203,3204,3193
CQUADX4,3250,1,3193,3204,3205,3194
CQUADX4,3251,1,3194,3205,3206,3195
CQUADX4,3252,1,3195,3206,3207,3196
CQUADX4,3253,1,3196,3207,3208,3197
CQUADX4,3254,1,3197,3208,3209,3198
CQUADX4,3255,1,3198,3209,3210,3199
CQUADX4,3256,1,3199,3210,3211,3200
CQUADX4,3257,1,3201,3212,3213,3202
CQUADX4,3258,1,3202,3213,3214,3203
CQUADX4,3259,1,3203,3214,3215,3204
CQUADX4,3260,1,3204,3215,3216,3205
CQUADX4,3261,1,3205,3216,3217,3206
CQUADX4,3262,1,3206,3217,3218,3207
CQUADX4,3263,1,3207,3218,3219,3208
CQUADX4,3264,1,3208,3219,3220,3209
CQUADX4,3265,1,3209,3220,3221,3210
CQUADX4,3266,1,3210,3221,3222,3211
CQUADX4,3267,1,3212,3223,3224,3213
CQUADX4,3268,1,3213,3224,3225,3214
CQUADX4,3269,1,3214,3225,3226,3215
CQUADX4,3270,1,3215,3226,3227,3216
CQUADX4,3271,1,3216,3227,3228,3217
CQUADX4,3272,1,3217,3228,3229,3218
CQUADX4,3273,1,3218,3229,3230,3219
CQUADX4,3274,1,3219,3230,3231,3220
CQUADX4,3275,1,3220,3231,3232,3221
CQUADX4,3276,1,3221,3232,3233,3222
CQUADX4,3277,1,3223,3234,3235,3224
CQUADX4,3278,1,3224,3235,3236,3225
CQUADX4,3279,1,3225,3236,3237,3226
CQUADX4,3280,1,3226,3237,3238,3227
CQUADX4,3281,1,3227,3238,3239,3228
CQUADX4,3282,1,3228,3239,3240,3229
CQUADX4,3283,1,3229,3240,3241,3230
CQUADX4,3284,1,3230,3241,3242,3231
CQUADX4,3285,1,3231,3242,3243,3232
CQUADX4,3286,1,3232,3243,3244,3233
CQUADX4,3287,1,3234,3245,3246,3235
CQUADX4,3288,1,3235,3246,3247,3236
CQUADX4,3289,1,3236,3247,3248,3237
CQUADX4,3290,1,3237,3248,3249,3238
CQUADX4,3291,1,3238,3249,3250,3239
CQUADX4,3292,1,3239,3250,3251,3240
CQUADX4,3293,1,3240,3251,3252,3241
CQUADX4,3294,1,3241,3252,3253,3242
CQUADX4,3295,1,3242,3253,3254,3243
CQUADX4,3296,1,3243,3254,3255,3244
CQUADX4,3297,1,3245,3256,3257,3246
CQUADX4,3298,1,3246,3257,3258,3247
CQUADX4,3299,1,3247,3258,3259,3248
CQUADX4,3300,1,3248,3259,3260,3249
CQUADX4,3301,1,3249,3260,3261,3250
CQUADX4,3302,1,3250,3261,3262,3251
CQUADX4,3303,1,3251,3262,3263,3252
CQUADX4,3304,1,3252,3263,3264,3253
CQUADX4,3305,1,3253,3264,3265,3254
CQUADX4,3306,1,3254,3265,3266,3255
CQUADX4,3307,1,3256,3267,3268,3257
CQUADX4,3308,1,3257,3268,3269,3258
CQUADX4,3309,1,3258,3269,3270,3259
CQUADX4,3310,1,3259,3270,3271,3260
CQUADX4,3311,1,3260,3271,3272,3261
CQUADX4,3312,1,3261,3272,3273,3262
CQUADX4,3313,1,3262,3273,3274,3263
CQUADX4,3314,1,3263,3274,3275,3264
CQUADX4,3315,1,3264,3275,3276,3265
CQUADX4,3316,1,3265,3276,3277,3266
CQUADX4,3317,1,3267,3278,3279,3268
CQUADX4,3318,1,3268,3279,3280,3269
CQUADX4,3319,1,3269,3280,3281,3270
CQUADX4,3320,1,3270,3281,3282,3271
CQUADX4,3321,1,3271,3282,3283,3272
CQUADX4,3322,1,3272,3283,3284,3273
CQUADX4,3323,1,3273,3284,3285,3274
CQUADX4,3324,1,3274,3285,3286,3275
CQUADX4,3325,1,3275,3286,3287,3276
CQUADX4,3326,1,3276,3287,3288,3277
CQUADX4,3327,1,3278,3289,3290,3279
CQUADX4,3328,1,3279,3290,3291,3280
CQUADX4,3329,1,3280,3291,3292,3281
CQUADX4,3330,1,3281,3292,3293,3282
CQUADX4,3331,1,3282,3293,3294,3283
CQUADX4,3332,1,3283,3294,3295,3284
CQUADX4,3333,1,3284,3295,3296,3285
CQUADX4,3334,1,3285,3296,3297,3286
CQUADX4,3335,1,3286,3297,3298,3287
CQUADX4,3336,1,3287,3298,3299,3288
CQUADX4,3337,1,3289,3300,3301,3290
CQUADX4,3338,1,3290,3301,3302,3291
CQUADX4,3339,1,3291,3302,3303,3292
CQUADX4,3340,1,3292,3303,3304,3293
CQUADX4,3341,1,3293,3304,3305,3294
CQUADX4,3342,1,3294,3305,3306,3295
CQUADX4,3343,1,3295,3306,3307,3296
CQUADX4,3344,1,3296,3307,3308,3297
CQUADX4,3345,1,3297,3308,3309,3298
CQUADX4,3346,1,3298,3309,3310,3299
CQUADX4,3347,1,3300,3311,3312,3301
CQUADX4,3348,1,3301,3312,3313,3302
CQUADX4,3349,1,3302,3313,3314,3303
CQUADX4,3350,1,3303,3314,3315,3304
CQUADX4,3351,1,3304,3315,3316,3305
CQUADX4,3352,1,3305,3316,3317,3306
CQUADX4,3353,1,3306,3317,3318,3307
CQUADX4,3354,1,3307,3318,3319,3308
CQUADX4,3355,1,3308,3319,3320,3309
CQUADX4,3356,1,3309,3320,3321,3310
CQUADX4,3357,1,3311,3322,3323,3312
CQUADX4,3358,1,3312,3323,3324,3313
CQUADX4,3359,1,3313,3324,3325,3314
CQUADX4,3360,1,3314,3325,3326,3315
CQUADX4,3361,1,3315,3326,3327,3316
CQUADX4,3362,1,3316,3327,3328,3317
CQUADX4,3363,1,3317,3328,3329,3318
CQUADX4,3364,1,3318,3329,3330,3319
CQUADX4,3365,1,3319,3330,3331,3320
CQUADX4,3366,1,3320,3331,3332,3321
CQUADX4,3367,1,3322,3333,3334,3323
CQUADX4,3368,1,3323,3334,3335,3324
CQUADX4,3369,1,3324,3335,3336,3325
CQUADX4,3370,1,3325,3336,3337,3326
CQUADX4,3371,1,3326,3337,3338,3327
CQUADX4,3372,1,3327,3338,3339,3328
CQUADX4,3373,1,3328,3339,3340,3329
CQUADX4,3374,1,3329,3340,3341,3330
CQUADX4,3375,1,3330,3341,3342,3331
CQUADX4,3376,1,3331,3342,3343,3332
CQUADX4,3377,1,3333,3344,3345,3334
CQUADX4,3378,1,3334,3345,3346,3335
CQUADX4,3379,1,3335,3346,3347,3336
CQUADX4,3380,1,3336,3347,3348,3337
CQUADX4,3381,1,3337,3348,3349,3338
CQUADX4,3382,1,3338,3349,3350,3339
CQUADX4,3383,1,3339,3350,3351,3340
CQUADX4,3384,1,3340,3351,3352,3341
CQUADX4,3385,1,3341,3352,3353,3342
CQUADX4,3386,1,3342,3353,3354,3343
CQUADX4,3387,1,3344,3355,3356,3345
CQUADX4,3388,1,3345,3356,3357,3346
CQUADX4,3389,1,3346,3357,3358,3347
CQUADX4,3390,1,3347,3358,3359,3348
CQUADX4,3391,1,3348,3359,3360,3349
CQUADX4,3392,1,3349,3360,3361,3350
CQUADX4,3393,1,3350,3361,3362,3351
CQUADX4,3394,1,3351,3362,3363,3352
CQUADX4,3395,1,3352,3363,3364,3353
CQUADX4,3396,1,3353,3364,3365,3354
CQUADX4,3397,1,3355,3366,3367,3356
CQUADX4,3398,1,3356,3367,3368,3357
CQUADX4,3399,1,3357,3368,3369,3358
CQUADX4,3400,1,3358,3369,3370,3359
CQUADX4,3401,1,3359,3370,3371,3360
CQUADX4,3402,1,3360,3371,3372,3361
CQUADX4,3403,1,3361,3372,3373,3362
CQUADX4,3404,1,3362,3373,3374,3363
CQUADX4,3405,1,3363,3374,3375,3364
CQUADX4,3406,1,3364,3375,3376,3365
CQUADX4,3407,1,3366,3377,3378,3367
CQUADX4,3408,1,3367,3378,3379,3368
CQUADX4,3409,1,3368,3379,3380,3369
CQUADX4,3410,1,3369,3380,3381,3370
CQUADX4,3411,1,3370,3381,3382,3371
CQUADX4,3412,1,3371,3382,3383,3372
CQUADX4,3413,1,3372,3383,3384,3373
CQUADX4,3414,1,3373,3384,3385,3374
CQUADX4,3415,1,3374,3385,3386,3375
CQUADX4,3416,1,3375,3386,3387,3376
CQUADX4,3417,1,3377,3388,3389,3378
CQUADX4,3418,1,3378,3389,3390,3379
CQUADX4,3419,1,3379,3390,3391,3380
CQUADX4,3420,1,3380,3391,3392,3381
CQUADX4,3421,1,3381,3392,3393,3382
CQUADX4,3422,1,3382,3393,3394,3383
CQUADX4,3423,1,3383,3394,3395,3384
CQUADX4,3424,1,3384,3395,3396,3385
CQUADX4,3425,1,3385,3396,3397,3386
CQUADX4,3426,1,3386,3397,3398,3387
CQUADX4,3427,1,3388,3399,3400,3389
CQUADX4,3428,1,3389,3400,3401,3390
CQUADX4,3429,1,3390,3401,3402,3391
CQUADX4,3430,1,3391,3402,3403,3392
CQUADX4,3431,1,3392,3403,3404,3393
CQUADX4,3432,1,3393,3404,3405,3394
CQUADX4,3433,1,3394,3405,3406,3395
CQUADX4,3434,1,3395,3406,3407,3396
CQUADX4,3435,1,3396,3407,3408,3397
CQUADX4,3436,1,3397,3408,3409,3398
CQUADX4,3437,1,3399,3410,3411,3400
CQUADX4,3438,1,3400,3411,3412,3401
CQUADX4,3439,1,3401,3412,3413,3402
CQUADX4,3440,1,3402,3413,3414,3403
CQUADX4,3441,1,3403,3414,3415,3404
CQUADX4,3442,1,3404,3415,3416,3405
CQUADX4,3443,1,3405,3416,3417,3406
CQUADX4,3444,1,3406,3417,3418,3407
CQUADX4,3445,1,3407,3418,3419,3408
CQUADX4,3446,1,3408,3419,3420,3409
CQUADX4,3447,1,3410,3421,3422,3411
CQUADX4,3448,1,3411,3422,3423,3412
CQUADX4,3449,1,3412,3423,3424,3413
CQUADX4,3450,1,3413,3424,3425,3414
CQUADX4,3451,1,3414,3425,3426,3415
CQUADX4,3452,1,3415,3426,3427,3416
CQUADX4,3453,1,3416,3427,3428,3417
CQUADX4,3454,1,3417,3428,3429,3418
CQUADX4,3455,1,3418,3429,3430,3419
CQUADX4,3456,1,3419,3430,3431,3420
CQUADX4,3457,1,3421,3432,3433,3422
CQUADX4,3458,1,3422,3433,3434,3423
CQUADX4,3459,1,3423,3434,3435,3424
CQUADX4,3460,1,3424,3435,3436,3425
CQUADX4,3461,1,3425,3436,3437,3426
CQUADX4,3462,1,3426,3437,3438,3427
CQUADX4,3463,1,3427,3438,3439,3428
CQUADX4,3464,1,3428,3439,3440,3429
CQUADX4,3465,1,3429,3440,3441,3430
CQUADX4,3466,1,3430,3441,3442,3431
CQUADX4,3467,1,3432,3443,3444,3433
CQUADX4,3468,1,3433,3444,3445,3434
CQUADX4,3469,1,3434,3445,3446,3435
CQUADX4,3470,1,3435,3446,3447,3436
CQUADX4,3471,1,3436,3447,3448,3437
CQUADX4,3472,1,3437,3448,3449,3438
CQUADX4,3473,1,3438,3449,3450,3439
CQUADX4,3474,1,3439,3450,3451,3440
CQUADX4,3475,1,3440,3451,3452,3441
CQUADX4,3476,1,3441,3452,3453,3442
CQUADX4,3477,1,3443,3454,3455,3444
CQUADX4,3478,1,3444,3455,3456,3445
CQUADX4,3479,1,3445,3456,3457,3446
CQUADX4,3480,1,3446,3457,3458,3447
CQUADX4,3481,1,3447,3458,3459,3448
CQUADX4,3482,1,3448,3459,3460,3449
CQUADX4,3483,1,3449,3460,3461,3450
CQUADX4,3484,1,3450,3461,3462,3451
CQUADX4,3485,1,3451,3462,3463,3452
CQUADX4,3486,1,3452,3463,3464,3453
CQUADX4,3487,1,3454,3465,3466,3455
CQUADX4,3488,1,3455,3466,3467,3456
CQUADX4,3489,1,3456,3467,3468,3457
CQUADX4,3490,1,3457,3468,3469,3458
CQUADX4,3491,1,3458,3469,3470,3459
CQUADX4,3492,1,3459,3470,3471,3460
CQUADX4,3493,1,3460,3471,3472,3461
CQUADX4,3494,1,3461,3472,3473,3462
CQUADX4,3495,1,3462,3473,3474,3463
CQUADX4,3496,1,3463,3474,3475,3464
CQUADX4,3497,1,3465,3476,3477,3466
CQUADX4,3498,1,3466,3477,3478,3467
CQUADX4,3499,1,3467,3478,3479,3468
CQUADX4,3500,1,3468,3479,3480,3469
CQUADX4,3501,1,3469,3480,3481,3470
CQUADX4,3502,1,3470,3481,3482,3471
CQUADX4,3503,1,3471,3482,3483,3472
CQUADX4,3504,1,3472,3483,3484,3473
CQUADX4,3505,1,3473,3484,3485,3474
CQUADX4,3506,1,3474,3485,3486,3475
CQUADX4,3507,1,3476,3487,3488,3477
CQUADX4,3508,1,3477,3488,3489,3478
CQUADX4,3509,1,3478,3489,3490,3479
CQUADX4,3510,1,3479,3490,3491,3480
CQUADX4,3511,1,3480,3491,3492,3481
CQUADX4,3512,1,3481,3492,3493,3482
CQUADX4,3513,1,3482,3493,3494,3483
CQUADX4,3514,1,3483,3494,3495,3484
CQUADX4,3515,1,3484,3495,3496,3485
CQUADX4,3516,1,3485,3496,3497,3486
CQUADX4,3517,1,3487,3498,3499,3488
CQUADX4,3518,1,3488,3499,3500,3489
CQUADX4,3519,1,3489,3500,3501,3490
CQUADX4,3520,1,3490,3501,3502,3491
CQUADX4,3521,1,3491,3502,3503,3492
CQUADX4,3522,1,3492,3503,3504,3493
CQUADX4,3523,1,3493,3504,3505,3494
CQUADX4,3524,1,3494,3505,3506,3495
CQUADX4,3525,1,3495,3506,3507,3496
CQUADX4,3526,1,3496,3507,3508,3497
CQUADX4,3527,1,3498,3509,3510,3499
CQUADX4,3528,1,3499,3510,3511,3500
CQUADX4,3529,1,3500,3511,3512,3501
CQUADX4,3530,1,3501,3512,3513,3502
CQUADX4,3531,1,3502,3513,3514,3503
CQUADX4,3532,1,3503,3514,3515,3504
CQUADX4,3533,1,3504,3515,3516,3505
CQUADX4,3534,1,3505,3516,3517,3506
CQUADX4,3535,1,3506,3517,3518,3507
CQUADX4,3536,1,3507,3518,3519,3508
CQUADX4,3537,1,3509,3520,3521,3510
CQUADX4,3538,1,3510,3521,3522,3511
CQUADX4,3539,1,3511,3522,3523,3512
CQUADX4,3540,1,3512,3523,3524,3513
CQUADX4,3541,1,3513,3524,3525,3514
CQUADX4,3542,1,3514,3525,3526,3515
CQUADX4,3543,1,3515,3526,3527,3516
CQUADX4,3544,1,3516,3527,3528,3517
CQUADX4,3545,1,3517,3528,3529,3518
CQUADX4,3546,1,3518,3529,3530,3519
CQUADX4,3547,1,3520,3531,3532,3521
CQUADX4,3548,1,3521,3532,3533,3522
CQUADX4,3549,1,3522,3533,3534,3523
CQUADX4,3550,1,3523,3534,3535,3524
CQUADX4,3551,1,3524,3535,3536,3525
CQUADX4,3552,1,3525,3536,3537,3526
CQUADX4,3553,1,3526,3537,3538,3527
CQUADX4,3554,1,3527,3538,3539,3528
CQUADX4,3555,1,3528,3539,3540,3529
CQUADX4,3556,1,3529,3540,3541,3530
CQUADX4,3557,1,3531,3542,3543,3532
CQUADX4,3558,1,3532,3543,3544,3533
CQUADX4,3559,1,3533,3544,3545,3534
CQUADX4,3560,1,3534,3545,3546,3535
CQUADX4,3561,1,3535,3546,3547,3536
CQUADX4,3562,1,3536,3547,3548,3537
CQUADX4,3563,1,3537,3548,3549,3538
CQUADX4,3564,1,3538,3549,3550,3539
CQUADX4,3565,1,3539,3550,3551,3540
CQUADX4,3566,1,3540,3551,3552,3541
CQUADX4,3567,1,3542,3553,3554,3543
CQUADX4,3568,1,3543,3554,3555,3544
CQUADX4,3569,1,3544,3555,3556,3545
CQUADX4,3570,1,3545,3556,3557,3546
CQUADX4,3571,1,3546,3557,3558,3547
CQUADX4,3572,1,3547,3558,3559,3548
CQUADX4,3573,1,3548,3559,3560,3549
CQUADX4,3574,1,3549,3560,3561,3550
CQUADX4,3575,1,3550,3561,3562,3551
CQUADX4,3576,1,3551,3562,3563,3552
CQUADX4,3577,1,3553,3564,3565,3554
CQUADX4,3578,1,3554,3565,3566,3555
CQUADX4,3579,1,3555,3566,3567,3556
CQUADX4,3580,1,3556,3567,3568,3557
CQUADX4,3581,1,3557,3568,3569,3558
CQUADX4,3582,1,3558,3569,3570,3559
CQUADX4,3583,1,3559,3570,3571,3560
CQUADX4,3584,1,3560,3571,3572,3561
CQUADX4,3585,1,3561,3572,3573,3562
CQUADX4,3586,1,3562,3573,3574,3563
CQUADX4,3587,1,3564,3575,3576,3565
CQUADX4,3588,1,3565,3576,3577,3566
CQUADX4,3589,1,3566,3577,3578,3567
CQUADX4,3590,1,3567,3578,3579,3568
CQUADX4,3591,1,3568,3579,3580,3569
CQUADX4,3592,1,3569,3580,3581,3570
CQUADX4,3593,1,3570,3581,3582,3571
CQUADX4,3594,1,3571,3582,3583,3572
CQUADX4,3595,1,3572,3583,3584,3573
CQUADX4,3596,1,3573,3584,3585,3574
CQUADX4,3597,1,3575,3586,3587,3576
CQUADX4,3598,1,3576,3587,3588,3577
CQUADX4,3599,1,3577,3588,3589,3578
CQUADX4,3600,1,3578,3589,3590,3579
CQUADX4,3601,1,3579,3590,3591,3580
CQUADX4,3602,1,3580,3591,3592,3581
CQUADX4,3603,1,3581,3592,3593,3582
CQUADX4,3604,1,3582,3593,3594,3583
CQUADX4,3605,1,3583,3594,3595,3584
CQUADX4,3606,1,3584,3595,3596,3585
CQUADX4,3607,1,3586,3597,3598,3587
CQUADX4,3608,1,3587,3598,3599,3588
CQUADX4,3609,1,3588,3599,3600,3589
CQUADX4,3610,1,3589,3600,3601,3590
CQUADX4,3611,1,3590,3601,3602,3591
CQUADX4,3612,1,3591,3602,3603,3592
CQUADX4,3613,1,3592,3603,3604,3593
CQUADX4,3614,1,3593,3604,3605,3594
CQUADX4,3615,1,3594,3605,3606,3595
CQUADX4,3616,1,3595,3606,3607,3596
CQUADX4,3617,1,3597,3608,3609,3598
CQUADX4,3618,1,3598,3609,3610,3599
CQUADX4,3619,1,3599,3610,3611,3600
CQUADX4,3620,1,3600,3611,3612,3601
CQUADX4,3621,1,3601,3612,3613,3602
CQUADX4,3622,1,3602,3613,3614,3603
CQUADX4,3623,1,3603,3614,3615,3604
CQUADX4,3624,1,3604,3615,3616,3605
CQUADX4,3625,1,3605,3616,3617,3606
CQUADX4,3626,1,3606,3617,3618,3607
CQUADX4,3627,1,3608,3619,3620,3609
CQUADX4,3628,1,3609,3620,3621,3610
CQUADX4,3629,1,3610,3621,3622,3611
CQUADX4,3630,1,3611,3622,3623,3612
CQUADX4,3631,1,3612,3623,3624,3613
CQUADX4,3632,1,3613,3624,3625,3614
CQUADX4,3633,1,3614,3625,3626,3615
CQUADX4,3634,1,3615,3626,3627,3616
CQUADX4,3635,1,3616,3627,3628,3617
CQUADX4,3636,1,3617,3628,3629,3618
CQUADX4,3637,1,3619,3630,3631,3620
CQUADX4,3638,1,3620,3631,3632,3621
CQUADX4,3639,1,3621,3632,3633,3622
CQUADX4,3640,1,3622,3633,3634,3623
CQUADX4,3641,1,3623,3634,3635,3624
CQUADX4,3642,1,3624,3635,3636,3625
CQUADX4,3643,1,3625,3636,3637,3626
CQUADX4,3644,1,3626,3637,3638,3627
CQUADX4,3645,1,3627,3638,3639,3628
CQUADX4,3646,1,3628,3639,3640,3629
CQUADX4,3647,1,3630,3641,3642,3631
CQUADX4,3648,1,3631,3642,3643,3632
CQUADX4,3649,1,3632,3643,3644,3633
CQUADX4,3650,1,3633,3644,3645,3634
CQUADX4,3651,1,3634,3645,3646,3635
CQUADX4,3652,1,3635,3646,3647,3636
CQUADX4,3653,1,3636,3647,3648,3637
CQUADX4,3654,1,3637,3648,3649,3638
CQUADX4,3655,1,3638,3649,3650,3639
CQUADX4,3656,1,3639,3650,3651,3640
CQUADX4,3657,1,3641,3652,3653,3642
CQUADX4,3658,1,3642,3653,3654,3643
CQUADX4,3659,1,3643,3654,3655,3644
CQUADX4,3660,1,3644,3655,3656,3645
CQUADX4,3661,1,3645,3656,3657,3646
CQUADX4,3662,1,3646,3657,3658,3647
CQUADX4,3663,1,3647,3658,3659,3648
CQUADX4,3664,1,3648,3659,3660,3649
CQUADX4,3665,1,3649,3660,3661,3650
CQUADX4,3666,1,3650,3661,3662,3651
CQUADX4,3667,1,3652,3663,3664,3653
CQUADX4,3668,1,3653,3664,3665,3654
CQUADX4,3669,1,3654,3665,3666,3655
CQUADX4,3670,1,3655,3666,3667,3656
CQUADX4,3671,1,3656,3667,3668,3657
CQUADX4,3672,1,3657,3668,3669,3658
CQUADX4,3673,1,3658,3669,3670,3659
CQUADX4,3674,1,3659,3670,3671,3660
CQUADX4,3675,1,3660,3671,3672,3661
CQUADX4,3676,1,3661,3672,3673,3662
CQUADX4,3677,1,3663,3674,3675,3664
CQUADX4,3678,1,3664,3675,3676,3665
CQUADX4,3679,1,3665,3676,3677,3666
CQUADX4,3680,1,3666,3677,3678,3667
CQUADX4,3681,1,3667,3678,3679,3668
CQUADX4,3682,1,3668,3679,3680,3669
CQUADX4,3683,1,3669,3680,3681,3670
CQUADX4,3684,1,3670,3681,3682,3671
CQUADX4,3685,1,3671,3682,3683,3672
CQUADX4,3686,1,3672,3683,3684,3673
CQUADX4,3687,1,3674,3685,3686,3675
CQUADX4,3688,1,3675,3686,3687,3676
CQUADX4,3689,1,3676,3687,3688,3677
CQUADX4,3690,1,3677,3688,3689,3678
CQUADX4,3691,1,3678,3689,3690,3679
CQUADX4,3692,1,3679,3690,3691,3680
CQUADX4,3693,1,3680,3691,3692,3681
CQUADX4,3694,1,3681,3692,3693,3682
CQUADX4,3695,1,3682,3693,3694,3683
CQUADX4,3696,1,3683,3694,3695,3684
CQUADX4,3697,1,3685,3696,3697,3686
CQUADX4,3698,1,3686,3697,3698,3687
CQUADX4,3699,1,3687,3698,3699,3688
CQUADX4,3700,1,3688,3699,3700,3689
CQUADX4,3701,1,3689,3700,3701,3690
CQUADX4,3702,1,3690,3701,3702,3691
CQUADX4,3703,1,3691,3702,3703,3692
CQUADX4,3704,1,3692,3703,3704,3693
CQUADX4,3705,1,3693,3704,3705,3694
CQUADX4,3706,1,3694,3705,3706,3695
CQUADX4,3707,1,3696,3707,3708,3697
CQUADX4,3708,1,3697,3708,3709,3698
CQUADX4,3709,1,3698,3709,3710,3699
CQUADX4,3710,1,3699,3710,3711,3700
CQUADX4,3711,1,3700,3711,3712,3701
CQUADX4,3712,1,3701,3712,3713,3702
CQUADX4,3713,1,3702,3713,3714,3703
CQUADX4,3714,1,3703,3714,3715,3704
CQUADX4,3715,1,3704,3715,3716,3705
CQUADX4,3716,1,3705,3716,3717,3706
CQUADX4,3717,1,3707,3718,3719,3708
CQUADX4,3718,1,3708,3719,3720,3709
CQUADX4,3719,1,3709,3720,3721,3710
CQUADX4,3720,1,3710,3721,3722,3711
CQUADX4,3721,1,3711,3722,3723,3712
CQUADX4,3722,1,3712,3723,3724,3713
CQUADX4,3723,1,3713,3724,3725,3714
CQUADX4,3724,1,3714,3725,3726,3715
CQUADX4,3725,1,3715,3726,3727,3716
CQUADX4,3726,1,3716,3727,3728,3717
CQUADX4,3727,1,3718,3729,3730,3719
CQUADX4,3728,1,3719,3730,3731,3720
CQUADX4,3729,1,3720,3731,3732,3721
CQUADX4,3730,1,3721,3732,3733,3722
CQUADX4,3731,1,3722,3733,3734,3723
CQUADX4,3732,1,3723,3734,3735,3724
CQUADX4,3733,1,3724,3735,3736,3725
CQUADX4,3734,1,3725,3736,3737,3726
CQUADX4,3735,1,3726,3737,3738,3727
CQUADX4,3736,1,3727,3738,3739,3728
CQUADX4,3737,1,3729,3740,3741,3730
CQUADX4,3738,1,3730,3741,3742,3731
CQUADX4,3739,1,3731,3742,3743,3732
CQUADX4,3740,1,3732,3743,3744,3733
CQUADX4,3741,1,3733,3744,3745,3734
CQUADX4,3742,1,3734,3745,3746,3735
CQUADX4,3743,1,3735,3746,3747,3736
CQUADX4,3744,1,3736,3747,3748,3737
CQUADX4,3745,1,3737,3748,3749,3738
CQUADX4,3746,1,3738,3749,3750,3739
CQUADX4,3747,1,3740,3751,3752,3741
CQUADX4,3748,1,3741,3752,3753,3742
CQUADX4,3749,1,3742,3753,3754,3743
CQUADX4,3750,1,3743,3754,3755,3744
CQUADX4,3751,1,3744,3755,3756,3745
CQUADX4,3752,1,3745,3756,3757,3746
CQUADX4,3753,1,3746,3757,3758,3747
CQUADX4,3754,1,3747,3758,3759,3748
CQUADX4,3755,1,3748,3759,3760,3749
CQUADX4,3756,1,3749,3760,3761,3750
CQUADX4,3757,1,3751,3762,3763,3752
CQUADX4,3758,1,3752,3763,3764,3753
CQUADX4,3759,1,3753,3764,3765,3754
CQUADX4,3760,1,3754,3765,3766,3755
CQUADX4,3761,1,3755,3766,3767,3756
CQUADX4,3762,1,3756,3767,3768,3757
CQUADX4,3763,1,3757,3768,3769,3758
CQUADX4,3764,1,3758,3769,3770,3759
CQUADX4,3765,1,3759,3770,3771,3760
CQUADX4,3766,1,3760,3771,3772,3761
CQUADX4,3767,1,3762,3773,3774,3763
CQUADX4,3768,1,3763,3774,3775,3764
CQUADX4,3769,1,3764,3775,3776,3765
CQUADX4,3770,1,3765,3776,3777,3766
CQUADX4,3771,1,3766,3777,3778,3767
CQUADX4,3772,1,3767,3778,3779,3768
CQUADX4,3773,1,3768,3779,3780,3769
CQUADX4,3774,1,3769,3780,3781,3770
CQUADX4,3775,1,3770,3781,3782,3771
CQUADX4,3776,1,3771,3782,3783,3772
CQUADX4,3777,1,3773,3784,3785,3774
CQUADX4,3778,1,3774,3785,3786,3775
CQUADX4,3779,1,3775,3786,3787,3776
CQUADX4,3780,1,3776,3787,3788,3777
CQUADX4,3781,1,3777,3788,3789,3778
CQUADX4,3782,1,3778,3789,3790,3779
CQUADX4,3783,1,3779,3790,3791,3780
CQUADX4,3784,1,3780,3791,3792,3781
CQUADX4,3785,1,3781,3792,3793,3782
CQUADX4,3786,1,3782,3793,3794,3783
CQUADX4,3787,1,3784,3795,3796,3785
CQUADX4,3788,1,3785,3796,3797,3786
CQUADX4,3789,1,3786,3797,3798,3787
CQUADX4,3790,1,3787,3798,3799,3788
CQUADX4,3791,1,3788,3799,3800,3789
CQUADX4,3792,1,3789,3800,3801,3790
CQUADX4,3793,1,3790,3801,3802,3791
CQUADX4,3794,1,3791,3802,3803,3792
CQUADX4,3795,1,3792,3803,3804,3793
CQUADX4,3796,1,3793,3804,3805,3794
CQUADX4,3797,1,3795,3806,3807,3796
CQUADX4,3798,1,3796,3807,3808,3797
CQUADX4,3799,1,3797,3808,3809,3798
CQUADX4,3800,1,3798,3809,3810,3799
CQUADX4,3801,1,3799,3810,3811,3800
CQUADX4,3802,1,3800,3811,3812,3801
CQUADX4,3803,1,3801,3812,3813,3802
CQUADX4,3804,1,3802,3813,3814,3803
CQUADX4,3805,1,3803,3814,3815,3804
CQUADX4,3806,1,3804,3815,3816,3805
CQUADX4,3807,1,3806,3817,3818,3807
CQUADX4,3808,1,3807,3818,3819,3808
CQUADX4,3809,1,3808,3819,3820,3809
CQUADX4,3810,1,3809,3820,3821,3810
CQUADX4,3811,1,3810,3821,3822,3811
CQUADX4,3812,1,3811,3822,3823,3812
CQUADX4,3813,1,3812,3823,3824,3813
CQUADX4,3814,1,3813,3824,3825,3814
CQUADX4,3815,1,3814,3825,3826,3815
CQUADX4,3816,1,3815,3826,3827,3816
CQUADX4,3817,1,3817,3828,3829,3818
CQUADX4,3818,1,3818,3829,3830,3819
CQUADX4,3819,1,3819,3830,3831,3820
CQUADX4,3820,1,3820,3831,3832,3821
CQUADX4,3821,1,3821,3832,3833,3822
CQUADX4,3822,1,3822,3833,3834,3823
CQUADX4,3823,1,3823,3834,3835,3824
CQUADX4,3824,1,3824,3835,3836,3825
CQUADX4,3825,1,3825,3836,3837,3826
CQUADX4,3826,1,3826,3837,3838,3827
CQUADX4,3827,1,3828,3839,3840,3829
CQUADX4,3828,1,3829,3840,3841,3830
CQUADX4,3829,1,3830,3841,3842,3831
CQUADX4,3830,1,3831,3842,3843,3832
CQUADX4,3831,1,3832,3843,3844,3833
CQUADX4,3832,1,3833,3844,3845,3834
CQUADX4,3833,1,3834,3845,3846,3835
CQUADX4,3834,1,3835,3846,3847,3836
CQUADX4,3835,1,3836,3847,3848,3837
CQUADX4,3836,1,3837,3848,3849,3838
CQUADX4,3837,1,3839,3850,3851,3840
CQUADX4,3838,1,3840,3851,3852,3841
CQUADX4,3839,1,3841,3852,3853,3842
CQUADX4,3840,1,3842,3853,3854,3843
CQUADX4,3841,1,3843,3854,3855,3844
CQUADX4,3842,1,3844,3855,3856,3845
CQUADX4,3843,1,3845,3856,3857,3846
CQUADX4,3844,1,3846,3857,3858,3847
CQUADX4,3845,1,3847,3858,3859,3848
CQUADX4,3846,1,3848,3859,3860,3849
CQUADX4,3847,1,3850,3861,3862,3851
CQUADX4,3848,1,3851,3862,3863,3852
CQUADX4,3849,1,3852,3863,3864,3853
CQUADX4,3850,1,3853,3864,3865,3854
CQUADX4,3851,1,3854,3865,3866,3855
CQUADX4,3852,1,3855,3866,3867,3856
CQUADX4,3853,1,3856,3867,3868,3857
CQUADX4,3854,1,3857,3868,3869,3858
CQUADX4,3855,1,3858,3869,3870,3859
CQUADX4,3856,1,3859,3870,3871,3860
CQUADX4,3857,1,3861,3872,3873,3862
CQUADX4,3858,1,3862,3873,3874,3863
CQUADX4,3859,1,3863,3874,3875,3864
CQUADX4,3860,1,3864,3875,3876,3865
CQUADX4,3861,1,3865,3876,3877,3866
CQUADX4,3862,1,3866,3877,3878,3867
CQUADX4,3863,1,3867,3878,3879,3868
CQUADX4,3864,1,3868,3879,3880,3869
CQUADX4,3865,1,3869,3880,3881,3870
CQUADX4,3866,1,3870,3881,3882,3871
CQUADX4,3867,1,3872,3883,3884,3873
CQUADX4,3868,1,3873,3884,3885,3874
CQUADX4,3869,1,3874,3885,3886,3875
CQUADX4,3870,1,3875,3886,3887,3876
CQUADX4,3871,1,3876,3887,3888,3877
CQUADX4,3872,1,3877,3888,3889,3878
CQUADX4,3873,1,3878,3889,3890,3879
CQUADX4,3874,1,3879,3890,3891,3880
CQUADX4,3875,1,3880,3891,3892,3881
CQUADX4,3876,1,3881,3892,3893,3882
CQUADX4,3877,1,3883,3894,3895,3884
CQUADX4,3878,1,3884,3895,3896,3885
CQUADX4,3879,1,3885,3896,3897,3886
CQUADX4,3880,1,3886,3897,3898,3887
CQUADX4,3881,1,3887,3898,3899,3888
CQUADX4,3882,1,3888,3899,3900,3889
CQUADX4,3883,1,3889,3900,3901,3890
CQUADX4,3884,1,3890,3901,3902,3891
CQUADX4,3885,1,3891,3902,3903,3892
CQUADX4,3886,1,3892,3903,3904,3893
CQUADX4,3887,1,3894,3905,3906,3895
CQUADX4,3888,1,3895,3906,3907,3896
CQUADX4,3889,1,3896,3907,3908,3897
CQUADX4,3890,1,3897,3908,3909,3898
CQUADX4,3891,1,3898,3909,3910,3899
CQUADX4,3892,1,3899,3910,3911,3900
CQUADX4,3893,1,3900,3911,3912,3901
CQUADX4,3894,1,3901,3912,3913,3902
CQUADX4,3895,1,3902,3913,3914,3903
CQUADX4,3896,1,3903,3914,3915,3904
CQUADX4,3897,1,3905,3916,3917,3906
CQUADX4,3898,1,3906,3917,3918,3907
CQUADX4,3899,1,3907,3918,3919,3908
CQUADX4,3900,1,3908,3919,3920,3909
CQUADX4,3901,1,3909,3920,3921,3910
CQUADX4,3902,1,3910,3921,3922,3911
CQUADX4,3903,1,3911,3922,3923,3912
CQUADX4,3904,1,3912,3923,3924,3913
CQUADX4,3905,1,3913,3924,3925,3914
CQUADX4,3906,1,3914,3925,3926,3915
CQUADX4,3907,1,3916,3927,3928,3917
CQUADX4,3908,1,3917,3928,3929,3918
CQUADX4,3909,1,3918,3929,3930,3919
CQUADX4,3910,1,3919,3930,3931,3920
CQUADX4,3911,1,3920,3931,3932,3921
CQUADX4,3912,1,3921,3932,3933,3922
CQUADX4,3913,1,3922,3933,3934,3923
CQUADX4,3914,1,3923,3934,3935,3924
CQUADX4,3915,1,3924,3935,3936,3925
CQUADX4,3916,1,3925,3936,3937,3926
CQUADX4,3917,1,3927,3938,3939,3928
CQUADX4,3918,1,3928,3939,3940,3929
CQUADX4,3919,1,3929,3940,3941,3930
CQUADX4,3920,1,3930,3941,3942,3931
CQUADX4,3921,1,3931,3942,3943,3932
CQUADX4,3922,1,3932,3943,3944,3933
CQUADX4,3923,1,3933,3944,3945,3934
CQUADX4,3924,1,3934,3945,3946,3935
CQUADX4,3925,1,3935,3946,3947,3936
CQUADX4,3926,1,3936,3947,3948,3937
CQUADX4,3927,1,3938,3949,3950,3939
CQUADX4,3928,1,3939,3950,3951,3940
CQUADX4,3929,1,3940,3951,3952,3941
CQUADX4,3930,1,3941,3952,3953,3942
CQUADX4,3931,1,3942,3953,3954,3943
CQUADX4,3932,1,3943,3954,3955,3944
CQUADX4,3933,1,3944,3955,3956,3945
CQUADX4,3934,1,3945,3956,3957,3946
CQUADX4,3935,1,3946,3957,3958,3947
CQUADX4,3936,1,3947,3958,3959,3948
CQUADX4,3937,1,3949,3960,3961,3950
CQUADX4,3938,1,3950,3961,3962,3951
CQUADX4,3939,1,3951,3962,3963,3952
CQUADX4,3940,1,3952,3963,3964,3953
CQUADX4,3941,1,3953,3964,3965,3954
CQUADX4,3942,1,3954,3965,3966,3955
CQUADX4,3943,1,3955,3966,3967,3956
CQUADX4,3944,1,3956,3967,3968,3957
CQUADX4,3945,1,3957,3968,3969,3958
CQUADX4,3946,1,3958,3969,3970,3959
CQUADX4,3947,1,3960,3971,3972,3961
CQUADX4,3948,1,3961,3972,3973,3962
CQUADX4,3949,1,3962,3973,3974,3963
CQUADX4,3950,1,3963,3974,3975,3964
CQUADX4,3951,1,3964,3975,3976,3965
CQUADX4,3952,1,3965,3976,3977,3966
CQUADX4,3953,1,3966,3977,3978,3967
CQUADX4,3954,1,3967,3978,3979,3968
CQUADX4,3955,1,3968,3979,3980,3969
CQUADX4,3956,1,3969,3980,3981,3970
CQUADX4,3957,1,3971,3982,3983,3972
CQUADX4,3958,1,3972,3983,3984,3973
CQUADX4,3959,1,3973,3984,3985,3974
CQUADX4,3960,1,3974,3985,3986,3975
CQUADX4,3961,1,3975,3986,3987,3976
CQUADX4,3962,1,3976,3987,3988,3977
CQUADX4,3963,1,3977,3988,3989,3978
CQUADX4,3964,1,3978,3989,3990,3979
CQUADX4,3965,1,3979,3990,3991,3980
CQUADX4,3966,1,3980,3991,3992,3981
CQUADX4,3967,1,3982,3993,3994,3983
CQUADX4,3968,1,3983,3994,3995,3984
CQUADX4,3969,1,3984,3995,3996,3985
CQUADX4,3970,1,3985,3996,3997,3986
CQUADX4,3971,1,3986,3997,3998,3987
CQUADX4,3972,1,3987,3998,3999,3988
CQUADX4,3973,1,3988,3999,4000,3989
CQUADX4,3974,1,3989,4000,4001,3990
CQUADX4,3975,1,3990,4001,4002,3991
CQUADX4,3976,1,3991,4002,4003,3992
CQUADX4,3977,1,3993,4004,4005,3994
CQUADX4,3978,1,3994,4005,4006,3995
CQUADX4,3979,1,3995,4006,4007,3996
CQUADX4,3980,1,3996,4007,4008,3997
CQUADX4,3981,1,3997,4008,4009,3998
CQUADX4,3982,1,3998,4009,4010,3999
CQUADX4,3983,1,3999,4010,4011,4000
CQUADX4,3984,1,4000,4011,4012,4001
CQUADX4,3985,1,4001,4012,4013,4002
CQUADX4,3986,1,4002,4013,4014,4003
CQUADX4,3987,1,4004,4015,4016,4005
CQUADX4,3988,1,4005,4016,4017,4006
CQUADX4,3989,1,4006,4017,4018,4007
CQUADX4,3990,1,4007,4018,4019,4008
CQUADX4,3991,1,4008,4019,4020,4009
CQUADX4,3992,1,4009,4020,4021,4010
CQUADX4,3993,1,4010,4021,4022,4011
CQUADX4,3994,1,4011,4022,4023,4012
CQUADX4,3995,1,4012,4023,4024,4013
CQUADX4,3996,1,4013,4024,4025,4014
CQUADX4,3997,1,4015,4026,4027,4016
CQUADX4,3998,1,4016,4027,4028,4017
CQUADX4,3999,1,4017,4028,4029,4018
CQUADX4,4000,1,4018,4029,4030,4019
CQUADX4,4001,1,4019,4030,4031,4020
CQUADX4,4002,1,4020,4031,4032,4021
CQUADX4,4003,1,4021,4032,4033,4022
CQUADX4,4004,1,4022,4033,4034,4023
CQUADX4,4005,1,4023,4034,4035,4024
CQUADX4,4006,1,4024,4035,4036,4025
CQUADX4,4007,1,4026,4037,4038,4027
CQUADX4,4008,1,4027,4038,4039,4028
CQUADX4,4009,1,4028,4039,4040,4029
CQUADX4,4010,1,4029,4040,4041,4030
CQUADX4,4011,1,4030,4041,4042,4031
CQUADX4,4012,1,4031,4042,4043,4032
CQUADX4,4013,1,4032,4043,4044,4033
CQUADX4,4014,1,4033,4044,4045,4034
CQUADX4,4015,1,4034,4045,4046,4035
CQUADX4,4016,1,4035,4046,4047,4036
CQUADX4,4017,1,4037,4048,4049,4038
CQUADX4,4018,1,4038,4049,4050,4039
CQUADX4,4019,1,4039,4050,4051,4040
CQUADX4,4020,1,4040,4051,4052,4041
CQUADX4,4021,1,4041,4052,4053,4042
CQUADX4,4022,1,4042,4053,4054,4043
CQUADX4,4023,1,4043,4054,4055,4044
CQUADX4,4024,1,4044,4055,4056,4045
CQUADX4,4025,1,4045,4056,4057,4046
CQUADX4,4026,1,4046,4057,4058,4047
CQUADX4,4027,1,4048,4059,4060,4049
CQUADX4,4028,1,4049,4060,4061,4050
CQUADX4,4029,1,4050,4061,4062,4051
CQUADX4,4030,1,4051,4062,4063,4052
CQUADX4,4031,1,4052,4063,4064,4053
CQUADX4,4032,1,4053,4064,4065,4054
CQUADX4,4033,1,4054,4065,4066,4055
CQUADX4,4034,1,4055,4066,4067,4056
CQUADX4,4035,1,4056,4067,4068,4057
CQUADX4,4036,1,4057,4068,4069,4058
CQUADX4,4037,1,4059,4070,4071,4060
CQUADX4,4038,1,4060,4071,4072,4061
CQUADX4,4039,1,4061,4072,4073,4062
CQUADX4,4040,1,4062,4073,4074,4063
CQUADX4,4041,1,4063,4074,4075,4064
CQUADX4,4042,1,4064,4075,4076,4065
CQUADX4,4043,1,4065,4076,4077,4066
CQUADX4,4044,1,4066,4077,4078,4067
CQUADX4,4045,1,4067,4078,4079,4068
CQUADX4,4046,1,4068,4079,4080,4069
CQUADX4,4047,1,4070,4081,4082,4071
CQUADX4,4048,1,4071,4082,4083,4072
CQUADX4,4049,1,4072,4083,4084,4073
CQUADX4,4050,1,4073,4084,4085,4074
CQUADX4,4051,1,4074,4085,4086,4075
CQUADX4,4052,1,4075,4086,4087,4076
CQUADX4,4053,1,4076,4087,4088,4077
CQUADX4,4054,1,4077,4088,4089,4078
CQUADX4,4055,1,4078,4089,4090,4079
CQUADX4,4056,1,4079,4090,4091,4080
CQUADX4,4057,1,4081,4092,4093,4082
CQUADX4,4058,1,4082,4093,4094,4083
CQUADX4,4059,1,4083,4094,4095,4084
CQUADX4,4060,1,4084,4095,4096,4085
CQUADX4,4061,1,4085,4096,4097,4086
CQUADX4,4062,1,4086,4097,4098,4087
CQUADX4,4063,1,4087,4098,4099,4088
CQUADX4,4064,1,4088,4099,4100,4089
CQUADX4,4065,1,4089,4100,4101,4090
CQUADX4,4066,1,4090,4101,4102,4091
CQUADX4,4067,1,4092,4103,4104,4093
CQUADX4,4068,1,4093,4104,4105,4094
CQUADX4,4069,1,4094,4105,4106,4095
CQUADX4,4070,1,4095,4106,4107,4096
CQUADX4,4071,1,4096,4107,4108,4097
CQUADX4,4072,1,4097,4108,4109,4098
CQUADX4,4073,1,4098,4109,4110,4099
CQUADX4,4074,1,4099,4110,4111,4100
CQUADX4,4075,1,4100,4111,4112,4101
CQUADX4,4076,1,4101,4112,4113,4102
CQUADX4,4077,1,4103,4114,4115,4104
CQUADX4,4078,1,4104,4115,4116,4105
CQUADX4,4079,1,4105,4116,4117,4106
CQUADX4,4080,1,4106,4117,4118,4107
CQUADX4,4081,1,4107,4118,4119,4108
CQUADX4,4082,1,4108,4119,4120,4109
CQUADX4,4083,1,4109,4120,4121,4110
CQUADX4,4084,1,4110,4121,4122,4111
CQUADX4,4085,1,4111,4122,4123,4112
CQUADX4,4086,1,4112,4123,4124,4113
CQUADX4,4087,1,4114,4125,4126,4115
CQUADX4,4088,1,4115,4126,4127,4116
CQUADX4,4089,1,4116,4127,4128,4117
CQUADX4,4090,1,4117,4128,4129,4118
CQUADX4,4091,1,4118,4129,4130,4119
CQUADX4,4092,1,4119,4130,4131,4120
CQUADX4,4093,1,4120,4131,4132,4121
CQUADX4,4094,1,4121,4132,4133,4122
CQUADX4,4095,1,4122,4133,4134,4123
CQUADX4,4096,1,4123,4134,4135,4124
CQUADX4,4097,1,4125,4136,4137,4126
CQUADX4,4098,1,4126,4137,4138,4127
CQUADX4,4099,1,4127,4138,4139,4128
CQUADX4,4100,1,4128,4139,4140,4129
CQUADX4,4101,1,4129,4140,4141,4130
CQUADX4,4102,1,4130,4141,4142,4131
CQUADX4,4103,1,4131,4142,4143,4132
CQUADX4,4104,1,4132,4143,4144,4133
CQUADX4,4105,1,4133,4144,4145,4134
CQUADX4,4106,1,4134,4145,4146,4135
CQUADX4,4107,1,4136,4147,4148,4137
CQUADX4,4108,1,4137,4148,4149,4138
CQUADX4,4109,1,4138,4149,4150,4139
CQUADX4,4110,1,4139,4150,4151,4140
CQUADX4,4111,1,4140,4151,4152,4141
CQUADX4,4112,1,4141,4152,4153,4142
CQUADX4,4113,1,4142,4153,4154,4143
CQUADX4,4114,1,4143,4154,4155,4144
CQUADX4,4115,1,4144,4155,4156,4145
CQUADX4,4116,1,4145,4156,4157,4146
CQUADX4,4117,1,4147,4158,4159,4148
CQUADX4,4118,1,4148,4159,4160,4149
CQUADX4,4119,1,4149,4160,4161,4150
CQUADX4,4120,1,4150,4161,4162,4151
CQUADX4,4121,1,4151,4162,4163,4152
CQUADX4,4122,1,4152,4163,4164,4153
CQUADX4,4123,1,4153,4164,4165,4154
CQUADX4,4124,1,4154,4165,4166,4155
CQUADX4,4125,1,4155,4166,4167,4156
CQUADX4,4126,1,4156,4167,4168,4157
CQUADX4,4127,1,4158,4169,4170,4159
CQUADX4,4128,1,4159,4170,4171,4160
CQUADX4,4129,1,4160,4171,4172,4161
CQUADX4,4130,1,4161,4172,4173,4162
CQUADX4,4131,1,4162,4173,4174,4163
CQUADX4,4132,1,4163,4174,4175,4164
CQUADX4,4133,1,4164,4175,4176,4165
CQUADX4,4134,1,4165,4176,4177,4166
CQUADX4,4135,1,4166,4177,4178,4167
CQUADX4,4136,1,4167,4178,4179,4168
CQUADX4,4137,1,4169,4180,4181,4170
CQUADX4,4138,1,4170,4181,4182,4171
CQUADX4,4139,1,4171,4182,4183,4172
CQUADX4,4140,1,4172,4183,4184,4173
CQUADX4,4141,1,4173,4184,4185,4174
CQUADX4,4142,1,4174,4185,4186,4175
CQUADX4,4143,1,4175,4186,4187,4176
CQUADX4,4144,1,4176,4187,4188,4177
CQUADX4,4145,1,4177,4188,4189,4178
CQUADX4,4146,1,4178,4189,4190,4179
CQUADX4,4147,1,4180,4191,4192,4181
CQUADX4,4148,1,4181,4192,4193,4182
CQUADX4,4149,1,4182,4193,4194,4183
CQUADX4,4150,1,4183,4194,4195,4184
CQUADX4,4151,1,4184,4195,4196,4185
CQUADX4,4152,1,4185,4196,4197,4186
CQUADX4,4153,1,4186,4197,4198,4187
CQUADX4,4154,1,4187,4198,4199,4188
CQUADX4,4155,1,4188,4199,4200,4189
CQUADX4,4156,1,4189,4200,4201,4190
CQUADX4,4157,1,4191,4202,4203,4192
CQUADX4,4158,1,4192,4203,4204,4193
CQUADX4,4159,1,4193,4204,4205,4194
CQUADX4,4160,1,4194,4205,4206,4195
CQUADX4,4161,1,4195,4206,4207,4196
CQUADX4,4162,1,4196,4207,4208,4197
CQUADX4,4163,1,4197,4208,4209,4198
CQUADX4,4164,1,4198,4209,4210,4199
CQUADX4,4165,1,4199,4210,4211,4200
CQUADX4,4166,1,4200,4211,4212,4201
CQUADX4,4167,1,4202,4213,4214,4203
CQUADX4,4168,1,4203,4214,4215,4204
CQUADX4,4169,1,4204,4215,4216,4205
CQUADX4,4170,1,4205,4216,4217,4206
CQUADX4,4171,1,4206,4217,4218,4207
CQUADX4,4172,1,4207,4218,4219,4208
CQUADX4,4173,1,4208,4219,4220,4209
CQUADX4,4174,1,4209,4220,4221,4210
CQUADX4,4175,1,4210,4221,4222,4211
CQUADX4,4176,1,4211,4222,4223,4212
CQUADX4,4177,1,4213,4224,4225,4214
CQUADX4,4178,1,4214,4225,4226,4215
CQUADX4,4179,1,4215,4226,4227,4216
CQUADX4,4180,1,4216,4227,4228,4217
CQUADX4,4181,1,4217,4228,4229,4218
CQUADX4,4182,1,4218,4229,4230,4219
CQUADX4,4183,1,4219,4230,4231,4220
CQUADX4,4184,1,4220,4231,4232,4221
CQUADX4,4185,1,4221,4232,4233,4222
CQUADX4,4186,1,4222,4233,4234,4223
CQUADX4,4187,1,4224,4235,4236,4225
CQUADX4,4188,1,4225,4236,4237,4226
CQUADX4,4189,1,4226,4237,4238,4227
CQUADX4,4190,1,4227,4238,4239,4228
CQUADX4,4191,1,4228,4239,4240,4229
CQUADX4,4192,1,4229,4240,4241,4230
CQUADX4,4193,1,4230,4241,4242,4231
CQUADX4,4194,1,4231,4242,4243,4232
CQUADX4,4195,1,4232,4243,4244,4233
CQUADX4,4196,1,4233,4244,4245,4234
CQUADX4,4197,1,4235,4246,4247,4236
CQUADX4,4198,1,4236,4247,4248,4237
CQUADX4,4199,1,4237,4248,4249,4238
CQUADX4,4200,1,4238,4249,4250,4239
CQUADX4,4201,1,4239,4250,4251,4240
CQUADX4,4202,1,4240,4251,4252,4241
CQUADX4,4203,1,4241,4252,4253,4242
CQUADX4,4204,1,4242,4253,4254,4243
CQUADX4,4205,1,4243,4254,4255,4244
CQUADX4,4206,1,4244,4255,4256,4245
CQUADX4,4207,1,4246,4257,4258,4247
CQUADX4,4208,1,4247,4258,4259,4248
CQUADX4,4209,1,4248,4259,4260,4249
CQUADX4,4210,1,4249,4260,4261,4250
CQUADX4,4211,1,4250,4261,4262,4251
CQUADX4,4212,1,4251,4262,4263,4252
CQUADX4,4213,1,4252,4263,4264,4253
CQUADX4,4214,1,4253,4264,4265,4254
CQUADX4,4215,1,4254,4265,4266,4255
CQUADX4,4216,1,4255,4266,4267,4256
CQUADX4,4217,1,4257,4268,4269,4258
CQUADX4,4218,1,4258,4269,4270,4259
CQUADX4,4219,1,4259,4270,4271,4260
CQUADX4,4220,1,4260,4271,4272,4261
CQUADX4,4221,1,4261,4272,4273,4262
CQUADX4,4222,1,4262,4273,4274,4263
CQUADX4,4223,1,4263,4274,4275,4264
CQUADX4,4224,1,4264,4275,4276,4265
CQUADX4,4225,1,4265,4276,4277,4266
CQUADX4,4226,1,4266,4277,4278,4267
CQUADX4,4227,1,4268,4279,4280,4269
CQUADX4,4228,1,4269,4280,4281,4270
CQUADX4,4229,1,4270,4281,4282,4271
CQUADX4,4230,1,4271,4282,4283,4272
CQUADX4,4231,1,4272,4283,4284,4273
CQUADX4,4232,1,4273,4284,4285,4274
CQUADX4,4233,1,4274,4285,4286,4275
CQUADX4,4234,1,4275,4286,4287,4276
CQUADX4,4235,1,4276,4287,4288,4277
CQUADX4,4236,1,4277,4288,4289,4278
CQUADX4,4237,1,4279,4290,4291,4280
CQUADX4,4238,1,4280,4291,4292,4281
CQUADX4,4239,1,4281,4292,4293,4282
CQUADX4,4240,1,4282,4293,4294,4283
CQUADX4,4241,1,4283,4294,4295,4284
CQUADX4,4242,1,4284,4295,4296,4285
CQUADX4,4243,1,4285,4296,4297,4286
CQUADX4,4244,1,4286,4297,4298,4287
CQUADX4,4245,1,4287,4298,4299,4288
CQUADX4,4246,1,4288,4299,4300,4289
CQUADX4,4247,1,4290,4301,4302,4291
CQUADX4,4248,1,4291,4302,4303,4292
CQUADX4,4249,1,4292,4303,4304,4293
CQUADX4,4250,1,4293,4304,4305,4294
CQUADX4,4251,1,4294,4305,4306,4295
CQUADX4,4252,1,4295,4306,4307,4296
CQUADX4,4253,1,4296,4307,4308,4297
CQUADX4,4254,1,4297,4308,4309,4298
CQUADX4,4255,1,4298,4309,4310,4299
CQUADX4,4256,1,4299,4310,4311,4300
CQUADX4,4257,1,4301,4312,4313,4302
CQUADX4,4258,1,4302,4313,4314,4303
CQUADX4,4259,1,4303,4314,4315,4304
CQUADX4,4260,1,4304,4315,4316,4305
CQUADX4,4261,1,4305,4316,4317,4306
CQUADX4,4262,1,4306,4317,4318,4307
CQUADX4,4263,1,4307,4318,4319,4308
CQUADX4,4264,1,4308,4319,4320,4309
CQUADX4,4265,1,4309,4320,4321,4310
CQUADX4,4266,1,4310,4321,4322,4311
CQUADX4,4267,1,4312,4323,4324,4313
CQUADX4,4268,1,4313,4324,4325,4314
CQUADX4,4269,1,4314,4325,4326,4315
CQUADX4,4270,1,4315,4326,4327,4316
CQUADX4,4271,1,4316,4327,4328,4317
CQUADX4,4272,1,4317,4328,4329,4318
CQUADX4,4273,1,4318,4329,4330,4319
CQUADX4,4274,1,4319,4330,4331,4320
CQUADX4,4275,1,4320,4331,4332,4321
CQUADX4,4276,1,4321,4332,4333,4322
CQUADX4,4277,1,4323,4334,4335,4324
CQUADX4,4278,1,4324,4335,4336,4325
CQUADX4,4279,1,4325,4336,4337,4326
CQUADX4,4280,1,4326,4337,4338,4327
CQUADX4,4281,1,4327,4338,4339,4328
CQUADX4,4282,1,4328,4339,4340,4329
CQUADX4,4283,1,4329,4340,4341,4330
CQUADX4,4284,1,4330,4341,4342,4331
CQUADX4,4285,1,4331,4342,4343,4332
CQUADX4,4286,1,4332,4343,4344,4333
CQUADX4,4287,1,4334,4345,4346,4335
CQUADX4,4288,1,4335,4346,4347,4336
CQUADX4,4289,1,4336,4347,4348,4337
CQUADX4,4290,1,4337,4348,4349,4338
CQUADX4,4291,1,4338,4349,4350,4339
CQUADX4,4292,1,4339,4350,4351,4340
CQUADX4,4293,1,4340,4351,4352,4341
CQUADX4,4294,1,4341,4352,4353,4342
CQUADX4,4295,1,4342,4353,4354,4343
CQUADX4,4296,1,4343,4354,4355,4344
CQUADX4,4297,1,4345,4356,4357,4346
CQUADX4,4298,1,4346,4357,4358,4347
CQUADX4,4299,1,4347,4358,4359,4348
CQUADX4,4300,1,4348,4359,4360,4349
CQUADX4,4301,1,4349,4360,4361,4350
CQUADX4,4302,1,4350,4361,4362,4351
CQUADX4,4303,1,4351,4362,4363,4352
CQUADX4,4304,1,4352,4363,4364,4353
CQUADX4,4305,1,4353,4364,4365,4354
CQUADX4,4306,1,4354,4365,4366,4355
CQUADX4,4307,1,4356,4367,4368,4357
CQUADX4,4308,1,4357,4368,4369,4358
CQUADX4,4309,1,4358,4369,4370,4359
CQUADX4,4310,1,4359,4370,4371,4360
CQUADX4,4311,1,4360,4371,4372,4361
CQUADX4,4312,1,4361,4372,4373,4362
CQUADX4,4313,1,4362,4373,4374,4363
CQUADX4,4314,1,4363,4374,4375,4364
CQUADX4,4315,1,4364,4375,4376,4365
CQUADX4,4316,1,4365,4376,4377,4366
CQUADX4,4317,1,4367,4378,4379,4368
CQUADX4,4318,1,4368,4379,4380,4369
CQUADX4,4319,1,4369,4380,4381,4370
CQUADX4,4320,1,4370,4381,4382,4371
CQUADX4,4321,1,4371,4382,4383,4372
CQUADX4,4322,1,4372,4383,4384,4373
CQUADX4,4323,1,4373,4384,4385,4374
CQUADX4,4324,1,4374,4385,4386,4375
CQUADX4,4325,1,4375,4386,4387,4376
CQUADX4,4326,1,4376,4387,4388,4377
CQUADX4,4327,1,4378,4389,4390,4379
CQUADX4,4328,1,4379,4390,4391,4380
CQUADX4,4329,1,4380,4391,4392,4381
CQUADX4,4330,1,4381,4392,4393,4382
CQUADX4,4331,1,4382,4393,4394,4383
CQUADX4,4332,1,4383,4394,4395,4384
CQUADX4,4333,1,4384,4395,4396,4385
CQUADX4,4334,1,4385,4396,4397,4386
CQUADX4,4335,1,4386,4397,4398,4387
CQUADX4,4336,1,4387,4398,4399,4388
CQUADX4,4337,1,4389,4400,4401,4390
CQUADX4,4338,1,4390,4401,4402,4391
CQUADX4,4339,1,4391,4402,4403,4392
CQUADX4,4340,1,4392,4403,4404,4393
CQUADX4,4341,1,4393,4404,4405,4394
CQUADX4,4342,1,4394,4405,4406,4395
CQUADX4,4343,1,4395,4406,4407,4396
CQUADX4,4344,1,4396,4407,4408,4397
CQUADX4,4345,1,4397,4408,4409,4398
CQUADX4,4346,1,4398,4409,4410,4399
CQUADX4,4347,1,4400,4411,4412,4401
CQUADX4,4348,1,4401,4412,4413,4402
CQUADX4,4349,1,4402,4413,4414,4403
CQUADX4,4350,1,4403,4414,4415,4404
CQUADX4,4351,1,4404,4415,4416,4405
CQUADX4,4352,1,4405,4416,4417,4406
CQUADX4,4353,1,4406,4417,4418,4407
CQUADX4,4354,1,4407,4418,4419,4408
CQUADX4,4355,1,4408,4419,4420,4409
CQUADX4,4356,1,4409,4420,4421,4410
CQUADX4,4357,1,4411,4422,4423,4412
CQUADX4,4358,1,4412,4423,4424,4413
CQUADX4,4359,1,4413,4424,4425,4414
CQUADX4,4360,1,4414,4425,4426,4415
CQUADX4,4361,1,4415,4426,4427,4416
CQUADX4,4362,1,4416,4427,4428,4417
CQUADX4,4363,1,4417,4428,4429,4418
CQUADX4,4364,1,4418,4429,4430,4419
CQUADX4,4365,1,4419,4430,4431,4420
CQUADX4,4366,1,4420,4431,4432,4421
CQUADX4,4367,1,4422,4433,4434,4423
CQUADX4,4368,1,4423,4434,4435,4424
CQUADX4,4369,1,4424,4435,4436,4425
CQUADX4,4370,1,4425,4436,4437,4426
CQUADX4,4371,1,4426,4437,4438,4427
CQUADX4,4372,1,4427,4438,4439,4428
CQUADX4,4373,1,4428,4439,4440,4429
CQUADX4,4374,1,4429,4440,4441,4430
CQUADX4,4375,1,4430,4441,4442,4431
CQUADX4,4376,1,4431,4442,4443,4432
CQUADX4,4377,1,4433,4444,4445,4434
CQUADX4,4378,1,4434,4445,4446,4435
CQUADX4,4379,1,4435,4446,4447,4436
CQUADX4,4380,1,4436,4447,4448,4437
CQUADX4,4381,1,4437,4448,4449,4438
CQUADX4,4382,1,4438,4449,4450,4439
CQUADX4,4383,1,4439,4450,4451,4440
CQUADX4,4384,1,4440,4451,4452,4441
CQUADX4,4385,1,4441,4452,4453,4442
CQUADX4,4386,1,4442,4453,4454,4443
CQUADX4,4387,1,4444,4455,4456,4445
CQUADX4,4388,1,4445,4456,4457,4446
CQUADX4,4389,1,4446,4457,4458,4447
CQUADX4,4390,1,4447,4458,4459,4448
CQUADX4,4391,1,4448,4459,4460,4449
CQUADX4,4392,1,4449,4460,4461,4450
CQUADX4,4393,1,4450,4461,4462,4451
CQUADX4,4394,1,4451,4462,4463,4452
CQUADX4,4395,1,4452,4463,4464,4453
CQUADX4,4396,1,4453,4464,4465,4454
CQUADX4,4397,1,4455,4466,4467,4456
CQUADX4,4398,1,4456,4467,4468,4457
CQUADX4,4399,1,4457,4468,4469,4458
CQUADX4,4400,1,4458,4469,4470,4459
CQUADX4,4401,1,4459,4470,4471,4460
CQUADX4,4402,1,4460,4471,4472,4461
CQUADX4,4403,1,4461,4472,4473,4462
CQUADX4,4404,1,4462,4473,4474,4463
CQUADX4,4405,1,4463,4474,4475,4464
CQUADX4,4406,1,4464,4475,4476,4465
CQUADX4,4407,1,4466,4477,4478,4467
CQUADX4,4408,1,4467,4478,4479,4468
CQUADX4,4409,1,4468,4479,4480,4469
CQUADX4,4410,1,4469,4480,4481,4470
CQUADX4,4411,1,4470,4481,4482,4471
CQUADX4,4412,1,4471,4482,4483,4472
CQUADX4,4413,1,4472,4483,4484,4473
CQUADX4,4414,1,4473,4484,4485,4474
CQUADX4,4415,1,4474,4485,4486,4475
CQUADX4,4416,1,4475,4486,4487,4476
CQUADX4,4417,1,4477,4488,4489,4478
CQUADX4,4418,1,4478,4489,4490,4479
CQUADX4,4419,1,4479,4490,4491,4480
CQUADX4,4420,1,4480,4491,4492,4481
CQUADX4,4421,1,4481,4492,4493,4482
CQUADX4,4422,1,4482,4493,4494,4483
CQUADX4,4423,1,4483,4494,4495,4484
CQUADX4,4424,1,4484,4495,4496,4485
CQUADX4,4425,1,4485,4496,4497,4486
CQUADX4,4426,1,4486,4497,4498,4487
CQUADX4,4427,1,4488,4499,4500,4489
CQUADX4,4428,1,4489,4500,4501,4490
CQUADX4,4429,1,4490,4501,4502,4491
CQUADX4,4430,1,4491,4502,4503,4492
CQUADX4,4431,1,4492,4503,4504,4493
CQUADX4,4432,1,4493,4504,4505,4494
CQUADX4,4433,1,4494,4505,4506,4495
CQUADX4,4434,1,4495,4506,4507,4496
CQUADX4,4435,1,4496,4507,4508,4497
CQUADX4,4436,1,4497,4508,4509,4498
CQUADX4,4437,1,4499,4510,4511,4500
CQUADX4,4438,1,4500,4511,4512,4501
CQUADX4,4439,1,4501,4512,4513,4502
CQUADX4,4440,1,4502,4513,4514,4503
CQUADX4,4441,1,4503,4514,4515,4504
CQUADX4,4442,1,4504,4515,4516,4505
CQUADX4,4443,1,4505,4516,4517,4506
CQUADX4,4444,1,4506,4517,4518,4507
CQUADX4,4445,1,4507,4518,4519,4508
CQUADX4,4446,1,4508,4519,4520,4509
CQUADX4,4447,1,4510,4521,4522,4511
CQUADX4,4448,1,4511,4522,4523,4512
CQUADX4,4449,1,4512,4523,4524,4513
CQUADX4,4450,1,4513,4524,4525,4514
CQUADX4,4451,1,4514,4525,4526,4515
CQUADX4,4452,1,4515,4526,4527,4516
CQUADX4,4453,1,4516,4527,4528,4517
CQUADX4,4454,1,4517,4528,4529,4518
CQUADX4,4455,1,4518,4529,4530,4519
CQUADX4,4456,1,4519,4530,4531,4520
CQUADX4,4457,1,4521,4532,4533,4522
CQUADX4,4458,1,4522,4533,4534,4523
CQUADX4,4459,1,4523,4534,4535,4524
CQUADX4,4460,1,4524,4535,4536,4525
CQUADX4,4461,1,4525,4536,4537,4526
CQUADX4,4462,1,4526,4537,4538,4527
CQUADX4,4463,1,4527,4538,4539,4528
CQUADX4,4464,1,4528,4539,4540,4529
CQUADX4,4465,1,4529,4540,4541,4530
CQUADX4,4466,1,4530,4541,4542,4531
CQUADX4,4467,1,4532,4543,4544,4533
CQUADX4,4468,1,4533,4544,4545,4534
CQUADX4,4469,1,4534,4545,4546,4535
CQUADX4,4470,1,4535,4546,4547,4536
CQUADX4,4471,1,4536,4547,4548,4537
CQUADX4,4472,1,4537,4548,4549,4538
CQUADX4,4473,1,4538,4549,4550,4539
CQUADX4,4474,1,4539,4550,4551,4540
CQUADX4,4475,1,4540,4551,4552,4541
CQUADX4,4476,1,4541,4552,4553,4542
CQUADX4,4477,1,4543,4554,4555,4544
CQUADX4,4478,1,4544,4555,4556,4545
CQUADX4,4479,1,4545,4556,4557,4546
CQUADX4,4480,1,4546,4557,4558,4547
CQUADX4,4481,1,4547,4558,4559,4548
CQUADX4,4482,1,4548,4559,4560,4549
CQUADX4,4483,1,4549,4560,4561,4550
CQUADX4,4484,1,4550,4561,4562,4551
CQUADX4,4485,1,4551,4562,4563,4552
CQUADX4,4486,1,4552,4563,4564,4553
CQUADX4,4487,1,4554,4565,4566,4555
CQUADX4,4488,1,4555,4566,4567,4556
CQUADX4,4489,1,4556,4567,4568,4557
CQUADX4,4490,1,4557,4568,4569,4558
CQUADX4,4491,1,4558,4569,4570,4559
CQUADX4,4492,1,4559,4570,4571,4560
CQUADX4,4493,1,4560,4571,4572,4561
CQUADX4,4494,1,4561,4572,4573,4562
CQUADX4,4495,1,4562,4573,4574,4563
CQUADX4,4496,1,4563,4574,4575,4564
CQUADX4,4497,1,4565,4576,4577,4566
CQUADX4,4498,1,4566,4577,4578,4567
CQUADX4,4499,1,4567,4578,4579,4568
CQUADX4,4500,1,4568,4579,4580,4569
CQUADX4,4501,1,4569,4580,4581,4570
CQUADX4,4502,1,4570,4581,4582,4571
CQUADX4,4503,1,4571,4582,4583,4572
CQUADX4,4504,1,4572,4583,4584,4573
CQUADX4,4505,1,4573,4584,4585,4574
CQUADX4,4506,1,4574,4585,4586,4575
CQUADX4,4507,1,4576,4587,4588,4577
CQUADX4,4508,1,4577,4588,4589,4578
CQUADX4,4509,1,4578,4589,4590,4579
CQUADX4,4510,1,4579,4590,4591,4580
CQUADX4,4511,1,4580,4591,4592,4581
CQUADX4,4512,1,4581,4592,4593,4582
CQUADX4,4513,1,4582,4593,4594,4583
CQUADX4,4514,1,4583,4594,4595,4584
CQUADX4,4515,1,4584,4595,4596,4585
CQUADX4,4516,1,4585,4596,4597,4586
CQUADX4,4517,1,4587,4598,4599,4588
CQUADX4,4518,1,4588,4599,4600,4589
CQUADX4,4519,1,4589,4600,4601,4590
CQUADX4,4520,1,4590,4601,4602,4591
CQUADX4,4521,1,4591,4602,4603,4592
CQUADX4,4522,1,4592,4603,4604,4593
CQUADX4,4523,1,4593,4604,4605,4594
CQUADX4,4524,1,4594,4605,4606,4595
CQUADX4,4525,1,4595,4606,4607,4596
CQUADX4,4526,1,4596,4607,4608,4597
CQUADX4,4527,1,4598,4609,4610,4599
CQUADX4,4528,1,4599,4610,4611,4600
CQUADX4,4529,1,4600,4611,4612,4601
CQUADX4,4530,1,4601,4612,4613,4602
CQUADX4,4531,1,4602,4613,4614,4603
CQUADX4,4532,1,4603,4614,4615,4604
CQUADX4,4533,1,4604,4615,4616,4605
CQUADX4,4534,1,4605,4616,4617,4606
CQUADX4,4535,1,4606,4617,4618,4607
CQUADX4,4536,1,4607,4618,4619,4608
CQUADX4,4537,1,4609,4620,4621,4610
CQUADX4,4538,1,4610,4621,4622,4611
CQUADX4,4539,1,4611,4622,4623,4612
CQUADX4,4540,1,4612,4623,4624,4613
CQUADX4,4541,1,4613,4624,4625,4614
CQUADX4,4542,1,4614,4625,4626,4615
CQUADX4,4543,1,4615,4626,4627,4616
CQUADX4,4544,1,4616,4627,4628,4617
CQUADX4,4545,1,4617,4628,4629,4618
CQUADX4,4546,1,4618,4629,4630,4619
CQUADX4,4547,1,4620,4631,4632,4621
CQUADX4,4548,1,4621,4632,4633,4622
CQUADX4,4549,1,4622,4633,4634,4623
CQUADX4,4550,1,4623,4634,4635,4624
CQUADX4,4551,1,4624,4635,4636,4625
CQUADX4,4552,1,4625,4636,4637,4626
CQUADX4,4553,1,4626,4637,4638,4627
CQUADX4,4554,1,4627,4638,4639,4628
CQUADX4,4555,1,4628,4639,4640,4629
CQUADX4,4556,1,4629,4640,4641,4630
CQUADX4,4557,1,4631,4642,4643,4632
CQUADX4,4558,1,4632,4643,4644,4633
CQUADX4,4559,1,4633,4644,4645,4634
CQUADX4,4560,1,4634,4645,4646,4635
CQUADX4,4561,1,4635,4646,4647,4636
CQUADX4,4562,1,4636,4647,4648,4637
CQUADX4,4563,1,4637,4648,4649,4638
CQUADX4,4564,1,4638,4649,4650,4639
CQUADX4,4565,1,4639,4650,4651,4640
CQUADX4,4566,1,4640,4651,4652,4641
CQUADX4,4567,1,4642,4653,4654,4643
CQUADX4,4568,1,4643,4654,4655,4644
CQUADX4,4569,1,4644,4655,4656,4645
CQUADX4,4570,1,4645,4656,4657,4646
CQUADX4,4571,1,4646,4657,4658,4647
CQUADX4,4572,1,4647,4658,4659,4648
CQUADX4,4573,1,4648,4659,4660,4649
CQUADX4,4574,1,4649,4660,4661,4650
CQUADX4,4575,1,4650,4661,4662,4651
CQUADX4,4576,1,4651,4662,4663,4652
CQUADX4,4577,1,4653,4664,4665,4654
CQUADX4,4578,1,4654,4665,4666,4655
CQUADX4,4579,1,4655,4666,4667,4656
CQUADX4,4580,1,4656,4667,4668,4657
CQUADX4,4581,1,4657,4668,4669,4658
CQUADX4,4582,1,4658,4669,4670,4659
CQUADX4,4583,1,4659,4670,4671,4660
CQUADX4,4584,1,4660,4671,4672,4661
CQUADX4,4585,1,4661,4672,4673,4662
CQUADX4,4586,1,4662,4673,4674,4663
CQUADX4,4587,1,4664,4675,4676,4665
CQUADX4,4588,1,4665,4676,4677,4666
CQUADX4,4589,1,4666,4677,4678,4667
CQUADX4,4590,1,4667,4678,4679,4668
CQUADX4,4591,1,4668,4679,4680,4669
CQUADX4,4592,1,4669,4680,4681,4670
CQUADX4,4593,1,4670,4681,4682,4671
CQUADX4,4594,1,4671,4682,4683,4672
CQUADX4,4595,1,4672,4683,4684,4673
CQUADX4,4596,1,4673,4684,4685,4674
CQUADX4,4597,1,4675,4686,4687,4676
CQUADX4,4598,1,4676,4687,4688,4677
CQUADX4,4599,1,4677,4688,4689,4678
CQUADX4,4600,1,4678,4689,4690,4679
CQUADX4,4601,1,4679,4690,4691,4680
CQUADX4,4602,1,4680,4691,4692,4681
CQUADX4,4603,1,4681,4692,4693,4682
CQUADX4,4604,1,4682,4693,4694,4683
CQUADX4,4605,1,4683,4694,4695,4684
CQUADX4,4606,1,4684,4695,4696,4685
CQUADX4,4607,1,4686,4697,4698,4687
CQUADX4,4608,1,4687,4698,4699,4688
CQUADX4,4609,1,4688,4699,4700,4689
CQUADX4,4610,1,4689,4700,4701,4690
CQUADX4,4611,1,4690,4701,4702,4691
CQUADX4,4612,1,4691,4702,4703,4692
CQUADX4,4613,1,4692,4703,4704,4693
CQUADX4,4614,1,4693,4704,4705,4694
CQUADX4,4615,1,4694,4705,4706,4695
CQUADX4,4616,1,4695,4706,4707,4696
CQUADX4,4617,1,4697,4708,4709,4698
CQUADX4,4618,1,4698,4709,4710,4699
CQUADX4,4619,1,4699,4710,4711,4700
CQUADX4,4620,1,4700,4711,4712,4701
CQUADX4,4621,1,4701,4712,4713,4702
CQUADX4,4622,1,4702,4713,4714,4703
CQUADX4,4623,1,4703,4714,4715,4704
CQUADX4,4624,1,4704,4715,4716,4705
CQUADX4,4625,1,4705,4716,4717,4706
CQUADX4,4626,1,4706,4717,4718,4707
CQUADX4,4627,1,4708,4719,4720,4709
CQUADX4,4628,1,4709,4720,4721,4710
CQUADX4,4629,1,4710,4721,4722,4711
CQUADX4,4630,1,4711,4722,4723,4712
CQUADX4,4631,1,4712,4723,4724,4713
CQUADX4,4632,1,4713,4724,4725,4714
CQUADX4,4633,1,4714,4725,4726,4715
CQUADX4,4634,1,4715,4726,4727,4716
CQUADX4,4635,1,4716,4727,4728,4717
CQUADX4,4636,1,4717,4728,4729,4718
CQUADX4,4637,1,11928,10911,2101,10899
CQUADX4,4638,1,10911,10912,2112,2101
CQUADX4,4639,1,10912,10913,2123,2112
CQUADX4,4640,1,10913,10914,2134,2123
CQUADX4,4641,1,10914,10915,2145,2134
CQUADX4,4642,1,10915,10916,2156,2145
CQUADX4,4643,1,10916,10917,2167,2156
CQUADX4,4644,1,10917,10918,2178,2167
CQUADX4,4645,1,10918,10919,2189,2178
CQUADX4,4646,1,10919,10920,2200,2189
CQUADX4,4647,1,10920,10921,2211,2200
CQUADX4,4648,1,10921,10922,2222,2211
CQUADX4,4649,1,10922,10923,2233,2222
CQUADX4,4650,1,10923,10924,2244,2233
CQUADX4,4651,1,10924,10925,2255,2244
CQUADX4,4652,1,10925,10926,2266,2255
CQUADX4,4653,1,10926,10927,2277,2266
CQUADX4,4654,1,10927,10928,2288,2277
CQUADX4,4655,1,10928,10929,2299,2288
CQUADX4,4656,1,10929,10930,2310,2299
CQUADX4,4657,1,10930,10931,2321,2310
CQUADX4,4658,1,10931,10932,2332,2321
CQUADX4,4659,1,10932,10933,2343,2332
CQUADX4,4660,1,10933,10934,2354,2343
CQUADX4,4661,1,10934,10935,2365,2354
CQUADX4,4662,1,10935,10936,2376,2365
CQUADX4,4663,1,10936,10937,2387,2376
CQUADX4,4664,1,10937,10938,2398,2387
CQUADX4,4665,1,10938,10939,2409,2398
CQUADX4,4666,1,10939,10940,2420,2409
CQUADX4,4667,1,10940,10941,2431,2420
CQUADX4,4668,1,10941,10942,2442,2431
CQUADX4,4669,1,10942,10943,2453,2442
CQUADX4,4670,1,10943,10944,2464,2453
CQUADX4,4671,1,10944,10945,2475,2464
CQUADX4,4672,1,10945,10946,2486,2475
CQUADX4,4673,1,10946,10947,2497,2486
CQUADX4,4674,1,10947,10948,2508,2497
CQUADX4,4675,1,10948,10949,2519,2508
CQUADX4,4676,1,10949,10950,2530,2519
CQUADX4,4677,1,10950,10951,2541,2530
CQUADX4,4678,1,10951,10952,2552,2541
CQUADX4,4679,1,10952,10953,2563,2552
CQUADX4,4680,1,10953,10954,2574,2563
CQUADX4,4681,1,10954,10955,2585,2574
CQUADX4,4682,1,10955,10956,2596,2585
CQUADX4,4683,1,10956,10957,2607,2596
CQUADX4,4684,1,10957,10958,2618,2607
CQUADX4,4685,1,10958,10959,2629,2618
CQUADX4,4686,1,10959,10960,2640,2629
CQUADX4,4687,1,10960,10961,2651,2640
CQUADX4,4688,1,10961,10962,2662,2651
CQUADX4,4689,1,10962,10963,2673,2662
CQUADX4,4690,1,10963,10964,2684,2673
CQUADX4,4691,1,10964,10965,2695,2684
CQUADX4,4692,1,10965,10966,2706,2695
CQUADX4,4693,1,10966,10967,2717,2706
CQUADX4,4694,1,10967,10968,2728,2717
CQUADX4,4695,1,10968,10969,2739,2728
CQUADX4,4696,1,10969,10970,2750,2739
CQUADX4,4697,1,10970,10971,2761,2750
CQUADX4,4698,1,10971,10972,2772,2761
CQUADX4,4699,1,10972,10973,2783,2772
CQUADX4,4700,1,10973,10974,2794,2783
CQUADX4,4701,1,10974,10975,2805,2794
CQUADX4,4702,1,10975,10976,2816,2805
CQUADX4,4703,1,10976,10977,2827,2816
CQUADX4,4704,1,10977,10978,2838,2827
CQUADX4,4705,1,10978,10979,2849,2838
CQUADX4,4706,1,10979,10980,2860,2849
CQUADX4,4707,1,10980,10981,2871,2860
CQUADX4,4708,1,10981,10982,2882,2871
CQUADX4,4709,1,10982,10983,2893,2882
CQUADX4,4710,1,10983,10984,2904,2893
CQUADX4,4711,1,10984,10985,2915,2904
CQUADX4,4712,1,10985,10986,2926,2915
CQUADX4,4713,1,10986,10987,2937,2926
CQUADX4,4714,1,10987,10988,2948,2937
CQUADX4,4715,1,10988,10989,2959,2948
CQUADX4,4716,1,10989,10990,2970,2959
CQUADX4,4717,1,10990,10991,2981,2970
CQUADX4,4718,1,10991,10992,2992,2981
CQUADX4,4719,1,10992,10993,3003,2992
CQUADX4,4720,1,10993,10994,3014,3003
CQUADX4,4721,1,10994,10995,3025,3014
CQUADX4,4722,1,10995,10996,3036,3025
CQUADX4,4723,1,10996,10997,3047,3036
CQUADX4,4724,1,10997,10998,3058,3047
CQUADX4,4725,1,10998,10999,3069,3058
CQUADX4,4726,1,10999,11000,3080,3069
CQUADX4,4727,1,11000,11001,3091,3080
CQUADX4,4728,1,11001,11002,3102,3091
CQUADX4,4729,1,11002,11003,3113,3102
CQUADX4,4730,1,11003,11004,3124,3113
CQUADX4,4731,1,11004,11005,3135,3124
CQUADX4,4732,1,11005,11006,3146,3135
CQUADX4,4733,1,11006,11007,3157,3146
CQUADX4,4734,1,11007,11008,3168,3157
CQUADX4,4735,1,11008,11009,3179,3168
CQUADX4,4736,1,11009,11010,3190,3179
CQUADX4,4737,1,11010,11011,3201,3190
CQUADX4,4738,1,11011,11012,3212,3201
CQUADX4,4739,1,11012,11013,3223,3212
CQUADX4,4740,1,11013,11014,3234,3223
CQUADX4,4741,1,11014,11015,3245,3234
CQUADX4,4742,1,11015,11016,3256,3245
CQUADX4,4743,1,11016,11017,3267,3256
CQUADX4,4744,1,11017,11018,3278,3267
CQUADX4,4745,1,11018,11019,3289,3278
CQUADX4,4746,1,11019,11020,3300,3289
CQUADX4,4747,1,11020,11021,3311,3300
CQUADX4,4748,1,11021,11022,3322,3311
CQUADX4,4749,1,11022,11023,3333,3322
CQUADX4,4750,1,11023,11024,3344,3333
CQUADX4,4751,1,11024,11025,3355,3344
CQUADX4,4752,1,11025,11026,3366,3355
CQUADX4,4753,1,11026,11027,3377,3366
CQUADX4,4754,1,11027,11028,3388,3377
CQUADX4,4755,1,11028,11029,3399,3388
CQUADX4,4756,1,11029,11030,3410,3399
CQUADX4,4757,1,11030,11031,3421,3410
CQUADX4,4758,1,11031,11032,3432,3421
CQUADX4,4759,1,11032,11033,3443,3432
CQUADX4,4760,1,11033,11034,3454,3443
CQUADX4,4761,1,11034,11035,3465,3454
CQUADX4,4762,1,11035,11036,3476,3465
CQUADX4,4763,1,11036,11037,3487,3476
CQUADX4,4764,1,11037,11038,3498,3487
CQUADX4,4765,1,11038,11039,3509,3498
CQUADX4,4766,1,11039,11040,3520,3509
CQUADX4,4767,1,11040,11041,3531,3520
CQUADX4,4768,1,11041,11042,3542,3531
CQUADX4,4769,1,11042,11043,3553,3542
CQUADX4,4770,1,11043,11044,3564,3553
CQUADX4,4771,1,11044,11045,3575,3564
CQUADX4,4772,1,11045,11046,3586,3575
CQUADX4,4773,1,11046,11047,3597,3586
CQUADX4,4774,1,11047,11048,3608,3597
CQUADX4,4775,1,11048,11049,3619,3608
CQUADX4,4776,1,11049,11050,3630,3619
CQUADX4,4777,1,11050,11051,3641,3630
CQUADX4,4778,1,11051,11052,3652,3641
CQUADX4,4779,1,11052,11053,3663,3652
CQUADX4,4780,1,11053,11054,3674,3663
CQUADX4,4781,1,11054,11055,3685,3674
CQUADX4,4782,1,11055,11056,3696,3685
CQUADX4,4783,1,11056,11057,3707,3696
CQUADX4,4784,1,11057,11058,3718,3707
CQUADX4,4785,1,11058,11059,3729,3718
CQUADX4,4786,1,11059,11060,3740,3729
CQUADX4,4787,1,11060,11061,3751,3740
CQUADX4,4788,1,11061,11062,3762,3751
CQUADX4,4789,1,11062,11063,3773,3762
CQUADX4,4790,1,11063,11064,3784,3773
CQUADX4,4791,1,11064,11065,3795,3784
CQUADX4,4792,1,11065,11066,3806,3795
CQUADX4,4793,1,11066,11067,3817,3806
CQUADX4,4794,1,11067,11068,3828,3817
CQUADX4,4795,1,11068,11069,3839,3828
CQUADX4,4796,1,11069,11070,3850,3839
CQUADX4,4797,1,11070,11071,3861,3850
CQUADX4,4798,1,11071,11072,3872,3861
CQUADX4,4799,1,11072,11073,3883,3872
CQUADX4,4800,1,11073,11074,3894,3883
CQUADX4,4801,1,11074,11075,3905,3894
CQUADX4,4802,1,11075,11076,3916,3905
CQUADX4,4803,1,11076,11077,3927,3916
CQUADX4,4804,1,11077,11078,3938,3927
CQUADX4,4805,1,11078,11079,3949,3938
CQUADX4,4806,1,11079,11080,3960,3949
CQUADX4,4807,1,11080,11081,3971,3960
CQUADX4,4808,1,11081,11082,3982,3971
CQUADX4,4809,1,11082,11083,3993,3982
CQUADX4,4810,1,11083,11084,4004,3993
CQUADX4,4811,1,11084,11085,4015,4004
CQUADX4,4812,1,11085,11086,4026,4015
CQUADX4,4813,1,11086,11087,4037,4026
CQUADX4,4814,1,11087,11088,4048,4037
CQUADX4,4815,1,11088,11089,4059,4048
CQUADX4,4816,1,11089,11090,4070,4059
CQUADX4,4817,1,11090,11091,4081,4070
CQUADX4,4818,1,11091,11092,4092,4081
CQUADX4,4819,1,11092,11093,4103,4092
CQUADX4,4820,1,11093,11094,4114,4103
CQUADX4,4821,1,11094,11095,4125,4114
CQUADX4,4822,1,11095,11096,4136,4125
CQUADX4,4823,1,11096,11097,4147,4136
CQUADX4,4824,1,11097,11098,4158,4147
CQUADX4,4825,1,11098,11099,4169,4158
CQUADX4,4826,1,11099,11100,4180,4169
CQUADX4,4827,1,11100,11101,4191,4180
CQUADX4,4828,1,11101,11102,4202,4191
CQUADX4,4829,1,11102,11103,4213,4202
CQUADX4,4830,1,11103,11104,4224,4213
CQUADX4,4831,1,11104,11105,4235,4224
CQUADX4,4832,1,11105,11106,4246,4235
CQUADX4,4833,1,11106,11107,4257,4246
CQUADX4,4834,1,11107,11108,4268,4257
CQUADX4,4835,1,11108,11109,4279,4268
CQUADX4,4836,1,11109,11110,4290,4279
CQUADX4,4837,1,11110,11111,4301,4290
CQUADX4,4838,1,11111,11112,4312,4301
CQUADX4,4839,1,11112,11113,4323,4312
CQUADX4,4840,1,11113,11114,4334,4323
CQUADX4,4841,1,11114,11115,4345,4334
CQUADX4,4842,1,11115,11116,4356,4345
CQUADX4,4843,1,11116,11117,4367,4356
CQUADX4,4844,1,11117,11118,4378,4367
CQUADX4,4845,1,11118,11119,4389,4378
CQUADX4,4846,1,11119,11120,4400,4389
CQUADX4,4847,1,11120,11121,4411,4400
CQUADX4,4848,1,11121,11122,4422,4411
CQUADX4,4849,1,11122,11123,4433,4422
CQUADX4,4850,1,11123,11124,4444,4433
CQUADX4,4851,1,11124,11125,4455,4444
CQUADX4,4852,1,11125,11126,4466,4455
CQUADX4,4853,1,11126,11127,4477,4466
CQUADX4,4854,1,11127,11128,4488,4477
CQUADX4,4855,1,11128,11129,4499,4488
CQUADX4,4856,1,11129,11130,4510,4499
CQUADX4,4857,1,11130,11131,4521,4510
CQUADX4,4858,1,11131,11132,4532,4521
CQUADX4,4859,1,11132,11133,4543,4532
CQUADX4,4860,1,11133,11134,4554,4543
CQUADX4,4861,1,11134,11135,4565,4554
CQUADX4,4862,1,11135,11136,4576,4565
CQUADX4,4863,1,11136,11137,4587,4576
CQUADX4,4864,1,11137,11138,4598,4587
CQUADX4,4865,1,11138,11139,4609,4598
CQUADX4,4866,1,11139,11140,4620,4609
CQUADX4,4867,1,11140,11141,4631,4620
CQUADX4,4868,1,11141,11142,4642,4631
CQUADX4,4869,1,11142,11143,4653,4642
CQUADX4,4870,1,11143,11144,4664,4653
CQUADX4,4871,1,11144,11145,4675,4664
CQUADX4,4872,1,11145,11146,4686,4675
CQUADX4,4873,1,11146,11147,4697,4686
CQUADX4,4874,1,11147,11148,4708,4697
CQUADX4,4875,1,11148,11149,4719,4708
CQUADX4,4876,1,11149,11929,10900,4719
CQUADX4,4877,1,4719,10900,10901,4720
CQUADX4,4878,1,4720,10901,10902,4721
CQUADX4,4879,1,4721,10902,10903,4722
CQUADX4,4880,1,4722,10903,10904,4723
CQUADX4,4881,1,4723,10904,10905,4724
CQUADX4,4882,1,4724,10905,10906,4725
CQUADX4,4883,1,4725,10906,10907,4726
CQUADX4,4884,1,4726,10907,10908,4727
CQUADX4,4885,1,4727,10908,10909,4728
CQUADX4,4886,1,4728,10909,10910,4729
CQUADX4,4887,1,4729,10910,11926,10650
CQUADX4,4888,1,4718,4729,10650,10651
CQUADX4,4889,1,4707,4718,10651,10652
CQUADX4,4890,1,4696,4707,10652,10653
CQUADX4,4891,1,4685,4696,10653,10654
CQUADX4,4892,1,4674,4685,10654,10655
CQUADX4,4893,1,4663,4674,10655,10656
CQUADX4,4894,1,4652,4663,10656,10657
CQUADX4,4895,1,4641,4652,10657,10658
CQUADX4,4896,1,4630,4641,10658,10659
CQUADX4,4897,1,4619,4630,10659,10660
CQUADX4,4898,1,4608,4619,10660,10661
CQUADX4,4899,1,4597,4608,10661,10662
CQUADX4,4900,1,4586,4597,10662,10663
CQUADX4,4901,1,4575,4586,10663,10664
CQUADX4,4902,1,4564,4575,10664,10665
CQUADX4,4903,1,4553,4564,10665,10666
CQUADX4,4904,1,4542,4553,10666,10667
CQUADX4,4905,1,4531,4542,10667,10668
CQUADX4,4906,1,4520,4531,10668,10669
CQUADX4,4907,1,4509,4520,10669,10670
CQUADX4,4908,1,4498,4509,10670,10671
CQUADX4,4909,1,4487,4498,10671,10672
CQUADX4,4910,1,4476,4487,10672,10673
CQUADX4,4911,1,4465,4476,10673,10674
CQUADX4,4912,1,4454,4465,10674,10675
CQUADX4,4913,1,4443,4454,10675,10676
CQUADX4,4914,1,4432,4443,10676,10677
CQUADX4,4915,1,4421,4432,10677,10678
CQUADX4,4916,1,4410,4421,10678,10679
CQUADX4,4917,1,4399,4410,10679,10680
CQUADX4,4918,1,4388,4399,10680,10681
CQUADX4,4919,1,4377,4388,10681,10682
CQUADX4,4920,1,4366,4377,10682,10683
CQUADX4,4921,1,4355,4366,10683,10684
CQUADX4,4922,1,4344,4355,10684,10685
CQUADX4,4923,1,4333,4344,10685,10686
CQUADX4,4924,1,4322,4333,10686,10687
CQUADX4,4925,1,4311,4322,10687,10688
CQUADX4,4926,1,4300,4311,10688,10689
CQUADX4,4927,1,4289,4300,10689,10690
CQUADX4,4928,1,4278,4289,10690,10691
CQUADX4,4929,1,4267,4278,10691,10692
CQUADX4,4930,1,4256,4267,10692,10693
CQUADX4,4931,1,4245,4256,10693,10694
CQUADX4,4932,1,4234,4245,10694,10695
CQUADX4,4933,1,4223,4234,10695,10696
CQUADX4,4934,1,4212,4223,10696,10697
CQUADX4,4935,1,4201,4212,10697,10698
CQUADX4,4936,1,4190,4201,10698,10699
CQUADX4,4937,1,4179,4190,10699,10700
CQUADX4,4938,1,4168,4179,10700,10701
CQUADX4,4939,1,4157,4168,10701,10702
CQUADX4,4940,1,4146,4157,10702,10703
CQUADX4,4941,1,4135,4146,10703,10704
CQUADX4,4942,1,4124,4135,10704,10705
CQUADX4,4943,1,4113,4124,10705,10706
CQUADX4,4944,1,4102,4113,10706,10707
CQUADX4,4945,1,4091,4102,10707,10708
CQUADX4,4946,1,4080,4091,10708,10709
CQUADX4,4947,1,4069,4080,10709,10710
CQUADX4,4948,1,4058,4069,10710,10711
CQUADX4,4949,1,4047,4058,10711,10712
CQUADX4,4950,1,4036,4047,10712,10713
CQUADX4,4951,1,4025,4036,10713,10714
CQUADX4,4952,1,4014,4025,10714,10715
CQUADX4,4953,1,4003,4014,10715,10716
CQUADX4,4954,1,3992,4003,10716,10717
CQUADX4,4955,1,3981,3992,10717,10718
CQUADX4,4956,1,3970,3981,10718,10719
CQUADX4,4957,1,3959,3970,10719,10720
CQUADX4,4958,1,3948,3959,10720,10721
CQUADX4,4959,1,3937,3948,10721,10722
CQUADX4,4960,1,3926,3937,10722,10723
CQUADX4,4961,1,3915,3926,10723,10724
CQUADX4,4962,1,3904,3915,10724,10725
CQUADX4,4963,1,3893,3904,10725,10726
CQUADX4,4964,1,3882,3893,10726,10727
CQUADX4,4965,1,3871,3882,10727,10728
CQUADX4,4966,1,3860,3871,10728,10729
CQUADX4,4967,1,3849,3860,10729,10730
CQUADX4,4968,1,3838,3849,10730,10731
CQUADX4,4969,1,3827,3838,10731,10732
CQUADX4,4970,1,3816,3827,10732,10733
CQUADX4,4971,1,3805,3816,10733,10734
CQUADX4,4972,1,3794,3805,10734,10735
CQUADX4,4973,1,3783,3794,10735,10736
CQUADX4,4974,1,3772,3783,10736,10737
CQUADX4,4975,1,3761,3772,10737,10738
CQUADX4,4976,1,3750,3761,10738,10739
CQUADX4,4977,1,3739,3750,10739,10740
CQUADX4,4978,1,3728,3739,10740,10741
CQUADX4,4979,1,3717,3728,10741,10742
CQUADX4,4980,1,3706,3717,10742,10743
CQUADX4,4981,1,3695,3706,10743,10744
CQUADX4,4982,1,3684,3695,10744,10745
CQUADX4,4983,1,3673,3684,10745,10746
CQUADX4,4984,1,3662,3673,10746,10747
CQUADX4,4985,1,3651,3662,10747,10748
CQUADX4,4986,1,3640,3651,10748,10749
CQUADX4,4987,1,3629,3640,10749,10750
CQUADX4,4988,1,3618,3629,10750,10751
CQUADX4,4989,1,3607,3618,10751,10752
CQUADX4,4990,1,3596,3607,10752,10753
CQUADX4,4991,1,3585,3596,10753,10754
CQUADX4,4992,1,3574,3585,10754,10755
CQUADX4,4993,1,3563,3574,10755,10756
CQUADX4,4994,1,3552,3563,10756,10757
CQUADX4,4995,1,3541,3552,10757,10758
CQUADX4,4996,1,3530,3541,10758,10759
CQUADX4,4997,1,3519,3530,10759,10760
CQUADX4,4998,1,3508,3519,10760,10761
CQUADX4,4999,1,3497,3508,10761,10762
CQUADX4,5000,1,3486,3497,10762,10763
CQUADX4,5001,1,3475,3486,10763,10764
CQUADX4,5002,1,3464,3475,10764,10765
CQUADX4,5003,1,3453,3464,10765,10766
CQUADX4,5004,1,3442,3453,10766,10767
CQUADX4,5005,1,3431,3442,10767,10768
CQUADX4,5006,1,3420,3431,10768,10769
CQUADX4,5007,1,3409,3420,10769,10770
CQUADX4,5008,1,3398,3409,10770,10771
CQUADX4,5009,1,3387,3398,10771,10772
CQUADX4,5010,1,3376,3387,10772,10773
CQUADX4,5011,1,3365,3376,10773,10774
CQUADX4,5012,1,3354,3365,10774,10775
CQUADX4,5013,1,3343,3354,10775,10776
CQUADX4,5014,1,3332,3343,10776,10777
CQUADX4,5015,1,3321,3332,10777,10778
CQUADX4,5016,1,3310,3321,10778,10779
CQUADX4,5017,1,3299,3310,10779,10780
CQUADX4,5018,1,3288,3299,10780,10781
CQUADX4,5019,1,3277,3288,10781,10782
CQUADX4,5020,1,3266,3277,10782,10783
CQUADX4,5021,1,3255,3266,10783,10784
CQUADX4,5022,1,3244,3255,10784,10785
CQUADX4,5023,1,3233,3244,10785,10786
CQUADX4,5024,1,3222,3233,10786,10787
CQUADX4,5025,1,3211,3222,10787,10788
CQUADX4,5026,1,3200,3211,10788,10789
CQUADX4,5027,1,3189,3200,10789,10790
CQUADX4,5028,1,3178,3189,10790,10791
CQUADX4,5029,1,3167,3178,10791,10792
CQUADX4,5030,1,3156,3167,10792,10793
CQUADX4,5031,1,3145,3156,10793,10794
CQUADX4,5032,1,3134,3145,10794,10795
CQUADX4,5033,1,3123,3134,10795,10796
CQUADX4,5034,1,3112,3123,10796,10797
CQUADX4,5035,1,3101,3112,10797,10798
CQUADX4,5036,1,3090,3101,10798,10799
CQUADX4,5037,1,3079,3090,10799,10800
CQUADX4,5038,1,3068,3079,10800,10801
CQUADX4,5039,1,3057,3068,10801,10802
CQUADX4,5040,1,3046,3057,10802,10803
CQUADX4,5041,1,3035,3046,10803,10804
CQUADX4,5042,1,3024,3035,10804,10805
CQUADX4,5043,1,3013,3024,10805,10806
CQUADX4,5044,1,3002,3013,10806,10807
CQUADX4,5045,1,2991,3002,10807,10808
CQUADX4,5046,1,2980,2991,10808,10809
CQUADX4,5047,1,2969,2980,10809,10810
CQUADX4,5048,1,2958,2969,10810,10811
CQUADX4,5049,1,2947,2958,10811,10812
CQUADX4,5050,1,2936,2947,10812,10813
CQUADX4,5051,1,2925,2936,10813,10814
CQUADX4,5052,1,2914,2925,10814,10815
CQUADX4,5053,1,2903,2914,10815,10816
CQUADX4,5054,1,2892,2903,10816,10817
CQUADX4,5055,1,2881,2892,10817,10818
CQUADX4,5056,1,2870,2881,10818,10819
CQUADX4,5057,1,2859,2870,10819,10820
CQUADX4,5058,1,2848,2859,10820,10821
CQUADX4,5059,1,2837,2848,10821,10822
CQUADX4,5060,1,2826,2837,10822,10823
CQUADX4,5061,1,2815,2826,10823,10824
CQUADX4,5062,1,2804,2815,10824,10825
CQUADX4,5063,1,2793,2804,10825,10826
CQUADX4,5064,1,2782,2793,10826,10827
CQUADX4,5065,1,2771,2782,10827,10828
CQUADX4,5066,1,2760,2771,10828,10829
CQUADX4,5067,1,2749,2760,10829,10830
CQUADX4,5068,1,2738,2749,10830,10831
CQUADX4,5069,1,2727,2738,10831,10832
CQUADX4,5070,1,2716,2727,10832,10833
CQUADX4,5071,1,2705,2716,10833,10834
CQUADX4,5072,1,2694,2705,10834,10835
CQUADX4,5073,1,2683,2694,10835,10836
CQUADX4,5074,1,2672,2683,10836,10837
CQUADX4,5075,1,2661,2672,10837,10838
CQUADX4,5076,1,2650,2661,10838,10839
CQUADX4,5077,1,2639,2650,10839,10840
CQUADX4,5078,1,2628,2639,10840,10841
CQUADX4,5079,1,2617,2628,10841,10842
CQUADX4,5080,1,2606,2617,10842,10843
CQUADX4,5081,1,2595,2606,10843,10844
CQUADX4,5082,1,2584,2595,10844,10845
CQUADX4,5083,1,2573,2584,10845,10846
CQUADX4,5084,1,2562,2573,10846,10847
CQUADX4,5085,1,2551,2562,10847,10848
CQUADX4,5086,1,2540,2551,10848,10849
CQUADX4,5087,1,2529,2540,10849,10850
CQUADX4,5088,1,2518,2529,10850,10851
CQUADX4,5089,1,2507,2518,10851,10852
CQUADX4,5090,1,2496,2507,10852,10853
CQUADX4,5091,1,2485,2496,10853,10854
CQUADX4,5092,1,2474,2485,10854,10855
CQUADX4,5093,1,2463,2474,10855,10856
CQUADX4,5094,1,2452,2463,10856,10857
CQUADX4,5095,1,2441,2452,10857,10858
CQUADX4,5096,1,2430,2441,10858,10859
CQUADX4,5097,1,2419,2430,10859,10860
CQUADX4,5098,1,2408,2419,10860,10861
CQUADX4,5099,1,2397,2408,10861,10862
CQUADX4,5100,1,2386,2397,10862,10863
CQUADX4,5101,1,2375,2386,10863,10864
CQUADX4,5102,1,2364,2375,10864,10865
CQUADX4,5103,1,2353,2364,10865,10866
CQUADX4,5104,1,2342,2353,10866,10867
CQUADX4,5105,1,2331,2342,10867,10868
CQUADX4,5106,1,2320,2331,10868,10869
CQUADX4,5107,1,2309,2320,10869,10870
CQUADX4,5108,1,2298,2309,10870,10871
CQUADX4,5109,1,2287,2298,10871,10872
CQUADX4,5110,1,2276,2287,10872,10873
CQUADX4,5111,1,2265,2276,10873,10874
CQUADX4,5112,1,2254,2265,10874,10875
CQUADX4,5113,1,2243,2254,10875,10876
CQUADX4,5114,1,2232,2243,10876,10877
CQUADX4,5115,1,2221,2232,10877,10878
CQUADX4,5116,1,2210,2221,10878,10879
CQUADX4,5117,1,2199,2210,10879,10880
CQUADX4,5118,1,2188,2199,10880,10881
CQUADX4,5119,1,2177,2188,10881,10882
CQUADX4,5120,1,2166,2177,10882,10883
CQUADX4,5121,1,2155,2166,10883,10884
CQUADX4,5122,1,2144,2155,10884,10885
CQUADX4,5123,1,2133,2144,10885,10886
CQUADX4,5124,1,2122,2133,10886,10887
CQUADX4,5125,1,2111,2122,10887,10888
CQUADX4,5126,1,10889,2111,10888,11927
CQUADX4,5127,1,10890,2110,2111,10889
CQUADX4,5128,1,10891,2109,2110,10890
CQUADX4,5129,1,10892,2108,2109,10891
CQUADX4,5130,1,10893,2107,2108,10892
CQUADX4,5131,1,10894,2106,2107,10893
CQUADX4,5132,1,10895,2105,2106,10894
CQUADX4,5133,1,10896,2104,2105,10895
CQUADX4,5134,1,10897,2103,2104,10896
CQUADX4,5135,1,10898,2102,2103,10897
CQUADX4,5136,1,10899,2101,2102,10898
CQUADX4,5137,1,4939,4940,4731,4730
CQUADX4,5138,1,4940,4941,4732,4731
CQUADX4,5139,1,4941,4942,4733,4732
CQUADX4,5140,1,4942,4943,4734,4733
CQUADX4,5141,1,4943,4944,4735,4734
CQUADX4,5142,1,4944,4945,4736,4735
CQUADX4,5143,1,4945,4946,4737,4736
CQUADX4,5144,1,4946,4947,4738,4737
CQUADX4,5145,1,4947,4948,4739,4738
CQUADX4,5146,1,4948,4949,4740,4739
CQUADX4,5147,1,4949,4950,4741,4740
CQUADX4,5148,1,4950,4951,4742,4741
CQUADX4,5149,1,4951,4952,4743,4742
CQUADX4,5150,1,4952,4953,4744,4743
CQUADX4,5151,1,4953,4954,4745,4744
CQUADX4,5152,1,4954,4955,4746,4745
CQUADX4,5153,1,4955,4956,4747,4746
CQUADX4,5154,1,4956,4957,4748,4747
CQUADX4,5155,1,4957,4958,4749,4748
CQUADX4,5156,1,4958,4959,4750,4749
CQUADX4,5157,1,4959,4960,4751,4750
CQUADX4,5158,1,4960,4961,4752,4751
CQUADX4,5159,1,4961,4962,4753,4752
CQUADX4,5160,1,4962,4963,4754,4753
CQUADX4,5161,1,4963,4964,4755,4754
CQUADX4,5162,1,4964,4965,4756,4755
CQUADX4,5163,1,4965,4966,4757,4756
CQUADX4,5164,1,4966,4967,4758,4757
CQUADX4,5165,1,4967,4968,4759,4758
CQUADX4,5166,1,4968,4969,4760,4759
CQUADX4,5167,1,4969,4970,4761,4760
CQUADX4,5168,1,4970,4971,4762,4761
CQUADX4,5169,1,4971,4972,4763,4762
CQUADX4,5170,1,4972,4973,4764,4763
CQUADX4,5171,1,4973,4974,4765,4764
CQUADX4,5172,1,4974,4975,4766,4765
CQUADX4,5173,1,4975,4976,4767,4766
CQUADX4,5174,1,4976,4977,4768,4767
CQUADX4,5175,1,4977,4978,4769,4768
CQUADX4,5176,1,4978,4979,4770,4769
CQUADX4,5177,1,4979,4980,4771,4770
CQUADX4,5178,1,4980,4981,4772,4771
CQUADX4,5179,1,4981,4982,4773,4772
CQUADX4,5180,1,4982,4983,4774,4773
CQUADX4,5181,1,4983,4984,4775,4774
CQUADX4,5182,1,4984,4985,4776,4775
CQUADX4,5183,1,4985,4986,4777,4776
CQUADX4,5184,1,4986,4987,4778,4777
CQUADX4,5185,1,4987,4988,4779,4778
CQUADX4,5186,1,4988,4989,4780,4779
CQUADX4,5187,1,4989,4990,4781,4780
CQUADX4,5188,1,4990,4991,4782,4781
CQUADX4,5189,1,4991,4992,4783,4782
CQUADX4,5190,1,4992,4993,4784,4783
CQUADX4,5191,1,4993,4994,4785,4784
CQUADX4,5192,1,4994,4995,4786,4785
CQUADX4,5193,1,4995,4996,4787,4786
CQUADX4,5194,1,4996,4997,4788,4787
CQUADX4,5195,1,4997,4998,4789,4788
CQUADX4,5196,1,4998,4999,4790,4789
CQUADX4,5197,1,4999,5000,4791,4790
CQUADX4,5198,1,5000,5001,4792,4791
CQUADX4,5199,1,5001,5002,4793,4792
CQUADX4,5200,1,5002,5003,4794,4793
CQUADX4,5201,1,5003,5004,4795,4794
CQUADX4,5202,1,5004,5005,4796,4795
CQUADX4,5203,1,5005,5006,4797,4796
CQUADX4,5204,1,5006,5007,4798,4797
CQUADX4,5205,1,5007,5008,4799,4798
CQUADX4,5206,1,5008,5009,4800,4799
CQUADX4,5207,1,5009,5010,4801,4800
CQUADX4,5208,1,5010,5011,4802,4801
CQUADX4,5209,1,5011,5012,4803,4802
CQUADX4,5210,1,5012,5013,4804,4803
CQUADX4,5211,1,5013,5014,4805,4804
CQUADX4,5212,1,5014,5015,4806,4805
CQUADX4,5213,1,5015,5016,4807,4806
CQUADX4,5214,1,5016,5017,4808,4807
CQUADX4,5215,1,5017,5018,4809,4808
CQUADX4,5216,1,5018,5019,4810,4809
CQUADX4,5217,1,5019,5020,4811,4810
CQUADX4,5218,1,5020,5021,4812,4811
CQUADX4,5219,1,5021,5022,4813,4812
CQUADX4,5220,1,5022,5023,4814,4813
CQUADX4,5221,1,5023,5024,4815,4814
CQUADX4,5222,1,5024,5025,4816,4815
CQUADX4,5223,1,5025,5026,4817,4816
CQUADX4,5224,1,5026,5027,4818,4817
CQUADX4,5225,1,5027,5028,4819,4818
CQUADX4,5226,1,5028,5029,4820,4819
CQUADX4,5227,1,5029,5030,4821,4820
CQUADX4,5228,1,5030,5031,4822,4821
CQUADX4,5229,1,5031,5032,4823,4822
CQUADX4,5230,1,5032,5033,4824,4823
CQUADX4,5231,1,5033,5034,4825,4824
CQUADX4,5232,1,5034,5035,4826,4825
CQUADX4,5233,1,5035,5036,4827,4826
CQUADX4,5234,1,5036,5037,4828,4827
CQUADX4,5235,1,5037,5038,4829,4828
CQUADX4,5236,1,5038,5039,4830,4829
CQUADX4,5237,1,5039,5040,4831,4830
CQUADX4,5238,1,5040,5041,4832,4831
CQUADX4,5239,1,5041,5042,4833,4832
CQUADX4,5240,1,5042,5043,4834,4833
CQUADX4,5241,1,5043,5044,4835,4834
CQUADX4,5242,1,5044,5045,4836,4835
CQUADX4,5243,1,5045,5046,4837,4836
CQUADX4,5244,1,5046,5047,4838,4837
CQUADX4,5245,1,5047,5048,4839,4838
CQUADX4,5246,1,5048,5049,4840,4839
CQUADX4,5247,1,5049,5050,4841,4840
CQUADX4,5248,1,5050,5051,4842,4841
CQUADX4,5249,1,5051,5052,4843,4842
CQUADX4,5250,1,5052,5053,4844,4843
CQUADX4,5251,1,5053,5054,4845,4844
CQUADX4,5252,1,5054,5055,4846,4845
CQUADX4,5253,1,5055,5056,4847,4846
CQUADX4,5254,1,5056,5057,4848,4847
CQUADX4,5255,1,5057,5058,4849,4848
CQUADX4,5256,1,5058,5059,4850,4849
CQUADX4,5257,1,5059,5060,4851,4850
CQUADX4,5258,1,5060,5061,4852,4851
CQUADX4,5259,1,5061,5062,4853,4852
CQUADX4,5260,1,5062,5063,4854,4853
CQUADX4,5261,1,5063,5064,4855,4854
CQUADX4,5262,1,5064,5065,4856,4855
CQUADX4,5263,1,5065,5066,4857,4856
CQUADX4,5264,1,5066,5067,4858,4857
CQUADX4,5265,1,5067,5068,4859,4858
CQUADX4,5266,1,5068,5069,4860,4859
CQUADX4,5267,1,5069,5070,4861,4860
CQUADX4,5268,1,5070,5071,4862,4861
CQUADX4,5269,1,5071,5072,4863,4862
CQUADX4,5270,1,5072,5073,4864,4863
CQUADX4,5271,1,5073,5074,4865,4864
CQUADX4,5272,1,5074,5075,4866,4865
CQUADX4,5273,1,5075,5076,4867,4866
CQUADX4,5274,1,5076,5077,4868,4867
CQUADX4,5275,1,5077,5078,4869,4868
CQUADX4,5276,1,5078,5079,4870,4869
CQUADX4,5277,1,5079,5080,4871,4870
CQUADX4,5278,1,5080,5081,4872,4871
CQUADX4,5279,1,5081,5082,4873,4872
CQUADX4,5280,1,5082,5083,4874,4873
CQUADX4,5281,1,5083,5084,4875,4874
CQUADX4,5282,1,5084,5085,4876,4875
CQUADX4,5283,1,5085,5086,4877,4876
CQUADX4,5284,1,5086,5087,4878,4877
CQUADX4,5285,1,5087,5088,4879,4878
CQUADX4,5286,1,5088,5089,4880,4879
CQUADX4,5287,1,5089,5090,4881,4880
CQUADX4,5288,1,5090,5091,4882,4881
CQUADX4,5289,1,5091,5092,4883,4882
CQUADX4,5290,1,5092,5093,4884,4883
CQUADX4,5291,1,5093,5094,4885,4884
CQUADX4,5292,1,5094,5095,4886,4885
CQUADX4,5293,1,5095,5096,4887,4886
CQUADX4,5294,1,5096,5097,4888,4887
CQUADX4,5295,1,5097,5098,4889,4888
CQUADX4,5296,1,5098,5099,4890,4889
CQUADX4,5297,1,5099,5100,4891,4890
CQUADX4,5298,1,5100,5101,4892,4891
CQUADX4,5299,1,5101,5102,4893,4892
CQUADX4,5300,1,5102,5103,4894,4893
CQUADX4,5301,1,5103,5104,4895,4894
CQUADX4,5302,1,5104,5105,4896,4895
CQUADX4,5303,1,5105,5106,4897,4896
CQUADX4,5304,1,5106,5107,4898,4897
CQUADX4,5305,1,5107,5108,4899,4898
CQUADX4,5306,1,5108,5109,4900,4899
CQUADX4,5307,1,5109,5110,4901,4900
CQUADX4,5308,1,5110,5111,4902,4901
CQUADX4,5309,1,5111,5112,4903,4902
CQUADX4,5310,1,5112,5113,4904,4903
CQUADX4,5311,1,5113,5114,4905,4904
CQUADX4,5312,1,5114,5115,4906,4905
CQUADX4,5313,1,5115,5116,4907,4906
CQUADX4,5314,1,5116,5117,4908,4907
CQUADX4,5315,1,5117,5118,4909,4908
CQUADX4,5316,1,5118,5119,4910,4909
CQUADX4,5317,1,5119,5120,4911,4910
CQUADX4,5318,1,5120,5121,4912,4911
CQUADX4,5319,1,5121,5122,4913,4912
CQUADX4,5320,1,5122,5123,4914,4913
CQUADX4,5321,1,5123,5124,4915,4914
CQUADX4,5322,1,5124,5125,4916,4915
CQUADX4,5323,1,5125,5126,4917,4916
CQUADX4,5324,1,5126,5127,4918,4917
CQUADX4,5325,1,5127,5128,4919,4918
CQUADX4,5326,1,5128,5129,4920,4919
CQUADX4,5327,1,5129,5130,4921,4920
CQUADX4,5328,1,5130,5131,4922,4921
CQUADX4,5329,1,5131,5132,4923,4922
CQUADX4,5330,1,5132,5133,4924,4923
CQUADX4,5331,1,5133,5134,4925,4924
CQUADX4,5332,1,5134,5135,4926,4925
CQUADX4,5333,1,5135,5136,4927,4926
CQUADX4,5334,1,5136,5137,4928,4927
CQUADX4,5335,1,5137,5138,4929,4928
CQUADX4,5336,1,5138,5139,4930,4929
CQUADX4,5337,1,5139,5140,4931,4930
CQUADX4,5338,1,5140,5141,4932,4931
CQUADX4,5339,1,5141,5142,4933,4932
CQUADX4,5340,1,5142,5143,4934,4933
CQUADX4,5341,1,5143,5144,4935,4934
CQUADX4,5342,1,5144,5145,4936,4935
CQUADX4,5343,1,5145,5146,4937,4936
CQUADX4,5344,1,5146,5147,4938,4937
CQUADX4,5345,1,5148,5149,4940,4939
CQUADX4,5346,1,5149,5150,4941,4940
CQUADX4,5347,1,5150,5151,4942,4941
CQUADX4,5348,1,5151,5152,4943,4942
CQUADX4,5349,1,5152,5153,4944,4943
CQUADX4,5350,1,5153,5154,4945,4944
CQUADX4,5351,1,5154,5155,4946,4945
CQUADX4,5352,1,5155,5156,4947,4946
CQUADX4,5353,1,5156,5157,4948,4947
CQUADX4,5354,1,5157,5158,4949,4948
CQUADX4,5355,1,5158,5159,4950,4949
CQUADX4,5356,1,5159,5160,4951,4950
CQUADX4,5357,1,5160,5161,4952,4951
CQUADX4,5358,1,5161,5162,4953,4952
CQUADX4,5359,1,5162,5163,4954,4953
CQUADX4,5360,1,5163,5164,4955,4954
CQUADX4,5361,1,5164,5165,4956,4955
CQUADX4,5362,1,5165,5166,4957,4956
CQUADX4,5363,1,5166,5167,4958,4957
CQUADX4,5364,1,5167,5168,4959,4958
CQUADX4,5365,1,5168,5169,4960,4959
CQUADX4,5366,1,5169,5170,4961,4960
CQUADX4,5367,1,5170,5171,4962,4961
CQUADX4,5368,1,5171,5172,4963,4962
CQUADX4,5369,1,5172,5173,4964,4963
CQUADX4,5370,1,5173,5174,4965,4964
CQUADX4,5371,1,5174,5175,4966,4965
CQUADX4,5372,1,5175,5176,4967,4966
CQUADX4,5373,1,5176,5177,4968,4967
CQUADX4,5374,1,5177,5178,4969,4968
CQUADX4,5375,1,5178,5179,4970,4969
CQUADX4,5376,1,5179,5180,4971,4970
CQUADX4,5377,1,5180,5181,4972,4971
CQUADX4,5378,1,5181,5182,4973,4972
CQUADX4,5379,1,5182,5183,4974,4973
CQUADX4,5380,1,5183,5184,4975,4974
CQUADX4,5381,1,5184,5185,4976,4975
CQUADX4,5382,1,5185,5186,4977,4976
CQUADX4,5383,1,5186,5187,4978,4977
CQUADX4,5384,1,5187,5188,4979,4978
CQUADX4,5385,1,5188,5189,4980,4979
CQUADX4,5386,1,5189,5190,4981,4980
CQUADX4,5387,1,5190,5191,4982,4981
CQUADX4,5388,1,5191,5192,4983,4982
CQUADX4,5389,1,5192,5193,4984,4983
CQUADX4,5390,1,5193,5194,4985,4984
CQUADX4,5391,1,5194,5195,4986,4985
CQUADX4,5392,1,5195,5196,4987,4986
CQUADX4,5393,1,5196,5197,4988,4987
CQUADX4,5394,1,5197,5198,4989,4988
CQUADX4,5395,1,5198,5199,4990,4989
CQUADX4,5396,1,5199,5200,4991,4990
CQUADX4,5397,1,5200,5201,4992,4991
CQUADX4,5398,1,5201,5202,4993,4992
CQUADX4,5399,1,5202,5203,4994,4993
CQUADX4,5400,1,5203,5204,4995,4994
CQUADX4,5401,1,5204,5205,4996,4995
CQUADX4,5402,1,5205,5206,4997,4996
CQUADX4,5403,1,5206,5207,4998,4997
CQUADX4,5404,1,5207,5208,4999,4998
CQUADX4,5405,1,5208,5209,5000,4999
CQUADX4,5406,1,5209,5210,5001,5000
CQUADX4,5407,1,5210,5211,5002,5001
CQUADX4,5408,1,5211,5212,5003,5002
CQUADX4,5409,1,5212,5213,5004,5003
CQUADX4,5410,1,5213,5214,5005,5004
CQUADX4,5411,1,5214,5215,5006,5005
CQUADX4,5412,1,5215,5216,5007,5006
CQUADX4,5413,1,5216,5217,5008,5007
CQUADX4,5414,1,5217,5218,5009,5008
CQUADX4,5415,1,5218,5219,5010,5009
CQUADX4,5416,1,5219,5220,5011,5010
CQUADX4,5417,1,5220,5221,5012,5011
CQUADX4,5418,1,5221,5222,5013,5012
CQUADX4,5419,1,5222,5223,5014,5013
CQUADX4,5420,1,5223,5224,5015,5014
CQUADX4,5421,1,5224,5225,5016,5015
CQUADX4,5422,1,5225,5226,5017,5016
CQUADX4,5423,1,5226,5227,5018,5017
CQUADX4,5424,1,5227,5228,5019,5018
CQUADX4,5425,1,5228,5229,5020,5019
CQUADX4,5426,1,5229,5230,5021,5020
CQUADX4,5427,1,5230,5231,5022,5021
CQUADX4,5428,1,5231,5232,5023,5022
CQUADX4,5429,1,5232,5233,5024,5023
CQUADX4,5430,1,5233,5234,5025,5024
CQUADX4,5431,1,5234,5235,5026,5025
CQUADX4,5432,1,5235,5236,5027,5026
CQUADX4,5433,1,5236,5237,5028,5027
CQUADX4,5434,1,5237,5238,5029,5028
CQUADX4,5435,1,5238,5239,5030,5029
CQUADX4,5436,1,5239,5240,5031,5030
CQUADX4,5437,1,5240,5241,5032,5031
CQUADX4,5438,1,5241,5242,5033,5032
CQUADX4,5439,1,5242,5243,5034,5033
CQUADX4,5440,1,5243,5244,5035,5034
CQUADX4,5441,1,5244,5245,5036,5035
CQUADX4,5442,1,5245,5246,5037,5036
CQUADX4,5443,1,5246,5247,5038,5037
CQUADX4,5444,1,5247,5248,5039,5038
CQUADX4,5445,1,5248,5249,5040,5039
CQUADX4,5446,1,5249,5250,5041,5040
CQUADX4,5447,1,5250,5251,5042,5041
CQUADX4,5448,1,5251,5252,5043,5042
CQUADX4,5449,1,5252,5253,5044,5043
CQUADX4,5450,1,5253,5254,5045,5044
CQUADX4,5451,1,5254,5255,5046,5045
CQUADX4,5452,1,5255,5256,5047,5046
CQUADX4,5453,1,5256,5257,5048,5047
CQUADX4,5454,1,5257,5258,5049,5048
CQUADX4,5455,1,5258,5259,5050,5049
CQUADX4,5456,1,5259,5260,5051,5050
CQUADX4,5457,1,5260,5261,5052,5051
CQUADX4,5458,1,5261,5262,5053,5052
CQUADX4,5459,1,5262,5263,5054,5053
CQUADX4,5460,1,5263,5264,5055,5054
CQUADX4,5461,1,5264,5265,5056,5055
CQUADX4,5462,1,5265,5266,5057,5056
CQUADX4,5463,1,5266,5267,5058,5057
CQUADX4,5464,1,5267,5268,5059,5058
CQUADX4,5465,1,5268,5269,5060,5059
CQUADX4,5466,1,5269,5270,5061,5060
CQUADX4,5467,1,5270,5271,5062,5061
CQUADX4,5468,1,5271,5272,5063,5062
CQUADX4,5469,1,5272,5273,5064,5063
CQUADX4,5470,1,5273,5274,5065,5064
CQUADX4,5471,1,5274,5275,5066,5065
CQUADX4,5472,1,5275,5276,5067,5066
CQUADX4,5473,1,5276,5277,5068,5067
CQUADX4,5474,1,5277,5278,5069,5068
CQUADX4,5475,1,5278,5279,5070,5069
CQUADX4,5476,1,5279,5280,5071,5070
CQUADX4,5477,1,5280,5281,5072,5071
CQUADX4,5478,1,5281,5282,5073,5072
CQUADX4,5479,1,5282,5283,5074,5073
CQUADX4,5480,1,5283,5284,5075,5074
CQUADX4,5481,1,5284,5285,5076,5075
CQUADX4,5482,1,5285,5286,5077,5076
CQUADX4,5483,1,5286,5287,5078,5077
CQUADX4,5484,1,5287,5288,5079,5078
CQUADX4,5485,1,5288,5289,5080,5079
CQUADX4,5486,1,5289,5290,5081,5080
CQUADX4,5487,1,5290,5291,5082,5081
CQUADX4,5488,1,5291,5292,5083,5082
CQUADX4,5489,1,5292,5293,5084,5083
CQUADX4,5490,1,5293,5294,5085,5084
CQUADX4,5491,1,5294,5295,5086,5085
CQUADX4,5492,1,5295,5296,5087,5086
CQUADX4,5493,1,5296,5297,5088,5087
CQUADX4,5494,1,5297,5298,5089,5088
CQUADX4,5495,1,5298,5299,5090,5089
CQUADX4,5496,1,5299,5300,5091,5090
CQUADX4,5497,1,5300,5301,5092,5091
CQUADX4,5498,1,5301,5302,5093,5092
CQUADX4,5499,1,5302,5303,5094,5093
CQUADX4,5500,1,5303,5304,5095,5094
CQUADX4,5501,1,5304,5305,5096,5095
CQUADX4,5502,1,5305,5306,5097,5096
CQUADX4,5503,1,5306,5307,5098,5097
CQUADX4,5504,1,5307,5308,5099,5098
CQUADX4,5505,1,5308,5309,5100,5099
CQUADX4,5506,1,5309,5310,5101,5100
CQUADX4,5507,1,5310,5311,5102,5101
CQUADX4,5508,1,5311,5312,5103,5102
CQUADX4,5509,1,5312,5313,5104,5103
CQUADX4,5510,1,5313,5314,5105,5104
CQUADX4,5511,1,5314,5315,5106,5105
CQUADX4,5512,1,5315,5316,5107,5106
CQUADX4,5513,1,5316,5317,5108,5107
CQUADX4,5514,1,5317,5318,5109,5108
CQUADX4,5515,1,5318,5319,5110,5109
CQUADX4,5516,1,5319,5320,5111,5110
CQUADX4,5517,1,5320,5321,5112,5111
CQUADX4,5518,1,5321,5322,5113,5112
CQUADX4,5519,1,5322,5323,5114,5113
CQUADX4,5520,1,5323,5324,5115,5114
CQUADX4,5521,1,5324,5325,5116,5115
CQUADX4,5522,1,5325,5326,5117,5116
CQUADX4,5523,1,5326,5327,5118,5117
CQUADX4,5524,1,5327,5328,5119,5118
CQUADX4,5525,1,5328,5329,5120,5119
CQUADX4,5526,1,5329,5330,5121,5120
CQUADX4,5527,1,5330,5331,5122,5121
CQUADX4,5528,1,5331,5332,5123,5122
CQUADX4,5529,1,5332,5333,5124,5123
CQUADX4,5530,1,5333,5334,5125,5124
CQUADX4,5531,1,5334,5335,5126,5125
CQUADX4,5532,1,5335,5336,5127,5126
CQUADX4,5533,1,5336,5337,5128,5127
CQUADX4,5534,1,5337,5338,5129,5128
CQUADX4,5535,1,5338,5339,5130,5129
CQUADX4,5536,1,5339,5340,5131,5130
CQUADX4,5537,1,5340,5341,5132,5131
CQUADX4,5538,1,5341,5342,5133,5132
CQUADX4,5539,1,5342,5343,5134,5133
CQUADX4,5540,1,5343,5344,5135,5134
CQUADX4,5541,1,5344,5345,5136,5135
CQUADX4,5542,1,5345,5346,5137,5136
CQUADX4,5543,1,5346,5347,5138,5137
CQUADX4,5544,1,5347,5348,5139,5138
CQUADX4,5545,1,5348,5349,5140,5139
CQUADX4,5546,1,5349,5350,5141,5140
CQUADX4,5547,1,5350,5351,5142,5141
CQUADX4,5548,1,5351,5352,5143,5142
CQUADX4,5549,1,5352,5353,5144,5143
CQUADX4,5550,1,5353,5354,5145,5144
CQUADX4,5551,1,5354,5355,5146,5145
CQUADX4,5552,1,5355,5356,5147,5146
CQUADX4,5553,1,5357,5358,5149,5148
CQUADX4,5554,1,5358,5359,5150,5149
CQUADX4,5555,1,5359,5360,5151,5150
CQUADX4,5556,1,5360,5361,5152,5151
CQUADX4,5557,1,5361,5362,5153,5152
CQUADX4,5558,1,5362,5363,5154,5153
CQUADX4,5559,1,5363,5364,5155,5154
CQUADX4,5560,1,5364,5365,5156,5155
CQUADX4,5561,1,5365,5366,5157,5156
CQUADX4,5562,1,5366,5367,5158,5157
CQUADX4,5563,1,5367,5368,5159,5158
CQUADX4,5564,1,5368,5369,5160,5159
CQUADX4,5565,1,5369,5370,5161,5160
CQUADX4,5566,1,5370,5371,5162,5161
CQUADX4,5567,1,5371,5372,5163,5162
CQUADX4,5568,1,5372,5373,5164,5163
CQUADX4,5569,1,5373,5374,5165,5164
CQUADX4,5570,1,5374,5375,5166,5165
CQUADX4,5571,1,5375,5376,5167,5166
CQUADX4,5572,1,5376,5377,5168,5167
CQUADX4,5573,1,5377,5378,5169,5168
CQUADX4,5574,1,5378,5379,5170,5169
CQUADX4,5575,1,5379,5380,5171,5170
CQUADX4,5576,1,5380,5381,5172,5171
CQUADX4,5577,1,5381,5382,5173,5172
CQUADX4,5578,1,5382,5383,5174,5173
CQUADX4,5579,1,5383,5384,5175,5174
CQUADX4,5580,1,5384,5385,5176,5175
CQUADX4,5581,1,5385,5386,5177,5176
CQUADX4,5582,1,5386,5387,5178,5177
CQUADX4,5583,1,5387,5388,5179,5178
CQUADX4,5584,1,5388,5389,5180,5179
CQUADX4,5585,1,5389,5390,5181,5180
CQUADX4,5586,1,5390,5391,5182,5181
CQUADX4,5587,1,5391,5392,5183,5182
CQUADX4,5588,1,5392,5393,5184,5183
CQUADX4,5589,1,5393,5394,5185,5184
CQUADX4,5590,1,5394,5395,5186,5185
CQUADX4,5591,1,5395,5396,5187,5186
CQUADX4,5592,1,5396,5397,5188,5187
CQUADX4,5593,1,5397,5398,5189,5188
CQUADX4,5594,1,5398,5399,5190,5189
CQUADX4,5595,1,5399,5400,5191,5190
CQUADX4,5596,1,5400,5401,5192,5191
CQUADX4,5597,1,5401,5402,5193,5192
CQUADX4,5598,1,5402,5403,5194,5193
CQUADX4,5599,1,5403,5404,5195,5194
CQUADX4,5600,1,5404,5405,5196,5195
CQUADX4,5601,1,5405,5406,5197,5196
CQUADX4,5602,1,5406,5407,5198,5197
CQUADX4,5603,1,5407,5408,5199,5198
CQUADX4,5604,1,5408,5409,5200,5199
CQUADX4,5605,1,5409,5410,5201,5200
CQUADX4,5606,1,5410,5411,5202,5201
CQUADX4,5607,1,5411,5412,5203,5202
CQUADX4,5608,1,5412,5413,5204,5203
CQUADX4,5609,1,5413,5414,5205,5204
CQUADX4,5610,1,5414,5415,5206,5205
CQUADX4,5611,1,5415,5416,5207,5206
CQUADX4,5612,1,5416,5417,5208,5207
CQUADX4,5613,1,5417,5418,5209,5208
CQUADX4,5614,1,5418,5419,5210,5209
CQUADX4,5615,1,5419,5420,5211,5210
CQUADX4,5616,1,5420,5421,5212,5211
CQUADX4,5617,1,5421,5422,5213,5212
CQUADX4,5618,1,5422,5423,5214,5213
CQUADX4,5619,1,5423,5424,5215,5214
CQUADX4,5620,1,5424,5425,5216,5215
CQUADX4,5621,1,5425,5426,5217,5216
CQUADX4,5622,1,5426,5427,5218,5217
CQUADX4,5623,1,5427,5428,5219,5218
CQUADX4,5624,1,5428,5429,5220,5219
CQUADX4,5625,1,5429,5430,5221,5220
CQUADX4,5626,1,5430,5431,5222,5221
CQUADX4,5627,1,5431,5432,5223,5222
CQUADX4,5628,1,5432,5433,5224,5223
CQUADX4,5629,1,5433,5434,5225,5224
CQUADX4,5630,1,5434,5435,5226,5225
CQUADX4,5631,1,5435,5436,5227,5226
CQUADX4,5632,1,5436,5437,5228,5227
CQUADX4,5633,1,5437,5438,5229,5228
CQUADX4,5634,1,5438,5439,5230,5229
CQUADX4,5635,1,5439,5440,5231,5230
CQUADX4,5636,1,5440,5441,5232,5231
CQUADX4,5637,1,5441,5442,5233,5232
CQUADX4,5638,1,5442,5443,5234,5233
CQUADX4,5639,1,5443,5444,5235,5234
CQUADX4,5640,1,5444,5445,5236,5235
CQUADX4,5641,1,5445,5446,5237,5236
CQUADX4,5642,1,5446,5447,5238,5237
CQUADX4,5643,1,5447,5448,5239,5238
CQUADX4,5644,1,5448,5449,5240,5239
CQUADX4,5645,1,5449,5450,5241,5240
CQUADX4,5646,1,5450,5451,5242,5241
CQUADX4,5647,1,5451,5452,5243,5242
CQUADX4,5648,1,5452,5453,5244,5243
CQUADX4,5649,1,5453,5454,5245,5244
CQUADX4,5650,1,5454,5455,5246,5245
CQUADX4,5651,1,5455,5456,5247,5246
CQUADX4,5652,1,5456,5457,5248,5247
CQUADX4,5653,1,5457,5458,5249,5248
CQUADX4,5654,1,5458,5459,5250,5249
CQUADX4,5655,1,5459,5460,5251,5250
CQUADX4,5656,1,5460,5461,5252,5251
CQUADX4,5657,1,5461,5462,5253,5252
CQUADX4,5658,1,5462,5463,5254,5253
CQUADX4,5659,1,5463,5464,5255,5254
CQUADX4,5660,1,5464,5465,5256,5255
CQUADX4,5661,1,5465,5466,5257,5256
CQUADX4,5662,1,5466,5467,5258,5257
CQUADX4,5663,1,5467,5468,5259,5258
CQUADX4,5664,1,5468,5469,5260,5259
CQUADX4,5665,1,5469,5470,5261,5260
CQUADX4,5666,1,5470,5471,5262,5261
CQUADX4,5667,1,5471,5472,5263,5262
CQUADX4,5668,1,5472,5473,5264,5263
CQUADX4,5669,1,5473,5474,5265,5264
CQUADX4,5670,1,5474,5475,5266,5265
CQUADX4,5671,1,5475,5476,5267,5266
CQUADX4,5672,1,5476,5477,5268,5267
CQUADX4,5673,1,5477,5478,5269,5268
CQUADX4,5674,1,5478,5479,5270,5269
CQUADX4,5675,1,5479,5480,5271,5270
CQUADX4,5676,1,5480,5481,5272,5271
CQUADX4,5677,1,5481,5482,5273,5272
CQUADX4,5678,1,5482,5483,5274,5273
CQUADX4,5679,1,5483,5484,5275,5274
CQUADX4,5680,1,5484,5485,5276,5275
CQUADX4,5681,1,5485,5486,5277,5276
CQUADX4,5682,1,5486,5487,5278,5277
CQUADX4,5683,1,5487,5488,5279,5278
CQUADX4,5684,1,5488,5489,5280,5279
CQUADX4,5685,1,5489,5490,5281,5280
CQUADX4,5686,1,5490,5491,5282,5281
CQUADX4,5687,1,5491,5492,5283,5282
CQUADX4,5688,1,5492,5493,5284,5283
CQUADX4,5689,1,5493,5494,5285,5284
CQUADX4,5690,1,5494,5495,5286,5285
CQUADX4,5691,1,5495,5496,5287,5286
CQUADX4,5692,1,5496,5497,5288,5287
CQUADX4,5693,1,5497,5498,5289,5288
CQUADX4,5694,1,5498,5499,5290,5289
CQUADX4,5695,1,5499,5500,5291,5290
CQUADX4,5696,1,5500,5501,5292,5291
CQUADX4,5697,1,5501,5502,5293,5292
CQUADX4,5698,1,5502,5503,5294,5293
CQUADX4,5699,1,5503,5504,5295,5294
CQUADX4,5700,1,5504,5505,5296,5295
CQUADX4,5701,1,5505,5506,5297,5296
CQUADX4,5702,1,5506,5507,5298,5297
CQUADX4,5703,1,5507,5508,5299,5298
CQUADX4,5704,1,5508,5509,5300,5299
CQUADX4,5705,1,5509,5510,5301,5300
CQUADX4,5706,1,5510,5511,5302,5301
CQUADX4,5707,1,5511,5512,5303,5302
CQUADX4,5708,1,5512,5513,5304,5303
CQUADX4,5709,1,5513,5514,5305,5304
CQUADX4,5710,1,5514,5515,5306,5305
CQUADX4,5711,1,5515,5516,5307,5306
CQUADX4,5712,1,5516,5517,5308,5307
CQUADX4,5713,1,5517,5518,5309,5308
CQUADX4,5714,1,5518,5519,5310,5309
CQUADX4,5715,1,5519,5520,5311,5310
CQUADX4,5716,1,5520,5521,5312,5311
CQUADX4,5717,1,5521,5522,5313,5312
CQUADX4,5718,1,5522,5523,5314,5313
CQUADX4,5719,1,5523,5524,5315,5314
CQUADX4,5720,1,5524,5525,5316,5315
CQUADX4,5721,1,5525,5526,5317,5316
CQUADX4,5722,1,5526,5527,5318,5317
CQUADX4,5723,1,5527,5528,5319,5318
CQUADX4,5724,1,5528,5529,5320,5319
CQUADX4,5725,1,5529,5530,5321,5320
CQUADX4,5726,1,5530,5531,5322,5321
CQUADX4,5727,1,5531,5532,5323,5322
CQUADX4,5728,1,5532,5533,5324,5323
CQUADX4,5729,1,5533,5534,5325,5324
CQUADX4,5730,1,5534,5535,5326,5325
CQUADX4,5731,1,5535,5536,5327,5326
CQUADX4,5732,1,5536,5537,5328,5327
CQUADX4,5733,1,5537,5538,5329,5328
CQUADX4,5734,1,5538,5539,5330,5329
CQUADX4,5735,1,5539,5540,5331,5330
CQUADX4,5736,1,5540,5541,5332,5331
CQUADX4,5737,1,5541,5542,5333,5332
CQUADX4,5738,1,5542,5543,5334,5333
CQUADX4,5739,1,5543,5544,5335,5334
CQUADX4,5740,1,5544,5545,5336,5335
CQUADX4,5741,1,5545,5546,5337,5336
CQUADX4,5742,1,5546,5547,5338,5337
CQUADX4,5743,1,5547,5548,5339,5338
CQUADX4,5744,1,5548,5549,5340,5339
CQUADX4,5745,1,5549,5550,5341,5340
CQUADX4,5746,1,5550,5551,5342,5341
CQUADX4,5747,1,5551,5552,5343,5342
CQUADX4,5748,1,5552,5553,5344,5343
CQUADX4,5749,1,5553,5554,5345,5344
CQUADX4,5750,1,5554,5555,5346,5345
CQUADX4,5751,1,5555,5556,5347,5346
CQUADX4,5752,1,5556,5557,5348,5347
CQUADX4,5753,1,5557,5558,5349,5348
CQUADX4,5754,1,5558,5559,5350,5349
CQUADX4,5755,1,5559,5560,5351,5350
CQUADX4,5756,1,5560,5561,5352,5351
CQUADX4,5757,1,5561,5562,5353,5352
CQUADX4,5758,1,5562,5563,5354,5353
CQUADX4,5759,1,5563,5564,5355,5354
CQUADX4,5760,1,5564,5565,5356,5355
CQUADX4,5761,1,5566,5567,5358,5357
CQUADX4,5762,1,5567,5568,5359,5358
CQUADX4,5763,1,5568,5569,5360,5359
CQUADX4,5764,1,5569,5570,5361,5360
CQUADX4,5765,1,5570,5571,5362,5361
CQUADX4,5766,1,5571,5572,5363,5362
CQUADX4,5767,1,5572,5573,5364,5363
CQUADX4,5768,1,5573,5574,5365,5364
CQUADX4,5769,1,5574,5575,5366,5365
CQUADX4,5770,1,5575,5576,5367,5366
CQUADX4,5771,1,5576,5577,5368,5367
CQUADX4,5772,1,5577,5578,5369,5368
CQUADX4,5773,1,5578,5579,5370,5369
CQUADX4,5774,1,5579,5580,5371,5370
CQUADX4,5775,1,5580,5581,5372,5371
CQUADX4,5776,1,5581,5582,5373,5372
CQUADX4,5777,1,5582,5583,5374,5373
CQUADX4,5778,1,5583,5584,5375,5374
CQUADX4,5779,1,5584,5585,5376,5375
CQUADX4,5780,1,5585,5586,5377,5376
CQUADX4,5781,1,5586,5587,5378,5377
CQUADX4,5782,1,5587,5588,5379,5378
CQUADX4,5783,1,5588,5589,5380,5379
CQUADX4,5784,1,5589,5590,5381,5380
CQUADX4,5785,1,5590,5591,5382,5381
CQUADX4,5786,1,5591,5592,5383,5382
CQUADX4,5787,1,5592,5593,5384,5383
CQUADX4,5788,1,5593,5594,5385,5384
CQUADX4,5789,1,5594,5595,5386,5385
CQUADX4,5790,1,5595,5596,5387,5386
CQUADX4,5791,1,5596,5597,5388,5387
CQUADX4,5792,1,5597,5598,5389,5388
CQUADX4,5793,1,5598,5599,5390,5389
CQUADX4,5794,1,5599,5600,5391,5390
CQUADX4,5795,1,5600,5601,5392,5391
CQUADX4,5796,1,5601,5602,5393,5392
CQUADX4,5797,1,5602,5603,5394,5393
CQUADX4,5798,1,5603,5604,5395,5394
CQUADX4,5799,1,5604,5605,5396,5395
CQUADX4,5800,1,5605,5606,5397,5396
CQUADX4,5801,1,5606,5607,5398,5397
CQUADX4,5802,1,5607,5608,5399,5398
CQUADX4,5803,1,5608,5609,5400,5399
CQUADX4,5804,1,5609,5610,5401,5400
CQUADX4,5805,1,5610,5611,5402,5401
CQUADX4,5806,1,5611,5612,5403,5402
CQUADX4,5807,1,5612,5613,5404,5403
CQUADX4,5808,1,5613,5614,5405,5404
CQUADX4,5809,1,5614,5615,5406,5405
CQUADX4,5810,1,5615,5616,5407,5406
CQUADX4,5811,1,5616,5617,5408,5407
CQUADX4,5812,1,5617,5618,5409,5408
CQUADX4,5813,1,5618,5619,5410,5409
CQUADX4,5814,1,5619,5620,5411,5410
CQUADX4,5815,1,5620,5621,5412,5411
CQUADX4,5816,1,5621,5622,5413,5412
CQUADX4,5817,1,5622,5623,5414,5413
CQUADX4,5818,1,5623,5624,5415,5414
CQUADX4,5819,1,5624,5625,5416,5415
CQUADX4,5820,1,5625,5626,5417,5416
CQUADX4,5821,1,5626,5627,5418,5417
CQUADX4,5822,1,5627,5628,5419,5418
CQUADX4,5823,1,5628,5629,5420,5419
CQUADX4,5824,1,5629,5630,5421,5420
CQUADX4,5825,1,5630,5631,5422,5421
CQUADX4,5826,1,5631,5632,5423,5422
CQUADX4,5827,1,5632,5633,5424,5423
CQUADX4,5828,1,5633,5634,5425,5424
CQUADX4,5829,1,5634,5635,5426,5425
CQUADX4,5830,1,5635,5636,5427,5426
CQUADX4,5831,1,5636,5637,5428,5427
CQUADX4,5832,1,5637,5638,5429,5428
CQUADX4,5833,1,5638,5639,5430,5429
CQUADX4,5834,1,5639,5640,5431,5430
CQUADX4,5835,1,5640,5641,5432,5431
CQUADX4,5836,1,5641,5642,5433,5432
CQUADX4,5837,1,5642,5643,5434,5433
CQUADX4,5838,1,5643,5644,5435,5434
CQUADX4,5839,1,5644,5645,5436,5435
CQUADX4,5840,1,5645,5646,5437,5436
CQUADX4,5841,1,5646,5647,5438,5437
CQUADX4,5842,1,5647,5648,5439,5438
CQUADX4,5843,1,5648,5649,5440,5439
CQUADX4,5844,1,5649,5650,5441,5440
CQUADX4,5845,1,5650,5651,5442,5441
CQUADX4,5846,1,5651,5652,5443,5442
CQUADX4,5847,1,5652,5653,5444,5443
CQUADX4,5848,1,5653,5654,5445,5444
CQUADX4,5849,1,5654,5655,5446,5445
CQUADX4,5850,1,5655,5656,5447,5446
CQUADX4,5851,1,5656,5657,5448,5447
CQUADX4,5852,1,5657,5658,5449,5448
CQUADX4,5853,1,5658,5659,5450,5449
CQUADX4,5854,1,5659,5660,5451,5450
CQUADX4,5855,1,5660,5661,5452,5451
CQUADX4,5856,1,5661,5662,5453,5452
CQUADX4,5857,1,5662,5663,5454,5453
CQUADX4,5858,1,5663,5664,5455,5454
CQUADX4,5859,1,5664,5665,5456,5455
CQUADX4,5860,1,5665,5666,5457,5456
CQUADX4,5861,1,5666,5667,5458,5457
CQUADX4,5862,1,5667,5668,5459,5458
CQUADX4,5863,1,5668,5669,5460,5459
CQUADX4,5864,1,5669,5670,5461,5460
CQUADX4,5865,1,5670,5671,5462,5461
CQUADX4,5866,1,5671,5672,5463,5462
CQUADX4,5867,1,5672,5673,5464,5463
CQUADX4,5868,1,5673,5674,5465,5464
CQUADX4,5869,1,5674,5675,5466,5465
CQUADX4,5870,1,5675,5676,5467,5466
CQUADX4,5871,1,5676,5677,5468,5467
CQUADX4,5872,1,5677,5678,5469,5468
CQUADX4,5873,1,5678,5679,5470,5469
CQUADX4,5874,1,5679,5680,5471,5470
CQUADX4,5875,1,5680,5681,5472,5471
CQUADX4,5876,1,5681,5682,5473,5472
CQUADX4,5877,1,5682,5683,5474,5473
CQUADX4,5878,1,5683,5684,5475,5474
CQUADX4,5879,1,5684,5685,5476,5475
CQUADX4,5880,1,5685,5686,5477,5476
CQUADX4,5881,1,5686,5687,5478,5477
CQUADX4,5882,1,5687,5688,5479,5478
CQUADX4,5883,1,5688,5689,5480,5479
CQUADX4,5884,1,5689,5690,5481,5480
CQUADX4,5885,1,5690,5691,5482,5481
CQUADX4,5886,1,5691,5692,5483,5482
CQUADX4,5887,1,5692,5693,5484,5483
CQUADX4,5888,1,5693,5694,5485,5484
CQUADX4,5889,1,5694,5695,5486,5485
CQUADX4,5890,1,5695,5696,5487,5486
CQUADX4,5891,1,5696,5697,5488,5487
CQUADX4,5892,1,5697,5698,5489,5488
CQUADX4,5893,1,5698,5699,5490,5489
CQUADX4,5894,1,5699,5700,5491,5490
CQUADX4,5895,1,5700,5701,5492,5491
CQUADX4,5896,1,5701,5702,5493,5492
CQUADX4,5897,1,5702,5703,5494,5493
CQUADX4,5898,1,5703,5704,5495,5494
CQUADX4,5899,1,5704,5705,5496,5495
CQUADX4,5900,1,5705,5706,5497,5496
CQUADX4,5901,1,5706,5707,5498,5497
CQUADX4,5902,1,5707,5708,5499,5498
CQUADX4,5903,1,5708,5709,5500,5499
CQUADX4,5904,1,5709,5710,5501,5500
CQUADX4,5905,1,5710,5711,5502,5501
CQUADX4,5906,1,5711,5712,5503,5502
CQUADX4,5907,1,5712,5713,5504,5503
CQUADX4,5908,1,5713,5714,5505,5504
CQUADX4,5909,1,5714,5715,5506,5505
CQUADX4,5910,1,5715,5716,5507,5506
CQUADX4,5911,1,5716,5717,5508,5507
CQUADX4,5912,1,5717,5718,5509,5508
CQUADX4,5913,1,5718,5719,5510,5509
CQUADX4,5914,1,5719,5720,5511,5510
CQUADX4,5915,1,5720,5721,5512,5511
CQUADX4,5916,1,5721,5722,5513,5512
CQUADX4,5917,1,5722,5723,5514,5513
CQUADX4,5918,1,5723,5724,5515,5514
CQUADX4,5919,1,5724,5725,5516,5515
CQUADX4,5920,1,5725,5726,5517,5516
CQUADX4,5921,1,5726,5727,5518,5517
CQUADX4,5922,1,5727,5728,5519,5518
CQUADX4,5923,1,5728,5729,5520,5519
CQUADX4,5924,1,5729,5730,5521,5520
CQUADX4,5925,1,5730,5731,5522,5521
CQUADX4,5926,1,5731,5732,5523,5522
CQUADX4,5927,1,5732,5733,5524,5523
CQUADX4,5928,1,5733,5734,5525,5524
CQUADX4,5929,1,5734,5735,5526,5525
CQUADX4,5930,1,5735,5736,5527,5526
CQUADX4,5931,1,5736,5737,5528,5527
CQUADX4,5932,1,5737,5738,5529,5528
CQUADX4,5933,1,5738,5739,5530,5529
CQUADX4,5934,1,5739,5740,5531,5530
CQUADX4,5935,1,5740,5741,5532,5531
CQUADX4,5936,1,5741,5742,5533,5532
CQUADX4,5937,1,5742,5743,5534,5533
CQUADX4,5938,1,5743,5744,5535,5534
CQUADX4,5939,1,5744,5745,5536,5535
CQUADX4,5940,1,5745,5746,5537,5536
CQUADX4,5941,1,5746,5747,5538,5537
CQUADX4,5942,1,5747,5748,5539,5538
CQUADX4,5943,1,5748,5749,5540,5539
CQUADX4,5944,1,5749,5750,5541,5540
CQUADX4,5945,1,5750,5751,5542,5541
CQUADX4,5946,1,5751,5752,5543,5542
CQUADX4,5947,1,5752,5753,5544,5543
CQUADX4,5948,1,5753,5754,5545,5544
CQUADX4,5949,1,5754,5755,5546,5545
CQUADX4,5950,1,5755,5756,5547,5546
CQUADX4,5951,1,5756,5757,5548,5547
CQUADX4,5952,1,5757,5758,5549,5548
CQUADX4,5953,1,5758,5759,5550,5549
CQUADX4,5954,1,5759,5760,5551,5550
CQUADX4,5955,1,5760,5761,5552,5551
CQUADX4,5956,1,5761,5762,5553,5552
CQUADX4,5957,1,5762,5763,5554,5553
CQUADX4,5958,1,5763,5764,5555,5554
CQUADX4,5959,1,5764,5765,5556,5555
CQUADX4,5960,1,5765,5766,5557,5556
CQUADX4,5961,1,5766,5767,5558,5557
CQUADX4,5962,1,5767,5768,5559,5558
CQUADX4,5963,1,5768,5769,5560,5559
CQUADX4,5964,1,5769,5770,5561,5560
CQUADX4,5965,1,5770,5771,5562,5561
CQUADX4,5966,1,5771,5772,5563,5562
CQUADX4,5967,1,5772,5773,5564,5563
CQUADX4,5968,1,5773,5774,5565,5564
CQUADX4,5969,1,5775,5776,5567,5566
CQUADX4,5970,1,5776,5777,5568,5567
CQUADX4,5971,1,5777,5778,5569,5568
CQUADX4,5972,1,5778,5779,5570,5569
CQUADX4,5973,1,5779,5780,5571,5570
CQUADX4,5974,1,5780,5781,5572,5571
CQUADX4,5975,1,5781,5782,5573,5572
CQUADX4,5976,1,5782,5783,5574,5573
CQUADX4,5977,1,5783,5784,5575,5574
CQUADX4,5978,1,5784,5785,5576,5575
CQUADX4,5979,1,5785,5786,5577,5576
CQUADX4,5980,1,5786,5787,5578,5577
CQUADX4,5981,1,5787,5788,5579,5578
CQUADX4,5982,1,5788,5789,5580,5579
CQUADX4,5983,1,5789,5790,5581,5580
CQUADX4,5984,1,5790,5791,5582,5581
CQUADX4,5985,1,5791,5792,5583,5582
CQUADX4,5986,1,5792,5793,5584,5583
CQUADX4,5987,1,5793,5794,5585,5584
CQUADX4,5988,1,5794,5795,5586,5585
CQUADX4,5989,1,5795,5796,5587,5586
CQUADX4,5990,1,5796,5797,5588,5587
CQUADX4,5991,1,5797,5798,5589,5588
CQUADX4,5992,1,5798,5799,5590,5589
CQUADX4,5993,1,5799,5800,5591,5590
CQUADX4,5994,1,5800,5801,5592,5591
CQUADX4,5995,1,5801,5802,5593,5592
CQUADX4,5996,1,5802,5803,5594,5593
CQUADX4,5997,1,5803,5804,5595,5594
CQUADX4,5998,1,5804,5805,5596,5595
CQUADX4,5999,1,5805,5806,5597,5596
CQUADX4,6000,1,5806,5807,5598,5597
CQUADX4,6001,1,5807,5808,5599,5598
CQUADX4,6002,1,5808,5809,5600,5599
CQUADX4,6003,1,5809,5810,5601,5600
CQUADX4,6004,1,5810,5811,5602,5601
CQUADX4,6005,1,5811,5812,5603,5602
CQUADX4,6006,1,5812,5813,5604,5603
CQUADX4,6007,1,5813,5814,5605,5604
CQUADX4,6008,1,5814,5815,5606,5605
CQUADX4,6009,1,5815,5816,5607,5606
CQUADX4,6010,1,5816,5817,5608,5607
CQUADX4,6011,1,5817,5818,5609,5608
CQUADX4,6012,1,5818,5819,5610,5609
CQUADX4,6013,1,5819,5820,5611,5610
CQUADX4,6014,1,5820,5821,5612,5611
CQUADX4,6015,1,5821,5822,5613,5612
CQUADX4,6016,1,5822,5823,5614,5613
CQUADX4,6017,1,5823,5824,5615,5614
CQUADX4,6018,1,5824,5825,5616,5615
CQUADX4,6019,1,5825,5826,5617,5616
CQUADX4,6020,1,5826,5827,5618,5617
CQUADX4,6021,1,5827,5828,5619,5618
CQUADX4,6022,1,5828,5829,5620,5619
CQUADX4,6023,1,5829,5830,5621,5620
CQUADX4,6024,1,5830,5831,5622,5621
CQUADX4,6025,1,5831,5832,5623,5622
CQUADX4,6026,1,5832,5833,5624,5623
CQUADX4,6027,1,5833,5834,5625,5624
CQUADX4,6028,1,5834,5835,5626,5625
CQUADX4,6029,1,5835,5836,5627,5626
CQUADX4,6030,1,5836,5837,5628,5627
CQUADX4,6031,1,5837,5838,5629,5628
CQUADX4,6032,1,5838,5839,5630,5629
CQUADX4,6033,1,5839,5840,5631,5630
CQUADX4,6034,1,5840,5841,5632,5631
CQUADX4,6035,1,5841,5842,5633,5632
CQUADX4,6036,1,5842,5843,5634,5633
CQUADX4,6037,1,5843,5844,5635,5634
CQUADX4,6038,1,5844,5845,5636,5635
CQUADX4,6039,1,5845,5846,5637,5636
CQUADX4,6040,1,5846,5847,5638,5637
CQUADX4,6041,1,5847,5848,5639,5638
CQUADX4,6042,1,5848,5849,5640,5639
CQUADX4,6043,1,5849,5850,5641,5640
CQUADX4,6044,1,5850,5851,5642,5641
CQUADX4,6045,1,5851,5852,5643,5642
CQUADX4,6046,1,5852,5853,5644,5643
CQUADX4,6047,1,5853,5854,5645,5644
CQUADX4,6048,1,5854,5855,5646,5645
CQUADX4,6049,1,5855,5856,5647,5646
CQUADX4,6050,1,5856,5857,5648,5647
CQUADX4,6051,1,5857,5858,5649,5648
CQUADX4,6052,1,5858,5859,5650,5649
CQUADX4,6053,1,5859,5860,5651,5650
CQUADX4,6054,1,5860,5861,5652,5651
CQUADX4,6055,1,5861,5862,5653,5652
CQUADX4,6056,1,5862,5863,5654,5653
CQUADX4,6057,1,5863,5864,5655,5654
CQUADX4,6058,1,5864,5865,5656,5655
CQUADX4,6059,1,5865,5866,5657,5656
CQUADX4,6060,1,5866,5867,5658,5657
CQUADX4,6061,1,5867,5868,5659,5658
CQUADX4,6062,1,5868,5869,5660,5659
CQUADX4,6063,1,5869,5870,5661,5660
CQUADX4,6064,1,5870,5871,5662,5661
CQUADX4,6065,1,5871,5872,5663,5662
CQUADX4,6066,1,5872,5873,5664,5663
CQUADX4,6067,1,5873,5874,5665,5664
CQUADX4,6068,1,5874,5875,5666,5665
CQUADX4,6069,1,5875,5876,5667,5666
CQUADX4,6070,1,5876,5877,5668,5667
CQUADX4,6071,1,5877,5878,5669,5668
CQUADX4,6072,1,5878,5879,5670,5669
CQUADX4,6073,1,5879,5880,5671,5670
CQUADX4,6074,1,5880,5881,5672,5671
CQUADX4,6075,1,5881,5882,5673,5672
CQUADX4,6076,1,5882,5883,5674,5673
CQUADX4,6077,1,5883,5884,5675,5674
CQUADX4,6078,1,5884,5885,5676,5675
CQUADX4,6079,1,5885,5886,5677,5676
CQUADX4,6080,1,5886,5887,5678,5677
CQUADX4,6081,1,5887,5888,5679,5678
CQUADX4,6082,1,5888,5889,5680,5679
CQUADX4,6083,1,5889,5890,5681,5680
CQUADX4,6084,1,5890,5891,5682,5681
CQUADX4,6085,1,5891,5892,5683,5682
CQUADX4,6086,1,5892,5893,5684,5683
CQUADX4,6087,1,5893,5894,5685,5684
CQUADX4,6088,1,5894,5895,5686,5685
CQUADX4,6089,1,5895,5896,5687,5686
CQUADX4,6090,1,5896,5897,5688,5687
CQUADX4,6091,1,5897,5898,5689,5688
CQUADX4,6092,1,5898,5899,5690,5689
CQUADX4,6093,1,5899,5900,5691,5690
CQUADX4,6094,1,5900,5901,5692,5691
CQUADX4,6095,1,5901,5902,5693,5692
CQUADX4,6096,1,5902,5903,5694,5693
CQUADX4,6097,1,5903,5904,5695,5694
CQUADX4,6098,1,5904,5905,5696,5695
CQUADX4,6099,1,5905,5906,5697,5696
CQUADX4,6100,1,5906,5907,5698,5697
CQUADX4,6101,1,5907,5908,5699,5698
CQUADX4,6102,1,5908,5909,5700,5699
CQUADX4,6103,1,5909,5910,5701,5700
CQUADX4,6104,1,5910,5911,5702,5701
CQUADX4,6105,1,5911,5912,5703,5702
CQUADX4,6106,1,5912,5913,5704,5703
CQUADX4,6107,1,5913,5914,5705,5704
CQUADX4,6108,1,5914,5915,5706,5705
CQUADX4,6109,1,5915,5916,5707,5706
CQUADX4,6110,1,5916,5917,5708,5707
CQUADX4,6111,1,5917,5918,5709,5708
CQUADX4,6112,1,5918,5919,5710,5709
CQUADX4,6113,1,5919,5920,5711,5710
CQUADX4,6114,1,5920,5921,5712,5711
CQUADX4,6115,1,5921,5922,5713,5712
CQUADX4,6116,1,5922,5923,5714,5713
CQUADX4,6117,1,5923,5924,5715,5714
CQUADX4,6118,1,5924,5925,5716,5715
CQUADX4,6119,1,5925,5926,5717,5716
CQUADX4,6120,1,5926,5927,5718,5717
CQUADX4,6121,1,5927,5928,5719,5718
CQUADX4,6122,1,5928,5929,5720,5719
CQUADX4,6123,1,5929,5930,5721,5720
CQUADX4,6124,1,5930,5931,5722,5721
CQUADX4,6125,1,5931,5932,5723,5722
CQUADX4,6126,1,5932,5933,5724,5723
CQUADX4,6127,1,5933,5934,5725,5724
CQUADX4,6128,1,5934,5935,5726,5725
CQUADX4,6129,1,5935,5936,5727,5726
CQUADX4,6130,1,5936,5937,5728,5727
CQUADX4,6131,1,5937,5938,5729,5728
CQUADX4,6132,1,5938,5939,5730,5729
CQUADX4,6133,1,5939,5940,5731,5730
CQUADX4,6134,1,5940,5941,5732,5731
CQUADX4,6135,1,5941,5942,5733,5732
CQUADX4,6136,1,5942,5943,5734,5733
CQUADX4,6137,1,5943,5944,5735,5734
CQUADX4,6138,1,5944,5945,5736,5735
CQUADX4,6139,1,5945,5946,5737,5736
CQUADX4,6140,1,5946,5947,5738,5737
CQUADX4,6141,1,5947,5948,5739,5738
CQUADX4,6142,1,5948,5949,5740,5739
CQUADX4,6143,1,5949,5950,5741,5740
CQUADX4,6144,1,5950,5951,5742,5741
CQUADX4,6145,1,5951,5952,5743,5742
CQUADX4,6146,1,5952,5953,5744,5743
CQUADX4,6147,1,5953,5954,5745,5744
CQUADX4,6148,1,5954,5955,5746,5745
CQUADX4,6149,1,5955,5956,5747,5746
CQUADX4,6150,1,5956,5957,5748,5747
CQUADX4,6151,1,5957,5958,5749,5748
CQUADX4,6152,1,5958,5959,5750,5749
CQUADX4,6153,1,5959,5960,5751,5750
CQUADX4,6154,1,5960,5961,5752,5751
CQUADX4,6155,1,5961,5962,5753,5752
CQUADX4,6156,1,5962,5963,5754,5753
CQUADX4,6157,1,5963,5964,5755,5754
CQUADX4,6158,1,5964,5965,5756,5755
CQUADX4,6159,1,5965,5966,5757,5756
CQUADX4,6160,1,5966,5967,5758,5757
CQUADX4,6161,1,5967,5968,5759,5758
CQUADX4,6162,1,5968,5969,5760,5759
CQUADX4,6163,1,5969,5970,5761,5760
CQUADX4,6164,1,5970,5971,5762,5761
CQUADX4,6165,1,5971,5972,5763,5762
CQUADX4,6166,1,5972,5973,5764,5763
CQUADX4,6167,1,5973,5974,5765,5764
CQUADX4,6168,1,5974,5975,5766,5765
CQUADX4,6169,1,5975,5976,5767,5766
CQUADX4,6170,1,5976,5977,5768,5767
CQUADX4,6171,1,5977,5978,5769,5768
CQUADX4,6172,1,5978,5979,5770,5769
CQUADX4,6173,1,5979,5980,5771,5770
CQUADX4,6174,1,5980,5981,5772,5771
CQUADX4,6175,1,5981,5982,5773,5772
CQUADX4,6176,1,5982,5983,5774,5773
CQUADX4,6177,1,5984,5985,5776,5775
CQUADX4,6178,1,5985,5986,5777,5776
CQUADX4,6179,1,5986,5987,5778,5777
CQUADX4,6180,1,5987,5988,5779,5778
CQUADX4,6181,1,5988,5989,5780,5779
CQUADX4,6182,1,5989,5990,5781,5780
CQUADX4,6183,1,5990,5991,5782,5781
CQUADX4,6184,1,5991,5992,5783,5782
CQUADX4,6185,1,5992,5993,5784,5783
CQUADX4,6186,1,5993,5994,5785,5784
CQUADX4,6187,1,5994,5995,5786,5785
CQUADX4,6188,1,5995,5996,5787,5786
CQUADX4,6189,1,5996,5997,5788,5787
CQUADX4,6190,1,5997,5998,5789,5788
CQUADX4,6191,1,5998,5999,5790,5789
CQUADX4,6192,1,5999,6000,5791,5790
CQUADX4,6193,1,6000,6001,5792,5791
CQUADX4,6194,1,6001,6002,5793,5792
CQUADX4,6195,1,6002,6003,5794,5793
CQUADX4,6196,1,6003,6004,5795,5794
CQUADX4,6197,1,6004,6005,5796,5795
CQUADX4,6198,1,6005,6006,5797,5796
CQUADX4,6199,1,6006,6007,5798,5797
CQUADX4,6200,1,6007,6008,5799,5798
CQUADX4,6201,1,6008,6009,5800,5799
CQUADX4,6202,1,6009,6010,5801,5800
CQUADX4,6203,1,6010,6011,5802,5801
CQUADX4,6204,1,6011,6012,5803,5802
CQUADX4,6205,1,6012,6013,5804,5803
CQUADX4,6206,1,6013,6014,5805,5804
CQUADX4,6207,1,6014,6015,5806,5805
CQUADX4,6208,1,6015,6016,5807,5806
CQUADX4,6209,1,6016,6017,5808,5807
CQUADX4,6210,1,6017,6018,5809,5808
CQUADX4,6211,1,6018,6019,5810,5809
CQUADX4,6212,1,6019,6020,5811,5810
CQUADX4,6213,1,6020,6021,5812,5811
CQUADX4,6214,1,6021,6022,5813,5812
CQUADX4,6215,1,6022,6023,5814,5813
CQUADX4,6216,1,6023,6024,5815,5814
CQUADX4,6217,1,6024,6025,5816,5815
CQUADX4,6218,1,6025,6026,5817,5816
CQUADX4,6219,1,6026,6027,5818,5817
CQUADX4,6220,1,6027,6028,5819,5818
CQUADX4,6221,1,6028,6029,5820,5819
CQUADX4,6222,1,6029,6030,5821,5820
CQUADX4,6223,1,6030,6031,5822,5821
CQUADX4,6224,1,6031,6032,5823,5822
CQUADX4,6225,1,6032,6033,5824,5823
CQUADX4,6226,1,6033,6034,5825,5824
CQUADX4,6227,1,6034,6035,5826,5825
CQUADX4,6228,1,6035,6036,5827,5826
CQUADX4,6229,1,6036,6037,5828,5827
CQUADX4,6230,1,6037,6038,5829,5828
CQUADX4,6231,1,6038,6039,5830,5829
CQUADX4,6232,1,6039,6040,5831,5830
CQUADX4,6233,1,6040,6041,5832,5831
CQUADX4,6234,1,6041,6042,5833,5832
CQUADX4,6235,1,6042,6043,5834,5833
CQUADX4,6236,1,6043,6044,5835,5834
CQUADX4,6237,1,6044,6045,5836,5835
CQUADX4,6238,1,6045,6046,5837,5836
CQUADX4,6239,1,6046,6047,5838,5837
CQUADX4,6240,1,6047,6048,5839,5838
CQUADX4,6241,1,6048,6049,5840,5839
CQUADX4,6242,1,6049,6050,5841,5840
CQUADX4,6243,1,6050,6051,5842,5841
CQUADX4,6244,1,6051,6052,5843,5842
CQUADX4,6245,1,6052,6053,5844,5843
CQUADX4,6246,1,6053,6054,5845,5844
CQUADX4,6247,1,6054,6055,5846,5845
CQUADX4,6248,1,6055,6056,5847,5846
CQUADX4,6249,1,6056,6057,5848,5847
CQUADX4,6250,1,6057,6058,5849,5848
CQUADX4,6251,1,6058,6059,5850,5849
CQUADX4,6252,1,6059,6060,5851,5850
CQUADX4,6253,1,6060,6061,5852,5851
CQUADX4,6254,1,6061,6062,5853,5852
CQUADX4,6255,1,6062,6063,5854,5853
CQUADX4,6256,1,6063,6064,5855,5854
CQUADX4,6257,1,6064,6065,5856,5855
CQUADX4,6258,1,6065,6066,5857,5856
CQUADX4,6259,1,6066,6067,5858,5857
CQUADX4,6260,1,6067,6068,5859,5858
CQUADX4,6261,1,6068,6069,5860,5859
CQUADX4,6262,1,6069,6070,5861,5860
CQUADX4,6263,1,6070,6071,5862,5861
CQUADX4,6264,1,6071,6072,5863,5862
CQUADX4,6265,1,6072,6073,5864,5863
CQUADX4,6266,1,6073,6074,5865,5864
CQUADX4,6267,1,6074,6075,5866,5865
CQUADX4,6268,1,6075,6076,5867,5866
CQUADX4,6269,1,6076,6077,5868,5867
CQUADX4,6270,1,6077,6078,5869,5868
CQUADX4,6271,1,6078,6079,5870,5869
CQUADX4,6272,1,6079,6080,5871,5870
CQUADX4,6273,1,6080,6081,5872,5871
CQUADX4,6274,1,6081,6082,5873,5872
CQUADX4,6275,1,6082,6083,5874,5873
CQUADX4,6276,1,6083,6084,5875,5874
CQUADX4,6277,1,6084,6085,5876,5875
CQUADX4,6278,1,6085,6086,5877,5876
CQUADX4,6279,1,6086,6087,5878,5877
CQUADX4,6280,1,6087,6088,5879,5878
CQUADX4,6281,1,6088,6089,5880,5879
CQUADX4,6282,1,6089,6090,5881,5880
CQUADX4,6283,1,6090,6091,5882,5881
CQUADX4,6284,1,6091,6092,5883,5882
CQUADX4,6285,1,6092,6093,5884,5883
CQUADX4,6286,1,6093,6094,5885,5884
CQUADX4,6287,1,6094,6095,5886,5885
CQUADX4,6288,1,6095,6096,5887,5886
CQUADX4,6289,1,6096,6097,5888,5887
CQUADX4,6290,1,6097,6098,5889,5888
CQUADX4,6291,1,6098,6099,5890,5889
CQUADX4,6292,1,6099,6100,5891,5890
CQUADX4,6293,1,6100,6101,5892,5891
CQUADX4,6294,1,6101,6102,5893,5892
CQUADX4,6295,1,6102,6103,5894,5893
CQUADX4,6296,1,6103,6104,5895,5894
CQUADX4,6297,1,6104,6105,5896,5895
CQUADX4,6298,1,6105,6106,5897,5896
CQUADX4,6299,1,6106,6107,5898,5897
CQUADX4,6300,1,6107,6108,5899,5898
CQUADX4,6301,1,6108,6109,5900,5899
CQUADX4,6302,1,6109,6110,5901,5900
CQUADX4,6303,1,6110,6111,5902,5901
CQUADX4,6304,1,6111,6112,5903,5902
CQUADX4,6305,1,6112,6113,5904,5903
CQUADX4,6306,1,6113,6114,5905,5904
CQUADX4,6307,1,6114,6115,5906,5905
CQUADX4,6308,1,6115,6116,5907,5906
CQUADX4,6309,1,6116,6117,5908,5907
CQUADX4,6310,1,6117,6118,5909,5908
CQUADX4,6311,1,6118,6119,5910,5909
CQUADX4,6312,1,6119,6120,5911,5910
CQUADX4,6313,1,6120,6121,5912,5911
CQUADX4,6314,1,6121,6122,5913,5912
CQUADX4,6315,1,6122,6123,5914,5913
CQUADX4,6316,1,6123,6124,5915,5914
CQUADX4,6317,1,6124,6125,5916,5915
CQUADX4,6318,1,6125,6126,5917,5916
CQUADX4,6319,1,6126,6127,5918,5917
CQUADX4,6320,1,6127,6128,5919,5918
CQUADX4,6321,1,6128,6129,5920,5919
CQUADX4,6322,1,6129,6130,5921,5920
CQUADX4,6323,1,6130,6131,5922,5921
CQUADX4,6324,1,6131,6132,5923,5922
CQUADX4,6325,1,6132,6133,5924,5923
CQUADX4,6326,1,6133,6134,5925,5924
CQUADX4,6327,1,6134,6135,5926,5925
CQUADX4,6328,1,6135,6136,5927,5926
CQUADX4,6329,1,6136,6137,5928,5927
CQUADX4,6330,1,6137,6138,5929,5928
CQUADX4,6331,1,6138,6139,5930,5929
CQUADX4,6332,1,6139,6140,5931,5930
CQUADX4,6333,1,6140,6141,5932,5931
CQUADX4,6334,1,6141,6142,5933,5932
CQUADX4,6335,1,6142,6143,5934,5933
CQUADX4,6336,1,6143,6144,5935,5934
CQUADX4,6337,1,6144,6145,5936,5935
CQUADX4,6338,1,6145,6146,5937,5936
CQUADX4,6339,1,6146,6147,5938,5937
CQUADX4,6340,1,6147,6148,5939,5938
CQUADX4,6341,1,6148,6149,5940,5939
CQUADX4,6342,1,6149,6150,5941,5940
CQUADX4,6343,1,6150,6151,5942,5941
CQUADX4,6344,1,6151,6152,5943,5942
CQUADX4,6345,1,6152,6153,5944,5943
CQUADX4,6346,1,6153,6154,5945,5944
CQUADX4,6347,1,6154,6155,5946,5945
CQUADX4,6348,1,6155,6156,5947,5946
CQUADX4,6349,1,6156,6157,5948,5947
CQUADX4,6350,1,6157,6158,5949,5948
CQUADX4,6351,1,6158,6159,5950,5949
CQUADX4,6352,1,6159,6160,5951,5950
CQUADX4,6353,1,6160,6161,5952,5951
CQUADX4,6354,1,6161,6162,5953,5952
CQUADX4,6355,1,6162,6163,5954,5953
CQUADX4,6356,1,6163,6164,5955,5954
CQUADX4,6357,1,6164,6165,5956,5955
CQUADX4,6358,1,6165,6166,5957,5956
CQUADX4,6359,1,6166,6167,5958,5957
CQUADX4,6360,1,6167,6168,5959,5958
CQUADX4,6361,1,6168,6169,5960,5959
CQUADX4,6362,1,6169,6170,5961,5960
CQUADX4,6363,1,6170,6171,5962,5961
CQUADX4,6364,1,6171,6172,5963,5962
CQUADX4,6365,1,6172,6173,5964,5963
CQUADX4,6366,1,6173,6174,5965,5964
CQUADX4,6367,1,6174,6175,5966,5965
CQUADX4,6368,1,6175,6176,5967,5966
CQUADX4,6369,1,6176,6177,5968,5967
CQUADX4,6370,1,6177,6178,5969,5968
CQUADX4,6371,1,6178,6179,5970,5969
CQUADX4,6372,1,6179,6180,5971,5970
CQUADX4,6373,1,6180,6181,5972,5971
CQUADX4,6374,1,6181,6182,5973,5972
CQUADX4,6375,1,6182,6183,5974,5973
CQUADX4,6376,1,6183,6184,5975,5974
CQUADX4,6377,1,6184,6185,5976,5975
CQUADX4,6378,1,6185,6186,5977,5976
CQUADX4,6379,1,6186,6187,5978,5977
CQUADX4,6380,1,6187,6188,5979,5978
CQUADX4,6381,1,6188,6189,5980,5979
CQUADX4,6382,1,6189,6190,5981,5980
CQUADX4,6383,1,6190,6191,5982,5981
CQUADX4,6384,1,6191,6192,5983,5982
CQUADX4,6385,1,6193,6194,5985,5984
CQUADX4,6386,1,6194,6195,5986,5985
CQUADX4,6387,1,6195,6196,5987,5986
CQUADX4,6388,1,6196,6197,5988,5987
CQUADX4,6389,1,6197,6198,5989,5988
CQUADX4,6390,1,6198,6199,5990,5989
CQUADX4,6391,1,6199,6200,5991,5990
CQUADX4,6392,1,6200,6201,5992,5991
CQUADX4,6393,1,6201,6202,5993,5992
CQUADX4,6394,1,6202,6203,5994,5993
CQUADX4,6395,1,6203,6204,5995,5994
CQUADX4,6396,1,6204,6205,5996,5995
CQUADX4,6397,1,6205,6206,5997,5996
CQUADX4,6398,1,6206,6207,5998,5997
CQUADX4,6399,1,6207,6208,5999,5998
CQUADX4,6400,1,6208,6209,6000,5999
CQUADX4,6401,1,6209,6210,6001,6000
CQUADX4,6402,1,6210,6211,6002,6001
CQUADX4,6403,1,6211,6212,6003,6002
CQUADX4,6404,1,6212,6213,6004,6003
CQUADX4,6405,1,6213,6214,6005,6004
CQUADX4,6406,1,6214,6215,6006,6005
CQUADX4,6407,1,6215,6216,6007,6006
CQUADX4,6408,1,6216,6217,6008,6007
CQUADX4,6409,1,6217,6218,6009,6008
CQUADX4,6410,1,6218,6219,6010,6009
CQUADX4,6411,1,6219,6220,6011,6010
CQUADX4,6412,1,6220,6221,6012,6011
CQUADX4,6413,1,6221,6222,6013,6012
CQUADX4,6414,1,6222,6223,6014,6013
CQUADX4,6415,1,6223,6224,6015,6014
CQUADX4,6416,1,6224,6225,6016,6015
CQUADX4,6417,1,6225,6226,6017,6016
CQUADX4,6418,1,6226,6227,6018,6017
CQUADX4,6419,1,6227,6228,6019,6018
CQUADX4,6420,1,6228,6229,6020,6019
CQUADX4,6421,1,6229,6230,6021,6020
CQUADX4,6422,1,6230,6231,6022,6021
CQUADX4,6423,1,6231,6232,6023,6022
CQUADX4,6424,1,6232,6233,6024,6023
CQUADX4,6425,1,6233,6234,6025,6024
CQUADX4,6426,1,6234,6235,6026,6025
CQUADX4,6427,1,6235,6236,6027,6026
CQUADX4,6428,1,6236,6237,6028,6027
CQUADX4,6429,1,6237,6238,6029,6028
CQUADX4,6430,1,6238,6239,6030,6029
CQUADX4,6431,1,6239,6240,6031,6030
CQUADX4,6432,1,6240,6241,6032,6031
CQUADX4,6433,1,6241,6242,6033,6032
CQUADX4,6434,1,6242,6243,6034,6033
CQUADX4,6435,1,6243,6244,6035,6034
CQUADX4,6436,1,6244,6245,6036,6035
CQUADX4,6437,1,6245,6246,6037,6036
CQUADX4,6438,1,6246,6247,6038,6037
CQUADX4,6439,1,6247,6248,6039,6038
CQUADX4,6440,1,6248,6249,6040,6039
CQUADX4,6441,1,6249,6250,6041,6040
CQUADX4,6442,1,6250,6251,6042,6041
CQUADX4,6443,1,6251,6252,6043,6042
CQUADX4,6444,1,6252,6253,6044,6043
CQUADX4,6445,1,6253,6254,6045,6044
CQUADX4,6446,1,6254,6255,6046,6045
CQUADX4,6447,1,6255,6256,6047,6046
CQUADX4,6448,1,6256,6257,6048,6047
CQUADX4,6449,1,6257,6258,6049,6048
CQUADX4,6450,1,6258,6259,6050,6049
CQUADX4,6451,1,6259,6260,6051,6050
CQUADX4,6452,1,6260,6261,6052,6051
CQUADX4,6453,1,6261,6262,6053,6052
CQUADX4,6454,1,6262,6263,6054,6053
CQUADX4,6455,1,6263,6264,6055,6054
CQUADX4,6456,1,6264,6265,6056,6055
CQUADX4,6457,1,6265,6266,6057,6056
CQUADX4,6458,1,6266,6267,6058,6057
CQUADX4,6459,1,6267,6268,6059,6058
CQUADX4,6460,1,6268,6269,6060,6059
CQUADX4,6461,1,6269,6270,6061,6060
CQUADX4,6462,1,6270,6271,6062,6061
CQUADX4,6463,1,6271,6272,6063,6062
CQUADX4,6464,1,6272,6273,6064,6063
CQUADX4,6465,1,6273,6274,6065,6064
CQUADX4,6466,1,6274,6275,6066,6065
CQUADX4,6467,1,6275,6276,6067,6066
CQUADX4,6468,1,6276,6277,6068,6067
CQUADX4,6469,1,6277,6278,6069,6068
CQUADX4,6470,1,6278,6279,6070,6069
CQUADX4,6471,1,6279,6280,6071,6070
CQUADX4,6472,1,6280,6281,6072,6071
CQUADX4,6473,1,6281,6282,6073,6072
CQUADX4,6474,1,6282,6283,6074,6073
CQUADX4,6475,1,6283,6284,6075,6074
CQUADX4,6476,1,6284,6285,6076,6075
CQUADX4,6477,1,6285,6286,6077,6076
CQUADX4,6478,1,6286,6287,6078,6077
CQUADX4,6479,1,6287,6288,6079,6078
CQUADX4,6480,1,6288,6289,6080,6079
CQUADX4,6481,1,6289,6290,6081,6080
CQUADX4,6482,1,6290,6291,6082,6081
CQUADX4,6483,1,6291,6292,6083,6082
CQUADX4,6484,1,6292,6293,6084,6083
CQUADX4,6485,1,6293,6294,6085,6084
CQUADX4,6486,1,6294,6295,6086,6085
CQUADX4,6487,1,6295,6296,6087,6086
CQUADX4,6488,1,6296,6297,6088,6087
CQUADX4,6489,1,6297,6298,6089,6088
CQUADX4,6490,1,6298,6299,6090,6089
CQUADX4,6491,1,6299,6300,6091,6090
CQUADX4,6492,1,6300,6301,6092,6091
CQUADX4,6493,1,6301,6302,6093,6092
CQUADX4,6494,1,6302,6303,6094,6093
CQUADX4,6495,1,6303,6304,6095,6094
CQUADX4,6496,1,6304,6305,6096,6095
CQUADX4,6497,1,6305,6306,6097,6096
CQUADX4,6498,1,6306,6307,6098,6097
CQUADX4,6499,1,6307,6308,6099,6098
CQUADX4,6500,1,6308,6309,6100,6099
CQUADX4,6501,1,6309,6310,6101,6100
CQUADX4,6502,1,6310,6311,6102,6101
CQUADX4,6503,1,6311,6312,6103,6102
CQUADX4,6504,1,6312,6313,6104,6103
CQUADX4,6505,1,6313,6314,6105,6104
CQUADX4,6506,1,6314,6315,6106,6105
CQUADX4,6507,1,6315,6316,6107,6106
CQUADX4,6508,1,6316,6317,6108,6107
CQUADX4,6509,1,6317,6318,6109,6108
CQUADX4,6510,1,6318,6319,6110,6109
CQUADX4,6511,1,6319,6320,6111,6110
CQUADX4,6512,1,6320,6321,6112,6111
CQUADX4,6513,1,6321,6322,6113,6112
CQUADX4,6514,1,6322,6323,6114,6113
CQUADX4,6515,1,6323,6324,6115,6114
CQUADX4,6516,1,6324,6325,6116,6115
CQUADX4,6517,1,6325,6326,6117,6116
CQUADX4,6518,1,6326,6327,6118,6117
CQUADX4,6519,1,6327,6328,6119,6118
CQUADX4,6520,1,6328,6329,6120,6119
CQUADX4,6521,1,6329,6330,6121,6120
CQUADX4,6522,1,6330,6331,6122,6121
CQUADX4,6523,1,6331,6332,6123,6122
CQUADX4,6524,1,6332,6333,6124,6123
CQUADX4,6525,1,6333,6334,6125,6124
CQUADX4,6526,1,6334,6335,6126,6125
CQUADX4,6527,1,6335,6336,6127,6126
CQUADX4,6528,1,6336,6337,6128,6127
CQUADX4,6529,1,6337,6338,6129,6128
CQUADX4,6530,1,6338,6339,6130,6129
CQUADX4,6531,1,6339,6340,6131,6130
CQUADX4,6532,1,6340,6341,6132,6131
CQUADX4,6533,1,6341,6342,6133,6132
CQUADX4,6534,1,6342,6343,6134,6133
CQUADX4,6535,1,6343,6344,6135,6134
CQUADX4,6536,1,6344,6345,6136,6135
CQUADX4,6537,1,6345,6346,6137,6136
CQUADX4,6538,1,6346,6347,6138,6137
CQUADX4,6539,1,6347,6348,6139,6138
CQUADX4,6540,1,6348,6349,6140,6139
CQUADX4,6541,1,6349,6350,6141,6140
CQUADX4,6542,1,6350,6351,6142,6141
CQUADX4,6543,1,6351,6352,6143,6142
CQUADX4,6544,1,6352,6353,6144,6143
CQUADX4,6545,1,6353,6354,6145,6144
CQUADX4,6546,1,6354,6355,6146,6145
CQUADX4,6547,1,6355,6356,6147,6146
CQUADX4,6548,1,6356,6357,6148,6147
CQUADX4,6549,1,6357,6358,6149,6148
CQUADX4,6550,1,6358,6359,6150,6149
CQUADX4,6551,1,6359,6360,6151,6150
CQUADX4,6552,1,6360,6361,6152,6151
CQUADX4,6553,1,6361,6362,6153,6152
CQUADX4,6554,1,6362,6363,6154,6153
CQUADX4,6555,1,6363,6364,6155,6154
CQUADX4,6556,1,6364,6365,6156,6155
CQUADX4,6557,1,6365,6366,6157,6156
CQUADX4,6558,1,6366,6367,6158,6157
CQUADX4,6559,1,6367,6368,6159,6158
CQUADX4,6560,1,6368,6369,6160,6159
CQUADX4,6561,1,6369,6370,6161,6160
CQUADX4,6562,1,6370,6371,6162,6161
CQUADX4,6563,1,6371,6372,6163,6162
CQUADX4,6564,1,6372,6373,6164,6163
CQUADX4,6565,1,6373,6374,6165,6164
CQUADX4,6566,1,6374,6375,6166,6165
CQUADX4,6567,1,6375,6376,6167,6166
CQUADX4,6568,1,6376,6377,6168,6167
CQUADX4,6569,1,6377,6378,6169,6168
CQUADX4,6570,1,6378,6379,6170,6169
CQUADX4,6571,1,6379,6380,6171,6170
CQUADX4,6572,1,6380,6381,6172,6171
CQUADX4,6573,1,6381,6382,6173,6172
CQUADX4,6574,1,6382,6383,6174,6173
CQUADX4,6575,1,6383,6384,6175,6174
CQUADX4,6576,1,6384,6385,6176,6175
CQUADX4,6577,1,6385,6386,6177,6176
CQUADX4,6578,1,6386,6387,6178,6177
CQUADX4,6579,1,6387,6388,6179,6178
CQUADX4,6580,1,6388,6389,6180,6179
CQUADX4,6581,1,6389,6390,6181,6180
CQUADX4,6582,1,6390,6391,6182,6181
CQUADX4,6583,1,6391,6392,6183,6182
CQUADX4,6584,1,6392,6393,6184,6183
CQUADX4,6585,1,6393,6394,6185,6184
CQUADX4,6586,1,6394,6395,6186,6185
CQUADX4,6587,1,6395,6396,6187,6186
CQUADX4,6588,1,6396,6397,6188,6187
CQUADX4,6589,1,6397,6398,6189,6188
CQUADX4,6590,1,6398,6399,6190,6189
CQUADX4,6591,1,6399,6400,6191,6190
CQUADX4,6592,1,6400,6401,6192,6191
CQUADX4,6593,1,6402,6403,6194,6193
CQUADX4,6594,1,6403,6404,6195,6194
CQUADX4,6595,1,6404,6405,6196,6195
CQUADX4,6596,1,6405,6406,6197,6196
CQUADX4,6597,1,6406,6407,6198,6197
CQUADX4,6598,1,6407,6408,6199,6198
CQUADX4,6599,1,6408,6409,6200,6199
CQUADX4,6600,1,6409,6410,6201,6200
CQUADX4,6601,1,6410,6411,6202,6201
CQUADX4,6602,1,6411,6412,6203,6202
CQUADX4,6603,1,6412,6413,6204,6203
CQUADX4,6604,1,6413,6414,6205,6204
CQUADX4,6605,1,6414,6415,6206,6205
CQUADX4,6606,1,6415,6416,6207,6206
CQUADX4,6607,1,6416,6417,6208,6207
CQUADX4,6608,1,6417,6418,6209,6208
CQUADX4,6609,1,6418,6419,6210,6209
CQUADX4,6610,1,6419,6420,6211,6210
CQUADX4,6611,1,6420,6421,6212,6211
CQUADX4,6612,1,6421,6422,6213,6212
CQUADX4,6613,1,6422,6423,6214,6213
CQUADX4,6614,1,6423,6424,6215,6214
CQUADX4,6615,1,6424,6425,6216,6215
CQUADX4,6616,1,6425,6426,6217,6216
CQUADX4,6617,1,6426,6427,6218,6217
CQUADX4,6618,1,6427,6428,6219,6218
CQUADX4,6619,1,6428,6429,6220,6219
CQUADX4,6620,1,6429,6430,6221,6220
CQUADX4,6621,1,6430,6431,6222,6221
CQUADX4,6622,1,6431,6432,6223,6222
CQUADX4,6623,1,6432,6433,6224,6223
CQUADX4,6624,1,6433,6434,6225,6224
CQUADX4,6625,1,6434,6435,6226,6225
CQUADX4,6626,1,6435,6436,6227,6226
CQUADX4,6627,1,6436,6437,6228,6227
CQUADX4,6628,1,6437,6438,6229,6228
CQUADX4,6629,1,6438,6439,6230,6229
CQUADX4,6630,1,6439,6440,6231,6230
CQUADX4,6631,1,6440,6441,6232,6231
CQUADX4,6632,1,6441,6442,6233,6232
CQUADX4,6633,1,6442,6443,6234,6233
CQUADX4,6634,1,6443,6444,6235,6234
CQUADX4,6635,1,6444,6445,6236,6235
CQUADX4,6636,1,6445,6446,6237,6236
CQUADX4,6637,1,6446,6447,6238,6237
CQUADX4,6638,1,6447,6448,6239,6238
CQUADX4,6639,1,6448,6449,6240,6239
CQUADX4,6640,1,6449,6450,6241,6240
CQUADX4,6641,1,6450,6451,6242,6241
CQUADX4,6642,1,6451,6452,6243,6242
CQUADX4,6643,1,6452,6453,6244,6243
CQUADX4,6644,1,6453,6454,6245,6244
CQUADX4,6645,1,6454,6455,6246,6245
CQUADX4,6646,1,6455,6456,6247,6246
CQUADX4,6647,1,6456,6457,6248,6247
CQUADX4,6648,1,6457,6458,6249,6248
CQUADX4,6649,1,6458,6459,6250,6249
CQUADX4,6650,1,6459,6460,6251,6250
CQUADX4,6651,1,6460,6461,6252,6251
CQUADX4,6652,1,6461,6462,6253,6252
CQUADX4,6653,1,6462,6463,6254,6253
CQUADX4,6654,1,6463,6464,6255,6254
CQUADX4,6655,1,6464,6465,6256,6255
CQUADX4,6656,1,6465,6466,6257,6256
CQUADX4,6657,1,6466,6467,6258,6257
CQUADX4,6658,1,6467,6468,6259,6258
CQUADX4,6659,1,6468,6469,6260,6259
CQUADX4,6660,1,6469,6470,6261,6260
CQUADX4,6661,1,6470,6471,6262,6261
CQUADX4,6662,1,6471,6472,6263,6262
CQUADX4,6663,1,6472,6473,6264,6263
CQUADX4,6664,1,6473,6474,6265,6264
CQUADX4,6665,1,6474,6475,6266,6265
CQUADX4,6666,1,6475,6476,6267,6266
CQUADX4,6667,1,6476,6477,6268,6267
CQUADX4,6668,1,6477,6478,6269,6268
CQUADX4,6669,1,6478,6479,6270,6269
CQUADX4,6670,1,6479,6480,6271,6270
CQUADX4,6671,1,6480,6481,6272,6271
CQUADX4,6672,1,6481,6482,6273,6272
CQUADX4,6673,1,6482,6483,6274,6273
CQUADX4,6674,1,6483,6484,6275,6274
CQUADX4,6675,1,6484,6485,6276,6275
CQUADX4,6676,1,6485,6486,6277,6276
CQUADX4,6677,1,6486,6487,6278,6277
CQUADX4,6678,1,6487,6488,6279,6278
CQUADX4,6679,1,6488,6489,6280,6279
CQUADX4,6680,1,6489,6490,6281,6280
CQUADX4,6681,1,6490,6491,6282,6281
CQUADX4,6682,1,6491,6492,6283,6282
CQUADX4,6683,1,6492,6493,6284,6283
CQUADX4,6684,1,6493,6494,6285,6284
CQUADX4,6685,1,6494,6495,6286,6285
CQUADX4,6686,1,6495,6496,6287,6286
CQUADX4,6687,1,6496,6497,6288,6287
CQUADX4,6688,1,6497,6498,6289,6288
CQUADX4,6689,1,6498,6499,6290,6289
CQUADX4,6690,1,6499,6500,6291,6290
CQUADX4,6691,1,6500,6501,6292,6291
CQUADX4,6692,1,6501,6502,6293,6292
CQUADX4,6693,1,6502,6503,6294,6293
CQUADX4,6694,1,6503,6504,6295,6294
CQUADX4,6695,1,6504,6505,6296,6295
CQUADX4,6696,1,6505,6506,6297,6296
CQUADX4,6697,1,6506,6507,6298,6297
CQUADX4,6698,1,6507,6508,6299,6298
CQUADX4,6699,1,6508,6509,6300,6299
CQUADX4,6700,1,6509,6510,6301,6300
CQUADX4,6701,1,6510,6511,6302,6301
CQUADX4,6702,1,6511,6512,6303,6302
CQUADX4,6703,1,6512,6513,6304,6303
CQUADX4,6704,1,6513,6514,6305,6304
CQUADX4,6705,1,6514,6515,6306,6305
CQUADX4,6706,1,6515,6516,6307,6306
CQUADX4,6707,1,6516,6517,6308,6307
CQUADX4,6708,1,6517,6518,6309,6308
CQUADX4,6709,1,6518,6519,6310,6309
CQUADX4,6710,1,6519,6520,6311,6310
CQUADX4,6711,1,6520,6521,6312,6311
CQUADX4,6712,1,6521,6522,6313,6312
CQUADX4,6713,1,6522,6523,6314,6313
CQUADX4,6714,1,6523,6524,6315,6314
CQUADX4,6715,1,6524,6525,6316,6315
CQUADX4,6716,1,6525,6526,6317,6316
CQUADX4,6717,1,6526,6527,6318,6317
CQUADX4,6718,1,6527,6528,6319,6318
CQUADX4,6719,1,6528,6529,6320,6319
CQUADX4,6720,1,6529,6530,6321,6320
CQUADX4,6721,1,6530,6531,6322,6321
CQUADX4,6722,1,6531,6532,6323,6322
CQUADX4,6723,1,6532,6533,6324,6323
CQUADX4,6724,1,6533,6534,6325,6324
CQUADX4,6725,1,6534,6535,6326,6325
CQUADX4,6726,1,6535,6536,6327,6326
CQUADX4,6727,1,6536,6537,6328,6327
CQUADX4,6728,1,6537,6538,6329,6328
CQUADX4,6729,1,6538,6539,6330,6329
CQUADX4,6730,1,6539,6540,6331,6330
CQUADX4,6731,1,6540,6541,6332,6331
CQUADX4,6732,1,6541,6542,6333,6332
CQUADX4,6733,1,6542,6543,6334,6333
CQUADX4,6734,1,6543,6544,6335,6334
CQUADX4,6735,1,6544,6545,6336,6335
CQUADX4,6736,1,6545,6546,6337,6336
CQUADX4,6737,1,6546,6547,6338,6337
CQUADX4,6738,1,6547,6548,6339,6338
CQUADX4,6739,1,6548,6549,6340,6339
CQUADX4,6740,1,6549,6550,6341,6340
CQUADX4,6741,1,6550,6551,6342,6341
CQUADX4,6742,1,6551,6552,6343,6342
CQUADX4,6743,1,6552,6553,6344,6343
CQUADX4,6744,1,6553,6554,6345,6344
CQUADX4,6745,1,6554,6555,6346,6345
CQUADX4,6746,1,6555,6556,6347,6346
CQUADX4,6747,1,6556,6557,6348,6347
CQUADX4,6748,1,6557,6558,6349,6348
CQUADX4,6749,1,6558,6559,6350,6349
CQUADX4,6750,1,6559,6560,6351,6350
CQUADX4,6751,1,6560,6561,6352,6351
CQUADX4,6752,1,6561,6562,6353,6352
CQUADX4,6753,1,6562,6563,6354,6353
CQUADX4,6754,1,6563,6564,6355,6354
CQUADX4,6755,1,6564,6565,6356,6355
CQUADX4,6756,1,6565,6566,6357,6356
CQUADX4,6757,1,6566,6567,6358,6357
CQUADX4,6758,1,6567,6568,6359,6358
CQUADX4,6759,1,6568,6569,6360,6359
CQUADX4,6760,1,6569,6570,6361,6360
CQUADX4,6761,1,6570,6571,6362,6361
CQUADX4,6762,1,6571,6572,6363,6362
CQUADX4,6763,1,6572,6573,6364,6363
CQUADX4,6764,1,6573,6574,6365,6364
CQUADX4,6765,1,6574,6575,6366,6365
CQUADX4,6766,1,6575,6576,6367,6366
CQUADX4,6767,1,6576,6577,6368,6367
CQUADX4,6768,1,6577,6578,6369,6368
CQUADX4,6769,1,6578,6579,6370,6369
CQUADX4,6770,1,6579,6580,6371,6370
CQUADX4,6771,1,6580,6581,6372,6371
CQUADX4,6772,1,6581,6582,6373,6372
CQUADX4,6773,1,6582,6583,6374,6373
CQUADX4,6774,1,6583,6584,6375,6374
CQUADX4,6775,1,6584,6585,6376,6375
CQUADX4,6776,1,6585,6586,6377,6376
CQUADX4,6777,1,6586,6587,6378,6377
CQUADX4,6778,1,6587,6588,6379,6378
CQUADX4,6779,1,6588,6589,6380,6379
CQUADX4,6780,1,6589,6590,6381,6380
CQUADX4,6781,1,6590,6591,6382,6381
CQUADX4,6782,1,6591,6592,6383,6382
CQUADX4,6783,1,6592,6593,6384,6383
CQUADX4,6784,1,6593,6594,6385,6384
CQUADX4,6785,1,6594,6595,6386,6385
CQUADX4,6786,1,6595,6596,6387,6386
CQUADX4,6787,1,6596,6597,6388,6387
CQUADX4,6788,1,6597,6598,6389,6388
CQUADX4,6789,1,6598,6599,6390,6389
CQUADX4,6790,1,6599,6600,6391,6390
CQUADX4,6791,1,6600,6601,6392,6391
CQUADX4,6792,1,6601,6602,6393,6392
CQUADX4,6793,1,6602,6603,6394,6393
CQUADX4,6794,1,6603,6604,6395,6394
CQUADX4,6795,1,6604,6605,6396,6395
CQUADX4,6796,1,6605,6606,6397,6396
CQUADX4,6797,1,6606,6607,6398,6397
CQUADX4,6798,1,6607,6608,6399,6398
CQUADX4,6799,1,6608,6609,6400,6399
CQUADX4,6800,1,6609,6610,6401,6400
CQUADX4,6801,1,6611,6612,6403,6402
CQUADX4,6802,1,6612,6613,6404,6403
CQUADX4,6803,1,6613,6614,6405,6404
CQUADX4,6804,1,6614,6615,6406,6405
CQUADX4,6805,1,6615,6616,6407,6406
CQUADX4,6806,1,6616,6617,6408,6407
CQUADX4,6807,1,6617,6618,6409,6408
CQUADX4,6808,1,6618,6619,6410,6409
CQUADX4,6809,1,6619,6620,6411,6410
CQUADX4,6810,1,6620,6621,6412,6411
CQUADX4,6811,1,6621,6622,6413,6412
CQUADX4,6812,1,6622,6623,6414,6413
CQUADX4,6813,1,6623,6624,6415,6414
CQUADX4,6814,1,6624,6625,6416,6415
CQUADX4,6815,1,6625,6626,6417,6416
CQUADX4,6816,1,6626,6627,6418,6417
CQUADX4,6817,1,6627,6628,6419,6418
CQUADX4,6818,1,6628,6629,6420,6419
CQUADX4,6819,1,6629,6630,6421,6420
CQUADX4,6820,1,6630,6631,6422,6421
CQUADX4,6821,1,6631,6632,6423,6422
CQUADX4,6822,1,6632,6633,6424,6423
CQUADX4,6823,1,6633,6634,6425,6424
CQUADX4,6824,1,6634,6635,6426,6425
CQUADX4,6825,1,6635,6636,6427,6426
CQUADX4,6826,1,6636,6637,6428,6427
CQUADX4,6827,1,6637,6638,6429,6428
CQUADX4,6828,1,6638,6639,6430,6429
CQUADX4,6829,1,6639,6640,6431,6430
CQUADX4,6830,1,6640,6641,6432,6431
CQUADX4,6831,1,6641,6642,6433,6432
CQUADX4,6832,1,6642,6643,6434,6433
CQUADX4,6833,1,6643,6644,6435,6434
CQUADX4,6834,1,6644,6645,6436,6435
CQUADX4,6835,1,6645,6646,6437,6436
CQUADX4,6836,1,6646,6647,6438,6437
CQUADX4,6837,1,6647,6648,6439,6438
CQUADX4,6838,1,6648,6649,6440,6439
CQUADX4,6839,1,6649,6650,6441,6440
CQUADX4,6840,1,6650,6651,6442,6441
CQUADX4,6841,1,6651,6652,6443,6442
CQUADX4,6842,1,6652,6653,6444,6443
CQUADX4,6843,1,6653,6654,6445,6444
CQUADX4,6844,1,6654,6655,6446,6445
CQUADX4,6845,1,6655,6656,6447,6446
CQUADX4,6846,1,6656,6657,6448,6447
CQUADX4,6847,1,6657,6658,6449,6448
CQUADX4,6848,1,6658,6659,6450,6449
CQUADX4,6849,1,6659,6660,6451,6450
CQUADX4,6850,1,6660,6661,6452,6451
CQUADX4,6851,1,6661,6662,6453,6452
CQUADX4,6852,1,6662,6663,6454,6453
CQUADX4,6853,1,6663,6664,6455,6454
CQUADX4,6854,1,6664,6665,6456,6455
CQUADX4,6855,1,6665,6666,6457,6456
CQUADX4,6856,1,6666,6667,6458,6457
CQUADX4,6857,1,6667,6668,6459,6458
CQUADX4,6858,1,6668,6669,6460,6459
CQUADX4,6859,1,6669,6670,6461,6460
CQUADX4,6860,1,6670,6671,6462,6461
CQUADX4,6861,1,6671,6672,6463,6462
CQUADX4,6862,1,6672,6673,6464,6463
CQUADX4,6863,1,6673,6674,6465,6464
CQUADX4,6864,1,6674,6675,6466,6465
CQUADX4,6865,1,6675,6676,6467,6466
CQUADX4,6866,1,6676,6677,6468,6467
CQUADX4,6867,1,6677,6678,6469,6468
CQUADX4,6868,1,6678,6679,6470,6469
CQUADX4,6869,1,6679,6680,6471,6470
CQUADX4,6870,1,6680,6681,6472,6471
CQUADX4,6871,1,6681,6682,6473,6472
CQUADX4,6872,1,6682,6683,6474,6473
CQUADX4,6873,1,6683,6684,6475,6474
CQUADX4,6874,1,6684,6685,6476,6475
CQUADX4,6875,1,6685,6686,6477,6476
CQUADX4,6876,1,6686,6687,6478,6477
CQUADX4,6877,1,6687,6688,6479,6478
CQUADX4,6878,1,6688,6689,6480,6479
CQUADX4,6879,1,6689,6690,6481,6480
CQUADX4,6880,1,6690,6691,6482,6481
CQUADX4,6881,1,6691,6692,6483,6482
CQUADX4,6882,1,6692,6693,6484,6483
CQUADX4,6883,1,6693,6694,6485,6484
CQUADX4,6884,1,6694,6695,6486,6485
CQUADX4,6885,1,6695,6696,6487,6486
CQUADX4,6886,1,6696,6697,6488,6487
CQUADX4,6887,1,6697,6698,6489,6488
CQUADX4,6888,1,6698,6699,6490,6489
CQUADX4,6889,1,6699,6700,6491,6490
CQUADX4,6890,1,6700,6701,6492,6491
CQUADX4,6891,1,6701,6702,6493,6492
CQUADX4,6892,1,6702,6703,6494,6493
CQUADX4,6893,1,6703,6704,6495,6494
CQUADX4,6894,1,6704,6705,6496,6495
CQUADX4,6895,1,6705,6706,6497,6496
CQUADX4,6896,1,6706,6707,6498,6497
CQUADX4,6897,1,6707,6708,6499,6498
CQUADX4,6898,1,6708,6709,6500,6499
CQUADX4,6899,1,6709,6710,6501,6500
CQUADX4,6900,1,6710,6711,6502,6501
CQUADX4,6901,1,6711,6712,6503,6502
CQUADX4,6902,1,6712,6713,6504,6503
CQUADX4,6903,1,6713,6714,6505,6504
CQUADX4,6904,1,6714,6715,6506,6505
CQUADX4,6905,1,6715,6716,6507,6506
CQUADX4,6906,1,6716,6717,6508,6507
CQUADX4,6907,1,6717,6718,6509,6508
CQUADX4,6908,1,6718,6719,6510,6509
CQUADX4,6909,1,6719,6720,6511,6510
CQUADX4,6910,1,6720,6721,6512,6511
CQUADX4,6911,1,6721,6722,6513,6512
CQUADX4,6912,1,6722,6723,6514,6513
CQUADX4,6913,1,6723,6724,6515,6514
CQUADX4,6914,1,6724,6725,6516,6515
CQUADX4,6915,1,6725,6726,6517,6516
CQUADX4,6916,1,6726,6727,6518,6517
CQUADX4,6917,1,6727,6728,6519,6518
CQUADX4,6918,1,6728,6729,6520,6519
CQUADX4,6919,1,6729,6730,6521,6520
CQUADX4,6920,1,6730,6731,6522,6521
CQUADX4,6921,1,6731,6732,6523,6522
CQUADX4,6922,1,6732,6733,6524,6523
CQUADX4,6923,1,6733,6734,6525,6524
CQUADX4,6924,1,6734,6735,6526,6525
CQUADX4,6925,1,6735,6736,6527,6526
CQUADX4,6926,1,6736,6737,6528,6527
CQUADX4,6927,1,6737,6738,6529,6528
CQUADX4,6928,1,6738,6739,6530,6529
CQUADX4,6929,1,6739,6740,6531,6530
CQUADX4,6930,1,6740,6741,6532,6531
CQUADX4,6931,1,6741,6742,6533,6532
CQUADX4,6932,1,6742,6743,6534,6533
CQUADX4,6933,1,6743,6744,6535,6534
CQUADX4,6934,1,6744,6745,6536,6535
CQUADX4,6935,1,6745,6746,6537,6536
CQUADX4,6936,1,6746,6747,6538,6537
CQUADX4,6937,1,6747,6748,6539,6538
CQUADX4,6938,1,6748,6749,6540,6539
CQUADX4,6939,1,6749,6750,6541,6540
CQUADX4,6940,1,6750,6751,6542,6541
CQUADX4,6941,1,6751,6752,6543,6542
CQUADX4,6942,1,6752,6753,6544,6543
CQUADX4,6943,1,6753,6754,6545,6544
CQUADX4,6944,1,6754,6755,6546,6545
CQUADX4,6945,1,6755,6756,6547,6546
CQUADX4,6946,1,6756,6757,6548,6547
CQUADX4,6947,1,6757,6758,6549,6548
CQUADX4,6948,1,6758,6759,6550,6549
CQUADX4,6949,1,6759,6760,6551,6550
CQUADX4,6950,1,6760,6761,6552,6551
CQUADX4,6951,1,6761,6762,6553,6552
CQUADX4,6952,1,6762,6763,6554,6553
CQUADX4,6953,1,6763,6764,6555,6554
CQUADX4,6954,1,6764,6765,6556,6555
CQUADX4,6955,1,6765,6766,6557,6556
CQUADX4,6956,1,6766,6767,6558,6557
CQUADX4,6957,1,6767,6768,6559,6558
CQUADX4,6958,1,6768,6769,6560,6559
CQUADX4,6959,1,6769,6770,6561,6560
CQUADX4,6960,1,6770,6771,6562,6561
CQUADX4,6961,1,6771,6772,6563,6562
CQUADX4,6962,1,6772,6773,6564,6563
CQUADX4,6963,1,6773,6774,6565,6564
CQUADX4,6964,1,6774,6775,6566,6565
CQUADX4,6965,1,6775,6776,6567,6566
CQUADX4,6966,1,6776,6777,6568,6567
CQUADX4,6967,1,6777,6778,6569,6568
CQUADX4,6968,1,6778,6779,6570,6569
CQUADX4,6969,1,6779,6780,6571,6570
CQUADX4,6970,1,6780,6781,6572,6571
CQUADX4,6971,1,6781,6782,6573,6572
CQUADX4,6972,1,6782,6783,6574,6573
CQUADX4,6973,1,6783,6784,6575,6574
CQUADX4,6974,1,6784,6785,6576,6575
CQUADX4,6975,1,6785,6786,6577,6576
CQUADX4,6976,1,6786,6787,6578,6577
CQUADX4,6977,1,6787,6788,6579,6578
CQUADX4,6978,1,6788,6789,6580,6579
CQUADX4,6979,1,6789,6790,6581,6580
CQUADX4,6980,1,6790,6791,6582,6581
CQUADX4,6981,1,6791,6792,6583,6582
CQUADX4,6982,1,6792,6793,6584,6583
CQUADX4,6983,1,6793,6794,6585,6584
CQUADX4,6984,1,6794,6795,6586,6585
CQUADX4,6985,1,6795,6796,6587,6586
CQUADX4,6986,1,6796,6797,6588,6587
CQUADX4,6987,1,6797,6798,6589,6588
CQUADX4,6988,1,6798,6799,6590,6589
CQUADX4,6989,1,6799,6800,6591,6590
CQUADX4,6990,1,6800,6801,6592,6591
CQUADX4,6991,1,6801,6802,6593,6592
CQUADX4,6992,1,6802,6803,6594,6593
CQUADX4,6993,1,6803,6804,6595,6594
CQUADX4,6994,1,6804,6805,6596,6595
CQUADX4,6995,1,6805,6806,6597,6596
CQUADX4,6996,1,6806,6807,6598,6597
CQUADX4,6997,1,6807,6808,6599,6598
CQUADX4,6998,1,6808,6809,6600,6599
CQUADX4,6999,1,6809,6810,6601,6600
CQUADX4,7000,1,6810,6811,6602,6601
CQUADX4,7001,1,6811,6812,6603,6602
CQUADX4,7002,1,6812,6813,6604,6603
CQUADX4,7003,1,6813,6814,6605,6604
CQUADX4,7004,1,6814,6815,6606,6605
CQUADX4,7005,1,6815,6816,6607,6606
CQUADX4,7006,1,6816,6817,6608,6607
CQUADX4,7007,1,6817,6818,6609,6608
CQUADX4,7008,1,6818,6819,6610,6609
CQUADX4,7009,1,6820,6821,6612,6611
CQUADX4,7010,1,6821,6822,6613,6612
CQUADX4,7011,1,6822,6823,6614,6613
CQUADX4,7012,1,6823,6824,6615,6614
CQUADX4,7013,1,6824,6825,6616,6615
CQUADX4,7014,1,6825,6826,6617,6616
CQUADX4,7015,1,6826,6827,6618,6617
CQUADX4,7016,1,6827,6828,6619,6618
CQUADX4,7017,1,6828,6829,6620,6619
CQUADX4,7018,1,6829,6830,6621,6620
CQUADX4,7019,1,6830,6831,6622,6621
CQUADX4,7020,1,6831,6832,6623,6622
CQUADX4,7021,1,6832,6833,6624,6623
CQUADX4,7022,1,6833,6834,6625,6624
CQUADX4,7023,1,6834,6835,6626,6625
CQUADX4,7024,1,6835,6836,6627,6626
CQUADX4,7025,1,6836,6837,6628,6627
CQUADX4,7026,1,6837,6838,6629,6628
CQUADX4,7027,1,6838,6839,6630,6629
CQUADX4,7028,1,6839,6840,6631,6630
CQUADX4,7029,1,6840,6841,6632,6631
CQUADX4,7030,1,6841,6842,6633,6632
CQUADX4,7031,1,6842,6843,6634,6633
CQUADX4,7032,1,6843,6844,6635,6634
CQUADX4,7033,1,6844,6845,6636,6635
CQUADX4,7034,1,6845,6846,6637,6636
CQUADX4,7035,1,6846,6847,6638,6637
CQUADX4,7036,1,6847,6848,6639,6638
CQUADX4,7037,1,6848,6849,6640,6639
CQUADX4,7038,1,6849,6850,6641,6640
CQUADX4,7039,1,6850,6851,6642,6641
CQUADX4,7040,1,6851,6852,6643,6642
CQUADX4,7041,1,6852,6853,6644,6643
CQUADX4,7042,1,6853,6854,6645,6644
CQUADX4,7043,1,6854,6855,6646,6645
CQUADX4,7044,1,6855,6856,6647,6646
CQUADX4,7045,1,6856,6857,6648,6647
CQUADX4,7046,1,6857,6858,6649,6648
CQUADX4,7047,1,6858,6859,6650,6649
CQUADX4,7048,1,6859,6860,6651,6650
CQUADX4,7049,1,6860,6861,6652,6651
CQUADX4,7050,1,6861,6862,6653,6652
CQUADX4,7051,1,6862,6863,6654,6653
CQUADX4,7052,1,6863,6864,6655,6654
CQUADX4,7053,1,6864,6865,6656,6655
CQUADX4,7054,1,6865,6866,6657,6656
CQUADX4,7055,1,6866,6867,6658,6657
CQUADX4,7056,1,6867,6868,6659,6658
CQUADX4,7057,1,6868,6869,6660,6659
CQUADX4,7058,1,6869,6870,6661,6660
CQUADX4,7059,1,6870,6871,6662,6661
CQUADX4,7060,1,6871,6872,6663,6662
CQUADX4,7061,1,6872,6873,6664,6663
CQUADX4,7062,1,6873,6874,6665,6664
CQUADX4,7063,1,6874,6875,6666,6665
CQUADX4,7064,1,6875,6876,6667,6666
CQUADX4,7065,1,6876,6877,6668,6667
CQUADX4,7066,1,6877,6878,6669,6668
CQUADX4,7067,1,6878,6879,6670,6669
CQUADX4,7068,1,6879,6880,6671,6670
CQUADX4,7069,1,6880,6881,6672,6671
CQUADX4,7070,1,6881,6882,6673,6672
CQUADX4,7071,1,6882,6883,6674,6673
CQUADX4,7072,1,6883,6884,6675,6674
CQUADX4,7073,1,6884,6885,6676,6675
CQUADX4,7074,1,6885,6886,6677,6676
CQUADX4,7075,1,6886,6887,6678,6677
CQUADX4,7076,1,6887,6888,6679,6678
CQUADX4,7077,1,6888,6889,6680,6679
CQUADX4,7078,1,6889,6890,6681,6680
CQUADX4,7079,1,6890,6891,6682,6681
CQUADX4,7080,1,6891,6892,6683,6682
CQUADX4,7081,1,6892,6893,6684,6683
CQUADX4,7082,1,6893,6894,6685,6684
CQUADX4,7083,1,6894,6895,6686,6685
CQUADX4,7084,1,6895,6896,6687,6686
CQUADX4,7085,1,6896,6897,6688,6687
CQUADX4,7086,1,6897,6898,6689,6688
CQUADX4,7087,1,6898,6899,6690,6689
CQUADX4,7088,1,6899,6900,6691,6690
CQUADX4,7089,1,6900,6901,6692,6691
CQUADX4,7090,1,6901,6902,6693,6692
CQUADX4,7091,1,6902,6903,6694,6693
CQUADX4,7092,1,6903,6904,6695,6694
CQUADX4,7093,1,6904,6905,6696,6695
CQUADX4,7094,1,6905,6906,6697,6696
CQUADX4,7095,1,6906,6907,6698,6697
CQUADX4,7096,1,6907,6908,6699,6698
CQUADX4,7097,1,6908,6909,6700,6699
CQUADX4,7098,1,6909,6910,6701,6700
CQUADX4,7099,1,6910,6911,6702,6701
CQUADX4,7100,1,6911,6912,6703,6702
CQUADX4,7101,1,6912,6913,6704,6703
CQUADX4,7102,1,6913,6914,6705,6704
CQUADX4,7103,1,6914,6915,6706,6705
CQUADX4,7104,1,6915,6916,6707,6706
CQUADX4,7105,1,6916,6917,6708,6707
CQUADX4,7106,1,6917,6918,6709,6708
CQUADX4,7107,1,6918,6919,6710,6709
CQUADX4,7108,1,6919,6920,6711,6710
CQUADX4,7109,1,6920,6921,6712,6711
CQUADX4,7110,1,6921,6922,6713,6712
CQUADX4,7111,1,6922,6923,6714,6713
CQUADX4,7112,1,6923,6924,6715,6714
CQUADX4,7113,1,6924,6925,6716,6715
CQUADX4,7114,1,6925,6926,6717,6716
CQUADX4,7115,1,6926,6927,6718,6717
CQUADX4,7116,1,6927,6928,6719,6718
CQUADX4,7117,1,6928,6929,6720,6719
CQUADX4,7118,1,6929,6930,6721,6720
CQUADX4,7119,1,6930,6931,6722,6721
CQUADX4,7120,1,6931,6932,6723,6722
CQUADX4,7121,1,6932,6933,6724,6723
CQUADX4,7122,1,6933,6934,6725,6724
CQUADX4,7123,1,6934,6935,6726,6725
CQUADX4,7124,1,6935,6936,6727,6726
CQUADX4,7125,1,6936,6937,6728,6727
CQUADX4,7126,1,6937,6938,6729,6728
CQUADX4,7127,1,6938,6939,6730,6729
CQUADX4,7128,1,6939,6940,6731,6730
CQUADX4,7129,1,6940,6941,6732,6731
CQUADX4,7130,1,6941,6942,6733,6732
CQUADX4,7131,1,6942,6943,6734,6733
CQUADX4,7132,1,6943,6944,6735,6734
CQUADX4,7133,1,6944,6945,6736,6735
CQUADX4,7134,1,6945,6946,6737,6736
CQUADX4,7135,1,6946,6947,6738,6737
CQUADX4,7136,1,6947,6948,6739,6738
CQUADX4,7137,1,6948,6949,6740,6739
CQUADX4,7138,1,6949,6950,6741,6740
CQUADX4,7139,1,6950,6951,6742,6741
CQUADX4,7140,1,6951,6952,6743,6742
CQUADX4,7141,1,6952,6953,6744,6743
CQUADX4,7142,1,6953,6954,6745,6744
CQUADX4,7143,1,6954,6955,6746,6745
CQUADX4,7144,1,6955,6956,6747,6746
CQUADX4,7145,1,6956,6957,6748,6747
CQUADX4,7146,1,6957,6958,6749,6748
CQUADX4,7147,1,6958,6959,6750,6749
CQUADX4,7148,1,6959,6960,6751,6750
CQUADX4,7149,1,6960,6961,6752,6751
CQUADX4,7150,1,6961,6962,6753,6752
CQUADX4,7151,1,6962,6963,6754,6753
CQUADX4,7152,1,6963,6964,6755,6754
CQUADX4,7153,1,6964,6965,6756,6755
CQUADX4,7154,1,6965,6966,6757,6756
CQUADX4,7155,1,6966,6967,6758,6757
CQUADX4,7156,1,6967,6968,6759,6758
CQUADX4,7157,1,6968,6969,6760,6759
CQUADX4,7158,1,6969,6970,6761,6760
CQUADX4,7159,1,6970,6971,6762,6761
CQUADX4,7160,1,6971,6972,6763,6762
CQUADX4,7161,1,6972,6973,6764,6763
CQUADX4,7162,1,6973,6974,6765,6764
CQUADX4,7163,1,6974,6975,6766,6765
CQUADX4,7164,1,6975,6976,6767,6766
CQUADX4,7165,1,6976,6977,6768,6767
CQUADX4,7166,1,6977,6978,6769,6768
CQUADX4,7167,1,6978,6979,6770,6769
CQUADX4,7168,1,6979,6980,6771,6770
CQUADX4,7169,1,6980,6981,6772,6771
CQUADX4,7170,1,6981,6982,6773,6772
CQUADX4,7171,1,6982,6983,6774,6773
CQUADX4,7172,1,6983,6984,6775,6774
CQUADX4,7173,1,6984,6985,6776,6775
CQUADX4,7174,1,6985,6986,6777,6776
CQUADX4,7175,1,6986,6987,6778,6777
CQUADX4,7176,1,6987,6988,6779,6778
CQUADX4,7177,1,6988,6989,6780,6779
CQUADX4,7178,1,6989,6990,6781,6780
CQUADX4,7179,1,6990,6991,6782,6781
CQUADX4,7180,1,6991,6992,6783,6782
CQUADX4,7181,1,6992,6993,6784,6783
CQUADX4,7182,1,6993,6994,6785,6784
CQUADX4,7183,1,6994,6995,6786,6785
CQUADX4,7184,1,6995,6996,6787,6786
CQUADX4,7185,1,6996,6997,6788,6787
CQUADX4,7186,1,6997,6998,6789,6788
CQUADX4,7187,1,6998,6999,6790,6789
CQUADX4,7188,1,6999,7000,6791,6790
CQUADX4,7189,1,7000,7001,6792,6791
CQUADX4,7190,1,7001,7002,6793,6792
CQUADX4,7191,1,7002,7003,6794,6793
CQUADX4,7192,1,7003,7004,6795,6794
CQUADX4,7193,1,7004,7005,6796,6795
CQUADX4,7194,1,7005,7006,6797,6796
CQUADX4,7195,1,7006,7007,6798,6797
CQUADX4,7196,1,7007,7008,6799,6798
CQUADX4,7197,1,7008,7009,6800,6799
CQUADX4,7198,1,7009,7010,6801,6800
CQUADX4,7199,1,7010,7011,6802,6801
CQUADX4,7200,1,7011,7012,6803,6802
CQUADX4,7201,1,7012,7013,6804,6803
CQUADX4,7202,1,7013,7014,6805,6804
CQUADX4,7203,1,7014,7015,6806,6805
CQUADX4,7204,1,7015,7016,6807,6806
CQUADX4,7205,1,7016,7017,6808,6807
CQUADX4,7206,1,7017,7018,6809,6808
CQUADX4,7207,1,7018,7019,6810,6809
CQUADX4,7208,1,7019,7020,6811,6810
CQUADX4,7209,1,7020,7021,6812,6811
CQUADX4,7210,1,7021,7022,6813,6812
CQUADX4,7211,1,7022,7023,6814,6813
CQUADX4,7212,1,7023,7024,6815,6814
CQUADX4,7213,1,7024,7025,6816,6815
CQUADX4,7214,1,7025,7026,6817,6816
CQUADX4,7215,1,7026,7027,6818,6817
CQUADX4,7216,1,7027,7028,6819,6818
CQUADX4,7217,1,7029,7030,6821,6820
CQUADX4,7218,1,7030,7031,6822,6821
CQUADX4,7219,1,7031,7032,6823,6822
CQUADX4,7220,1,7032,7033,6824,6823
CQUADX4,7221,1,7033,7034,6825,6824
CQUADX4,7222,1,7034,7035,6826,6825
CQUADX4,7223,1,7035,7036,6827,6826
CQUADX4,7224,1,7036,7037,6828,6827
CQUADX4,7225,1,7037,7038,6829,6828
CQUADX4,7226,1,7038,7039,6830,6829
CQUADX4,7227,1,7039,7040,6831,6830
CQUADX4,7228,1,7040,7041,6832,6831
CQUADX4,7229,1,7041,7042,6833,6832
CQUADX4,7230,1,7042,7043,6834,6833
CQUADX4,7231,1,7043,7044,6835,6834
CQUADX4,7232,1,7044,7045,6836,6835
CQUADX4,7233,1,7045,7046,6837,6836
CQUADX4,7234,1,7046,7047,6838,6837
CQUADX4,7235,1,7047,7048,6839,6838
CQUADX4,7236,1,7048,7049,6840,6839
CQUADX4,7237,1,7049,7050,6841,6840
CQUADX4,7238,1,7050,7051,6842,6841
CQUADX4,7239,1,7051,7052,6843,6842
CQUADX4,7240,1,7052,7053,6844,6843
CQUADX4,7241,1,7053,7054,6845,6844
CQUADX4,7242,1,7054,7055,6846,6845
CQUADX4,7243,1,7055,7056,6847,6846
CQUADX4,7244,1,7056,7057,6848,6847
CQUADX4,7245,1,7057,7058,6849,6848
CQUADX4,7246,1,7058,7059,6850,6849
CQUADX4,7247,1,7059,7060,6851,6850
CQUADX4,7248,1,7060,7061,6852,6851
CQUADX4,7249,1,7061,7062,6853,6852
CQUADX4,7250,1,7062,7063,6854,6853
CQUADX4,7251,1,7063,7064,6855,6854
CQUADX4,7252,1,7064,7065,6856,6855
CQUADX4,7253,1,7065,7066,6857,6856
CQUADX4,7254,1,7066,7067,6858,6857
CQUADX4,7255,1,7067,7068,6859,6858
CQUADX4,7256,1,7068,7069,6860,6859
CQUADX4,7257,1,7069,7070,6861,6860
CQUADX4,7258,1,7070,7071,6862,6861
CQUADX4,7259,1,7071,7072,6863,6862
CQUADX4,7260,1,7072,7073,6864,6863
CQUADX4,7261,1,7073,7074,6865,6864
CQUADX4,7262,1,7074,7075,6866,6865
CQUADX4,7263,1,7075,7076,6867,6866
CQUADX4,7264,1,7076,7077,6868,6867
CQUADX4,7265,1,7077,7078,6869,6868
CQUADX4,7266,1,7078,7079,6870,6869
CQUADX4,7267,1,7079,7080,6871,6870
CQUADX4,7268,1,7080,7081,6872,6871
CQUADX4,7269,1,7081,7082,6873,6872
CQUADX4,7270,1,7082,7083,6874,6873
CQUADX4,7271,1,7083,7084,6875,6874
CQUADX4,7272,1,7084,7085,6876,6875
CQUADX4,7273,1,7085,7086,6877,6876
CQUADX4,7274,1,7086,7087,6878,6877
CQUADX4,7275,1,7087,7088,6879,6878
CQUADX4,7276,1,7088,7089,6880,6879
CQUADX4,7277,1,7089,7090,6881,6880
CQUADX4,7278,1,7090,7091,6882,6881
CQUADX4,7279,1,7091,7092,6883,6882
CQUADX4,7280,1,7092,7093,6884,6883
CQUADX4,7281,1,7093,7094,6885,6884
CQUADX4,7282,1,7094,7095,6886,6885
CQUADX4,7283,1,7095,7096,6887,6886
CQUADX4,7284,1,7096,7097,6888,6887
CQUADX4,7285,1,7097,7098,6889,6888
CQUADX4,7286,1,7098,7099,6890,6889
CQUADX4,7287,1,7099,7100,6891,6890
CQUADX4,7288,1,7100,7101,6892,6891
CQUADX4,7289,1,7101,7102,6893,6892
CQUADX4,7290,1,7102,7103,6894,6893
CQUADX4,7291,1,7103,7104,6895,6894
CQUADX4,7292,1,7104,7105,6896,6895
CQUADX4,7293,1,7105,7106,6897,6896
CQUADX4,7294,1,7106,7107,6898,6897
CQUADX4,7295,1,7107,7108,6899,6898
CQUADX4,7296,1,7108,7109,6900,6899
CQUADX4,7297,1,7109,7110,6901,6900
CQUADX4,7298,1,7110,7111,6902,6901
CQUADX4,7299,1,7111,7112,6903,6902
CQUADX4,7300,1,7112,7113,6904,6903
CQUADX4,7301,1,7113,7114,6905,6904
CQUADX4,7302,1,7114,7115,6906,6905
CQUADX4,7303,1,7115,7116,6907,6906
CQUADX4,7304,1,7116,7117,6908,6907
CQUADX4,7305,1,7117,7118,6909,6908
CQUADX4,7306,1,7118,7119,6910,6909
CQUADX4,7307,1,7119,7120,6911,6910
CQUADX4,7308,1,7120,7121,6912,6911
CQUADX4,7309,1,7121,7122,6913,6912
CQUADX4,7310,1,7122,7123,6914,6913
CQUADX4,7311,1,7123,7124,6915,6914
CQUADX4,7312,1,7124,7125,6916,6915
CQUADX4,7313,1,7125,7126,6917,6916
CQUADX4,7314,1,7126,7127,6918,6917
CQUADX4,7315,1,7127,7128,6919,6918
CQUADX4,7316,1,7128,7129,6920,6919
CQUADX4,7317,1,7129,7130,6921,6920
CQUADX4,7318,1,7130,7131,6922,6921
CQUADX4,7319,1,7131,7132,6923,6922
CQUADX4,7320,1,7132,7133,6924,6923
CQUADX4,7321,1,7133,7134,6925,6924
CQUADX4,7322,1,7134,7135,6926,6925
CQUADX4,7323,1,7135,7136,6927,6926
CQUADX4,7324,1,7136,7137,6928,6927
CQUADX4,7325,1,7137,7138,6929,6928
CQUADX4,7326,1,7138,7139,6930,6929
CQUADX4,7327,1,7139,7140,6931,6930
CQUADX4,7328,1,7140,7141,6932,6931
CQUADX4,7329,1,7141,7142,6933,6932
CQUADX4,7330,1,7142,7143,6934,6933
CQUADX4,7331,1,7143,7144,6935,6934
CQUADX4,7332,1,7144,7145,6936,6935
CQUADX4,7333,1,7145,7146,6937,6936
CQUADX4,7334,1,7146,7147,6938,6937
CQUADX4,7335,1,7147,7148,6939,6938
CQUADX4,7336,1,7148,7149,6940,6939
CQUADX4,7337,1,7149,7150,6941,6940
CQUADX4,7338,1,7150,7151,6942,6941
CQUADX4,7339,1,7151,7152,6943,6942
CQUADX4,7340,1,7152,7153,6944,6943
CQUADX4,7341,1,7153,7154,6945,6944
CQUADX4,7342,1,7154,7155,6946,6945
CQUADX4,7343,1,7155,7156,6947,6946
CQUADX4,7344,1,7156,7157,6948,6947
CQUADX4,7345,1,7157,7158,6949,6948
CQUADX4,7346,1,7158,7159,6950,6949
CQUADX4,7347,1,7159,7160,6951,6950
CQUADX4,7348,1,7160,7161,6952,6951
CQUADX4,7349,1,7161,7162,6953,6952
CQUADX4,7350,1,7162,7163,6954,6953
CQUADX4,7351,1,7163,7164,6955,6954
CQUADX4,7352,1,7164,7165,6956,6955
CQUADX4,7353,1,7165,7166,6957,6956
CQUADX4,7354,1,7166,7167,6958,6957
CQUADX4,7355,1,7167,7168,6959,6958
CQUADX4,7356,1,7168,7169,6960,6959
CQUADX4,7357,1,7169,7170,6961,6960
CQUADX4,7358,1,7170,7171,6962,6961
CQUADX4,7359,1,7171,7172,6963,6962
CQUADX4,7360,1,7172,7173,6964,6963
CQUADX4,7361,1,7173,7174,6965,6964
CQUADX4,7362,1,7174,7175,6966,6965
CQUADX4,7363,1,7175,7176,6967,6966
CQUADX4,7364,1,7176,7177,6968,6967
CQUADX4,7365,1,7177,7178,6969,6968
CQUADX4,7366,1,7178,7179,6970,6969
CQUADX4,7367,1,7179,7180,6971,6970
CQUADX4,7368,1,7180,7181,6972,6971
CQUADX4,7369,1,7181,7182,6973,6972
CQUADX4,7370,1,7182,7183,6974,6973
CQUADX4,7371,1,7183,7184,6975,6974
CQUADX4,7372,1,7184,7185,6976,6975
CQUADX4,7373,1,7185,7186,6977,6976
CQUADX4,7374,1,7186,7187,6978,6977
CQUADX4,7375,1,7187,7188,6979,6978
CQUADX4,7376,1,7188,7189,6980,6979
CQUADX4,7377,1,7189,7190,6981,6980
CQUADX4,7378,1,7190,7191,6982,6981
CQUADX4,7379,1,7191,7192,6983,6982
CQUADX4,7380,1,7192,7193,6984,6983
CQUADX4,7381,1,7193,7194,6985,6984
CQUADX4,7382,1,7194,7195,6986,6985
CQUADX4,7383,1,7195,7196,6987,6986
CQUADX4,7384,1,7196,7197,6988,6987
CQUADX4,7385,1,7197,7198,6989,6988
CQUADX4,7386,1,7198,7199,6990,6989
CQUADX4,7387,1,7199,7200,6991,6990
CQUADX4,7388,1,7200,7201,6992,6991
CQUADX4,7389,1,7201,7202,6993,6992
CQUADX4,7390,1,7202,7203,6994,6993
CQUADX4,7391,1,7203,7204,6995,6994
CQUADX4,7392,1,7204,7205,6996,6995
CQUADX4,7393,1,7205,7206,6997,6996
CQUADX4,7394,1,7206,7207,6998,6997
CQUADX4,7395,1,7207,7208,6999,6998
CQUADX4,7396,1,7208,7209,7000,6999
CQUADX4,7397,1,7209,7210,7001,7000
CQUADX4,7398,1,7210,7211,7002,7001
CQUADX4,7399,1,7211,7212,7003,7002
CQUADX4,7400,1,7212,7213,7004,7003
CQUADX4,7401,1,7213,7214,7005,7004
CQUADX4,7402,1,7214,7215,7006,7005
CQUADX4,7403,1,7215,7216,7007,7006
CQUADX4,7404,1,7216,7217,7008,7007
CQUADX4,7405,1,7217,7218,7009,7008
CQUADX4,7406,1,7218,7219,7010,7009
CQUADX4,7407,1,7219,7220,7011,7010
CQUADX4,7408,1,7220,7221,7012,7011
CQUADX4,7409,1,7221,7222,7013,7012
CQUADX4,7410,1,7222,7223,7014,7013
CQUADX4,7411,1,7223,7224,7015,7014
CQUADX4,7412,1,7224,7225,7016,7015
CQUADX4,7413,1,7225,7226,7017,7016
CQUADX4,7414,1,7226,7227,7018,7017
CQUADX4,7415,1,7227,7228,7019,7018
CQUADX4,7416,1,7228,7229,7020,7019
CQUADX4,7417,1,7229,7230,7021,7020
CQUADX4,7418,1,7230,7231,7022,7021
CQUADX4,7419,1,7231,7232,7023,7022
CQUADX4,7420,1,7232,7233,7024,7023
CQUADX4,7421,1,7233,7234,7025,7024
CQUADX4,7422,1,7234,7235,7026,7025
CQUADX4,7423,1,7235,7236,7027,7026
CQUADX4,7424,1,7236,7237,7028,7027
CQUADX4,7425,1,7238,7239,7030,7029
CQUADX4,7426,1,7239,7240,7031,7030
CQUADX4,7427,1,7240,7241,7032,7031
CQUADX4,7428,1,7241,7242,7033,7032
CQUADX4,7429,1,7242,7243,7034,7033
CQUADX4,7430,1,7243,7244,7035,7034
CQUADX4,7431,1,7244,7245,7036,7035
CQUADX4,7432,1,7245,7246,7037,7036
CQUADX4,7433,1,7246,7247,7038,7037
CQUADX4,7434,1,7247,7248,7039,7038
CQUADX4,7435,1,7248,7249,7040,7039
CQUADX4,7436,1,7249,7250,7041,7040
CQUADX4,7437,1,7250,7251,7042,7041
CQUADX4,7438,1,7251,7252,7043,7042
CQUADX4,7439,1,7252,7253,7044,7043
CQUADX4,7440,1,7253,7254,7045,7044
CQUADX4,7441,1,7254,7255,7046,7045
CQUADX4,7442,1,7255,7256,7047,7046
CQUADX4,7443,1,7256,7257,7048,7047
CQUADX4,7444,1,7257,7258,7049,7048
CQUADX4,7445,1,7258,7259,7050,7049
CQUADX4,7446,1,7259,7260,7051,7050
CQUADX4,7447,1,7260,7261,7052,7051
CQUADX4,7448,1,7261,7262,7053,7052
CQUADX4,7449,1,7262,7263,7054,7053
CQUADX4,7450,1,7263,7264,7055,7054
CQUADX4,7451,1,7264,7265,7056,7055
CQUADX4,7452,1,7265,7266,7057,7056
CQUADX4,7453,1,7266,7267,7058,7057
CQUADX4,7454,1,7267,7268,7059,7058
CQUADX4,7455,1,7268,7269,7060,7059
CQUADX4,7456,1,7269,7270,7061,7060
CQUADX4,7457,1,7270,7271,7062,7061
CQUADX4,7458,1,7271,7272,7063,7062
CQUADX4,7459,1,7272,7273,7064,7063
CQUADX4,7460,1,7273,7274,7065,7064
CQUADX4,7461,1,7274,7275,7066,7065
CQUADX4,7462,1,7275,7276,7067,7066
CQUADX4,7463,1,7276,7277,7068,7067
CQUADX4,7464,1,7277,7278,7069,7068
CQUADX4,7465,1,7278,7279,7070,7069
CQUADX4,7466,1,7279,7280,7071,7070
CQUADX4,7467,1,7280,7281,7072,7071
CQUADX4,7468,1,7281,7282,7073,7072
CQUADX4,7469,1,7282,7283,7074,7073
CQUADX4,7470,1,7283,7284,7075,7074
CQUADX4,7471,1,7284,7285,7076,7075
CQUADX4,7472,1,7285,7286,7077,7076
CQUADX4,7473,1,7286,7287,7078,7077
CQUADX4,7474,1,7287,7288,7079,7078
CQUADX4,7475,1,7288,7289,7080,7079
CQUADX4,7476,1,7289,7290,7081,7080
CQUADX4,7477,1,7290,7291,7082,7081
CQUADX4,7478,1,7291,7292,7083,7082
CQUADX4,7479,1,7292,7293,7084,7083
CQUADX4,7480,1,7293,7294,7085,7084
CQUADX4,7481,1,7294,7295,7086,7085
CQUADX4,7482,1,7295,7296,7087,7086
CQUADX4,7483,1,7296,7297,7088,7087
CQUADX4,7484,1,7297,7298,7089,7088
CQUADX4,7485,1,7298,7299,7090,7089
CQUADX4,7486,1,7299,7300,7091,7090
CQUADX4,7487,1,7300,7301,7092,7091
CQUADX4,7488,1,7301,7302,7093,7092
CQUADX4,7489,1,7302,7303,7094,7093
CQUADX4,7490,1,7303,7304,7095,7094
CQUADX4,7491,1,7304,7305,7096,7095
CQUADX4,7492,1,7305,7306,7097,7096
CQUADX4,7493,1,7306,7307,7098,7097
CQUADX4,7494,1,7307,7308,7099,7098
CQUADX4,7495,1,7308,7309,7100,7099
CQUADX4,7496,1,7309,7310,7101,7100
CQUADX4,7497,1,7310,7311,7102,7101
CQUADX4,7498,1,7311,7312,7103,7102
CQUADX4,7499,1,7312,7313,7104,7103
CQUADX4,7500,1,7313,7314,7105,7104
CQUADX4,7501,1,7314,7315,7106,7105
CQUADX4,7502,1,7315,7316,7107,7106
CQUADX4,7503,1,7316,7317,7108,7107
CQUADX4,7504,1,7317,7318,7109,7108
CQUADX4,7505,1,7318,7319,7110,7109
CQUADX4,7506,1,7319,7320,7111,7110
CQUADX4,7507,1,7320,7321,7112,7111
CQUADX4,7508,1,7321,7322,7113,7112
CQUADX4,7509,1,7322,7323,7114,7113
CQUADX4,7510,1,7323,7324,7115,7114
CQUADX4,7511,1,7324,7325,7116,7115
CQUADX4,7512,1,7325,7326,7117,7116
CQUADX4,7513,1,7326,7327,7118,7117
CQUADX4,7514,1,7327,7328,7119,7118
CQUADX4,7515,1,7328,7329,7120,7119
CQUADX4,7516,1,7329,7330,7121,7120
CQUADX4,7517,1,7330,7331,7122,7121
CQUADX4,7518,1,7331,7332,7123,7122
CQUADX4,7519,1,7332,7333,7124,7123
CQUADX4,7520,1,7333,7334,7125,7124
CQUADX4,7521,1,7334,7335,7126,7125
CQUADX4,7522,1,7335,7336,7127,7126
CQUADX4,7523,1,7336,7337,7128,7127
CQUADX4,7524,1,7337,7338,7129,7128
CQUADX4,7525,1,7338,7339,7130,7129
CQUADX4,7526,1,7339,7340,7131,7130
CQUADX4,7527,1,7340,7341,7132,7131
CQUADX4,7528,1,7341,7342,7133,7132
CQUADX4,7529,1,7342,7343,7134,7133
CQUADX4,7530,1,7343,7344,7135,7134
CQUADX4,7531,1,7344,7345,7136,7135
CQUADX4,7532,1,7345,7346,7137,7136
CQUADX4,7533,1,7346,7347,7138,7137
CQUADX4,7534,1,7347,7348,7139,7138
CQUADX4,7535,1,7348,7349,7140,7139
CQUADX4,7536,1,7349,7350,7141,7140
CQUADX4,7537,1,7350,7351,7142,7141
CQUADX4,7538,1,7351,7352,7143,7142
CQUADX4,7539,1,7352,7353,7144,7143
CQUADX4,7540,1,7353,7354,7145,7144
CQUADX4,7541,1,7354,7355,7146,7145
CQUADX4,7542,1,7355,7356,7147,7146
CQUADX4,7543,1,7356,7357,7148,7147
CQUADX4,7544,1,7357,7358,7149,7148
CQUADX4,7545,1,7358,7359,7150,7149
CQUADX4,7546,1,7359,7360,7151,7150
CQUADX4,7547,1,7360,7361,7152,7151
CQUADX4,7548,1,7361,7362,7153,7152
CQUADX4,7549,1,7362,7363,7154,7153
CQUADX4,7550,1,7363,7364,7155,7154
CQUADX4,7551,1,7364,7365,7156,7155
CQUADX4,7552,1,7365,7366,7157,7156
CQUADX4,7553,1,7366,7367,7158,7157
CQUADX4,7554,1,7367,7368,7159,7158
CQUADX4,7555,1,7368,7369,7160,7159
CQUADX4,7556,1,7369,7370,7161,7160
CQUADX4,7557,1,7370,7371,7162,7161
CQUADX4,7558,1,7371,7372,7163,7162
CQUADX4,7559,1,7372,7373,7164,7163
CQUADX4,7560,1,7373,7374,7165,7164
CQUADX4,7561,1,7374,7375,7166,7165
CQUADX4,7562,1,7375,7376,7167,7166
CQUADX4,7563,1,7376,7377,7168,7167
CQUADX4,7564,1,7377,7378,7169,7168
CQUADX4,7565,1,7378,7379,7170,7169
CQUADX4,7566,1,7379,7380,7171,7170
CQUADX4,7567,1,7380,7381,7172,7171
CQUADX4,7568,1,7381,7382,7173,7172
CQUADX4,7569,1,7382,7383,7174,7173
CQUADX4,7570,1,7383,7384,7175,7174
CQUADX4,7571,1,7384,7385,7176,7175
CQUADX4,7572,1,7385,7386,7177,7176
CQUADX4,7573,1,7386,7387,7178,7177
CQUADX4,7574,1,7387,7388,7179,7178
CQUADX4,7575,1,7388,7389,7180,7179
CQUADX4,7576,1,7389,7390,7181,7180
CQUADX4,7577,1,7390,7391,7182,7181
CQUADX4,7578,1,7391,7392,7183,7182
CQUADX4,7579,1,7392,7393,7184,7183
CQUADX4,7580,1,7393,7394,7185,7184
CQUADX4,7581,1,7394,7395,7186,7185
CQUADX4,7582,1,7395,7396,7187,7186
CQUADX4,7583,1,7396,7397,7188,7187
CQUADX4,7584,1,7397,7398,7189,7188
CQUADX4,7585,1,7398,7399,7190,7189
CQUADX4,7586,1,7399,7400,7191,7190
CQUADX4,7587,1,7400,7401,7192,7191
CQUADX4,7588,1,7401,7402,7193,7192
CQUADX4,7589,1,7402,7403,7194,7193
CQUADX4,7590,1,7403,7404,7195,7194
CQUADX4,7591,1,7404,7405,7196,7195
CQUADX4,7592,1,7405,7406,7197,7196
CQUADX4,7593,1,7406,7407,7198,7197
CQUADX4,7594,1,7407,7408,7199,7198
CQUADX4,7595,1,7408,7409,7200,7199
CQUADX4,7596,1,7409,7410,7201,7200
CQUADX4,7597,1,7410,7411,7202,7201
CQUADX4,7598,1,7411,7412,7203,7202
CQUADX4,7599,1,7412,7413,7204,7203
CQUADX4,7600,1,7413,7414,7205,7204
CQUADX4,7601,1,7414,7415,7206,7205
CQUADX4,7602,1,7415,7416,7207,7206
CQUADX4,7603,1,7416,7417,7208,7207
CQUADX4,7604,1,7417,7418,7209,7208
CQUADX4,7605,1,7418,7419,7210,7209
CQUADX4,7606,1,7419,7420,7211,7210
CQUADX4,7607,1,7420,7421,7212,7211
CQUADX4,7608,1,7421,7422,7213,7212
CQUADX4,7609,1,7422,7423,7214,7213
CQUADX4,7610,1,7423,7424,7215,7214
CQUADX4,7611,1,7424,7425,7216,7215
CQUADX4,7612,1,7425,7426,7217,7216
CQUADX4,7613,1,7426,7427,7218,7217
CQUADX4,7614,1,7427,7428,7219,7218
CQUADX4,7615,1,7428,7429,7220,7219
CQUADX4,7616,1,7429,7430,7221,7220
CQUADX4,7617,1,7430,7431,7222,7221
CQUADX4,7618,1,7431,7432,7223,7222
CQUADX4,7619,1,7432,7433,7224,7223
CQUADX4,7620,1,7433,7434,7225,7224
CQUADX4,7621,1,7434,7435,7226,7225
CQUADX4,7622,1,7435,7436,7227,7226
CQUADX4,7623,1,7436,7437,7228,7227
CQUADX4,7624,1,7437,7438,7229,7228
CQUADX4,7625,1,7438,7439,7230,7229
CQUADX4,7626,1,7439,7440,7231,7230
CQUADX4,7627,1,7440,7441,7232,7231
CQUADX4,7628,1,7441,7442,7233,7232
CQUADX4,7629,1,7442,7443,7234,7233
CQUADX4,7630,1,7443,7444,7235,7234
CQUADX4,7631,1,7444,7445,7236,7235
CQUADX4,7632,1,7445,7446,7237,7236
CQUADX4,7633,1,7447,7448,7239,7238
CQUADX4,7634,1,7448,7449,7240,7239
CQUADX4,7635,1,7449,7450,7241,7240
CQUADX4,7636,1,7450,7451,7242,7241
CQUADX4,7637,1,7451,7452,7243,7242
CQUADX4,7638,1,7452,7453,7244,7243
CQUADX4,7639,1,7453,7454,7245,7244
CQUADX4,7640,1,7454,7455,7246,7245
CQUADX4,7641,1,7455,7456,7247,7246
CQUADX4,7642,1,7456,7457,7248,7247
CQUADX4,7643,1,7457,7458,7249,7248
CQUADX4,7644,1,7458,7459,7250,7249
CQUADX4,7645,1,7459,7460,7251,7250
CQUADX4,7646,1,7460,7461,7252,7251
CQUADX4,7647,1,7461,7462,7253,7252
CQUADX4,7648,1,7462,7463,7254,7253
CQUADX4,7649,1,7463,7464,7255,7254
CQUADX4,7650,1,7464,7465,7256,7255
CQUADX4,7651,1,7465,7466,7257,7256
CQUADX4,7652,1,7466,7467,7258,7257
CQUADX4,7653,1,7467,7468,7259,7258
CQUADX4,7654,1,7468,7469,7260,7259
CQUADX4,7655,1,7469,7470,7261,7260
CQUADX4,7656,1,7470,7471,7262,7261
CQUADX4,7657,1,7471,7472,7263,7262
CQUADX4,7658,1,7472,7473,7264,7263
CQUADX4,7659,1,7473,7474,7265,7264
CQUADX4,7660,1,7474,7475,7266,7265
CQUADX4,7661,1,7475,7476,7267,7266
CQUADX4,7662,1,7476,7477,7268,7267
CQUADX4,7663,1,7477,7478,7269,7268
CQUADX4,7664,1,7478,7479,7270,7269
CQUADX4,7665,1,7479,7480,7271,7270
CQUADX4,7666,1,7480,7481,7272,7271
CQUADX4,7667,1,7481,7482,7273,7272
CQUADX4,7668,1,7482,7483,7274,7273
CQUADX4,7669,1,7483,7484,7275,7274
CQUADX4,7670,1,7484,7485,7276,7275
CQUADX4,7671,1,7485,7486,7277,7276
CQUADX4,7672,1,7486,7487,7278,7277
CQUADX4,7673,1,7487,7488,7279,7278
CQUADX4,7674,1,7488,7489,7280,7279
CQUADX4,7675,1,7489,7490,7281,7280
CQUADX4,7676,1,7490,7491,7282,7281
CQUADX4,7677,1,7491,7492,7283,7282
CQUADX4,7678,1,7492,7493,7284,7283
CQUADX4,7679,1,7493,7494,7285,7284
CQUADX4,7680,1,7494,7495,7286,7285
CQUADX4,7681,1,7495,7496,7287,7286
CQUADX4,7682,1,7496,7497,7288,7287
CQUADX4,7683,1,7497,7498,7289,7288
CQUADX4,7684,1,7498,7499,7290,7289
CQUADX4,7685,1,7499,7500,7291,7290
CQUADX4,7686,1,7500,7501,7292,7291
CQUADX4,7687,1,7501,7502,7293,7292
CQUADX4,7688,1,7502,7503,7294,7293
CQUADX4,7689,1,7503,7504,7295,7294
CQUADX4,7690,1,7504,7505,7296,7295
CQUADX4,7691,1,7505,7506,7297,7296
CQUADX4,7692,1,7506,7507,7298,7297
CQUADX4,7693,1,7507,7508,7299,7298
CQUADX4,7694,1,7508,7509,7300,7299
CQUADX4,7695,1,7509,7510,7301,7300
CQUADX4,7696,1,7510,7511,7302,7301
CQUADX4,7697,1,7511,7512,7303,7302
CQUADX4,7698,1,7512,7513,7304,7303
CQUADX4,7699,1,7513,7514,7305,7304
CQUADX4,7700,1,7514,7515,7306,7305
CQUADX4,7701,1,7515,7516,7307,7306
CQUADX4,7702,1,7516,7517,7308,7307
CQUADX4,7703,1,7517,7518,7309,7308
CQUADX4,7704,1,7518,7519,7310,7309
CQUADX4,7705,1,7519,7520,7311,7310
CQUADX4,7706,1,7520,7521,7312,7311
CQUADX4,7707,1,7521,7522,7313,7312
CQUADX4,7708,1,7522,7523,7314,7313
CQUADX4,7709,1,7523,7524,7315,7314
CQUADX4,7710,1,7524,7525,7316,7315
CQUADX4,7711,1,7525,7526,7317,7316
CQUADX4,7712,1,7526,7527,7318,7317
CQUADX4,7713,1,7527,7528,7319,7318
CQUADX4,7714,1,7528,7529,7320,7319
CQUADX4,7715,1,7529,7530,7321,7320
CQUADX4,7716,1,7530,7531,7322,7321
CQUADX4,7717,1,7531,7532,7323,7322
CQUADX4,7718,1,7532,7533,7324,7323
CQUADX4,7719,1,7533,7534,7325,7324
CQUADX4,7720,1,7534,7535,7326,7325
CQUADX4,7721,1,7535,7536,7327,7326
CQUADX4,7722,1,7536,7537,7328,7327
CQUADX4,7723,1,7537,7538,7329,7328
CQUADX4,7724,1,7538,7539,7330,7329
CQUADX4,7725,1,7539,7540,7331,7330
CQUADX4,7726,1,7540,7541,7332,7331
CQUADX4,7727,1,7541,7542,7333,7332
CQUADX4,7728,1,7542,7543,7334,7333
CQUADX4,7729,1,7543,7544,7335,7334
CQUADX4,7730,1,7544,7545,7336,7335
CQUADX4,7731,1,7545,7546,7337,7336
CQUADX4,7732,1,7546,7547,7338,7337
CQUADX4,7733,1,7547,7548,7339,7338
CQUADX4,7734,1,7548,7549,7340,7339
CQUADX4,7735,1,7549,7550,7341,7340
CQUADX4,7736,1,7550,7551,7342,7341
CQUADX4,7737,1,7551,7552,7343,7342
CQUADX4,7738,1,7552,7553,7344,7343
CQUADX4,7739,1,7553,7554,7345,7344
CQUADX4,7740,1,7554,7555,7346,7345
CQUADX4,7741,1,7555,7556,7347,7346
CQUADX4,7742,1,7556,7557,7348,7347
CQUADX4,7743,1,7557,7558,7349,7348
CQUADX4,7744,1,7558,7559,7350,7349
CQUADX4,7745,1,7559,7560,7351,7350
CQUADX4,7746,1,7560,7561,7352,7351
CQUADX4,7747,1,7561,7562,7353,7352
CQUADX4,7748,1,7562,7563,7354,7353
CQUADX4,7749,1,7563,7564,7355,7354
CQUADX4,7750,1,7564,7565,7356,7355
CQUADX4,7751,1,7565,7566,7357,7356
CQUADX4,7752,1,7566,7567,7358,7357
CQUADX4,7753,1,7567,7568,7359,7358
CQUADX4,7754,1,7568,7569,7360,7359
CQUADX4,7755,1,7569,7570,7361,7360
CQUADX4,7756,1,7570,7571,7362,7361
CQUADX4,7757,1,7571,7572,7363,7362
CQUADX4,7758,1,7572,7573,7364,7363
CQUADX4,7759,1,7573,7574,7365,7364
CQUADX4,7760,1,7574,7575,7366,7365
CQUADX4,7761,1,7575,7576,7367,7366
CQUADX4,7762,1,7576,7577,7368,7367
CQUADX4,7763,1,7577,7578,7369,7368
CQUADX4,7764,1,7578,7579,7370,7369
CQUADX4,7765,1,7579,7580,7371,7370
CQUADX4,7766,1,7580,7581,7372,7371
CQUADX4,7767,1,7581,7582,7373,7372
CQUADX4,7768,1,7582,7583,7374,7373
CQUADX4,7769,1,7583,7584,7375,7374
CQUADX4,7770,1,7584,7585,7376,7375
CQUADX4,7771,1,7585,7586,7377,7376
CQUADX4,7772,1,7586,7587,7378,7377
CQUADX4,7773,1,7587,7588,7379,7378
CQUADX4,7774,1,7588,7589,7380,7379
CQUADX4,7775,1,7589,7590,7381,7380
CQUADX4,7776,1,7590,7591,7382,7381
CQUADX4,7777,1,7591,7592,7383,7382
CQUADX4,7778,1,7592,7593,7384,7383
CQUADX4,7779,1,7593,7594,7385,7384
CQUADX4,7780,1,7594,7595,7386,7385
CQUADX4,7781,1,7595,7596,7387,7386
CQUADX4,7782,1,7596,7597,7388,7387
CQUADX4,7783,1,7597,7598,7389,7388
CQUADX4,7784,1,7598,7599,7390,7389
CQUADX4,7785,1,7599,7600,7391,7390
CQUADX4,7786,1,7600,7601,7392,7391
CQUADX4,7787,1,7601,7602,7393,7392
CQUADX4,7788,1,7602,7603,7394,7393
CQUADX4,7789,1,7603,7604,7395,7394
CQUADX4,7790,1,7604,7605,7396,7395
CQUADX4,7791,1,7605,7606,7397,7396
CQUADX4,7792,1,7606,7607,7398,7397
CQUADX4,7793,1,7607,7608,7399,7398
CQUADX4,7794,1,7608,7609,7400,7399
CQUADX4,7795,1,7609,7610,7401,7400
CQUADX4,7796,1,7610,7611,7402,7401
CQUADX4,7797,1,7611,7612,7403,7402
CQUADX4,7798,1,7612,7613,7404,7403
CQUADX4,7799,1,7613,7614,7405,7404
CQUADX4,7800,1,7614,7615,7406,7405
CQUADX4,7801,1,7615,7616,7407,7406
CQUADX4,7802,1,7616,7617,7408,7407
CQUADX4,7803,1,7617,7618,7409,7408
CQUADX4,7804,1,7618,7619,7410,7409
CQUADX4,7805,1,7619,7620,7411,7410
CQUADX4,7806,1,7620,7621,7412,7411
CQUADX4,7807,1,7621,7622,7413,7412
CQUADX4,7808,1,7622,7623,7414,7413
CQUADX4,7809,1,7623,7624,7415,7414
CQUADX4,7810,1,7624,7625,7416,7415
CQUADX4,7811,1,7625,7626,7417,7416
CQUADX4,7812,1,7626,7627,7418,7417
CQUADX4,7813,1,7627,7628,7419,7418
CQUADX4,7814,1,7628,7629,7420,7419
CQUADX4,7815,1,7629,7630,7421,7420
CQUADX4,7816,1,7630,7631,7422,7421
CQUADX4,7817,1,7631,7632,7423,7422
CQUADX4,7818,1,7632,7633,7424,7423
CQUADX4,7819,1,7633,7634,7425,7424
CQUADX4,7820,1,7634,7635,7426,7425
CQUADX4,7821,1,7635,7636,7427,7426
CQUADX4,7822,1,7636,7637,7428,7427
CQUADX4,7823,1,7637,7638,7429,7428
CQUADX4,7824,1,7638,7639,7430,7429
CQUADX4,7825,1,7639,7640,7431,7430
CQUADX4,7826,1,7640,7641,7432,7431
CQUADX4,7827,1,7641,7642,7433,7432
CQUADX4,7828,1,7642,7643,7434,7433
CQUADX4,7829,1,7643,7644,7435,7434
CQUADX4,7830,1,7644,7645,7436,7435
CQUADX4,7831,1,7645,7646,7437,7436
CQUADX4,7832,1,7646,7647,7438,7437
CQUADX4,7833,1,7647,7648,7439,7438
CQUADX4,7834,1,7648,7649,7440,7439
CQUADX4,7835,1,7649,7650,7441,7440
CQUADX4,7836,1,7650,7651,7442,7441
CQUADX4,7837,1,7651,7652,7443,7442
CQUADX4,7838,1,7652,7653,7444,7443
CQUADX4,7839,1,7653,7654,7445,7444
CQUADX4,7840,1,7654,7655,7446,7445
CQUADX4,7841,1,7656,7657,7448,7447
CQUADX4,7842,1,7657,7658,7449,7448
CQUADX4,7843,1,7658,7659,7450,7449
CQUADX4,7844,1,7659,7660,7451,7450
CQUADX4,7845,1,7660,7661,7452,7451
CQUADX4,7846,1,7661,7662,7453,7452
CQUADX4,7847,1,7662,7663,7454,7453
CQUADX4,7848,1,7663,7664,7455,7454
CQUADX4,7849,1,7664,7665,7456,7455
CQUADX4,7850,1,7665,7666,7457,7456
CQUADX4,7851,1,7666,7667,7458,7457
CQUADX4,7852,1,7667,7668,7459,7458
CQUADX4,7853,1,7668,7669,7460,7459
CQUADX4,7854,1,7669,7670,7461,7460
CQUADX4,7855,1,7670,7671,7462,7461
CQUADX4,7856,1,7671,7672,7463,7462
CQUADX4,7857,1,7672,7673,7464,7463
CQUADX4,7858,1,7673,7674,7465,7464
CQUADX4,7859,1,7674,7675,7466,7465
CQUADX4,7860,1,7675,7676,7467,7466
CQUADX4,7861,1,7676,7677,7468,7467
CQUADX4,7862,1,7677,7678,7469,7468
CQUADX4,7863,1,7678,7679,7470,7469
CQUADX4,7864,1,7679,7680,7471,7470
CQUADX4,7865,1,7680,7681,7472,7471
CQUADX4,7866,1,7681,7682,7473,7472
CQUADX4,7867,1,7682,7683,7474,7473
CQUADX4,7868,1,7683,7684,7475,7474
CQUADX4,7869,1,7684,7685,7476,7475
CQUADX4,7870,1,7685,7686,7477,7476
CQUADX4,7871,1,7686,7687,7478,7477
CQUADX4,7872,1,7687,7688,7479,7478
CQUADX4,7873,1,7688,7689,7480,7479
CQUADX4,7874,1,7689,7690,7481,7480
CQUADX4,7875,1,7690,7691,7482,7481
CQUADX4,7876,1,7691,7692,7483,7482
CQUADX4,7877,1,7692,7693,7484,7483
CQUADX4,7878,1,7693,7694,7485,7484
CQUADX4,7879,1,7694,7695,7486,7485
CQUADX4,7880,1,7695,7696,7487,7486
CQUADX4,7881,1,7696,7697,7488,7487
CQUADX4,7882,1,7697,7698,7489,7488
CQUADX4,7883,1,7698,7699,7490,7489
CQUADX4,7884,1,7699,7700,7491,7490
CQUADX4,7885,1,7700,7701,7492,7491
CQUADX4,7886,1,7701,7702,7493,7492
CQUADX4,7887,1,7702,7703,7494,7493
CQUADX4,7888,1,7703,7704,7495,7494
CQUADX4,7889,1,7704,7705,7496,7495
CQUADX4,7890,1,7705,7706,7497,7496
CQUADX4,7891,1,7706,7707,7498,7497
CQUADX4,7892,1,7707,7708,7499,7498
CQUADX4,7893,1,7708,7709,7500,7499
CQUADX4,7894,1,7709,7710,7501,7500
CQUADX4,7895,1,7710,7711,7502,7501
CQUADX4,7896,1,7711,7712,7503,7502
CQUADX4,7897,1,7712,7713,7504,7503
CQUADX4,7898,1,7713,7714,7505,7504
CQUADX4,7899,1,7714,7715,7506,7505
CQUADX4,7900,1,7715,7716,7507,7506
CQUADX4,7901,1,7716,7717,7508,7507
CQUADX4,7902,1,7717,7718,7509,7508
CQUADX4,7903,1,7718,7719,7510,7509
CQUADX4,7904,1,7719,7720,7511,7510
CQUADX4,7905,1,7720,7721,7512,7511
CQUADX4,7906,1,7721,7722,7513,7512
CQUADX4,7907,1,7722,7723,7514,7513
CQUADX4,7908,1,7723,7724,7515,7514
CQUADX4,7909,1,7724,7725,7516,7515
CQUADX4,7910,1,7725,7726,7517,7516
CQUADX4,7911,1,7726,7727,7518,7517
CQUADX4,7912,1,7727,7728,7519,7518
CQUADX4,7913,1,7728,7729,7520,7519
CQUADX4,7914,1,7729,7730,7521,7520
CQUADX4,7915,1,7730,7731,7522,7521
CQUADX4,7916,1,7731,7732,7523,7522
CQUADX4,7917,1,7732,7733,7524,7523
CQUADX4,7918,1,7733,7734,7525,7524
CQUADX4,7919,1,7734,7735,7526,7525
CQUADX4,7920,1,7735,7736,7527,7526
CQUADX4,7921,1,7736,7737,7528,7527
CQUADX4,7922,1,7737,7738,7529,7528
CQUADX4,7923,1,7738,7739,7530,7529
CQUADX4,7924,1,7739,7740,7531,7530
CQUADX4,7925,1,7740,7741,7532,7531
CQUADX4,7926,1,7741,7742,7533,7532
CQUADX4,7927,1,7742,7743,7534,7533
CQUADX4,7928,1,7743,7744,7535,7534
CQUADX4,7929,1,7744,7745,7536,7535
CQUADX4,7930,1,7745,7746,7537,7536
CQUADX4,7931,1,7746,7747,7538,7537
CQUADX4,7932,1,7747,7748,7539,7538
CQUADX4,7933,1,7748,7749,7540,7539
CQUADX4,7934,1,7749,7750,7541,7540
CQUADX4,7935,1,7750,7751,7542,7541
CQUADX4,7936,1,7751,7752,7543,7542
CQUADX4,7937,1,7752,7753,7544,7543
CQUADX4,7938,1,7753,7754,7545,7544
CQUADX4,7939,1,7754,7755,7546,7545
CQUADX4,7940,1,7755,7756,7547,7546
CQUADX4,7941,1,7756,7757,7548,7547
CQUADX4,7942,1,7757,7758,7549,7548
CQUADX4,7943,1,7758,7759,7550,7549
CQUADX4,7944,1,7759,7760,7551,7550
CQUADX4,7945,1,7760,7761,7552,7551
CQUADX4,7946,1,7761,7762,7553,7552
CQUADX4,7947,1,7762,7763,7554,7553
CQUADX4,7948,1,7763,7764,7555,7554
CQUADX4,7949,1,7764,7765,7556,7555
CQUADX4,7950,1,7765,7766,7557,7556
CQUADX4,7951,1,7766,7767,7558,7557
CQUADX4,7952,1,7767,7768,7559,7558
CQUADX4,7953,1,7768,7769,7560,7559
CQUADX4,7954,1,7769,7770,7561,7560
CQUADX4,7955,1,7770,7771,7562,7561
CQUADX4,7956,1,7771,7772,7563,7562
CQUADX4,7957,1,7772,7773,7564,7563
CQUADX4,7958,1,7773,7774,7565,7564
CQUADX4,7959,1,7774,7775,7566,7565
CQUADX4,7960,1,7775,7776,7567,7566
CQUADX4,7961,1,7776,7777,7568,7567
CQUADX4,7962,1,7777,7778,7569,7568
CQUADX4,7963,1,7778,7779,7570,7569
CQUADX4,7964,1,7779,7780,7571,7570
CQUADX4,7965,1,7780,7781,7572,7571
CQUADX4,7966,1,7781,7782,7573,7572
CQUADX4,7967,1,7782,7783,7574,7573
CQUADX4,7968,1,7783,7784,7575,7574
CQUADX4,7969,1,7784,7785,7576,7575
CQUADX4,7970,1,7785,7786,7577,7576
CQUADX4,7971,1,7786,7787,7578,7577
CQUADX4,7972,1,7787,7788,7579,7578
CQUADX4,7973,1,7788,7789,7580,7579
CQUADX4,7974,1,7789,7790,7581,7580
CQUADX4,7975,1,7790,7791,7582,7581
CQUADX4,7976,1,7791,7792,7583,7582
CQUADX4,7977,1,7792,7793,7584,7583
CQUADX4,7978,1,7793,7794,7585,7584
CQUADX4,7979,1,7794,7795,7586,7585
CQUADX4,7980,1,7795,7796,7587,7586
CQUADX4,7981,1,7796,7797,7588,7587
CQUADX4,7982,1,7797,7798,7589,7588
CQUADX4,7983,1,7798,7799,7590,7589
CQUADX4,7984,1,7799,7800,7591,7590
CQUADX4,7985,1,7800,7801,7592,7591
CQUADX4,7986,1,7801,7802,7593,7592
CQUADX4,7987,1,7802,7803,7594,7593
CQUADX4,7988,1,7803,7804,7595,7594
CQUADX4,7989,1,7804,7805,7596,7595
CQUADX4,7990,1,7805,7806,7597,7596
CQUADX4,7991,1,7806,7807,7598,7597
CQUADX4,7992,1,7807,7808,7599,7598
CQUADX4,7993,1,7808,7809,7600,7599
CQUADX4,7994,1,7809,7810,7601,7600
CQUADX4,7995,1,7810,7811,7602,7601
CQUADX4,7996,1,7811,7812,7603,7602
CQUADX4,7997,1,7812,7813,7604,7603
CQUADX4,7998,1,7813,7814,7605,7604
CQUADX4,7999,1,7814,7815,7606,7605
CQUADX4,8000,1,7815,7816,7607,7606
CQUADX4,8001,1,7816,7817,7608,7607
CQUADX4,8002,1,7817,7818,7609,7608
CQUADX4,8003,1,7818,7819,7610,7609
CQUADX4,8004,1,7819,7820,7611,7610
CQUADX4,8005,1,7820,7821,7612,7611
CQUADX4,8006,1,7821,7822,7613,7612
CQUADX4,8007,1,7822,7823,7614,7613
CQUADX4,8008,1,7823,7824,7615,7614
CQUADX4,8009,1,7824,7825,7616,7615
CQUADX4,8010,1,7825,7826,7617,7616
CQUADX4,8011,1,7826,7827,7618,7617
CQUADX4,8012,1,7827,7828,7619,7618
CQUADX4,8013,1,7828,7829,7620,7619
CQUADX4,8014,1,7829,7830,7621,7620
CQUADX4,8015,1,7830,7831,7622,7621
CQUADX4,8016,1,7831,7832,7623,7622
CQUADX4,8017,1,7832,7833,7624,7623
CQUADX4,8018,1,7833,7834,7625,7624
CQUADX4,8019,1,7834,7835,7626,7625
CQUADX4,8020,1,7835,7836,7627,7626
CQUADX4,8021,1,7836,7837,7628,7627
CQUADX4,8022,1,7837,7838,7629,7628
CQUADX4,8023,1,7838,7839,7630,7629
CQUADX4,8024,1,7839,7840,7631,7630
CQUADX4,8025,1,7840,7841,7632,7631
CQUADX4,8026,1,7841,7842,7633,7632
CQUADX4,8027,1,7842,7843,7634,7633
CQUADX4,8028,1,7843,7844,7635,7634
CQUADX4,8029,1,7844,7845,7636,7635
CQUADX4,8030,1,7845,7846,7637,7636
CQUADX4,8031,1,7846,7847,7638,7637
CQUADX4,8032,1,7847,7848,7639,7638
CQUADX4,8033,1,7848,7849,7640,7639
CQUADX4,8034,1,7849,7850,7641,7640
CQUADX4,8035,1,7850,7851,7642,7641
CQUADX4,8036,1,7851,7852,7643,7642
CQUADX4,8037,1,7852,7853,7644,7643
CQUADX4,8038,1,7853,7854,7645,7644
CQUADX4,8039,1,7854,7855,7646,7645
CQUADX4,8040,1,7855,7856,7647,7646
CQUADX4,8041,1,7856,7857,7648,7647
CQUADX4,8042,1,7857,7858,7649,7648
CQUADX4,8043,1,7858,7859,7650,7649
CQUADX4,8044,1,7859,7860,7651,7650
CQUADX4,8045,1,7860,7861,7652,7651
CQUADX4,8046,1,7861,7862,7653,7652
CQUADX4,8047,1,7862,7863,7654,7653
CQUADX4,8048,1,7863,7864,7655,7654
CQUADX4,8049,1,11698,4730,11697,11938
CQUADX4,8050,1,11699,4939,4730,11698
CQUADX4,8051,1,11700,5148,4939,11699
CQUADX4,8052,1,11701,5357,5148,11700
CQUADX4,8053,1,11702,5566,5357,11701
CQUADX4,8054,1,11703,5775,5566,11702
CQUADX4,8055,1,11704,5984,5775,11703
CQUADX4,8056,1,11705,6193,5984,11704
CQUADX4,8057,1,11706,6402,6193,11705
CQUADX4,8058,1,11707,6611,6402,11706
CQUADX4,8059,1,11708,6820,6611,11707
CQUADX4,8060,1,11709,7029,6820,11708
CQUADX4,8061,1,11710,7238,7029,11709
CQUADX4,8062,1,11711,7447,7238,11710
CQUADX4,8063,1,11712,7656,7447,11711
CQUADX4,8064,1,11939,11713,7656,11712
CQUADX4,8065,1,11713,11714,7657,7656
CQUADX4,8066,1,11714,11715,7658,7657
CQUADX4,8067,1,11715,11716,7659,7658
CQUADX4,8068,1,11716,11717,7660,7659
CQUADX4,8069,1,11717,11718,7661,7660
CQUADX4,8070,1,11718,11719,7662,7661
CQUADX4,8071,1,11719,11720,7663,7662
CQUADX4,8072,1,11720,11721,7664,7663
CQUADX4,8073,1,11721,11722,7665,7664
CQUADX4,8074,1,11722,11723,7666,7665
CQUADX4,8075,1,11723,11724,7667,7666
CQUADX4,8076,1,11724,11725,7668,7667
CQUADX4,8077,1,11725,11726,7669,7668
CQUADX4,8078,1,11726,11727,7670,7669
CQUADX4,8079,1,11727,11728,7671,7670
CQUADX4,8080,1,11728,11729,7672,7671
CQUADX4,8081,1,11729,11730,7673,7672
CQUADX4,8082,1,11730,11731,7674,7673
CQUADX4,8083,1,11731,11732,7675,7674
CQUADX4,8084,1,11732,11733,7676,7675
CQUADX4,8085,1,11733,11734,7677,7676
CQUADX4,8086,1,11734,11735,7678,7677
CQUADX4,8087,1,11735,11736,7679,7678
CQUADX4,8088,1,11736,11737,7680,7679
CQUADX4,8089,1,11737,11738,7681,7680
CQUADX4,8090,1,11738,11739,7682,7681
CQUADX4,8091,1,11739,11740,7683,7682
CQUADX4,8092,1,11740,11741,7684,7683
CQUADX4,8093,1,11741,11742,7685,7684
CQUADX4,8094,1,11742,11743,7686,7685
CQUADX4,8095,1,11743,11744,7687,7686
CQUADX4,8096,1,11744,11745,7688,7687
CQUADX4,8097,1,11745,11746,7689,7688
CQUADX4,8098,1,11746,11747,7690,7689
CQUADX4,8099,1,11747,11748,7691,7690
CQUADX4,8100,1,11748,11749,7692,7691
CQUADX4,8101,1,11749,11750,7693,7692
CQUADX4,8102,1,11750,11751,7694,7693
CQUADX4,8103,1,11751,11752,7695,7694
CQUADX4,8104,1,11752,11753,7696,7695
CQUADX4,8105,1,11753,11754,7697,7696
CQUADX4,8106,1,11754,11755,7698,7697
CQUADX4,8107,1,11755,11756,7699,7698
CQUADX4,8108,1,11756,11757,7700,7699
CQUADX4,8109,1,11757,11758,7701,7700
CQUADX4,8110,1,11758,11759,7702,7701
CQUADX4,8111,1,11759,11760,7703,7702
CQUADX4,8112,1,11760,11761,7704,7703
CQUADX4,8113,1,11761,11762,7705,7704
CQUADX4,8114,1,11762,11763,7706,7705
CQUADX4,8115,1,11763,11764,7707,7706
CQUADX4,8116,1,11764,11765,7708,7707
CQUADX4,8117,1,11765,11766,7709,7708
CQUADX4,8118,1,11766,11767,7710,7709
CQUADX4,8119,1,11767,11768,7711,7710
CQUADX4,8120,1,11768,11769,7712,7711
CQUADX4,8121,1,11769,11770,7713,7712
CQUADX4,8122,1,11770,11771,7714,7713
CQUADX4,8123,1,11771,11772,7715,7714
CQUADX4,8124,1,11772,11773,7716,7715
CQUADX4,8125,1,11773,11774,7717,7716
CQUADX4,8126,1,11774,11775,7718,7717
CQUADX4,8127,1,11775,11776,7719,7718
CQUADX4,8128,1,11776,11777,7720,7719
CQUADX4,8129,1,11777,11778,7721,7720
CQUADX4,8130,1,11778,11779,7722,7721
CQUADX4,8131,1,11779,11780,7723,7722
CQUADX4,8132,1,11780,11781,7724,7723
CQUADX4,8133,1,11781,11782,7725,7724
CQUADX4,8134,1,11782,11783,7726,7725
CQUADX4,8135,1,11783,11784,7727,7726
CQUADX4,8136,1,11784,11785,7728,7727
CQUADX4,8137,1,11785,11786,7729,7728
CQUADX4,8138,1,11786,11787,7730,7729
CQUADX4,8139,1,11787,11788,7731,7730
CQUADX4,8140,1,11788,11789,7732,7731
CQUADX4,8141,1,11789,11790,7733,7732
CQUADX4,8142,1,11790,11791,7734,7733
CQUADX4,8143,1,11791,11792,7735,7734
CQUADX4,8144,1,11792,11793,7736,7735
CQUADX4,8145,1,11793,11794,7737,7736
CQUADX4,8146,1,11794,11795,7738,7737
CQUADX4,8147,1,11795,11796,7739,7738
CQUADX4,8148,1,11796,11797,7740,7739
CQUADX4,8149,1,11797,11798,7741,7740
CQUADX4,8150,1,11798,11799,7742,7741
CQUADX4,8151,1,11799,11800,7743,7742
CQUADX4,8152,1,11800,11801,7744,7743
CQUADX4,8153,1,11801,11802,7745,7744
CQUADX4,8154,1,11802,11803,7746,7745
CQUADX4,8155,1,11803,11804,7747,7746
CQUADX4,8156,1,11804,11805,7748,7747
CQUADX4,8157,1,11805,11806,7749,7748
CQUADX4,8158,1,11806,11807,7750,7749
CQUADX4,8159,1,11807,11808,7751,7750
CQUADX4,8160,1,11808,11809,7752,7751
CQUADX4,8161,1,11809,11810,7753,7752
CQUADX4,8162,1,11810,11811,7754,7753
CQUADX4,8163,1,11811,11812,7755,7754
CQUADX4,8164,1,11812,11813,7756,7755
CQUADX4,8165,1,11813,11814,7757,7756
CQUADX4,8166,1,11814,11815,7758,7757
CQUADX4,8167,1,11815,11816,7759,7758
CQUADX4,8168,1,11816,11817,7760,7759
CQUADX4,8169,1,11817,11818,7761,7760
CQUADX4,8170,1,11818,11819,7762,7761
CQUADX4,8171,1,11819,11820,7763,7762
CQUADX4,8172,1,11820,11821,7764,7763
CQUADX4,8173,1,11821,11822,7765,7764
CQUADX4,8174,1,11822,11823,7766,7765
CQUADX4,8175,1,11823,11824,7767,7766
CQUADX4,8176,1,11824,11825,7768,7767
CQUADX4,8177,1,11825,11826,7769,7768
CQUADX4,8178,1,11826,11827,7770,7769
CQUADX4,8179,1,11827,11828,7771,7770
CQUADX4,8180,1,11828,11829,7772,7771
CQUADX4,8181,1,11829,11830,7773,7772
CQUADX4,8182,1,11830,11831,7774,7773
CQUADX4,8183,1,11831,11832,7775,7774
CQUADX4,8184,1,11832,11833,7776,7775
CQUADX4,8185,1,11833,11834,7777,7776
CQUADX4,8186,1,11834,11835,7778,7777
CQUADX4,8187,1,11835,11836,7779,7778
CQUADX4,8188,1,11836,11837,7780,7779
CQUADX4,8189,1,11837,11838,7781,7780
CQUADX4,8190,1,11838,11839,7782,7781
CQUADX4,8191,1,11839,11840,7783,7782
CQUADX4,8192,1,11840,11841,7784,7783
CQUADX4,8193,1,11841,11842,7785,7784
CQUADX4,8194,1,11842,11843,7786,7785
CQUADX4,8195,1,11843,11844,7787,7786
CQUADX4,8196,1,11844,11845,7788,7787
CQUADX4,8197,1,11845,11846,7789,7788
CQUADX4,8198,1,11846,11847,7790,7789
CQUADX4,8199,1,11847,11848,7791,7790
CQUADX4,8200,1,11848,11849,7792,7791
CQUADX4,8201,1,11849,11850,7793,7792
CQUADX4,8202,1,11850,11851,7794,7793
CQUADX4,8203,1,11851,11852,7795,7794
CQUADX4,8204,1,11852,11853,7796,7795
CQUADX4,8205,1,11853,11854,7797,7796
CQUADX4,8206,1,11854,11855,7798,7797
CQUADX4,8207,1,11855,11856,7799,7798
CQUADX4,8208,1,11856,11857,7800,7799
CQUADX4,8209,1,11857,11858,7801,7800
CQUADX4,8210,1,11858,11859,7802,7801
CQUADX4,8211,1,11859,11860,7803,7802
CQUADX4,8212,1,11860,11861,7804,7803
CQUADX4,8213,1,11861,11862,7805,7804
CQUADX4,8214,1,11862,11863,7806,7805
CQUADX4,8215,1,11863,11864,7807,7806
CQUADX4,8216,1,11864,11865,7808,7807
CQUADX4,8217,1,11865,11866,7809,7808
CQUADX4,8218,1,11866,11867,7810,7809
CQUADX4,8219,1,11867,11868,7811,7810
CQUADX4,8220,1,11868,11869,7812,7811
CQUADX4,8221,1,11869,11870,7813,7812
CQUADX4,8222,1,11870,11871,7814,7813
CQUADX4,8223,1,11871,11872,7815,7814
CQUADX4,8224,1,11872,11873,7816,7815
CQUADX4,8225,1,11873,11874,7817,7816
CQUADX4,8226,1,11874,11875,7818,7817
CQUADX4,8227,1,11875,11876,7819,7818
CQUADX4,8228,1,11876,11877,7820,7819
CQUADX4,8229,1,11877,11878,7821,7820
CQUADX4,8230,1,11878,11879,7822,7821
CQUADX4,8231,1,11879,11880,7823,7822
CQUADX4,8232,1,11880,11881,7824,7823
CQUADX4,8233,1,11881,11882,7825,7824
CQUADX4,8234,1,11882,11883,7826,7825
CQUADX4,8235,1,11883,11884,7827,7826
CQUADX4,8236,1,11884,11885,7828,7827
CQUADX4,8237,1,11885,11886,7829,7828
CQUADX4,8238,1,11886,11887,7830,7829
CQUADX4,8239,1,11887,11888,7831,7830
CQUADX4,8240,1,11888,11889,7832,7831
CQUADX4,8241,1,11889,11890,7833,7832
CQUADX4,8242,1,11890,11891,7834,7833
CQUADX4,8243,1,11891,11892,7835,7834
CQUADX4,8244,1,11892,11893,7836,7835
CQUADX4,8245,1,11893,11894,7837,7836
CQUADX4,8246,1,11894,11895,7838,7837
CQUADX4,8247,1,11895,11896,7839,7838
CQUADX4,8248,1,11896,11897,7840,7839
CQUADX4,8249,1,11897,11898,7841,7840
CQUADX4,8250,1,11898,11899,7842,7841
CQUADX4,8251,1,11899,11900,7843,7842
CQUADX4,8252,1,11900,11901,7844,7843
CQUADX4,8253,1,11901,11902,7845,7844
CQUADX4,8254,1,11902,11903,7846,7845
CQUADX4,8255,1,11903,11904,7847,7846
CQUADX4,8256,1,11904,11905,7848,7847
CQUADX4,8257,1,11905,11906,7849,7848
CQUADX4,8258,1,11906,11907,7850,7849
CQUADX4,8259,1,11907,11908,7851,7850
CQUADX4,8260,1,11908,11909,7852,7851
CQUADX4,8261,1,11909,11910,7853,7852
CQUADX4,8262,1,11910,11911,7854,7853
CQUADX4,8263,1,11911,11912,7855,7854
CQUADX4,8264,1,11912,11913,7856,7855
CQUADX4,8265,1,11913,11914,7857,7856
CQUADX4,8266,1,11914,11915,7858,7857
CQUADX4,8267,1,11915,11916,7859,7858
CQUADX4,8268,1,11916,11917,7860,7859
CQUADX4,8269,1,11917,11918,7861,7860
CQUADX4,8270,1,11918,11919,7862,7861
CQUADX4,8271,1,11919,11920,7863,7862
CQUADX4,8272,1,11920,11921,7864,7863
CQUADX4,8273,1,11921,11925,10649,7864
CQUADX4,8274,1,7864,10649,10648,7655
CQUADX4,8275,1,7655,10648,10647,7446
CQUADX4,8276,1,7446,10647,10646,7237
CQUADX4,8277,1,7237,10646,10645,7028
CQUADX4,8278,1,7028,10645,10644,6819
CQUADX4,8279,1,6819,10644,10643,6610
CQUADX4,8280,1,6610,10643,10642,6401
CQUADX4,8281,1,6401,10642,10641,6192
CQUADX4,8282,1,6192,10641,10640,5983
CQUADX4,8283,1,5983,10640,10639,5774
CQUADX4,8284,1,5774,10639,10638,5565
CQUADX4,8285,1,5565,10638,10637,5356
CQUADX4,8286,1,5356,10637,10636,5147
CQUADX4,8287,1,5147,10636,10635,4938
CQUADX4,8288,1,4938,10635,11924,11489
CQUADX4,8289,1,4937,4938,11489,11490
CQUADX4,8290,1,4936,4937,11490,11491
CQUADX4,8291,1,4935,4936,11491,11492
CQUADX4,8292,1,4934,4935,11492,11493
CQUADX4,8293,1,4933,4934,11493,11494
CQUADX4,8294,1,4932,4933,11494,11495
CQUADX4,8295,1,4931,4932,11495,11496
CQUADX4,8296,1,4930,4931,11496,11497
CQUADX4,8297,1,4929,4930,11497,11498
CQUADX4,8298,1,4928,4929,11498,11499
CQUADX4,8299,1,4927,4928,11499,11500
CQUADX4,8300,1,4926,4927,11500,11501
CQUADX4,8301,1,4925,4926,11501,11502
CQUADX4,8302,1,4924,4925,11502,11503
CQUADX4,8303,1,4923,4924,11503,11504
CQUADX4,8304,1,4922,4923,11504,11505
CQUADX4,8305,1,4921,4922,11505,11506
CQUADX4,8306,1,4920,4921,11506,11507
CQUADX4,8307,1,4919,4920,11507,11508
CQUADX4,8308,1,4918,4919,11508,11509
CQUADX4,8309,1,4917,4918,11509,11510
CQUADX4,8310,1,4916,4917,11510,11511
CQUADX4,8311,1,4915,4916,11511,11512
CQUADX4,8312,1,4914,4915,11512,11513
CQUADX4,8313,1,4913,4914,11513,11514
CQUADX4,8314,1,4912,4913,11514,11515
CQUADX4,8315,1,4911,4912,11515,11516
CQUADX4,8316,1,4910,4911,11516,11517
CQUADX4,8317,1,4909,4910,11517,11518
CQUADX4,8318,1,4908,4909,11518,11519
CQUADX4,8319,1,4907,4908,11519,11520
CQUADX4,8320,1,4906,4907,11520,11521
CQUADX4,8321,1,4905,4906,11521,11522
CQUADX4,8322,1,4904,4905,11522,11523
CQUADX4,8323,1,4903,4904,11523,11524
CQUADX4,8324,1,4902,4903,11524,11525
CQUADX4,8325,1,4901,4902,11525,11526
CQUADX4,8326,1,4900,4901,11526,11527
CQUADX4,8327,1,4899,4900,11527,11528
CQUADX4,8328,1,4898,4899,11528,11529
CQUADX4,8329,1,4897,4898,11529,11530
CQUADX4,8330,1,4896,4897,11530,11531
CQUADX4,8331,1,4895,4896,11531,11532
CQUADX4,8332,1,4894,4895,11532,11533
CQUADX4,8333,1,4893,4894,11533,11534
CQUADX4,8334,1,4892,4893,11534,11535
CQUADX4,8335,1,4891,4892,11535,11536
CQUADX4,8336,1,4890,4891,11536,11537
CQUADX4,8337,1,4889,4890,11537,11538
CQUADX4,8338,1,4888,4889,11538,11539
CQUADX4,8339,1,4887,4888,11539,11540
CQUADX4,8340,1,4886,4887,11540,11541
CQUADX4,8341,1,4885,4886,11541,11542
CQUADX4,8342,1,4884,4885,11542,11543
CQUADX4,8343,1,4883,4884,11543,11544
CQUADX4,8344,1,4882,4883,11544,11545
CQUADX4,8345,1,4881,4882,11545,11546
CQUADX4,8346,1,4880,4881,11546,11547
CQUADX4,8347,1,4879,4880,11547,11548
CQUADX4,8348,1,4878,4879,11548,11549
CQUADX4,8349,1,4877,4878,11549,11550
CQUADX4,8350,1,4876,4877,11550,11551
CQUADX4,8351,1,4875,4876,11551,11552
CQUADX4,8352,1,4874,4875,11552,11553
CQUADX4,8353,1,4873,4874,11553,11554
CQUADX4,8354,1,4872,4873,11554,11555
CQUADX4,8355,1,4871,4872,11555,11556
CQUADX4,8356,1,4870,4871,11556,11557
CQUADX4,8357,1,4869,4870,11557,11558
CQUADX4,8358,1,4868,4869,11558,11559
CQUADX4,8359,1,4867,4868,11559,11560
CQUADX4,8360,1,4866,4867,11560,11561
CQUADX4,8361,1,4865,4866,11561,11562
CQUADX4,8362,1,4864,4865,11562,11563
CQUADX4,8363,1,4863,4864,11563,11564
CQUADX4,8364,1,4862,4863,11564,11565
CQUADX4,8365,1,4861,4862,11565,11566
CQUADX4,8366,1,4860,4861,11566,11567
CQUADX4,8367,1,4859,4860,11567,11568
CQUADX4,8368,1,4858,4859,11568,11569
CQUADX4,8369,1,4857,4858,11569,11570
CQUADX4,8370,1,4856,4857,11570,11571
CQUADX4,8371,1,4855,4856,11571,11572
CQUADX4,8372,1,4854,4855,11572,11573
CQUADX4,8373,1,4853,4854,11573,11574
CQUADX4,8374,1,4852,4853,11574,11575
CQUADX4,8375,1,4851,4852,11575,11576
CQUADX4,8376,1,4850,4851,11576,11577
CQUADX4,8377,1,4849,4850,11577,11578
CQUADX4,8378,1,4848,4849,11578,11579
CQUADX4,8379,1,4847,4848,11579,11580
CQUADX4,8380,1,4846,4847,11580,11581
CQUADX4,8381,1,4845,4846,11581,11582
CQUADX4,8382,1,4844,4845,11582,11583
CQUADX4,8383,1,4843,4844,11583,11584
CQUADX4,8384,1,4842,4843,11584,11585
CQUADX4,8385,1,4841,4842,11585,11586
CQUADX4,8386,1,4840,4841,11586,11587
CQUADX4,8387,1,4839,4840,11587,11588
CQUADX4,8388,1,4838,4839,11588,11589
CQUADX4,8389,1,4837,4838,11589,11590
CQUADX4,8390,1,4836,4837,11590,11591
CQUADX4,8391,1,4835,4836,11591,11592
CQUADX4,8392,1,4834,4835,11592,11593
CQUADX4,8393,1,4833,4834,11593,11594
CQUADX4,8394,1,4832,4833,11594,11595
CQUADX4,8395,1,4831,4832,11595,11596
CQUADX4,8396,1,4830,4831,11596,11597
CQUADX4,8397,1,4829,4830,11597,11598
CQUADX4,8398,1,4828,4829,11598,11599
CQUADX4,8399,1,4827,4828,11599,11600
CQUADX4,8400,1,4826,4827,11600,11601
CQUADX4,8401,1,4825,4826,11601,11602
CQUADX4,8402,1,4824,4825,11602,11603
CQUADX4,8403,1,4823,4824,11603,11604
CQUADX4,8404,1,4822,4823,11604,11605
CQUADX4,8405,1,4821,4822,11605,11606
CQUADX4,8406,1,4820,4821,11606,11607
CQUADX4,8407,1,4819,4820,11607,11608
CQUADX4,8408,1,4818,4819,11608,11609
CQUADX4,8409,1,4817,4818,11609,11610
CQUADX4,8410,1,4816,4817,11610,11611
CQUADX4,8411,1,4815,4816,11611,11612
CQUADX4,8412,1,4814,4815,11612,11613
CQUADX4,8413,1,4813,4814,11613,11614
CQUADX4,8414,1,4812,4813,11614,11615
CQUADX4,8415,1,4811,4812,11615,11616
CQUADX4,8416,1,4810,4811,11616,11617
CQUADX4,8417,1,4809,4810,11617,11618
CQUADX4,8418,1,4808,4809,11618,11619
CQUADX4,8419,1,4807,4808,11619,11620
CQUADX4,8420,1,4806,4807,11620,11621
CQUADX4,8421,1,4805,4806,11621,11622
CQUADX4,8422,1,4804,4805,11622,11623
CQUADX4,8423,1,4803,4804,11623,11624
CQUADX4,8424,1,4802,4803,11624,11625
CQUADX4,8425,1,4801,4802,11625,11626
CQUADX4,8426,1,4800,4801,11626,11627
CQUADX4,8427,1,4799,4800,11627,11628
CQUADX4,8428,1,4798,4799,11628,11629
CQUADX4,8429,1,4797,4798,11629,11630
CQUADX4,8430,1,4796,4797,11630,11631
CQUADX4,8431,1,4795,4796,11631,11632
CQUADX4,8432,1,4794,4795,11632,11633
CQUADX4,8433,1,4793,4794,11633,11634
CQUADX4,8434,1,4792,4793,11634,11635
CQUADX4,8435,1,4791,4792,11635,11636
CQUADX4,8436,1,4790,4791,11636,11637
CQUADX4,8437,1,4789,4790,11637,11638
CQUADX4,8438,1,4788,4789,11638,11639
CQUADX4,8439,1,4787,4788,11639,11640
CQUADX4,8440,1,4786,4787,11640,11641
CQUADX4,8441,1,4785,4786,11641,11642
CQUADX4,8442,1,4784,4785,11642,11643
CQUADX4,8443,1,4783,4784,11643,11644
CQUADX4,8444,1,4782,4783,11644,11645
CQUADX4,8445,1,4781,4782,11645,11646
CQUADX4,8446,1,4780,4781,11646,11647
CQUADX4,8447,1,4779,4780,11647,11648
CQUADX4,8448,1,4778,4779,11648,11649
CQUADX4,8449,1,4777,4778,11649,11650
CQUADX4,8450,1,4776,4777,11650,11651
CQUADX4,8451,1,4775,4776,11651,11652
CQUADX4,8452,1,4774,4775,11652,11653
CQUADX4,8453,1,4773,4774,11653,11654
CQUADX4,8454,1,4772,4773,11654,11655
CQUADX4,8455,1,4771,4772,11655,11656
CQUADX4,8456,1,4770,4771,11656,11657
CQUADX4,8457,1,4769,4770,11657,11658
CQUADX4,8458,1,4768,4769,11658,11659
CQUADX4,8459,1,4767,4768,11659,11660
CQUADX4,8460,1,4766,4767,11660,11661
CQUADX4,8461,1,4765,4766,11661,11662
CQUADX4,8462,1,4764,4765,11662,11663
CQUADX4,8463,1,4763,4764,11663,11664
CQUADX4,8464,1,4762,4763,11664,11665
CQUADX4,8465,1,4761,4762,11665,11666
CQUADX4,8466,1,4760,4761,11666,11667
CQUADX4,8467,1,4759,4760,11667,11668
CQUADX4,8468,1,4758,4759,11668,11669
CQUADX4,8469,1,4757,4758,11669,11670
CQUADX4,8470,1,4756,4757,11670,11671
CQUADX4,8471,1,4755,4756,11671,11672
CQUADX4,8472,1,4754,4755,11672,11673
CQUADX4,8473,1,4753,4754,11673,11674
CQUADX4,8474,1,4752,4753,11674,11675
CQUADX4,8475,1,4751,4752,11675,11676
CQUADX4,8476,1,4750,4751,11676,11677
CQUADX4,8477,1,4749,4750,11677,11678
CQUADX4,8478,1,4748,4749,11678,11679
CQUADX4,8479,1,4747,4748,11679,11680
CQUADX4,8480,1,4746,4747,11680,11681
CQUADX4,8481,1,4745,4746,11681,11682
CQUADX4,8482,1,4744,4745,11682,11683
CQUADX4,8483,1,4743,4744,11683,11684
CQUADX4,8484,1,4742,4743,11684,11685
CQUADX4,8485,1,4741,4742,11685,11686
CQUADX4,8486,1,4740,4741,11686,11687
CQUADX4,8487,1,4739,4740,11687,11688
CQUADX4,8488,1,4738,4739,11688,11689
CQUADX4,8489,1,4737,4738,11689,11690
CQUADX4,8490,1,4736,4737,11690,11691
CQUADX4,8491,1,4735,4736,11691,11692
CQUADX4,8492,1,4734,4735,11692,11693
CQUADX4,8493,1,4733,4734,11693,11694
CQUADX4,8494,1,4732,4733,11694,11695
CQUADX4,8495,1,4731,4732,11695,11696
CQUADX4,8496,1,4730,4731,11696,11697
CQUADX4,8497,1,7865,8030,8031,7866
CQUADX4,8498,1,7866,8031,8032,7867
CQUADX4,8499,1,7867,8032,8033,7868
CQUADX4,8500,1,7868,8033,8034,7869
CQUADX4,8501,1,7869,8034,8035,7870
CQUADX4,8502,1,7870,8035,8036,7871
CQUADX4,8503,1,7871,8036,8037,7872
CQUADX4,8504,1,7872,8037,8038,7873
CQUADX4,8505,1,7873,8038,8039,7874
CQUADX4,8506,1,7874,8039,8040,7875
CQUADX4,8507,1,7875,8040,8041,7876
CQUADX4,8508,1,7876,8041,8042,7877
CQUADX4,8509,1,7877,8042,8043,7878
CQUADX4,8510,1,7878,8043,8044,7879
CQUADX4,8511,1,7879,8044,8045,7880
CQUADX4,8512,1,7880,8045,8046,7881
CQUADX4,8513,1,7881,8046,8047,7882
CQUADX4,8514,1,7882,8047,8048,7883
CQUADX4,8515,1,7883,8048,8049,7884
CQUADX4,8516,1,7884,8049,8050,7885
CQUADX4,8517,1,7885,8050,8051,7886
CQUADX4,8518,1,7886,8051,8052,7887
CQUADX4,8519,1,7887,8052,8053,7888
CQUADX4,8520,1,7888,8053,8054,7889
CQUADX4,8521,1,7889,8054,8055,7890
CQUADX4,8522,1,7890,8055,8056,7891
CQUADX4,8523,1,7891,8056,8057,7892
CQUADX4,8524,1,7892,8057,8058,7893
CQUADX4,8525,1,7893,8058,8059,7894
CQUADX4,8526,1,7894,8059,8060,7895
CQUADX4,8527,1,7895,8060,8061,7896
CQUADX4,8528,1,7896,8061,8062,7897
CQUADX4,8529,1,7897,8062,8063,7898
CQUADX4,8530,1,7898,8063,8064,7899
CQUADX4,8531,1,7899,8064,8065,7900
CQUADX4,8532,1,7900,8065,8066,7901
CQUADX4,8533,1,7901,8066,8067,7902
CQUADX4,8534,1,7902,8067,8068,7903
CQUADX4,8535,1,7903,8068,8069,7904
CQUADX4,8536,1,7904,8069,8070,7905
CQUADX4,8537,1,7905,8070,8071,7906
CQUADX4,8538,1,7906,8071,8072,7907
CQUADX4,8539,1,7907,8072,8073,7908
CQUADX4,8540,1,7908,8073,8074,7909
CQUADX4,8541,1,7909,8074,8075,7910
CQUADX4,8542,1,7910,8075,8076,7911
CQUADX4,8543,1,7911,8076,8077,7912
CQUADX4,8544,1,7912,8077,8078,7913
CQUADX4,8545,1,7913,8078,8079,7914
CQUADX4,8546,1,7914,8079,8080,7915
CQUADX4,8547,1,7915,8080,8081,7916
CQUADX4,8548,1,7916,8081,8082,7917
CQUADX4,8549,1,7917,8082,8083,7918
CQUADX4,8550,1,7918,8083,8084,7919
CQUADX4,8551,1,7919,8084,8085,7920
CQUADX4,8552,1,7920,8085,8086,7921
CQUADX4,8553,1,7921,8086,8087,7922
CQUADX4,8554,1,7922,8087,8088,7923
CQUADX4,8555,1,7923,8088,8089,7924
CQUADX4,8556,1,7924,8089,8090,7925
CQUADX4,8557,1,7925,8090,8091,7926
CQUADX4,8558,1,7926,8091,8092,7927
CQUADX4,8559,1,7927,8092,8093,7928
CQUADX4,8560,1,7928,8093,8094,7929
CQUADX4,8561,1,7929,8094,8095,7930
CQUADX4,8562,1,7930,8095,8096,7931
CQUADX4,8563,1,7931,8096,8097,7932
CQUADX4,8564,1,7932,8097,8098,7933
CQUADX4,8565,1,7933,8098,8099,7934
CQUADX4,8566,1,7934,8099,8100,7935
CQUADX4,8567,1,7935,8100,8101,7936
CQUADX4,8568,1,7936,8101,8102,7937
CQUADX4,8569,1,7937,8102,8103,7938
CQUADX4,8570,1,7938,8103,8104,7939
CQUADX4,8571,1,7939,8104,8105,7940
CQUADX4,8572,1,7940,8105,8106,7941
CQUADX4,8573,1,7941,8106,8107,7942
CQUADX4,8574,1,7942,8107,8108,7943
CQUADX4,8575,1,7943,8108,8109,7944
CQUADX4,8576,1,7944,8109,8110,7945
CQUADX4,8577,1,7945,8110,8111,7946
CQUADX4,8578,1,7946,8111,8112,7947
CQUADX4,8579,1,7947,8112,8113,7948
CQUADX4,8580,1,7948,8113,8114,7949
CQUADX4,8581,1,7949,8114,8115,7950
CQUADX4,8582,1,7950,8115,8116,7951
CQUADX4,8583,1,7951,8116,8117,7952
CQUADX4,8584,1,7952,8117,8118,7953
CQUADX4,8585,1,7953,8118,8119,7954
CQUADX4,8586,1,7954,8119,8120,7955
CQUADX4,8587,1,7955,8120,8121,7956
CQUADX4,8588,1,7956,8121,8122,7957
CQUADX4,8589,1,7957,8122,8123,7958
CQUADX4,8590,1,7958,8123,8124,7959
CQUADX4,8591,1,7959,8124,8125,7960
CQUADX4,8592,1,7960,8125,8126,7961
CQUADX4,8593,1,7961,8126,8127,7962
CQUADX4,8594,1,7962,8127,8128,7963
CQUADX4,8595,1,7963,8128,8129,7964
CQUADX4,8596,1,7964,8129,8130,7965
CQUADX4,8597,1,7965,8130,8131,7966
CQUADX4,8598,1,7966,8131,8132,7967
CQUADX4,8599,1,7967,8132,8133,7968
CQUADX4,8600,1,7968,8133,8134,7969
CQUADX4,8601,1,7969,8134,8135,7970
CQUADX4,8602,1,7970,8135,8136,7971
CQUADX4,8603,1,7971,8136,8137,7972
CQUADX4,8604,1,7972,8137,8138,7973
CQUADX4,8605,1,7973,8138,8139,7974
CQUADX4,8606,1,7974,8139,8140,7975
CQUADX4,8607,1,7975,8140,8141,7976
CQUADX4,8608,1,7976,8141,8142,7977
CQUADX4,8609,1,7977,8142,8143,7978
CQUADX4,8610,1,7978,8143,8144,7979
CQUADX4,8611,1,7979,8144,8145,7980
CQUADX4,8612,1,7980,8145,8146,7981
CQUADX4,8613,1,7981,8146,8147,7982
CQUADX4,8614,1,7982,8147,8148,7983
CQUADX4,8615,1,7983,8148,8149,7984
CQUADX4,8616,1,7984,8149,8150,7985
CQUADX4,8617,1,7985,8150,8151,7986
CQUADX4,8618,1,7986,8151,8152,7987
CQUADX4,8619,1,7987,8152,8153,7988
CQUADX4,8620,1,7988,8153,8154,7989
CQUADX4,8621,1,7989,8154,8155,7990
CQUADX4,8622,1,7990,8155,8156,7991
CQUADX4,8623,1,7991,8156,8157,7992
CQUADX4,8624,1,7992,8157,8158,7993
CQUADX4,8625,1,7993,8158,8159,7994
CQUADX4,8626,1,7994,8159,8160,7995
CQUADX4,8627,1,7995,8160,8161,7996
CQUADX4,8628,1,7996,8161,8162,7997
CQUADX4,8629,1,7997,8162,8163,7998
CQUADX4,8630,1,7998,8163,8164,7999
CQUADX4,8631,1,7999,8164,8165,8000
CQUADX4,8632,1,8000,8165,8166,8001
CQUADX4,8633,1,8001,8166,8167,8002
CQUADX4,8634,1,8002,8167,8168,8003
CQUADX4,8635,1,8003,8168,8169,8004
CQUADX4,8636,1,8004,8169,8170,8005
CQUADX4,8637,1,8005,8170,8171,8006
CQUADX4,8638,1,8006,8171,8172,8007
CQUADX4,8639,1,8007,8172,8173,8008
CQUADX4,8640,1,8008,8173,8174,8009
CQUADX4,8641,1,8009,8174,8175,8010
CQUADX4,8642,1,8010,8175,8176,8011
CQUADX4,8643,1,8011,8176,8177,8012
CQUADX4,8644,1,8012,8177,8178,8013
CQUADX4,8645,1,8013,8178,8179,8014
CQUADX4,8646,1,8014,8179,8180,8015
CQUADX4,8647,1,8015,8180,8181,8016
CQUADX4,8648,1,8016,8181,8182,8017
CQUADX4,8649,1,8017,8182,8183,8018
CQUADX4,8650,1,8018,8183,8184,8019
CQUADX4,8651,1,8019,8184,8185,8020
CQUADX4,8652,1,8020,8185,8186,8021
CQUADX4,8653,1,8021,8186,8187,8022
CQUADX4,8654,1,8022,8187,8188,8023
CQUADX4,8655,1,8023,8188,8189,8024
CQUADX4,8656,1,8024,8189,8190,8025
CQUADX4,8657,1,8025,8190,8191,8026
CQUADX4,8658,1,8026,8191,8192,8027
CQUADX4,8659,1,8027,8192,8193,8028
CQUADX4,8660,1,8028,8193,8194,8029
CQUADX4,8661,1,8030,8195,8196,8031
CQUADX4,8662,1,8031,8196,8197,8032
CQUADX4,8663,1,8032,8197,8198,8033
CQUADX4,8664,1,8033,8198,8199,8034
CQUADX4,8665,1,8034,8199,8200,8035
CQUADX4,8666,1,8035,8200,8201,8036
CQUADX4,8667,1,8036,8201,8202,8037
CQUADX4,8668,1,8037,8202,8203,8038
CQUADX4,8669,1,8038,8203,8204,8039
CQUADX4,8670,1,8039,8204,8205,8040
CQUADX4,8671,1,8040,8205,8206,8041
CQUADX4,8672,1,8041,8206,8207,8042
CQUADX4,8673,1,8042,8207,8208,8043
CQUADX4,8674,1,8043,8208,8209,8044
CQUADX4,8675,1,8044,8209,8210,8045
CQUADX4,8676,1,8045,8210,8211,8046
CQUADX4,8677,1,8046,8211,8212,8047
CQUADX4,8678,1,8047,8212,8213,8048
CQUADX4,8679,1,8048,8213,8214,8049
CQUADX4,8680,1,8049,8214,8215,8050
CQUADX4,8681,1,8050,8215,8216,8051
CQUADX4,8682,1,8051,8216,8217,8052
CQUADX4,8683,1,8052,8217,8218,8053
CQUADX4,8684,1,8053,8218,8219,8054
CQUADX4,8685,1,8054,8219,8220,8055
CQUADX4,8686,1,8055,8220,8221,8056
CQUADX4,8687,1,8056,8221,8222,8057
CQUADX4,8688,1,8057,8222,8223,8058
CQUADX4,8689,1,8058,8223,8224,8059
CQUADX4,8690,1,8059,8224,8225,8060
CQUADX4,8691,1,8060,8225,8226,8061
CQUADX4,8692,1,8061,8226,8227,8062
CQUADX4,8693,1,8062,8227,8228,8063
CQUADX4,8694,1,8063,8228,8229,8064
CQUADX4,8695,1,8064,8229,8230,8065
CQUADX4,8696,1,8065,8230,8231,8066
CQUADX4,8697,1,8066,8231,8232,8067
CQUADX4,8698,1,8067,8232,8233,8068
CQUADX4,8699,1,8068,8233,8234,8069
CQUADX4,8700,1,8069,8234,8235,8070
CQUADX4,8701,1,8070,8235,8236,8071
CQUADX4,8702,1,8071,8236,8237,8072
CQUADX4,8703,1,8072,8237,8238,8073
CQUADX4,8704,1,8073,8238,8239,8074
CQUADX4,8705,1,8074,8239,8240,8075
CQUADX4,8706,1,8075,8240,8241,8076
CQUADX4,8707,1,8076,8241,8242,8077
CQUADX4,8708,1,8077,8242,8243,8078
CQUADX4,8709,1,8078,8243,8244,8079
CQUADX4,8710,1,8079,8244,8245,8080
CQUADX4,8711,1,8080,8245,8246,8081
CQUADX4,8712,1,8081,8246,8247,8082
CQUADX4,8713,1,8082,8247,8248,8083
CQUADX4,8714,1,8083,8248,8249,8084
CQUADX4,8715,1,8084,8249,8250,8085
CQUADX4,8716,1,8085,8250,8251,8086
CQUADX4,8717,1,8086,8251,8252,8087
CQUADX4,8718,1,8087,8252,8253,8088
CQUADX4,8719,1,8088,8253,8254,8089
CQUADX4,8720,1,8089,8254,8255,8090
CQUADX4,8721,1,8090,8255,8256,8091
CQUADX4,8722,1,8091,8256,8257,8092
CQUADX4,8723,1,8092,8257,8258,8093
CQUADX4,8724,1,8093,8258,8259,8094
CQUADX4,8725,1,8094,8259,8260,8095
CQUADX4,8726,1,8095,8260,8261,8096
CQUADX4,8727,1,8096,8261,8262,8097
CQUADX4,8728,1,8097,8262,8263,8098
CQUADX4,8729,1,8098,8263,8264,8099
CQUADX4,8730,1,8099,8264,8265,8100
CQUADX4,8731,1,8100,8265,8266,8101
CQUADX4,8732,1,8101,8266,8267,8102
CQUADX4,8733,1,8102,8267,8268,8103
CQUADX4,8734,1,8103,8268,8269,8104
CQUADX4,8735,1,8104,8269,8270,8105
CQUADX4,8736,1,8105,8270,8271,8106
CQUADX4,8737,1,8106,8271,8272,8107
CQUADX4,8738,1,8107,8272,8273,8108
CQUADX4,8739,1,8108,8273,8274,8109
CQUADX4,8740,1,8109,8274,8275,8110
CQUADX4,8741,1,8110,8275,8276,8111
CQUADX4,8742,1,8111,8276,8277,8112
CQUADX4,8743,1,8112,8277,8278,8113
CQUADX4,8744,1,8113,8278,8279,8114
CQUADX4,8745,1,8114,8279,8280,8115
CQUADX4,8746,1,8115,8280,8281,8116
CQUADX4,8747,1,8116,8281,8282,8117
CQUADX4,8748,1,8117,8282,8283,8118
CQUADX4,8749,1,8118,8283,8284,8119
CQUADX4,8750,1,8119,8284,8285,8120
CQUADX4,8751,1,8120,8285,8286,8121
CQUADX4,8752,1,8121,8286,8287,8122
CQUADX4,8753,1,8122,8287,8288,8123
CQUADX4,8754,1,8123,8288,8289,8124
CQUADX4,8755,1,8124,8289,8290,8125
CQUADX4,8756,1,8125,8290,8291,8126
CQUADX4,8757,1,8126,8291,8292,8127
CQUADX4,8758,1,8127,8292,8293,8128
CQUADX4,8759,1,8128,8293,8294,8129
CQUADX4,8760,1,8129,8294,8295,8130
CQUADX4,8761,1,8130,8295,8296,8131
CQUADX4,8762,1,8131,8296,8297,8132
CQUADX4,8763,1,8132,8297,8298,8133
CQUADX4,8764,1,8133,8298,8299,8134
CQUADX4,8765,1,8134,8299,8300,8135
CQUADX4,8766,1,8135,8300,8301,8136
CQUADX4,8767,1,8136,8301,8302,8137
CQUADX4,8768,1,8137,8302,8303,8138
CQUADX4,8769,1,8138,8303,8304,8139
CQUADX4,8770,1,8139,8304,8305,8140
CQUADX4,8771,1,8140,8305,8306,8141
CQUADX4,8772,1,8141,8306,8307,8142
CQUADX4,8773,1,8142,8307,8308,8143
CQUADX4,8774,1,8143,8308,8309,8144
CQUADX4,8775,1,8144,8309,8310,8145
CQUADX4,8776,1,8145,8310,8311,8146
CQUADX4,8777,1,8146,8311,8312,8147
CQUADX4,8778,1,8147,8312,8313,8148
CQUADX4,8779,1,8148,8313,8314,8149
CQUADX4,8780,1,8149,8314,8315,8150
CQUADX4,8781,1,8150,8315,8316,8151
CQUADX4,8782,1,8151,8316,8317,8152
CQUADX4,8783,1,8152,8317,8318,8153
CQUADX4,8784,1,8153,8318,8319,8154
CQUADX4,8785,1,8154,8319,8320,8155
CQUADX4,8786,1,8155,8320,8321,8156
CQUADX4,8787,1,8156,8321,8322,8157
CQUADX4,8788,1,8157,8322,8323,8158
CQUADX4,8789,1,8158,8323,8324,8159
CQUADX4,8790,1,8159,8324,8325,8160
CQUADX4,8791,1,8160,8325,8326,8161
CQUADX4,8792,1,8161,8326,8327,8162
CQUADX4,8793,1,8162,8327,8328,8163
CQUADX4,8794,1,8163,8328,8329,8164
CQUADX4,8795,1,8164,8329,8330,8165
CQUADX4,8796,1,8165,8330,8331,8166
CQUADX4,8797,1,8166,8331,8332,8167
CQUADX4,8798,1,8167,8332,8333,8168
CQUADX4,8799,1,8168,8333,8334,8169
CQUADX4,8800,1,8169,8334,8335,8170
CQUADX4,8801,1,8170,8335,8336,8171
CQUADX4,8802,1,8171,8336,8337,8172
CQUADX4,8803,1,8172,8337,8338,8173
CQUADX4,8804,1,8173,8338,8339,8174
CQUADX4,8805,1,8174,8339,8340,8175
CQUADX4,8806,1,8175,8340,8341,8176
CQUADX4,8807,1,8176,8341,8342,8177
CQUADX4,8808,1,8177,8342,8343,8178
CQUADX4,8809,1,8178,8343,8344,8179
CQUADX4,8810,1,8179,8344,8345,8180
CQUADX4,8811,1,8180,8345,8346,8181
CQUADX4,8812,1,8181,8346,8347,8182
CQUADX4,8813,1,8182,8347,8348,8183
CQUADX4,8814,1,8183,8348,8349,8184
CQUADX4,8815,1,8184,8349,8350,8185
CQUADX4,8816,1,8185,8350,8351,8186
CQUADX4,8817,1,8186,8351,8352,8187
CQUADX4,8818,1,8187,8352,8353,8188
CQUADX4,8819,1,8188,8353,8354,8189
CQUADX4,8820,1,8189,8354,8355,8190
CQUADX4,8821,1,8190,8355,8356,8191
CQUADX4,8822,1,8191,8356,8357,8192
CQUADX4,8823,1,8192,8357,8358,8193
CQUADX4,8824,1,8193,8358,8359,8194
CQUADX4,8825,1,8195,8360,8361,8196
CQUADX4,8826,1,8196,8361,8362,8197
CQUADX4,8827,1,8197,8362,8363,8198
CQUADX4,8828,1,8198,8363,8364,8199
CQUADX4,8829,1,8199,8364,8365,8200
CQUADX4,8830,1,8200,8365,8366,8201
CQUADX4,8831,1,8201,8366,8367,8202
CQUADX4,8832,1,8202,8367,8368,8203
CQUADX4,8833,1,8203,8368,8369,8204
CQUADX4,8834,1,8204,8369,8370,8205
CQUADX4,8835,1,8205,8370,8371,8206
CQUADX4,8836,1,8206,8371,8372,8207
CQUADX4,8837,1,8207,8372,8373,8208
CQUADX4,8838,1,8208,8373,8374,8209
CQUADX4,8839,1,8209,8374,8375,8210
CQUADX4,8840,1,8210,8375,8376,8211
CQUADX4,8841,1,8211,8376,8377,8212
CQUADX4,8842,1,8212,8377,8378,8213
CQUADX4,8843,1,8213,8378,8379,8214
CQUADX4,8844,1,8214,8379,8380,8215
CQUADX4,8845,1,8215,8380,8381,8216
CQUADX4,8846,1,8216,8381,8382,8217
CQUADX4,8847,1,8217,8382,8383,8218
CQUADX4,8848,1,8218,8383,8384,8219
CQUADX4,8849,1,8219,8384,8385,8220
CQUADX4,8850,1,8220,8385,8386,8221
CQUADX4,8851,1,8221,8386,8387,8222
CQUADX4,8852,1,8222,8387,8388,8223
CQUADX4,8853,1,8223,8388,8389,8224
CQUADX4,8854,1,8224,8389,8390,8225
CQUADX4,8855,1,8225,8390,8391,8226
CQUADX4,8856,1,8226,8391,8392,8227
CQUADX4,8857,1,8227,8392,8393,8228
CQUADX4,8858,1,8228,8393,8394,8229
CQUADX4,8859,1,8229,8394,8395,8230
CQUADX4,8860,1,8230,8395,8396,8231
CQUADX4,8861,1,8231,8396,8397,8232
CQUADX4,8862,1,8232,8397,8398,8233
CQUADX4,8863,1,8233,8398,8399,8234
CQUADX4,8864,1,8234,8399,8400,8235
CQUADX4,8865,1,8235,8400,8401,8236
CQUADX4,8866,1,8236,8401,8402,8237
CQUADX4,8867,1,8237,8402,8403,8238
CQUADX4,8868,1,8238,8403,8404,8239
CQUADX4,8869,1,8239,8404,8405,8240
CQUADX4,8870,1,8240,8405,8406,8241
CQUADX4,8871,1,8241,8406,8407,8242
CQUADX4,8872,1,8242,8407,8408,8243
CQUADX4,8873,1,8243,8408,8409,8244
CQUADX4,8874,1,8244,8409,8410,8245
CQUADX4,8875,1,8245,8410,8411,8246
CQUADX4,8876,1,8246,8411,8412,8247
CQUADX4,8877,1,8247,8412,8413,8248
CQUADX4,8878,1,8248,8413,8414,8249
CQUADX4,8879,1,8249,8414,8415,8250
CQUADX4,8880,1,8250,8415,8416,8251
CQUADX4,8881,1,8251,8416,8417,8252
CQUADX4,8882,1,8252,8417,8418,8253
CQUADX4,8883,1,8253,8418,8419,8254
CQUADX4,8884,1,8254,8419,8420,8255
CQUADX4,8885,1,8255,8420,8421,8256
CQUADX4,8886,1,8256,8421,8422,8257
CQUADX4,8887,1,8257,8422,8423,8258
CQUADX4,8888,1,8258,8423,8424,8259
CQUADX4,8889,1,8259,8424,8425,8260
CQUADX4,8890,1,8260,8425,8426,8261
CQUADX4,8891,1,8261,8426,8427,8262
CQUADX4,8892,1,8262,8427,8428,8263
CQUADX4,8893,1,8263,8428,8429,8264
CQUADX4,8894,1,8264,8429,8430,8265
CQUADX4,8895,1,8265,8430,8431,8266
CQUADX4,8896,1,8266,8431,8432,8267
CQUADX4,8897,1,8267,8432,8433,8268
CQUADX4,8898,1,8268,8433,8434,8269
CQUADX4,8899,1,8269,8434,8435,8270
CQUADX4,8900,1,8270,8435,8436,8271
CQUADX4,8901,1,8271,8436,8437,8272
CQUADX4,8902,1,8272,8437,8438,8273
CQUADX4,8903,1,8273,8438,8439,8274
CQUADX4,8904,1,8274,8439,8440,8275
CQUADX4,8905,1,8275,8440,8441,8276
CQUADX4,8906,1,8276,8441,8442,8277
CQUADX4,8907,1,8277,8442,8443,8278
CQUADX4,8908,1,8278,8443,8444,8279
CQUADX4,8909,1,8279,8444,8445,8280
CQUADX4,8910,1,8280,8445,8446,8281
CQUADX4,8911,1,8281,8446,8447,8282
CQUADX4,8912,1,8282,8447,8448,8283
CQUADX4,8913,1,8283,8448,8449,8284
CQUADX4,8914,1,8284,8449,8450,8285
CQUADX4,8915,1,8285,8450,8451,8286
CQUADX4,8916,1,8286,8451,8452,8287
CQUADX4,8917,1,8287,8452,8453,8288
CQUADX4,8918,1,8288,8453,8454,8289
CQUADX4,8919,1,8289,8454,8455,8290
CQUADX4,8920,1,8290,8455,8456,8291
CQUADX4,8921,1,8291,8456,8457,8292
CQUADX4,8922,1,8292,8457,8458,8293
CQUADX4,8923,1,8293,8458,8459,8294
CQUADX4,8924,1,8294,8459,8460,8295
CQUADX4,8925,1,8295,8460,8461,8296
CQUADX4,8926,1,8296,8461,8462,8297
CQUADX4,8927,1,8297,8462,8463,8298
CQUADX4,8928,1,8298,8463,8464,8299
CQUADX4,8929,1,8299,8464,8465,8300
CQUADX4,8930,1,8300,8465,8466,8301
CQUADX4,8931,1,8301,8466,8467,8302
CQUADX4,8932,1,8302,8467,8468,8303
CQUADX4,8933,1,8303,8468,8469,8304
CQUADX4,8934,1,8304,8469,8470,8305
CQUADX4,8935,1,8305,8470,8471,8306
CQUADX4,8936,1,8306,8471,8472,8307
CQUADX4,8937,1,8307,8472,8473,8308
CQUADX4,8938,1,8308,8473,8474,8309
CQUADX4,8939,1,8309,8474,8475,8310
CQUADX4,8940,1,8310,8475,8476,8311
CQUADX4,8941,1,8311,8476,8477,8312
CQUADX4,8942,1,8312,8477,8478,8313
CQUADX4,8943,1,8313,8478,8479,8314
CQUADX4,8944,1,8314,8479,8480,8315
CQUADX4,8945,1,8315,8480,8481,8316
CQUADX4,8946,1,8316,8481,8482,8317
CQUADX4,8947,1,8317,8482,8483,8318
CQUADX4,8948,1,8318,8483,8484,8319
CQUADX4,8949,1,8319,8484,8485,8320
CQUADX4,8950,1,8320,8485,8486,8321
CQUADX4,8951,1,8321,8486,8487,8322
CQUADX4,8952,1,8322,8487,8488,8323
CQUADX4,8953,1,8323,8488,8489,8324
CQUADX4,8954,1,8324,8489,8490,8325
CQUADX4,8955,1,8325,8490,8491,8326
CQUADX4,8956,1,8326,8491,8492,8327
CQUADX4,8957,1,8327,8492,8493,8328
CQUADX4,8958,1,8328,8493,8494,8329
CQUADX4,8959,1,8329,8494,8495,8330
CQUADX4,8960,1,8330,8495,8496,8331
CQUADX4,8961,1,8331,8496,8497,8332
CQUADX4,8962,1,8332,8497,8498,8333
CQUADX4,8963,1,8333,8498,8499,8334
CQUADX4,8964,1,8334,8499,8500,8335
CQUADX4,8965,1,8335,8500,8501,8336
CQUADX4,8966,1,8336,8501,8502,8337
CQUADX4,8967,1,8337,8502,8503,8338
CQUADX4,8968,1,8338,8503,8504,8339
CQUADX4,8969,1,8339,8504,8505,8340
CQUADX4,8970,1,8340,8505,8506,8341
CQUADX4,8971,1,8341,8506,8507,8342
CQUADX4,8972,1,8342,8507,8508,8343
CQUADX4,8973,1,8343,8508,8509,8344
CQUADX4,8974,1,8344,8509,8510,8345
CQUADX4,8975,1,8345,8510,8511,8346
CQUADX4,8976,1,8346,8511,8512,8347
CQUADX4,8977,1,8347,8512,8513,8348
CQUADX4,8978,1,8348,8513,8514,8349
CQUADX4,8979,1,8349,8514,8515,8350
CQUADX4,8980,1,8350,8515,8516,8351
CQUADX4,8981,1,8351,8516,8517,8352
CQUADX4,8982,1,8352,8517,8518,8353
CQUADX4,8983,1,8353,8518,8519,8354
CQUADX4,8984,1,8354,8519,8520,8355
CQUADX4,8985,1,8355,8520,8521,8356
CQUADX4,8986,1,8356,8521,8522,8357
CQUADX4,8987,1,8357,8522,8523,8358
CQUADX4,8988,1,8358,8523,8524,8359
CQUADX4,8989,1,8360,8525,8526,8361
CQUADX4,8990,1,8361,8526,8527,8362
CQUADX4,8991,1,8362,8527,8528,8363
CQUADX4,8992,1,8363,8528,8529,8364
CQUADX4,8993,1,8364,8529,8530,8365
CQUADX4,8994,1,8365,8530,8531,8366
CQUADX4,8995,1,8366,8531,8532,8367
CQUADX4,8996,1,8367,8532,8533,8368
CQUADX4,8997,1,8368,8533,8534,8369
CQUADX4,8998,1,8369,8534,8535,8370
CQUADX4,8999,1,8370,8535,8536,8371
CQUADX4,9000,1,8371,8536,8537,8372
CQUADX4,9001,1,8372,8537,8538,8373
CQUADX4,9002,1,8373,8538,8539,8374
CQUADX4,9003,1,8374,8539,8540,8375
CQUADX4,9004,1,8375,8540,8541,8376
CQUADX4,9005,1,8376,8541,8542,8377
CQUADX4,9006,1,8377,8542,8543,8378
CQUADX4,9007,1,8378,8543,8544,8379
CQUADX4,9008,1,8379,8544,8545,8380
CQUADX4,9009,1,8380,8545,8546,8381
CQUADX4,9010,1,8381,8546,8547,8382
CQUADX4,9011,1,8382,8547,8548,8383
CQUADX4,9012,1,8383,8548,8549,8384
CQUADX4,9013,1,8384,8549,8550,8385
CQUADX4,9014,1,8385,8550,8551,8386
CQUADX4,9015,1,8386,8551,8552,8387
CQUADX4,9016,1,8387,8552,8553,8388
CQUADX4,9017,1,8388,8553,8554,8389
CQUADX4,9018,1,8389,8554,8555,8390
CQUADX4,9019,1,8390,8555,8556,8391
CQUADX4,9020,1,8391,8556,8557,8392
CQUADX4,9021,1,8392,8557,8558,8393
CQUADX4,9022,1,8393,8558,8559,8394
CQUADX4,9023,1,8394,8559,8560,8395
CQUADX4,9024,1,8395,8560,8561,8396
CQUADX4,9025,1,8396,8561,8562,8397
CQUADX4,9026,1,8397,8562,8563,8398
CQUADX4,9027,1,8398,8563,8564,8399
CQUADX4,9028,1,8399,8564,8565,8400
CQUADX4,9029,1,8400,8565,8566,8401
CQUADX4,9030,1,8401,8566,8567,8402
CQUADX4,9031,1,8402,8567,8568,8403
CQUADX4,9032,1,8403,8568,8569,8404
CQUADX4,9033,1,8404,8569,8570,8405
CQUADX4,9034,1,8405,8570,8571,8406
CQUADX4,9035,1,8406,8571,8572,8407
CQUADX4,9036,1,8407,8572,8573,8408
CQUADX4,9037,1,8408,8573,8574,8409
CQUADX4,9038,1,8409,8574,8575,8410
CQUADX4,9039,1,8410,8575,8576,8411
CQUADX4,9040,1,8411,8576,8577,8412
CQUADX4,9041,1,8412,8577,8578,8413
CQUADX4,9042,1,8413,8578,8579,8414
CQUADX4,9043,1,8414,8579,8580,8415
CQUADX4,9044,1,8415,8580,8581,8416
CQUADX4,9045,1,8416,8581,8582,8417
CQUADX4,9046,1,8417,8582,8583,8418
CQUADX4,9047,1,8418,8583,8584,8419
CQUADX4,9048,1,8419,8584,8585,8420
CQUADX4,9049,1,8420,8585,8586,8421
CQUADX4,9050,1,8421,8586,8587,8422
CQUADX4,9051,1,8422,8587,8588,8423
CQUADX4,9052,1,8423,8588,8589,8424
CQUADX4,9053,1,8424,8589,8590,8425
CQUADX4,9054,1,8425,8590,8591,8426
CQUADX4,9055,1,8426,8591,8592,8427
CQUADX4,9056,1,8427,8592,8593,8428
CQUADX4,9057,1,8428,8593,8594,8429
CQUADX4,9058,1,8429,8594,8595,8430
CQUADX4,9059,1,8430,8595,8596,8431
CQUADX4,9060,1,8431,8596,8597,8432
CQUADX4,9061,1,8432,8597,8598,8433
CQUADX4,9062,1,8433,8598,8599,8434
CQUADX4,9063,1,8434,8599,8600,8435
CQUADX4,9064,1,8435,8600,8601,8436
CQUADX4,9065,1,8436,8601,8602,8437
CQUADX4,9066,1,8437,8602,8603,8438
CQUADX4,9067,1,8438,8603,8604,8439
CQUADX4,9068,1,8439,8604,8605,8440
CQUADX4,9069,1,8440,8605,8606,8441
CQUADX4,9070,1,8441,8606,8607,8442
CQUADX4,9071,1,8442,8607,8608,8443
CQUADX4,9072,1,8443,8608,8609,8444
CQUADX4,9073,1,8444,8609,8610,8445
CQUADX4,9074,1,8445,8610,8611,8446
CQUADX4,9075,1,8446,8611,8612,8447
CQUADX4,9076,1,8447,8612,8613,8448
CQUADX4,9077,1,8448,8613,8614,8449
CQUADX4,9078,1,8449,8614,8615,8450
CQUADX4,9079,1,8450,8615,8616,8451
CQUADX4,9080,1,8451,8616,8617,8452
CQUADX4,9081,1,8452,8617,8618,8453
CQUADX4,9082,1,8453,8618,8619,8454
CQUADX4,9083,1,8454,8619,8620,8455
CQUADX4,9084,1,8455,8620,8621,8456
CQUADX4,9085,1,8456,8621,8622,8457
CQUADX4,9086,1,8457,8622,8623,8458
CQUADX4,9087,1,8458,8623,8624,8459
CQUADX4,9088,1,8459,8624,8625,8460
CQUADX4,9089,1,8460,8625,8626,8461
CQUADX4,9090,1,8461,8626,8627,8462
CQUADX4,9091,1,8462,8627,8628,8463
CQUADX4,9092,1,8463,8628,8629,8464
CQUADX4,9093,1,8464,8629,8630,8465
CQUADX4,9094,1,8465,8630,8631,8466
CQUADX4,9095,1,8466,8631,8632,8467
CQUADX4,9096,1,8467,8632,8633,8468
CQUADX4,9097,1,8468,8633,8634,8469
CQUADX4,9098,1,8469,8634,8635,8470
CQUADX4,9099,1,8470,8635,8636,8471
CQUADX4,9100,1,8471,8636,8637,8472
CQUADX4,9101,1,8472,8637,8638,8473
CQUADX4,9102,1,8473,8638,8639,8474
CQUADX4,9103,1,8474,8639,8640,8475
CQUADX4,9104,1,8475,8640,8641,8476
CQUADX4,9105,1,8476,8641,8642,8477
CQUADX4,9106,1,8477,8642,8643,8478
CQUADX4,9107,1,8478,8643,8644,8479
CQUADX4,9108,1,8479,8644,8645,8480
CQUADX4,9109,1,8480,8645,8646,8481
CQUADX4,9110,1,8481,8646,8647,8482
CQUADX4,9111,1,8482,8647,8648,8483
CQUADX4,9112,1,8483,8648,8649,8484
CQUADX4,9113,1,8484,8649,8650,8485
CQUADX4,9114,1,8485,8650,8651,8486
CQUADX4,9115,1,8486,8651,8652,8487
CQUADX4,9116,1,8487,8652,8653,8488
CQUADX4,9117,1,8488,8653,8654,8489
CQUADX4,9118,1,8489,8654,8655,8490
CQUADX4,9119,1,8490,8655,8656,8491
CQUADX4,9120,1,8491,8656,8657,8492
CQUADX4,9121,1,8492,8657,8658,8493
CQUADX4,9122,1,8493,8658,8659,8494
CQUADX4,9123,1,8494,8659,8660,8495
CQUADX4,9124,1,8495,8660,8661,8496
CQUADX4,9125,1,8496,8661,8662,8497
CQUADX4,9126,1,8497,8662,8663,8498
CQUADX4,9127,1,8498,8663,8664,8499
CQUADX4,9128,1,8499,8664,8665,8500
CQUADX4,9129,1,8500,8665,8666,8501
CQUADX4,9130,1,8501,8666,8667,8502
CQUADX4,9131,1,8502,8667,8668,8503
CQUADX4,9132,1,8503,8668,8669,8504
CQUADX4,9133,1,8504,8669,8670,8505
CQUADX4,9134,1,8505,8670,8671,8506
CQUADX4,9135,1,8506,8671,8672,8507
CQUADX4,9136,1,8507,8672,8673,8508
CQUADX4,9137,1,8508,8673,8674,8509
CQUADX4,9138,1,8509,8674,8675,8510
CQUADX4,9139,1,8510,8675,8676,8511
CQUADX4,9140,1,8511,8676,8677,8512
CQUADX4,9141,1,8512,8677,8678,8513
CQUADX4,9142,1,8513,8678,8679,8514
CQUADX4,9143,1,8514,8679,8680,8515
CQUADX4,9144,1,8515,8680,8681,8516
CQUADX4,9145,1,8516,8681,8682,8517
CQUADX4,9146,1,8517,8682,8683,8518
CQUADX4,9147,1,8518,8683,8684,8519
CQUADX4,9148,1,8519,8684,8685,8520
CQUADX4,9149,1,8520,8685,8686,8521
CQUADX4,9150,1,8521,8686,8687,8522
CQUADX4,9151,1,8522,8687,8688,8523
CQUADX4,9152,1,8523,8688,8689,8524
CQUADX4,9153,1,8525,8690,8691,8526
CQUADX4,9154,1,8526,8691,8692,8527
CQUADX4,9155,1,8527,8692,8693,8528
CQUADX4,9156,1,8528,8693,8694,8529
CQUADX4,9157,1,8529,8694,8695,8530
CQUADX4,9158,1,8530,8695,8696,8531
CQUADX4,9159,1,8531,8696,8697,8532
CQUADX4,9160,1,8532,8697,8698,8533
CQUADX4,9161,1,8533,8698,8699,8534
CQUADX4,9162,1,8534,8699,8700,8535
CQUADX4,9163,1,8535,8700,8701,8536
CQUADX4,9164,1,8536,8701,8702,8537
CQUADX4,9165,1,8537,8702,8703,8538
CQUADX4,9166,1,8538,8703,8704,8539
CQUADX4,9167,1,8539,8704,8705,8540
CQUADX4,9168,1,8540,8705,8706,8541
CQUADX4,9169,1,8541,8706,8707,8542
CQUADX4,9170,1,8542,8707,8708,8543
CQUADX4,9171,1,8543,8708,8709,8544
CQUADX4,9172,1,8544,8709,8710,8545
CQUADX4,9173,1,8545,8710,8711,8546
CQUADX4,9174,1,8546,8711,8712,8547
CQUADX4,9175,1,8547,8712,8713,8548
CQUADX4,9176,1,8548,8713,8714,8549
CQUADX4,9177,1,8549,8714,8715,8550
CQUADX4,9178,1,8550,8715,8716,8551
CQUADX4,9179,1,8551,8716,8717,8552
CQUADX4,9180,1,8552,8717,8718,8553
CQUADX4,9181,1,8553,8718,8719,8554
CQUADX4,9182,1,8554,8719,8720,8555
CQUADX4,9183,1,8555,8720,8721,8556
CQUADX4,9184,1,8556,8721,8722,8557
CQUADX4,9185,1,8557,8722,8723,8558
CQUADX4,9186,1,8558,8723,8724,8559
CQUADX4,9187,1,8559,8724,8725,8560
CQUADX4,9188,1,8560,8725,8726,8561
CQUADX4,9189,1,8561,8726,8727,8562
CQUADX4,9190,1,8562,8727,8728,8563
CQUADX4,9191,1,8563,8728,8729,8564
CQUADX4,9192,1,8564,8729,8730,8565
CQUADX4,9193,1,8565,8730,8731,8566
CQUADX4,9194,1,8566,8731,8732,8567
CQUADX4,9195,1,8567,8732,8733,8568
CQUADX4,9196,1,8568,8733,8734,8569
CQUADX4,9197,1,8569,8734,8735,8570
CQUADX4,9198,1,8570,8735,8736,8571
CQUADX4,9199,1,8571,8736,8737,8572
CQUADX4,9200,1,8572,8737,8738,8573
CQUADX4,9201,1,8573,8738,8739,8574
CQUADX4,9202,1,8574,8739,8740,8575
CQUADX4,9203,1,8575,8740,8741,8576
CQUADX4,9204,1,8576,8741,8742,8577
CQUADX4,9205,1,8577,8742,8743,8578
CQUADX4,9206,1,8578,8743,8744,8579
CQUADX4,9207,1,8579,8744,8745,8580
CQUADX4,9208,1,8580,8745,8746,8581
CQUADX4,9209,1,8581,8746,8747,8582
CQUADX4,9210,1,8582,8747,8748,8583
CQUADX4,9211,1,8583,8748,8749,8584
CQUADX4,9212,1,8584,8749,8750,8585
CQUADX4,9213,1,8585,8750,8751,8586
CQUADX4,9214,1,8586,8751,8752,8587
CQUADX4,9215,1,8587,8752,8753,8588
CQUADX4,9216,1,8588,8753,8754,8589
CQUADX4,9217,1,8589,8754,8755,8590
CQUADX4,9218,1,8590,8755,8756,8591
CQUADX4,9219,1,8591,8756,8757,8592
CQUADX4,9220,1,8592,8757,8758,8593
CQUADX4,9221,1,8593,8758,8759,8594
CQUADX4,9222,1,8594,8759,8760,8595
CQUADX4,9223,1,8595,8760,8761,8596
CQUADX4,9224,1,8596,8761,8762,8597
CQUADX4,9225,1,8597,8762,8763,8598
CQUADX4,9226,1,8598,8763,8764,8599
CQUADX4,9227,1,8599,8764,8765,8600
CQUADX4,9228,1,8600,8765,8766,8601
CQUADX4,9229,1,8601,8766,8767,8602
CQUADX4,9230,1,8602,8767,8768,8603
CQUADX4,9231,1,8603,8768,8769,8604
CQUADX4,9232,1,8604,8769,8770,8605
CQUADX4,9233,1,8605,8770,8771,8606
CQUADX4,9234,1,8606,8771,8772,8607
CQUADX4,9235,1,8607,8772,8773,8608
CQUADX4,9236,1,8608,8773,8774,8609
CQUADX4,9237,1,8609,8774,8775,8610
CQUADX4,9238,1,8610,8775,8776,8611
CQUADX4,9239,1,8611,8776,8777,8612
CQUADX4,9240,1,8612,8777,8778,8613
CQUADX4,9241,1,8613,8778,8779,8614
CQUADX4,9242,1,8614,8779,8780,8615
CQUADX4,9243,1,8615,8780,8781,8616
CQUADX4,9244,1,8616,8781,8782,8617
CQUADX4,9245,1,8617,8782,8783,8618
CQUADX4,9246,1,8618,8783,8784,8619
CQUADX4,9247,1,8619,8784,8785,8620
CQUADX4,9248,1,8620,8785,8786,8621
CQUADX4,9249,1,8621,8786,8787,8622
CQUADX4,9250,1,8622,8787,8788,8623
CQUADX4,9251,1,8623,8788,8789,8624
CQUADX4,9252,1,8624,8789,8790,8625
CQUADX4,9253,1,8625,8790,8791,8626
CQUADX4,9254,1,8626,8791,8792,8627
CQUADX4,9255,1,8627,8792,8793,8628
CQUADX4,9256,1,8628,8793,8794,8629
CQUADX4,9257,1,8629,8794,8795,8630
CQUADX4,9258,1,8630,8795,8796,8631
CQUADX4,9259,1,8631,8796,8797,8632
CQUADX4,9260,1,8632,8797,8798,8633
CQUADX4,9261,1,8633,8798,8799,8634
CQUADX4,9262,1,8634,8799,8800,8635
CQUADX4,9263,1,8635,8800,8801,8636
CQUADX4,9264,1,8636,8801,8802,8637
CQUADX4,9265,1,8637,8802,8803,8638
CQUADX4,9266,1,8638,8803,8804,8639
CQUADX4,9267,1,8639,8804,8805,8640
CQUADX4,9268,1,8640,8805,8806,8641
CQUADX4,9269,1,8641,8806,8807,8642
CQUADX4,9270,1,8642,8807,8808,8643
CQUADX4,9271,1,8643,8808,8809,8644
CQUADX4,9272,1,8644,8809,8810,8645
CQUADX4,9273,1,8645,8810,8811,8646
CQUADX4,9274,1,8646,8811,8812,8647
CQUADX4,9275,1,8647,8812,8813,8648
CQUADX4,9276,1,8648,8813,8814,8649
CQUADX4,9277,1,8649,8814,8815,8650
CQUADX4,9278,1,8650,8815,8816,8651
CQUADX4,9279,1,8651,8816,8817,8652
CQUADX4,9280,1,8652,8817,8818,8653
CQUADX4,9281,1,8653,8818,8819,8654
CQUADX4,9282,1,8654,8819,8820,8655
CQUADX4,9283,1,8655,8820,8821,8656
CQUADX4,9284,1,8656,8821,8822,8657
CQUADX4,9285,1,8657,8822,8823,8658
CQUADX4,9286,1,8658,8823,8824,8659
CQUADX4,9287,1,8659,8824,8825,8660
CQUADX4,9288,1,8660,8825,8826,8661
CQUADX4,9289,1,8661,8826,8827,8662
CQUADX4,9290,1,8662,8827,8828,8663
CQUADX4,9291,1,8663,8828,8829,8664
CQUADX4,9292,1,8664,8829,8830,8665
CQUADX4,9293,1,8665,8830,8831,8666
CQUADX4,9294,1,8666,8831,8832,8667
CQUADX4,9295,1,8667,8832,8833,8668
CQUADX4,9296,1,8668,8833,8834,8669
CQUADX4,9297,1,8669,8834,8835,8670
CQUADX4,9298,1,8670,8835,8836,8671
CQUADX4,9299,1,8671,8836,8837,8672
CQUADX4,9300,1,8672,8837,8838,8673
CQUADX4,9301,1,8673,8838,8839,8674
CQUADX4,9302,1,8674,8839,8840,8675
CQUADX4,9303,1,8675,8840,8841,8676
CQUADX4,9304,1,8676,8841,8842,8677
CQUADX4,9305,1,8677,8842,8843,8678
CQUADX4,9306,1,8678,8843,8844,8679
CQUADX4,9307,1,8679,8844,8845,8680
CQUADX4,9308,1,8680,8845,8846,8681
CQUADX4,9309,1,8681,8846,8847,8682
CQUADX4,9310,1,8682,8847,8848,8683
CQUADX4,9311,1,8683,8848,8849,8684
CQUADX4,9312,1,8684,8849,8850,8685
CQUADX4,9313,1,8685,8850,8851,8686
CQUADX4,9314,1,8686,8851,8852,8687
CQUADX4,9315,1,8687,8852,8853,8688
CQUADX4,9316,1,8688,8853,8854,8689
CQUADX4,9317,1,8690,8855,8856,8691
CQUADX4,9318,1,8691,8856,8857,8692
CQUADX4,9319,1,8692,8857,8858,8693
CQUADX4,9320,1,8693,8858,8859,8694
CQUADX4,9321,1,8694,8859,8860,8695
CQUADX4,9322,1,8695,8860,8861,8696
CQUADX4,9323,1,8696,8861,8862,8697
CQUADX4,9324,1,8697,8862,8863,8698
CQUADX4,9325,1,8698,8863,8864,8699
CQUADX4,9326,1,8699,8864,8865,8700
CQUADX4,9327,1,8700,8865,8866,8701
CQUADX4,9328,1,8701,8866,8867,8702
CQUADX4,9329,1,8702,8867,8868,8703
CQUADX4,9330,1,8703,8868,8869,8704
CQUADX4,9331,1,8704,8869,8870,8705
CQUADX4,9332,1,8705,8870,8871,8706
CQUADX4,9333,1,8706,8871,8872,8707
CQUADX4,9334,1,8707,8872,8873,8708
CQUADX4,9335,1,8708,8873,8874,8709
CQUADX4,9336,1,8709,8874,8875,8710
CQUADX4,9337,1,8710,8875,8876,8711
CQUADX4,9338,1,8711,8876,8877,8712
CQUADX4,9339,1,8712,8877,8878,8713
CQUADX4,9340,1,8713,8878,8879,8714
CQUADX4,9341,1,8714,8879,8880,8715
CQUADX4,9342,1,8715,8880,8881,8716
CQUADX4,9343,1,8716,8881,8882,8717
CQUADX4,9344,1,8717,8882,8883,8718
CQUADX4,9345,1,8718,8883,8884,8719
CQUADX4,9346,1,8719,8884,8885,8720
CQUADX4,9347,1,8720,8885,8886,8721
CQUADX4,9348,1,8721,8886,8887,8722
CQUADX4,9349,1,8722,8887,8888,8723
CQUADX4,9350,1,8723,8888,8889,8724
CQUADX4,9351,1,8724,8889,8890,8725
CQUADX4,9352,1,8725,8890,8891,8726
CQUADX4,9353,1,8726,8891,8892,8727
CQUADX4,9354,1,8727,8892,8893,8728
CQUADX4,9355,1,8728,8893,8894,8729
CQUADX4,9356,1,8729,8894,8895,8730
CQUADX4,9357,1,8730,8895,8896,8731
CQUADX4,9358,1,8731,8896,8897,8732
CQUADX4,9359,1,8732,8897,8898,8733
CQUADX4,9360,1,8733,8898,8899,8734
CQUADX4,9361,1,8734,8899,8900,8735
CQUADX4,9362,1,8735,8900,8901,8736
CQUADX4,9363,1,8736,8901,8902,8737
CQUADX4,9364,1,8737,8902,8903,8738
CQUADX4,9365,1,8738,8903,8904,8739
CQUADX4,9366,1,8739,8904,8905,8740
CQUADX4,9367,1,8740,8905,8906,8741
CQUADX4,9368,1,8741,8906,8907,8742
CQUADX4,9369,1,8742,8907,8908,8743
CQUADX4,9370,1,8743,8908,8909,8744
CQUADX4,9371,1,8744,8909,8910,8745
CQUADX4,9372,1,8745,8910,8911,8746
CQUADX4,9373,1,8746,8911,8912,8747
CQUADX4,9374,1,8747,8912,8913,8748
CQUADX4,9375,1,8748,8913,8914,8749
CQUADX4,9376,1,8749,8914,8915,8750
CQUADX4,9377,1,8750,8915,8916,8751
CQUADX4,9378,1,8751,8916,8917,8752
CQUADX4,9379,1,8752,8917,8918,8753
CQUADX4,9380,1,8753,8918,8919,8754
CQUADX4,9381,1,8754,8919,8920,8755
CQUADX4,9382,1,8755,8920,8921,8756
CQUADX4,9383,1,8756,8921,8922,8757
CQUADX4,9384,1,8757,8922,8923,8758
CQUADX4,9385,1,8758,8923,8924,8759
CQUADX4,9386,1,8759,8924,8925,8760
CQUADX4,9387,1,8760,8925,8926,8761
CQUADX4,9388,1,8761,8926,8927,8762
CQUADX4,9389,1,8762,8927,8928,8763
CQUADX4,9390,1,8763,8928,8929,8764
CQUADX4,9391,1,8764,8929,8930,8765
CQUADX4,9392,1,8765,8930,8931,8766
CQUADX4,9393,1,8766,8931,8932,8767
CQUADX4,9394,1,8767,8932,8933,8768
CQUADX4,9395,1,8768,8933,8934,8769
CQUADX4,9396,1,8769,8934,8935,8770
CQUADX4,9397,1,8770,8935,8936,8771
CQUADX4,9398,1,8771,8936,8937,8772
CQUADX4,9399,1,8772,8937,8938,8773
CQUADX4,9400,1,8773,8938,8939,8774
CQUADX4,9401,1,8774,8939,8940,8775
CQUADX4,9402,1,8775,8940,8941,8776
CQUADX4,9403,1,8776,8941,8942,8777
CQUADX4,9404,1,8777,8942,8943,8778
CQUADX4,9405,1,8778,8943,8944,8779
CQUADX4,9406,1,8779,8944,8945,8780
CQUADX4,9407,1,8780,8945,8946,8781
CQUADX4,9408,1,8781,8946,8947,8782
CQUADX4,9409,1,8782,8947,8948,8783
CQUADX4,9410,1,8783,8948,8949,8784
CQUADX4,9411,1,8784,8949,8950,8785
CQUADX4,9412,1,8785,8950,8951,8786
CQUADX4,9413,1,8786,8951,8952,8787
CQUADX4,9414,1,8787,8952,8953,8788
CQUADX4,9415,1,8788,8953,8954,8789
CQUADX4,9416,1,8789,8954,8955,8790
CQUADX4,9417,1,8790,8955,8956,8791
CQUADX4,9418,1,8791,8956,8957,8792
CQUADX4,9419,1,8792,8957,8958,8793
CQUADX4,9420,1,8793,8958,8959,8794
CQUADX4,9421,1,8794,8959,8960,8795
CQUADX4,9422,1,8795,8960,8961,8796
CQUADX4,9423,1,8796,8961,8962,8797
CQUADX4,9424,1,8797,8962,8963,8798
CQUADX4,9425,1,8798,8963,8964,8799
CQUADX4,9426,1,8799,8964,8965,8800
CQUADX4,9427,1,8800,8965,8966,8801
CQUADX4,9428,1,8801,8966,8967,8802
CQUADX4,9429,1,8802,8967,8968,8803
CQUADX4,9430,1,8803,8968,8969,8804
CQUADX4,9431,1,8804,8969,8970,8805
CQUADX4,9432,1,8805,8970,8971,8806
CQUADX4,9433,1,8806,8971,8972,8807
CQUADX4,9434,1,8807,8972,8973,8808
CQUADX4,9435,1,8808,8973,8974,8809
CQUADX4,9436,1,8809,8974,8975,8810
CQUADX4,9437,1,8810,8975,8976,8811
CQUADX4,9438,1,8811,8976,8977,8812
CQUADX4,9439,1,8812,8977,8978,8813
CQUADX4,9440,1,8813,8978,8979,8814
CQUADX4,9441,1,8814,8979,8980,8815
CQUADX4,9442,1,8815,8980,8981,8816
CQUADX4,9443,1,8816,8981,8982,8817
CQUADX4,9444,1,8817,8982,8983,8818
CQUADX4,9445,1,8818,8983,8984,8819
CQUADX4,9446,1,8819,8984,8985,8820
CQUADX4,9447,1,8820,8985,8986,8821
CQUADX4,9448,1,8821,8986,8987,8822
CQUADX4,9449,1,8822,8987,8988,8823
CQUADX4,9450,1,8823,8988,8989,8824
CQUADX4,9451,1,8824,8989,8990,8825
CQUADX4,9452,1,8825,8990,8991,8826
CQUADX4,9453,1,8826,8991,8992,8827
CQUADX4,9454,1,8827,8992,8993,8828
CQUADX4,9455,1,8828,8993,8994,8829
CQUADX4,9456,1,8829,8994,8995,8830
CQUADX4,9457,1,8830,8995,8996,8831
CQUADX4,9458,1,8831,8996,8997,8832
CQUADX4,9459,1,8832,8997,8998,8833
CQUADX4,9460,1,8833,8998,8999,8834
CQUADX4,9461,1,8834,8999,9000,8835
CQUADX4,9462,1,8835,9000,9001,8836
CQUADX4,9463,1,8836,9001,9002,8837
CQUADX4,9464,1,8837,9002,9003,8838
CQUADX4,9465,1,8838,9003,9004,8839
CQUADX4,9466,1,8839,9004,9005,8840
CQUADX4,9467,1,8840,9005,9006,8841
CQUADX4,9468,1,8841,9006,9007,8842
CQUADX4,9469,1,8842,9007,9008,8843
CQUADX4,9470,1,8843,9008,9009,8844
CQUADX4,9471,1,8844,9009,9010,8845
CQUADX4,9472,1,8845,9010,9011,8846
CQUADX4,9473,1,8846,9011,9012,8847
CQUADX4,9474,1,8847,9012,9013,8848
CQUADX4,9475,1,8848,9013,9014,8849
CQUADX4,9476,1,8849,9014,9015,8850
CQUADX4,9477,1,8850,9015,9016,8851
CQUADX4,9478,1,8851,9016,9017,8852
CQUADX4,9479,1,8852,9017,9018,8853
CQUADX4,9480,1,8853,9018,9019,8854
CQUADX4,9481,1,8855,9020,9021,8856
CQUADX4,9482,1,8856,9021,9022,8857
CQUADX4,9483,1,8857,9022,9023,8858
CQUADX4,9484,1,8858,9023,9024,8859
CQUADX4,9485,1,8859,9024,9025,8860
CQUADX4,9486,1,8860,9025,9026,8861
CQUADX4,9487,1,8861,9026,9027,8862
CQUADX4,9488,1,8862,9027,9028,8863
CQUADX4,9489,1,8863,9028,9029,8864
CQUADX4,9490,1,8864,9029,9030,8865
CQUADX4,9491,1,8865,9030,9031,8866
CQUADX4,9492,1,8866,9031,9032,8867
CQUADX4,9493,1,8867,9032,9033,8868
CQUADX4,9494,1,8868,9033,9034,8869
CQUADX4,9495,1,8869,9034,9035,8870
CQUADX4,9496,1,8870,9035,9036,8871
CQUADX4,9497,1,8871,9036,9037,8872
CQUADX4,9498,1,8872,9037,9038,8873
CQUADX4,9499,1,8873,9038,9039,8874
CQUADX4,9500,1,8874,9039,9040,8875
CQUADX4,9501,1,8875,9040,9041,8876
CQUADX4,9502,1,8876,9041,9042,8877
CQUADX4,9503,1,8877,9042,9043,8878
CQUADX4,9504,1,8878,9043,9044,8879
CQUADX4,9505,1,8879,9044,9045,8880
CQUADX4,9506,1,8880,9045,9046,8881
CQUADX4,9507,1,8881,9046,9047,8882
CQUADX4,9508,1,8882,9047,9048,8883
CQUADX4,9509,1,8883,9048,9049,8884
CQUADX4,9510,1,8884,9049,9050,8885
CQUADX4,9511,1,8885,9050,9051,8886
CQUADX4,9512,1,8886,9051,9052,8887
CQUADX4,9513,1,8887,9052,9053,8888
CQUADX4,9514,1,8888,9053,9054,8889
CQUADX4,9515,1,8889,9054,9055,8890
CQUADX4,9516,1,8890,9055,9056,8891
CQUADX4,9517,1,8891,9056,9057,8892
CQUADX4,9518,1,8892,9057,9058,8893
CQUADX4,9519,1,8893,9058,9059,8894
CQUADX4,9520,1,8894,9059,9060,8895
CQUADX4,9521,1,8895,9060,9061,8896
CQUADX4,9522,1,8896,9061,9062,8897
CQUADX4,9523,1,8897,9062,9063,8898
CQUADX4,9524,1,8898,9063,9064,8899
CQUADX4,9525,1,8899,9064,9065,8900
CQUADX4,9526,1,8900,9065,9066,8901
CQUADX4,9527,1,8901,9066,9067,8902
CQUADX4,9528,1,8902,9067,9068,8903
CQUADX4,9529,1,8903,9068,9069,8904
CQUADX4,9530,1,8904,9069,9070,8905
CQUADX4,9531,1,8905,9070,9071,8906
CQUADX4,9532,1,8906,9071,9072,8907
CQUADX4,9533,1,8907,9072,9073,8908
CQUADX4,9534,1,8908,9073,9074,8909
CQUADX4,9535,1,8909,9074,9075,8910
CQUADX4,9536,1,8910,9075,9076,8911
CQUADX4,9537,1,8911,9076,9077,8912
CQUADX4,9538,1,8912,9077,9078,8913
CQUADX4,9539,1,8913,9078,9079,8914
CQUADX4,9540,1,8914,9079,9080,8915
CQUADX4,9541,1,8915,9080,9081,8916
CQUADX4,9542,1,8916,9081,9082,8917
CQUADX4,9543,1,8917,9082,9083,8918
CQUADX4,9544,1,8918,9083,9084,8919
CQUADX4,9545,1,8919,9084,9085,8920
CQUADX4,9546,1,8920,9085,9086,8921
CQUADX4,9547,1,8921,9086,9087,8922
CQUADX4,9548,1,8922,9087,9088,8923
CQUADX4,9549,1,8923,9088,9089,8924
CQUADX4,9550,1,8924,9089,9090,8925
CQUADX4,9551,1,8925,9090,9091,8926
CQUADX4,9552,1,8926,9091,9092,8927
CQUADX4,9553,1,8927,9092,9093,8928
CQUADX4,9554,1,8928,9093,9094,8929
CQUADX4,9555,1,8929,9094,9095,8930
CQUADX4,9556,1,8930,9095,9096,8931
CQUADX4,9557,1,8931,9096,9097,8932
CQUADX4,9558,1,8932,9097,9098,8933
CQUADX4,9559,1,8933,9098,9099,8934
CQUADX4,9560,1,8934,9099,9100,8935
CQUADX4,9561,1,8935,9100,9101,8936
CQUADX4,9562,1,8936,9101,9102,8937
CQUADX4,9563,1,8937,9102,9103,8938
CQUADX4,9564,1,8938,9103,9104,8939
CQUADX4,9565,1,8939,9104,9105,8940
CQUADX4,9566,1,8940,9105,9106,8941
CQUADX4,9567,1,8941,9106,9107,8942
CQUADX4,9568,1,8942,9107,9108,8943
CQUADX4,9569,1,8943,9108,9109,8944
CQUADX4,9570,1,8944,9109,9110,8945
CQUADX4,9571,1,8945,9110,9111,8946
CQUADX4,9572,1,8946,9111,9112,8947
CQUADX4,9573,1,8947,9112,9113,8948
CQUADX4,9574,1,8948,9113,9114,8949
CQUADX4,9575,1,8949,9114,9115,8950
CQUADX4,9576,1,8950,9115,9116,8951
CQUADX4,9577,1,8951,9116,9117,8952
CQUADX4,9578,1,8952,9117,9118,8953
CQUADX4,9579,1,8953,9118,9119,8954
CQUADX4,9580,1,8954,9119,9120,8955
CQUADX4,9581,1,8955,9120,9121,8956
CQUADX4,9582,1,8956,9121,9122,8957
CQUADX4,9583,1,8957,9122,9123,8958
CQUADX4,9584,1,8958,9123,9124,8959
CQUADX4,9585,1,8959,9124,9125,8960
CQUADX4,9586,1,8960,9125,9126,8961
CQUADX4,9587,1,8961,9126,9127,8962
CQUADX4,9588,1,8962,9127,9128,8963
CQUADX4,9589,1,8963,9128,9129,8964
CQUADX4,9590,1,8964,9129,9130,8965
CQUADX4,9591,1,8965,9130,9131,8966
CQUADX4,9592,1,8966,9131,9132,8967
CQUADX4,9593,1,8967,9132,9133,8968
CQUADX4,9594,1,8968,9133,9134,8969
CQUADX4,9595,1,8969,9134,9135,8970
CQUADX4,9596,1,8970,9135,9136,8971
CQUADX4,9597,1,8971,9136,9137,8972
CQUADX4,9598,1,8972,9137,9138,8973
CQUADX4,9599,1,8973,9138,9139,8974
CQUADX4,9600,1,8974,9139,9140,8975
CQUADX4,9601,1,8975,9140,9141,8976
CQUADX4,9602,1,8976,9141,9142,8977
CQUADX4,9603,1,8977,9142,9143,8978
CQUADX4,9604,1,8978,9143,9144,8979
CQUADX4,9605,1,8979,9144,9145,8980
CQUADX4,9606,1,8980,9145,9146,8981
CQUADX4,9607,1,8981,9146,9147,8982
CQUADX4,9608,1,8982,9147,9148,8983
CQUADX4,9609,1,8983,9148,9149,8984
CQUADX4,9610,1,8984,9149,9150,8985
CQUADX4,9611,1,8985,9150,9151,8986
CQUADX4,9612,1,8986,9151,9152,8987
CQUADX4,9613,1,8987,9152,9153,8988
CQUADX4,9614,1,8988,9153,9154,8989
CQUADX4,9615,1,8989,9154,9155,8990
CQUADX4,9616,1,8990,9155,9156,8991
CQUADX4,9617,1,8991,9156,9157,8992
CQUADX4,9618,1,8992,9157,9158,8993
CQUADX4,9619,1,8993,9158,9159,8994
CQUADX4,9620,1,8994,9159,9160,8995
CQUADX4,9621,1,8995,9160,9161,8996
CQUADX4,9622,1,8996,9161,9162,8997
CQUADX4,9623,1,8997,9162,9163,8998
CQUADX4,9624,1,8998,9163,9164,8999
CQUADX4,9625,1,8999,9164,9165,9000
CQUADX4,9626,1,9000,9165,9166,9001
CQUADX4,9627,1,9001,9166,9167,9002
CQUADX4,9628,1,9002,9167,9168,9003
CQUADX4,9629,1,9003,9168,9169,9004
CQUADX4,9630,1,9004,9169,9170,9005
CQUADX4,9631,1,9005,9170,9171,9006
CQUADX4,9632,1,9006,9171,9172,9007
CQUADX4,9633,1,9007,9172,9173,9008
CQUADX4,9634,1,9008,9173,9174,9009
CQUADX4,9635,1,9009,9174,9175,9010
CQUADX4,9636,1,9010,9175,9176,9011
CQUADX4,9637,1,9011,9176,9177,9012
CQUADX4,9638,1,9012,9177,9178,9013
CQUADX4,9639,1,9013,9178,9179,9014
CQUADX4,9640,1,9014,9179,9180,9015
CQUADX4,9641,1,9015,9180,9181,9016
CQUADX4,9642,1,9016,9181,9182,9017
CQUADX4,9643,1,9017,9182,9183,9018
CQUADX4,9644,1,9018,9183,9184,9019
CQUADX4,9645,1,9020,9185,9186,9021
CQUADX4,9646,1,9021,9186,9187,9022
CQUADX4,9647,1,9022,9187,9188,9023
CQUADX4,9648,1,9023,9188,9189,9024
CQUADX4,9649,1,9024,9189,9190,9025
CQUADX4,9650,1,9025,9190,9191,9026
CQUADX4,9651,1,9026,9191,9192,9027
CQUADX4,9652,1,9027,9192,9193,9028
CQUADX4,9653,1,9028,9193,9194,9029
CQUADX4,9654,1,9029,9194,9195,9030
CQUADX4,9655,1,9030,9195,9196,9031
CQUADX4,9656,1,9031,9196,9197,9032
CQUADX4,9657,1,9032,9197,9198,9033
CQUADX4,9658,1,9033,9198,9199,9034
CQUADX4,9659,1,9034,9199,9200,9035
CQUADX4,9660,1,9035,9200,9201,9036
CQUADX4,9661,1,9036,9201,9202,9037
CQUADX4,9662,1,9037,9202,9203,9038
CQUADX4,9663,1,9038,9203,9204,9039
CQUADX4,9664,1,9039,9204,9205,9040
CQUADX4,9665,1,9040,9205,9206,9041
CQUADX4,9666,1,9041,9206,9207,9042
CQUADX4,9667,1,9042,9207,9208,9043
CQUADX4,9668,1,9043,9208,9209,9044
CQUADX4,9669,1,9044,9209,9210,9045
CQUADX4,9670,1,9045,9210,9211,9046
CQUADX4,9671,1,9046,9211,9212,9047
CQUADX4,9672,1,9047,9212,9213,9048
CQUADX4,9673,1,9048,9213,9214,9049
CQUADX4,9674,1,9049,9214,9215,9050
CQUADX4,9675,1,9050,9215,9216,9051
CQUADX4,9676,1,9051,9216,9217,9052
CQUADX4,9677,1,9052,9217,9218,9053
CQUADX4,9678,1,9053,9218,9219,9054
CQUADX4,9679,1,9054,9219,9220,9055
CQUADX4,9680,1,9055,9220,9221,9056
CQUADX4,9681,1,9056,9221,9222,9057
CQUADX4,9682,1,9057,9222,9223,9058
CQUADX4,9683,1,9058,9223,9224,9059
CQUADX4,9684,1,9059,9224,9225,9060
CQUADX4,9685,1,9060,9225,9226,9061
CQUADX4,9686,1,9061,9226,9227,9062
CQUADX4,9687,1,9062,9227,9228,9063
CQUADX4,9688,1,9063,9228,9229,9064
CQUADX4,9689,1,9064,9229,9230,9065
CQUADX4,9690,1,9065,9230,9231,9066
CQUADX4,9691,1,9066,9231,9232,9067
CQUADX4,9692,1,9067,9232,9233,9068
CQUADX4,9693,1,9068,9233,9234,9069
CQUADX4,9694,1,9069,9234,9235,9070
CQUADX4,9695,1,9070,9235,9236,9071
CQUADX4,9696,1,9071,9236,9237,9072
CQUADX4,9697,1,9072,9237,9238,9073
CQUADX4,9698,1,9073,9238,9239,9074
CQUADX4,9699,1,9074,9239,9240,9075
CQUADX4,9700,1,9075,9240,9241,9076
CQUADX4,9701,1,9076,9241,9242,9077
CQUADX4,9702,1,9077,9242,9243,9078
CQUADX4,9703,1,9078,9243,9244,9079
CQUADX4,9704,1,9079,9244,9245,9080
CQUADX4,9705,1,9080,9245,9246,9081
CQUADX4,9706,1,9081,9246,9247,9082
CQUADX4,9707,1,9082,9247,9248,9083
CQUADX4,9708,1,9083,9248,9249,9084
CQUADX4,9709,1,9084,9249,9250,9085
CQUADX4,9710,1,9085,9250,9251,9086
CQUADX4,9711,1,9086,9251,9252,9087
CQUADX4,9712,1,9087,9252,9253,9088
CQUADX4,9713,1,9088,9253,9254,9089
CQUADX4,9714,1,9089,9254,9255,9090
CQUADX4,9715,1,9090,9255,9256,9091
CQUADX4,9716,1,9091,9256,9257,9092
CQUADX4,9717,1,9092,9257,9258,9093
CQUADX4,9718,1,9093,9258,9259,9094
CQUADX4,9719,1,9094,9259,9260,9095
CQUADX4,9720,1,9095,9260,9261,9096
CQUADX4,9721,1,9096,9261,9262,9097
CQUADX4,9722,1,9097,9262,9263,9098
CQUADX4,9723,1,9098,9263,9264,9099
CQUADX4,9724,1,9099,9264,9265,9100
CQUADX4,9725,1,9100,9265,9266,9101
CQUADX4,9726,1,9101,9266,9267,9102
CQUADX4,9727,1,9102,9267,9268,9103
CQUADX4,9728,1,9103,9268,9269,9104
CQUADX4,9729,1,9104,9269,9270,9105
CQUADX4,9730,1,9105,9270,9271,9106
CQUADX4,9731,1,9106,9271,9272,9107
CQUADX4,9732,1,9107,9272,9273,9108
CQUADX4,9733,1,9108,9273,9274,9109
CQUADX4,9734,1,9109,9274,9275,9110
CQUADX4,9735,1,9110,9275,9276,9111
CQUADX4,9736,1,9111,9276,9277,9112
CQUADX4,9737,1,9112,9277,9278,9113
CQUADX4,9738,1,9113,9278,9279,9114
CQUADX4,9739,1,9114,9279,9280,9115
CQUADX4,9740,1,9115,9280,9281,9116
CQUADX4,9741,1,9116,9281,9282,9117
CQUADX4,9742,1,9117,9282,9283,9118
CQUADX4,9743,1,9118,9283,9284,9119
CQUADX4,9744,1,9119,9284,9285,9120
CQUADX4,9745,1,9120,9285,9286,9121
CQUADX4,9746,1,9121,9286,9287,9122
CQUADX4,9747,1,9122,9287,9288,9123
CQUADX4,9748,1,9123,9288,9289,9124
CQUADX4,9749,1,9124,9289,9290,9125
CQUADX4,9750,1,9125,9290,9291,9126
CQUADX4,9751,1,9126,9291,9292,9127
CQUADX4,9752,1,9127,9292,9293,9128
CQUADX4,9753,1,9128,9293,9294,9129
CQUADX4,9754,1,9129,9294,9295,9130
CQUADX4,9755,1,9130,9295,9296,9131
CQUADX4,9756,1,9131,9296,9297,9132
CQUADX4,9757,1,9132,9297,9298,9133
CQUADX4,9758,1,9133,9298,9299,9134
CQUADX4,9759,1,9134,9299,9300,9135
CQUADX4,9760,1,9135,9300,9301,9136
CQUADX4,9761,1,9136,9301,9302,9137
CQUADX4,9762,1,9137,9302,9303,9138
CQUADX4,9763,1,9138,9303,9304,9139
CQUADX4,9764,1,9139,9304,9305,9140
CQUADX4,9765,1,9140,9305,9306,9141
CQUADX4,9766,1,9141,9306,9307,9142
CQUADX4,9767,1,9142,9307,9308,9143
CQUADX4,9768,1,9143,9308,9309,9144
CQUADX4,9769,1,9144,9309,9310,9145
CQUADX4,9770,1,9145,9310,9311,9146
CQUADX4,9771,1,9146,9311,9312,9147
CQUADX4,9772,1,9147,9312,9313,9148
CQUADX4,9773,1,9148,9313,9314,9149
CQUADX4,9774,1,9149,9314,9315,9150
CQUADX4,9775,1,9150,9315,9316,9151
CQUADX4,9776,1,9151,9316,9317,9152
CQUADX4,9777,1,9152,9317,9318,9153
CQUADX4,9778,1,9153,9318,9319,9154
CQUADX4,9779,1,9154,9319,9320,9155
CQUADX4,9780,1,9155,9320,9321,9156
CQUADX4,9781,1,9156,9321,9322,9157
CQUADX4,9782,1,9157,9322,9323,9158
CQUADX4,9783,1,9158,9323,9324,9159
CQUADX4,9784,1,9159,9324,9325,9160
CQUADX4,9785,1,9160,9325,9326,9161
CQUADX4,9786,1,9161,9326,9327,9162
CQUADX4,9787,1,9162,9327,9328,9163
CQUADX4,9788,1,9163,9328,9329,9164
CQUADX4,9789,1,9164,9329,9330,9165
CQUADX4,9790,1,9165,9330,9331,9166
CQUADX4,9791,1,9166,9331,9332,9167
CQUADX4,9792,1,9167,9332,9333,9168
CQUADX4,9793,1,9168,9333,9334,9169
CQUADX4,9794,1,9169,9334,9335,9170
CQUADX4,9795,1,9170,9335,9336,9171
CQUADX4,9796,1,9171,9336,9337,9172
CQUADX4,9797,1,9172,9337,9338,9173
CQUADX4,9798,1,9173,9338,9339,9174
CQUADX4,9799,1,9174,9339,9340,9175
CQUADX4,9800,1,9175,9340,9341,9176
CQUADX4,9801,1,9176,9341,9342,9177
CQUADX4,9802,1,9177,9342,9343,9178
CQUADX4,9803,1,9178,9343,9344,9179
CQUADX4,9804,1,9179,9344,9345,9180
CQUADX4,9805,1,9180,9345,9346,9181
CQUADX4,9806,1,9181,9346,9347,9182
CQUADX4,9807,1,9182,9347,9348,9183
CQUADX4,9808,1,9183,9348,9349,9184
CQUADX4,9809,1,9185,9350,9351,9186
CQUADX4,9810,1,9186,9351,9352,9187
CQUADX4,9811,1,9187,9352,9353,9188
CQUADX4,9812,1,9188,9353,9354,9189
CQUADX4,9813,1,9189,9354,9355,9190
CQUADX4,9814,1,9190,9355,9356,9191
CQUADX4,9815,1,9191,9356,9357,9192
CQUADX4,9816,1,9192,9357,9358,9193
CQUADX4,9817,1,9193,9358,9359,9194
CQUADX4,9818,1,9194,9359,9360,9195
CQUADX4,9819,1,9195,9360,9361,9196
CQUADX4,9820,1,9196,9361,9362,9197
CQUADX4,9821,1,9197,9362,9363,9198
CQUADX4,9822,1,9198,9363,9364,9199
CQUADX4,9823,1,9199,9364,9365,9200
CQUADX4,9824,1,9200,9365,9366,9201
CQUADX4,9825,1,9201,9366,9367,9202
CQUADX4,9826,1,9202,9367,9368,9203
CQUADX4,9827,1,9203,9368,9369,9204
CQUADX4,9828,1,9204,9369,9370,9205
CQUADX4,9829,1,9205,9370,9371,9206
CQUADX4,9830,1,9206,9371,9372,9207
CQUADX4,9831,1,9207,9372,9373,9208
CQUADX4,9832,1,9208,9373,9374,9209
CQUADX4,9833,1,9209,9374,9375,9210
CQUADX4,9834,1,9210,9375,9376,9211
CQUADX4,9835,1,9211,9376,9377,9212
CQUADX4,9836,1,9212,9377,9378,9213
CQUADX4,9837,1,9213,9378,9379,9214
CQUADX4,9838,1,9214,9379,9380,9215
CQUADX4,9839,1,9215,9380,9381,9216
CQUADX4,9840,1,9216,9381,9382,9217
CQUADX4,9841,1,9217,9382,9383,9218
CQUADX4,9842,1,9218,9383,9384,9219
CQUADX4,9843,1,9219,9384,9385,9220
CQUADX4,9844,1,9220,9385,9386,9221
CQUADX4,9845,1,9221,9386,9387,9222
CQUADX4,9846,1,9222,9387,9388,9223
CQUADX4,9847,1,9223,9388,9389,9224
CQUADX4,9848,1,9224,9389,9390,9225
CQUADX4,9849,1,9225,9390,9391,9226
CQUADX4,9850,1,9226,9391,9392,9227
CQUADX4,9851,1,9227,9392,9393,9228
CQUADX4,9852,1,9228,9393,9394,9229
CQUADX4,9853,1,9229,9394,9395,9230
CQUADX4,9854,1,9230,9395,9396,9231
CQUADX4,9855,1,9231,9396,9397,9232
CQUADX4,9856,1,9232,9397,9398,9233
CQUADX4,9857,1,9233,9398,9399,9234
CQUADX4,9858,1,9234,9399,9400,9235
CQUADX4,9859,1,9235,9400,9401,9236
CQUADX4,9860,1,9236,9401,9402,9237
CQUADX4,9861,1,9237,9402,9403,9238
CQUADX4,9862,1,9238,9403,9404,9239
CQUADX4,9863,1,9239,9404,9405,9240
CQUADX4,9864,1,9240,9405,9406,9241
CQUADX4,9865,1,9241,9406,9407,9242
CQUADX4,9866,1,9242,9407,9408,9243
CQUADX4,9867,1,9243,9408,9409,9244
CQUADX4,9868,1,9244,9409,9410,9245
CQUADX4,9869,1,9245,9410,9411,9246
CQUADX4,9870,1,9246,9411,9412,9247
CQUADX4,9871,1,9247,9412,9413,9248
CQUADX4,9872,1,9248,9413,9414,9249
CQUADX4,9873,1,9249,9414,9415,9250
CQUADX4,9874,1,9250,9415,9416,9251
CQUADX4,9875,1,9251,9416,9417,9252
CQUADX4,9876,1,9252,9417,9418,9253
CQUADX4,9877,1,9253,9418,9419,9254
CQUADX4,9878,1,9254,9419,9420,9255
CQUADX4,9879,1,9255,9420,9421,9256
CQUADX4,9880,1,9256,9421,9422,9257
CQUADX4,9881,1,9257,9422,9423,9258
CQUADX4,9882,1,9258,9423,9424,9259
CQUADX4,9883,1,9259,9424,9425,9260
CQUADX4,9884,1,9260,9425,9426,9261
CQUADX4,9885,1,9261,9426,9427,9262
CQUADX4,9886,1,9262,9427,9428,9263
CQUADX4,9887,1,9263,9428,9429,9264
CQUADX4,9888,1,9264,9429,9430,9265
CQUADX4,9889,1,9265,9430,9431,9266
CQUADX4,9890,1,9266,9431,9432,9267
CQUADX4,9891,1,9267,9432,9433,9268
CQUADX4,9892,1,9268,9433,9434,9269
CQUADX4,9893,1,9269,9434,9435,9270
CQUADX4,9894,1,9270,9435,9436,9271
CQUADX4,9895,1,9271,9436,9437,9272
CQUADX4,9896,1,9272,9437,9438,9273
CQUADX4,9897,1,9273,9438,9439,9274
CQUADX4,9898,1,9274,9439,9440,9275
CQUADX4,9899,1,9275,9440,9441,9276
CQUADX4,9900,1,9276,9441,9442,9277
CQUADX4,9901,1,9277,9442,9443,9278
CQUADX4,9902,1,9278,9443,9444,9279
CQUADX4,9903,1,9279,9444,9445,9280
CQUADX4,9904,1,9280,9445,9446,9281
CQUADX4,9905,1,9281,9446,9447,9282
CQUADX4,9906,1,9282,9447,9448,9283
CQUADX4,9907,1,9283,9448,9449,9284
CQUADX4,9908,1,9284,9449,9450,9285
CQUADX4,9909,1,9285,9450,9451,9286
CQUADX4,9910,1,9286,9451,9452,9287
CQUADX4,9911,1,9287,9452,9453,9288
CQUADX4,9912,1,9288,9453,9454,9289
CQUADX4,9913,1,9289,9454,9455,9290
CQUADX4,9914,1,9290,9455,9456,9291
CQUADX4,9915,1,9291,9456,9457,9292
CQUADX4,9916,1,9292,9457,9458,9293
CQUADX4,9917,1,9293,9458,9459,9294
CQUADX4,9918,1,9294,9459,9460,9295
CQUADX4,9919,1,9295,9460,9461,9296
CQUADX4,9920,1,9296,9461,9462,9297
CQUADX4,9921,1,9297,9462,9463,9298
CQUADX4,9922,1,9298,9463,9464,9299
CQUADX4,9923,1,9299,9464,9465,9300
CQUADX4,9924,1,9300,9465,9466,9301
CQUADX4,9925,1,9301,9466,9467,9302
CQUADX4,9926,1,9302,9467,9468,9303
CQUADX4,9927,1,9303,9468,9469,9304
CQUADX4,9928,1,9304,9469,9470,9305
CQUADX4,9929,1,9305,9470,9471,9306
CQUADX4,9930,1,9306,9471,9472,9307
CQUADX4,9931,1,9307,9472,9473,9308
CQUADX4,9932,1,9308,9473,9474,9309
CQUADX4,9933,1,9309,9474,9475,9310
CQUADX4,9934,1,9310,9475,9476,9311
CQUADX4,9935,1,9311,9476,9477,9312
CQUADX4,9936,1,9312,9477,9478,9313
CQUADX4,9937,1,9313,9478,9479,9314
CQUADX4,9938,1,9314,9479,9480,9315
CQUADX4,9939,1,9315,9480,9481,9316
CQUADX4,9940,1,9316,9481,9482,9317
CQUADX4,9941,1,9317,9482,9483,9318
CQUADX4,9942,1,9318,9483,9484,9319
CQUADX4,9943,1,9319,9484,9485,9320
CQUADX4,9944,1,9320,9485,9486,9321
CQUADX4,9945,1,9321,9486,9487,9322
CQUADX4,9946,1,9322,9487,9488,9323
CQUADX4,9947,1,9323,9488,9489,9324
CQUADX4,9948,1,9324,9489,9490,9325
CQUADX4,9949,1,9325,9490,9491,9326
CQUADX4,9950,1,9326,9491,9492,9327
CQUADX4,9951,1,9327,9492,9493,9328
CQUADX4,9952,1,9328,9493,9494,9329
CQUADX4,9953,1,9329,9494,9495,9330
CQUADX4,9954,1,9330,9495,9496,9331
CQUADX4,9955,1,9331,9496,9497,9332
CQUADX4,9956,1,9332,9497,9498,9333
CQUADX4,9957,1,9333,9498,9499,9334
CQUADX4,9958,1,9334,9499,9500,9335
CQUADX4,9959,1,9335,9500,9501,9336
CQUADX4,9960,1,9336,9501,9502,9337
CQUADX4,9961,1,9337,9502,9503,9338
CQUADX4,9962,1,9338,9503,9504,9339
CQUADX4,9963,1,9339,9504,9505,9340
CQUADX4,9964,1,9340,9505,9506,9341
CQUADX4,9965,1,9341,9506,9507,9342
CQUADX4,9966,1,9342,9507,9508,9343
CQUADX4,9967,1,9343,9508,9509,9344
CQUADX4,9968,1,9344,9509,9510,9345
CQUADX4,9969,1,9345,9510,9511,9346
CQUADX4,9970,1,9346,9511,9512,9347
CQUADX4,9971,1,9347,9512,9513,9348
CQUADX4,9972,1,9348,9513,9514,9349
CQUADX4,9973,1,9350,9515,9516,9351
CQUADX4,9974,1,9351,9516,9517,9352
CQUADX4,9975,1,9352,9517,9518,9353
CQUADX4,9976,1,9353,9518,9519,9354
CQUADX4,9977,1,9354,9519,9520,9355
CQUADX4,9978,1,9355,9520,9521,9356
CQUADX4,9979,1,9356,9521,9522,9357
CQUADX4,9980,1,9357,9522,9523,9358
CQUADX4,9981,1,9358,9523,9524,9359
CQUADX4,9982,1,9359,9524,9525,9360
CQUADX4,9983,1,9360,9525,9526,9361
CQUADX4,9984,1,9361,9526,9527,9362
CQUADX4,9985,1,9362,9527,9528,9363
CQUADX4,9986,1,9363,9528,9529,9364
CQUADX4,9987,1,9364,9529,9530,9365
CQUADX4,9988,1,9365,9530,9531,9366
CQUADX4,9989,1,9366,9531,9532,9367
CQUADX4,9990,1,9367,9532,9533,9368
CQUADX4,9991,1,9368,9533,9534,9369
CQUADX4,9992,1,9369,9534,9535,9370
CQUADX4,9993,1,9370,9535,9536,9371
CQUADX4,9994,1,9371,9536,9537,9372
CQUADX4,9995,1,9372,9537,9538,9373
CQUADX4,9996,1,9373,9538,9539,9374
CQUADX4,9997,1,9374,9539,9540,9375
CQUADX4,9998,1,9375,9540,9541,9376
CQUADX4,9999,1,9376,9541,9542,9377
CQUADX4,10000,1,9377,9542,9543,9378
CQUADX4,10001,1,9378,9543,9544,9379
CQUADX4,10002,1,9379,9544,9545,9380
CQUADX4,10003,1,9380,9545,9546,9381
CQUADX4,10004,1,9381,9546,9547,9382
CQUADX4,10005,1,9382,9547,9548,9383
CQUADX4,10006,1,9383,9548,9549,9384
CQUADX4,10007,1,9384,9549,9550,9385
CQUADX4,10008,1,9385,9550,9551,9386
CQUADX4,10009,1,9386,9551,9552,9387
CQUADX4,10010,1,9387,9552,9553,9388
CQUADX4,10011,1,9388,9553,9554,9389
CQUADX4,10012,1,9389,9554,9555,9390
CQUADX4,10013,1,9390,9555,9556,9391
CQUADX4,10014,1,9391,9556,9557,9392
CQUADX4,10015,1,9392,9557,9558,9393
CQUADX4,10016,1,9393,9558,9559,9394
CQUADX4,10017,1,9394,9559,9560,9395
CQUADX4,10018,1,9395,9560,9561,9396
CQUADX4,10019,1,9396,9561,9562,9397
CQUADX4,10020,1,9397,9562,9563,9398
CQUADX4,10021,1,9398,9563,9564,9399
CQUADX4,10022,1,9399,9564,9565,9400
CQUADX4,10023,1,9400,9565,9566,9401
CQUADX4,10024,1,9401,9566,9567,9402
CQUADX4,10025,1,9402,9567,9568,9403
CQUADX4,10026,1,9403,9568,9569,9404
CQUADX4,10027,1,9404,9569,9570,9405
CQUADX4,10028,1,9405,9570,9571,9406
CQUADX4,10029,1,9406,9571,9572,9407
CQUADX4,10030,1,9407,9572,9573,9408
CQUADX4,10031,1,9408,9573,9574,9409
CQUADX4,10032,1,9409,9574,9575,9410
CQUADX4,10033,1,9410,9575,9576,9411
CQUADX4,10034,1,9411,9576,9577,9412
CQUADX4,10035,1,9412,9577,9578,9413
CQUADX4,10036,1,9413,9578,9579,9414
CQUADX4,10037,1,9414,9579,9580,9415
CQUADX4,10038,1,9415,9580,9581,9416
CQUADX4,10039,1,9416,9581,9582,9417
CQUADX4,10040,1,9417,9582,9583,9418
CQUADX4,10041,1,9418,9583,9584,9419
CQUADX4,10042,1,9419,9584,9585,9420
CQUADX4,10043,1,9420,9585,9586,9421
CQUADX4,10044,1,9421,9586,9587,9422
CQUADX4,10045,1,9422,9587,9588,9423
CQUADX4,10046,1,9423,9588,9589,9424
CQUADX4,10047,1,9424,9589,9590,9425
CQUADX4,10048,1,9425,9590,9591,9426
CQUADX4,10049,1,9426,9591,9592,9427
CQUADX4,10050,1,9427,9592,9593,9428
CQUADX4,10051,1,9428,9593,9594,9429
CQUADX4,10052,1,9429,9594,9595,9430
CQUADX4,10053,1,9430,9595,9596,9431
CQUADX4,10054,1,9431,9596,9597,9432
CQUADX4,10055,1,9432,9597,9598,9433
CQUADX4,10056,1,9433,9598,9599,9434
CQUADX4,10057,1,9434,9599,9600,9435
CQUADX4,10058,1,9435,9600,9601,9436
CQUADX4,10059,1,9436,9601,9602,9437
CQUADX4,10060,1,9437,9602,9603,9438
CQUADX4,10061,1,9438,9603,9604,9439
CQUADX4,10062,1,9439,9604,9605,9440
CQUADX4,10063,1,9440,9605,9606,9441
CQUADX4,10064,1,9441,9606,9607,9442
CQUADX4,10065,1,9442,9607,9608,9443
CQUADX4,10066,1,9443,9608,9609,9444
CQUADX4,10067,1,9444,9609,9610,9445
CQUADX4,10068,1,9445,9610,9611,9446
CQUADX4,10069,1,9446,9611,9612,9447
CQUADX4,10070,1,9447,9612,9613,9448
CQUADX4,10071,1,9448,9613,9614,9449
CQUADX4,10072,1,9449,9614,9615,9450
CQUADX4,10073,1,9450,9615,9616,9451
CQUADX4,10074,1,9451,9616,9617,9452
CQUADX4,10075,1,9452,9617,9618,9453
CQUADX4,10076,1,9453,9618,9619,9454
CQUADX4,10077,1,9454,9619,9620,9455
CQUADX4,10078,1,9455,9620,9621,9456
CQUADX4,10079,1,9456,9621,9622,9457
CQUADX4,10080,1,9457,9622,9623,9458
CQUADX4,10081,1,9458,9623,9624,9459
CQUADX4,10082,1,9459,9624,9625,9460
CQUADX4,10083,1,9460,9625,9626,9461
CQUADX4,10084,1,9461,9626,9627,9462
CQUADX4,10085,1,9462,9627,9628,9463
CQUADX4,10086,1,9463,9628,9629,9464
CQUADX4,10087,1,9464,9629,9630,9465
CQUADX4,10088,1,9465,9630,9631,9466
CQUADX4,10089,1,9466,9631,9632,9467
CQUADX4,10090,1,9467,9632,9633,9468
CQUADX4,10091,1,9468,9633,9634,9469
CQUADX4,10092,1,9469,9634,9635,9470
CQUADX4,10093,1,9470,9635,9636,9471
CQUADX4,10094,1,9471,9636,9637,9472
CQUADX4,10095,1,9472,9637,9638,9473
CQUADX4,10096,1,9473,9638,9639,9474
CQUADX4,10097,1,9474,9639,9640,9475
CQUADX4,10098,1,9475,9640,9641,9476
CQUADX4,10099,1,9476,9641,9642,9477
CQUADX4,10100,1,9477,9642,9643,9478
CQUADX4,10101,1,9478,9643,9644,9479
CQUADX4,10102,1,9479,9644,9645,9480
CQUADX4,10103,1,9480,9645,9646,9481
CQUADX4,10104,1,9481,9646,9647,9482
CQUADX4,10105,1,9482,9647,9648,9483
CQUADX4,10106,1,9483,9648,9649,9484
CQUADX4,10107,1,9484,9649,9650,9485
CQUADX4,10108,1,9485,9650,9651,9486
CQUADX4,10109,1,9486,9651,9652,9487
CQUADX4,10110,1,9487,9652,9653,9488
CQUADX4,10111,1,9488,9653,9654,9489
CQUADX4,10112,1,9489,9654,9655,9490
CQUADX4,10113,1,9490,9655,9656,9491
CQUADX4,10114,1,9491,9656,9657,9492
CQUADX4,10115,1,9492,9657,9658,9493
CQUADX4,10116,1,9493,9658,9659,9494
CQUADX4,10117,1,9494,9659,9660,9495
CQUADX4,10118,1,9495,9660,9661,9496
CQUADX4,10119,1,9496,9661,9662,9497
CQUADX4,10120,1,9497,9662,9663,9498
CQUADX4,10121,1,9498,9663,9664,9499
CQUADX4,10122,1,9499,9664,9665,9500
CQUADX4,10123,1,9500,9665,9666,9501
CQUADX4,10124,1,9501,9666,9667,9502
CQUADX4,10125,1,9502,9667,9668,9503
CQUADX4,10126,1,9503,9668,9669,9504
CQUADX4,10127,1,9504,9669,9670,9505
CQUADX4,10128,1,9505,9670,9671,9506
CQUADX4,10129,1,9506,9671,9672,9507
CQUADX4,10130,1,9507,9672,9673,9508
CQUADX4,10131,1,9508,9673,9674,9509
CQUADX4,10132,1,9509,9674,9675,9510
CQUADX4,10133,1,9510,9675,9676,9511
CQUADX4,10134,1,9511,9676,9677,9512
CQUADX4,10135,1,9512,9677,9678,9513
CQUADX4,10136,1,9513,9678,9679,9514
CQUADX4,10137,1,9515,9680,9681,9516
CQUADX4,10138,1,9516,9681,9682,9517
CQUADX4,10139,1,9517,9682,9683,9518
CQUADX4,10140,1,9518,9683,9684,9519
CQUADX4,10141,1,9519,9684,9685,9520
CQUADX4,10142,1,9520,9685,9686,9521
CQUADX4,10143,1,9521,9686,9687,9522
CQUADX4,10144,1,9522,9687,9688,9523
CQUADX4,10145,1,9523,9688,9689,9524
CQUADX4,10146,1,9524,9689,9690,9525
CQUADX4,10147,1,9525,9690,9691,9526
CQUADX4,10148,1,9526,9691,9692,9527
CQUADX4,10149,1,9527,9692,9693,9528
CQUADX4,10150,1,9528,9693,9694,9529
CQUADX4,10151,1,9529,9694,9695,9530
CQUADX4,10152,1,9530,9695,9696,9531
CQUADX4,10153,1,9531,9696,9697,9532
CQUADX4,10154,1,9532,9697,9698,9533
CQUADX4,10155,1,9533,9698,9699,9534
CQUADX4,10156,1,9534,9699,9700,9535
CQUADX4,10157,1,9535,9700,9701,9536
CQUADX4,10158,1,9536,9701,9702,9537
CQUADX4,10159,1,9537,9702,9703,9538
CQUADX4,10160,1,9538,9703,9704,9539
CQUADX4,10161,1,9539,9704,9705,9540
CQUADX4,10162,1,9540,9705,9706,9541
CQUADX4,10163,1,9541,9706,9707,9542
CQUADX4,10164,1,9542,9707,9708,9543
CQUADX4,10165,1,9543,9708,9709,9544
CQUADX4,10166,1,9544,9709,9710,9545
CQUADX4,10167,1,9545,9710,9711,9546
CQUADX4,10168,1,9546,9711,9712,9547
CQUADX4,10169,1,9547,9712,9713,9548
CQUADX4,10170,1,9548,9713,9714,9549
CQUADX4,10171,1,9549,9714,9715,9550
CQUADX4,10172,1,9550,9715,9716,9551
CQUADX4,10173,1,9551,9716,9717,9552
CQUADX4,10174,1,9552,9717,9718,9553
CQUADX4,10175,1,9553,9718,9719,9554
CQUADX4,10176,1,9554,9719,9720,9555
CQUADX4,10177,1,9555,9720,9721,9556
CQUADX4,10178,1,9556,9721,9722,9557
CQUADX4,10179,1,9557,9722,9723,9558
CQUADX4,10180,1,9558,9723,9724,9559
CQUADX4,10181,1,9559,9724,9725,9560
CQUADX4,10182,1,9560,9725,9726,9561
CQUADX4,10183,1,9561,9726,9727,9562
CQUADX4,10184,1,9562,9727,9728,9563
CQUADX4,10185,1,9563,9728,9729,9564
CQUADX4,10186,1,9564,9729,9730,9565
CQUADX4,10187,1,9565,9730,9731,9566
CQUADX4,10188,1,9566,9731,9732,9567
CQUADX4,10189,1,9567,9732,9733,9568
CQUADX4,10190,1,9568,9733,9734,9569
CQUADX4,10191,1,9569,9734,9735,9570
CQUADX4,10192,1,9570,9735,9736,9571
CQUADX4,10193,1,9571,9736,9737,9572
CQUADX4,10194,1,9572,9737,9738,9573
CQUADX4,10195,1,9573,9738,9739,9574
CQUADX4,10196,1,9574,9739,9740,9575
CQUADX4,10197,1,9575,9740,9741,9576
CQUADX4,10198,1,9576,9741,9742,9577
CQUADX4,10199,1,9577,9742,9743,9578
CQUADX4,10200,1,9578,9743,9744,9579
CQUADX4,10201,1,9579,9744,9745,9580
CQUADX4,10202,1,9580,9745,9746,9581
CQUADX4,10203,1,9581,9746,9747,9582
CQUADX4,10204,1,9582,9747,9748,9583
CQUADX4,10205,1,9583,9748,9749,9584
CQUADX4,10206,1,9584,9749,9750,9585
CQUADX4,10207,1,9585,9750,9751,9586
CQUADX4,10208,1,9586,9751,9752,9587
CQUADX4,10209,1,9587,9752,9753,9588
CQUADX4,10210,1,9588,9753,9754,9589
CQUADX4,10211,1,9589,9754,9755,9590
CQUADX4,10212,1,9590,9755,9756,9591
CQUADX4,10213,1,9591,9756,9757,9592
CQUADX4,10214,1,9592,9757,9758,9593
CQUADX4,10215,1,9593,9758,9759,9594
CQUADX4,10216,1,9594,9759,9760,9595
CQUADX4,10217,1,9595,9760,9761,9596
CQUADX4,10218,1,9596,9761,9762,9597
CQUADX4,10219,1,9597,9762,9763,9598
CQUADX4,10220,1,9598,9763,9764,9599
CQUADX4,10221,1,9599,9764,9765,9600
CQUADX4,10222,1,9600,9765,9766,9601
CQUADX4,10223,1,9601,9766,9767,9602
CQUADX4,10224,1,9602,9767,9768,9603
CQUADX4,10225,1,9603,9768,9769,9604
CQUADX4,10226,1,9604,9769,9770,9605
CQUADX4,10227,1,9605,9770,9771,9606
CQUADX4,10228,1,9606,9771,9772,9607
CQUADX4,10229,1,9607,9772,9773,9608
CQUADX4,10230,1,9608,9773,9774,9609
CQUADX4,10231,1,9609,9774,9775,9610
CQUADX4,10232,1,9610,9775,9776,9611
CQUADX4,10233,1,9611,9776,9777,9612
CQUADX4,10234,1,9612,9777,9778,9613
CQUADX4,10235,1,9613,9778,9779,9614
CQUADX4,10236,1,9614,9779,9780,9615
CQUADX4,10237,1,9615,9780,9781,9616
CQUADX4,10238,1,9616,9781,9782,9617
CQUADX4,10239,1,9617,9782,9783,9618
CQUADX4,10240,1,9618,9783,9784,9619
CQUADX4,10241,1,9619,9784,9785,9620
CQUADX4,10242,1,9620,9785,9786,9621
CQUADX4,10243,1,9621,9786,9787,9622
CQUADX4,10244,1,9622,9787,9788,9623
CQUADX4,10245,1,9623,9788,9789,9624
CQUADX4,10246,1,9624,9789,9790,9625
CQUADX4,10247,1,9625,9790,9791,9626
CQUADX4,10248,1,9626,9791,9792,9627
CQUADX4,10249,1,9627,9792,9793,9628
CQUADX4,10250,1,9628,9793,9794,9629
CQUADX4,10251,1,9629,9794,9795,9630
CQUADX4,10252,1,9630,9795,9796,9631
CQUADX4,10253,1,9631,9796,9797,9632
CQUADX4,10254,1,9632,9797,9798,9633
CQUADX4,10255,1,9633,9798,9799,9634
CQUADX4,10256,1,9634,9799,9800,9635
CQUADX4,10257,1,9635,9800,9801,9636
CQUADX4,10258,1,9636,9801,9802,9637
CQUADX4,10259,1,9637,9802,9803,9638
CQUADX4,10260,1,9638,9803,9804,9639
CQUADX4,10261,1,9639,9804,9805,9640
CQUADX4,10262,1,9640,9805,9806,9641
CQUADX4,10263,1,9641,9806,9807,9642
CQUADX4,10264,1,9642,9807,9808,9643
CQUADX4,10265,1,9643,9808,9809,9644
CQUADX4,10266,1,9644,9809,9810,9645
CQUADX4,10267,1,9645,9810,9811,9646
CQUADX4,10268,1,9646,9811,9812,9647
CQUADX4,10269,1,9647,9812,9813,9648
CQUADX4,10270,1,9648,9813,9814,9649
CQUADX4,10271,1,9649,9814,9815,9650
CQUADX4,10272,1,9650,9815,9816,9651
CQUADX4,10273,1,9651,9816,9817,9652
CQUADX4,10274,1,9652,9817,9818,9653
CQUADX4,10275,1,9653,9818,9819,9654
CQUADX4,10276,1,9654,9819,9820,9655
CQUADX4,10277,1,9655,9820,9821,9656
CQUADX4,10278,1,9656,9821,9822,9657
CQUADX4,10279,1,9657,9822,9823,9658
CQUADX4,10280,1,9658,9823,9824,9659
CQUADX4,10281,1,9659,9824,9825,9660
CQUADX4,10282,1,9660,9825,9826,9661
CQUADX4,10283,1,9661,9826,9827,9662
CQUADX4,10284,1,9662,9827,9828,9663
CQUADX4,10285,1,9663,9828,9829,9664
CQUADX4,10286,1,9664,9829,9830,9665
CQUADX4,10287,1,9665,9830,9831,9666
CQUADX4,10288,1,9666,9831,9832,9667
CQUADX4,10289,1,9667,9832,9833,9668
CQUADX4,10290,1,9668,9833,9834,9669
CQUADX4,10291,1,9669,9834,9835,9670
CQUADX4,10292,1,9670,9835,9836,9671
CQUADX4,10293,1,9671,9836,9837,9672
CQUADX4,10294,1,9672,9837,9838,9673
CQUADX4,10295,1,9673,9838,9839,9674
CQUADX4,10296,1,9674,9839,9840,9675
CQUADX4,10297,1,9675,9840,9841,9676
CQUADX4,10298,1,9676,9841,9842,9677
CQUADX4,10299,1,9677,9842,9843,9678
CQUADX4,10300,1,9678,9843,9844,9679
CQUADX4,10301,1,9680,9845,9846,9681
CQUADX4,10302,1,9681,9846,9847,9682
CQUADX4,10303,1,9682,9847,9848,9683
CQUADX4,10304,1,9683,9848,9849,9684
CQUADX4,10305,1,9684,9849,9850,9685
CQUADX4,10306,1,9685,9850,9851,9686
CQUADX4,10307,1,9686,9851,9852,9687
CQUADX4,10308,1,9687,9852,9853,9688
CQUADX4,10309,1,9688,9853,9854,9689
CQUADX4,10310,1,9689,9854,9855,9690
CQUADX4,10311,1,9690,9855,9856,9691
CQUADX4,10312,1,9691,9856,9857,9692
CQUADX4,10313,1,9692,9857,9858,9693
CQUADX4,10314,1,9693,9858,9859,9694
CQUADX4,10315,1,9694,9859,9860,9695
CQUADX4,10316,1,9695,9860,9861,9696
CQUADX4,10317,1,9696,9861,9862,9697
CQUADX4,10318,1,9697,9862,9863,9698
CQUADX4,10319,1,9698,9863,9864,9699
CQUADX4,10320,1,9699,9864,9865,9700
CQUADX4,10321,1,9700,9865,9866,9701
CQUADX4,10322,1,9701,9866,9867,9702
CQUADX4,10323,1,9702,9867,9868,9703
CQUADX4,10324,1,9703,9868,9869,9704
CQUADX4,10325,1,9704,9869,9870,9705
CQUADX4,10326,1,9705,9870,9871,9706
CQUADX4,10327,1,9706,9871,9872,9707
CQUADX4,10328,1,9707,9872,9873,9708
CQUADX4,10329,1,9708,9873,9874,9709
CQUADX4,10330,1,9709,9874,9875,9710
CQUADX4,10331,1,9710,9875,9876,9711
CQUADX4,10332,1,9711,9876,9877,9712
CQUADX4,10333,1,9712,9877,9878,9713
CQUADX4,10334,1,9713,9878,9879,9714
CQUADX4,10335,1,9714,9879,9880,9715
CQUADX4,10336,1,9715,9880,9881,9716
CQUADX4,10337,1,9716,9881,9882,9717
CQUADX4,10338,1,9717,9882,9883,9718
CQUADX4,10339,1,9718,9883,9884,9719
CQUADX4,10340,1,9719,9884,9885,9720
CQUADX4,10341,1,9720,9885,9886,9721
CQUADX4,10342,1,9721,9886,9887,9722
CQUADX4,10343,1,9722,9887,9888,9723
CQUADX4,10344,1,9723,9888,9889,9724
CQUADX4,10345,1,9724,9889,9890,9725
CQUADX4,10346,1,9725,9890,9891,9726
CQUADX4,10347,1,9726,9891,9892,9727
CQUADX4,10348,1,9727,9892,9893,9728
CQUADX4,10349,1,9728,9893,9894,9729
CQUADX4,10350,1,9729,9894,9895,9730
CQUADX4,10351,1,9730,9895,9896,9731
CQUADX4,10352,1,9731,9896,9897,9732
CQUADX4,10353,1,9732,9897,9898,9733
CQUADX4,10354,1,9733,9898,9899,9734
CQUADX4,10355,1,9734,9899,9900,9735
CQUADX4,10356,1,9735,9900,9901,9736
CQUADX4,10357,1,9736,9901,9902,9737
CQUADX4,10358,1,9737,9902,9903,9738
CQUADX4,10359,1,9738,9903,9904,9739
CQUADX4,10360,1,9739,9904,9905,9740
CQUADX4,10361,1,9740,9905,9906,9741
CQUADX4,10362,1,9741,9906,9907,9742
CQUADX4,10363,1,9742,9907,9908,9743
CQUADX4,10364,1,9743,9908,9909,9744
CQUADX4,10365,1,9744,9909,9910,9745
CQUADX4,10366,1,9745,9910,9911,9746
CQUADX4,10367,1,9746,9911,9912,9747
CQUADX4,10368,1,9747,9912,9913,9748
CQUADX4,10369,1,9748,9913,9914,9749
CQUADX4,10370,1,9749,9914,9915,9750
CQUADX4,10371,1,9750,9915,9916,9751
CQUADX4,10372,1,9751,9916,9917,9752
CQUADX4,10373,1,9752,9917,9918,9753
CQUADX4,10374,1,9753,9918,9919,9754
CQUADX4,10375,1,9754,9919,9920,9755
CQUADX4,10376,1,9755,9920,9921,9756
CQUADX4,10377,1,9756,9921,9922,9757
CQUADX4,10378,1,9757,9922,9923,9758
CQUADX4,10379,1,9758,9923,9924,9759
CQUADX4,10380,1,9759,9924,9925,9760
CQUADX4,10381,1,9760,9925,9926,9761
CQUADX4,10382,1,9761,9926,9927,9762
CQUADX4,10383,1,9762,9927,9928,9763
CQUADX4,10384,1,9763,9928,9929,9764
CQUADX4,10385,1,9764,9929,9930,9765
CQUADX4,10386,1,9765,9930,9931,9766
CQUADX4,10387,1,9766,9931,9932,9767
CQUADX4,10388,1,9767,9932,9933,9768
CQUADX4,10389,1,9768,9933,9934,9769
CQUADX4,10390,1,9769,9934,9935,9770
CQUADX4,10391,1,9770,9935,9936,9771
CQUADX4,10392,1,9771,9936,9937,9772
CQUADX4,10393,1,9772,9937,9938,9773
CQUADX4,10394,1,9773,9938,9939,9774
CQUADX4,10395,1,9774,9939,9940,9775
CQUADX4,10396,1,9775,9940,9941,9776
CQUADX4,10397,1,9776,9941,9942,9777
CQUADX4,10398,1,9777,9942,9943,9778
CQUADX4,10399,1,9778,9943,9944,9779
CQUADX4,10400,1,9779,9944,9945,9780
CQUADX4,10401,1,9780,9945,9946,9781
CQUADX4,10402,1,9781,9946,9947,9782
CQUADX4,10403,1,9782,9947,9948,9783
CQUADX4,10404,1,9783,9948,9949,9784
CQUADX4,10405,1,9784,9949,9950,9785
CQUADX4,10406,1,9785,9950,9951,9786
CQUADX4,10407,1,9786,9951,9952,9787
CQUADX4,10408,1,9787,9952,9953,9788
CQUADX4,10409,1,9788,9953,9954,9789
CQUADX4,10410,1,9789,9954,9955,9790
CQUADX4,10411,1,9790,9955,9956,9791
CQUADX4,10412,1,9791,9956,9957,9792
CQUADX4,10413,1,9792,9957,9958,9793
CQUADX4,10414,1,9793,9958,9959,9794
CQUADX4,10415,1,9794,9959,9960,9795
CQUADX4,10416,1,9795,9960,9961,9796
CQUADX4,10417,1,9796,9961,9962,9797
CQUADX4,10418,1,9797,9962,9963,9798
CQUADX4,10419,1,9798,9963,9964,9799
CQUADX4,10420,1,9799,9964,9965,9800
CQUADX4,10421,1,9800,9965,9966,9801
CQUADX4,10422,1,9801,9966,9967,9802
CQUADX4,10423,1,9802,9967,9968,9803
CQUADX4,10424,1,9803,9968,9969,9804
CQUADX4,10425,1,9804,9969,9970,9805
CQUADX4,10426,1,9805,9970,9971,9806
CQUADX4,10427,1,9806,9971,9972,9807
CQUADX4,10428,1,9807,9972,9973,9808
CQUADX4,10429,1,9808,9973,9974,9809
CQUADX4,10430,1,9809,9974,9975,9810
CQUADX4,10431,1,9810,9975,9976,9811
CQUADX4,10432,1,9811,9976,9977,9812
CQUADX4,10433,1,9812,9977,9978,9813
CQUADX4,10434,1,9813,9978,9979,9814
CQUADX4,10435,1,9814,9979,9980,9815
CQUADX4,10436,1,9815,9980,9981,9816
CQUADX4,10437,1,9816,9981,9982,9817
CQUADX4,10438,1,9817,9982,9983,9818
CQUADX4,10439,1,9818,9983,9984,9819
CQUADX4,10440,1,9819,9984,9985,9820
CQUADX4,10441,1,9820,9985,9986,9821
CQUADX4,10442,1,9821,9986,9987,9822
CQUADX4,10443,1,9822,9987,9988,9823
CQUADX4,10444,1,9823,9988,9989,9824
CQUADX4,10445,1,9824,9989,9990,9825
CQUADX4,10446,1,9825,9990,9991,9826
CQUADX4,10447,1,9826,9991,9992,9827
CQUADX4,10448,1,9827,9992,9993,9828
CQUADX4,10449,1,9828,9993,9994,9829
CQUADX4,10450,1,9829,9994,9995,9830
CQUADX4,10451,1,9830,9995,9996,9831
CQUADX4,10452,1,9831,9996,9997,9832
CQUADX4,10453,1,9832,9997,9998,9833
CQUADX4,10454,1,9833,9998,9999,9834
CQUADX4,10455,1,9834,9999,10000,9835
CQUADX4,10456,1,9835,10000,10001,9836
CQUADX4,10457,1,9836,10001,10002,9837
CQUADX4,10458,1,9837,10002,10003,9838
CQUADX4,10459,1,9838,10003,10004,9839
CQUADX4,10460,1,9839,10004,10005,9840
CQUADX4,10461,1,9840,10005,10006,9841
CQUADX4,10462,1,9841,10006,10007,9842
CQUADX4,10463,1,9842,10007,10008,9843
CQUADX4,10464,1,9843,10008,10009,9844
CQUADX4,10465,1,9845,10010,10011,9846
CQUADX4,10466,1,9846,10011,10012,9847
CQUADX4,10467,1,9847,10012,10013,9848
CQUADX4,10468,1,9848,10013,10014,9849
CQUADX4,10469,1,9849,10014,10015,9850
CQUADX4,10470,1,9850,10015,10016,9851
CQUADX4,10471,1,9851,10016,10017,9852
CQUADX4,10472,1,9852,10017,10018,9853
CQUADX4,10473,1,9853,10018,10019,9854
CQUADX4,10474,1,9854,10019,10020,9855
CQUADX4,10475,1,9855,10020,10021,9856
CQUADX4,10476,1,9856,10021,10022,9857
CQUADX4,10477,1,9857,10022,10023,9858
CQUADX4,10478,1,9858,10023,10024,9859
CQUADX4,10479,1,9859,10024,10025,9860
CQUADX4,10480,1,9860,10025,10026,9861
CQUADX4,10481,1,9861,10026,10027,9862
CQUADX4,10482,1,9862,10027,10028,9863
CQUADX4,10483,1,9863,10028,10029,9864
CQUADX4,10484,1,9864,10029,10030,9865
CQUADX4,10485,1,9865,10030,10031,9866
CQUADX4,10486,1,9866,10031,10032,9867
CQUADX4,10487,1,9867,10032,10033,9868
CQUADX4,10488,1,9868,10033,10034,9869
CQUADX4,10489,1,9869,10034,10035,9870
CQUADX4,10490,1,9870,10035,10036,9871
CQUADX4,10491,1,9871,10036,10037,9872
CQUADX4,10492,1,9872,10037,10038,9873
CQUADX4,10493,1,9873,10038,10039,9874
CQUADX4,10494,1,9874,10039,10040,9875
CQUADX4,10495,1,9875,10040,10041,9876
CQUADX4,10496,1,9876,10041,10042,9877
CQUADX4,10497,1,9877,10042,10043,9878
CQUADX4,10498,1,9878,10043,10044,9879
CQUADX4,10499,1,9879,10044,10045,9880
CQUADX4,10500,1,9880,10045,10046,9881
CQUADX4,10501,1,9881,10046,10047,9882
CQUADX4,10502,1,9882,10047,10048,9883
CQUADX4,10503,1,9883,10048,10049,9884
CQUADX4,10504,1,9884,10049,10050,9885
CQUADX4,10505,1,9885,10050,10051,9886
CQUADX4,10506,1,9886,10051,10052,9887
CQUADX4,10507,1,9887,10052,10053,9888
CQUADX4,10508,1,9888,10053,10054,9889
CQUADX4,10509,1,9889,10054,10055,9890
CQUADX4,10510,1,9890,10055,10056,9891
CQUADX4,10511,1,9891,10056,10057,9892
CQUADX4,10512,1,9892,10057,10058,9893
CQUADX4,10513,1,9893,10058,10059,9894
CQUADX4,10514,1,9894,10059,10060,9895
CQUADX4,10515,1,9895,10060,10061,9896
CQUADX4,10516,1,9896,10061,10062,9897
CQUADX4,10517,1,9897,10062,10063,9898
CQUADX4,10518,1,9898,10063,10064,9899
CQUADX4,10519,1,9899,10064,10065,9900
CQUADX4,10520,1,9900,10065,10066,9901
CQUADX4,10521,1,9901,10066,10067,9902
CQUADX4,10522,1,9902,10067,10068,9903
CQUADX4,10523,1,9903,10068,10069,9904
CQUADX4,10524,1,9904,10069,10070,9905
CQUADX4,10525,1,9905,10070,10071,9906
CQUADX4,10526,1,9906,10071,10072,9907
CQUADX4,10527,1,9907,10072,10073,9908
CQUADX4,10528,1,9908,10073,10074,9909
CQUADX4,10529,1,9909,10074,10075,9910
CQUADX4,10530,1,9910,10075,10076,9911
CQUADX4,10531,1,9911,10076,10077,9912
CQUADX4,10532,1,9912,10077,10078,9913
CQUADX4,10533,1,9913,10078,10079,9914
CQUADX4,10534,1,9914,10079,10080,9915
CQUADX4,10535,1,9915,10080,10081,9916
CQUADX4,10536,1,9916,10081,10082,9917
CQUADX4,10537,1,9917,10082,10083,9918
CQUADX4,10538,1,9918,10083,10084,9919
CQUADX4,10539,1,9919,10084,10085,9920
CQUADX4,10540,1,9920,10085,10086,9921
CQUADX4,10541,1,9921,10086,10087,9922
CQUADX4,10542,1,9922,10087,10088,9923
CQUADX4,10543,1,9923,10088,10089,9924
CQUADX4,10544,1,9924,10089,10090,9925
CQUADX4,10545,1,9925,10090,10091,9926
CQUADX4,10546,1,9926,10091,10092,9927
CQUADX4,10547,1,9927,10092,10093,9928
CQUADX4,10548,1,9928,10093,10094,9929
CQUADX4,10549,1,9929,10094,10095,9930
CQUADX4,10550,1,9930,10095,10096,9931
CQUADX4,10551,1,9931,10096,10097,9932
CQUADX4,10552,1,9932,10097,10098,9933
CQUADX4,10553,1,9933,10098,10099,9934
CQUADX4,10554,1,9934,10099,10100,9935
CQUADX4,10555,1,9935,10100,10101,9936
CQUADX4,10556,1,9936,10101,10102,9937
CQUADX4,10557,1,9937,10102,10103,9938
CQUADX4,10558,1,9938,10103,10104,9939
CQUADX4,10559,1,9939,10104,10105,9940
CQUADX4,10560,1,9940,10105,10106,9941
CQUADX4,10561,1,9941,10106,10107,9942
CQUADX4,10562,1,9942,10107,10108,9943
CQUADX4,10563,1,9943,10108,10109,9944
CQUADX4,10564,1,9944,10109,10110,9945
CQUADX4,10565,1,9945,10110,10111,9946
CQUADX4,10566,1,9946,10111,10112,9947
CQUADX4,10567,1,9947,10112,10113,9948
CQUADX4,10568,1,9948,10113,10114,9949
CQUADX4,10569,1,9949,10114,10115,9950
CQUADX4,10570,1,9950,10115,10116,9951
CQUADX4,10571,1,9951,10116,10117,9952
CQUADX4,10572,1,9952,10117,10118,9953
CQUADX4,10573,1,9953,10118,10119,9954
CQUADX4,10574,1,9954,10119,10120,9955
CQUADX4,10575,1,9955,10120,10121,9956
CQUADX4,10576,1,9956,10121,10122,9957
CQUADX4,10577,1,9957,10122,10123,9958
CQUADX4,10578,1,9958,10123,10124,9959
CQUADX4,10579,1,9959,10124,10125,9960
CQUADX4,10580,1,9960,10125,10126,9961
CQUADX4,10581,1,9961,10126,10127,9962
CQUADX4,10582,1,9962,10127,10128,9963
CQUADX4,10583,1,9963,10128,10129,9964
CQUADX4,10584,1,9964,10129,10130,9965
CQUADX4,10585,1,9965,10130,10131,9966
CQUADX4,10586,1,9966,10131,10132,9967
CQUADX4,10587,1,9967,10132,10133,9968
CQUADX4,10588,1,9968,10133,10134,9969
CQUADX4,10589,1,9969,10134,10135,9970
CQUADX4,10590,1,9970,10135,10136,9971
CQUADX4,10591,1,9971,10136,10137,9972
CQUADX4,10592,1,9972,10137,10138,9973
CQUADX4,10593,1,9973,10138,10139,9974
CQUADX4,10594,1,9974,10139,10140,9975
CQUADX4,10595,1,9975,10140,10141,9976
CQUADX4,10596,1,9976,10141,10142,9977
CQUADX4,10597,1,9977,10142,10143,9978
CQUADX4,10598,1,9978,10143,10144,9979
CQUADX4,10599,1,9979,10144,10145,9980
CQUADX4,10600,1,9980,10145,10146,9981
CQUADX4,10601,1,9981,10146,10147,9982
CQUADX4,10602,1,9982,10147,10148,9983
CQUADX4,10603,1,9983,10148,10149,9984
CQUADX4,10604,1,9984,10149,10150,9985
CQUADX4,10605,1,9985,10150,10151,9986
CQUADX4,10606,1,9986,10151,10152,9987
CQUADX4,10607,1,9987,10152,10153,9988
CQUADX4,10608,1,9988,10153,10154,9989
CQUADX4,10609,1,9989,10154,10155,9990
CQUADX4,10610,1,9990,10155,10156,9991
CQUADX4,10611,1,9991,10156,10157,9992
CQUADX4,10612,1,9992,10157,10158,9993
CQUADX4,10613,1,9993,10158,10159,9994
CQUADX4,10614,1,9994,10159,10160,9995
CQUADX4,10615,1,9995,10160,10161,9996
CQUADX4,10616,1,9996,10161,10162,9997
CQUADX4,10617,1,9997,10162,10163,9998
CQUADX4,10618,1,9998,10163,10164,9999
CQUADX4,10619,1,9999,10164,10165,10000
CQUADX4,10620,1,10000,10165,10166,10001
CQUADX4,10621,1,10001,10166,10167,10002
CQUADX4,10622,1,10002,10167,10168,10003
CQUADX4,10623,1,10003,10168,10169,10004
CQUADX4,10624,1,10004,10169,10170,10005
CQUADX4,10625,1,10005,10170,10171,10006
CQUADX4,10626,1,10006,10171,10172,10007
CQUADX4,10627,1,10007,10172,10173,10008
CQUADX4,10628,1,10008,10173,10174,10009
CQUADX4,10629,1,10010,10175,10176,10011
CQUADX4,10630,1,10011,10176,10177,10012
CQUADX4,10631,1,10012,10177,10178,10013
CQUADX4,10632,1,10013,10178,10179,10014
CQUADX4,10633,1,10014,10179,10180,10015
CQUADX4,10634,1,10015,10180,10181,10016
CQUADX4,10635,1,10016,10181,10182,10017
CQUADX4,10636,1,10017,10182,10183,10018
CQUADX4,10637,1,10018,10183,10184,10019
CQUADX4,10638,1,10019,10184,10185,10020
CQUADX4,10639,1,10020,10185,10186,10021
CQUADX4,10640,1,10021,10186,10187,10022
CQUADX4,10641,1,10022,10187,10188,10023
CQUADX4,10642,1,10023,10188,10189,10024
CQUADX4,10643,1,10024,10189,10190,10025
CQUADX4,10644,1,10025,10190,10191,10026
CQUADX4,10645,1,10026,10191,10192,10027
CQUADX4,10646,1,10027,10192,10193,10028
CQUADX4,10647,1,10028,10193,10194,10029
CQUADX4,10648,1,10029,10194,10195,10030
CQUADX4,10649,1,10030,10195,10196,10031
CQUADX4,10650,1,10031,10196,10197,10032
CQUADX4,10651,1,10032,10197,10198,10033
CQUADX4,10652,1,10033,10198,10199,10034
CQUADX4,10653,1,10034,10199,10200,10035
CQUADX4,10654,1,10035,10200,10201,10036
CQUADX4,10655,1,10036,10201,10202,10037
CQUADX4,10656,1,10037,10202,10203,10038
CQUADX4,10657,1,10038,10203,10204,10039
CQUADX4,10658,1,10039,10204,10205,10040
CQUADX4,10659,1,10040,10205,10206,10041
CQUADX4,10660,1,10041,10206,10207,10042
CQUADX4,10661,1,10042,10207,10208,10043
CQUADX4,10662,1,10043,10208,10209,10044
CQUADX4,10663,1,10044,10209,10210,10045
CQUADX4,10664,1,10045,10210,10211,10046
CQUADX4,10665,1,10046,10211,10212,10047
CQUADX4,10666,1,10047,10212,10213,10048
CQUADX4,10667,1,10048,10213,10214,10049
CQUADX4,10668,1,10049,10214,10215,10050
CQUADX4,10669,1,10050,10215,10216,10051
CQUADX4,10670,1,10051,10216,10217,10052
CQUADX4,10671,1,10052,10217,10218,10053
CQUADX4,10672,1,10053,10218,10219,10054
CQUADX4,10673,1,10054,10219,10220,10055
CQUADX4,10674,1,10055,10220,10221,10056
CQUADX4,10675,1,10056,10221,10222,10057
CQUADX4,10676,1,10057,10222,10223,10058
CQUADX4,10677,1,10058,10223,10224,10059
CQUADX4,10678,1,10059,10224,10225,10060
CQUADX4,10679,1,10060,10225,10226,10061
CQUADX4,10680,1,10061,10226,10227,10062
CQUADX4,10681,1,10062,10227,10228,10063
CQUADX4,10682,1,10063,10228,10229,10064
CQUADX4,10683,1,10064,10229,10230,10065
CQUADX4,10684,1,10065,10230,10231,10066
CQUADX4,10685,1,10066,10231,10232,10067
CQUADX4,10686,1,10067,10232,10233,10068
CQUADX4,10687,1,10068,10233,10234,10069
CQUADX4,10688,1,10069,10234,10235,10070
CQUADX4,10689,1,10070,10235,10236,10071
CQUADX4,10690,1,10071,10236,10237,10072
CQUADX4,10691,1,10072,10237,10238,10073
CQUADX4,10692,1,10073,10238,10239,10074
CQUADX4,10693,1,10074,10239,10240,10075
CQUADX4,10694,1,10075,10240,10241,10076
CQUADX4,10695,1,10076,10241,10242,10077
CQUADX4,10696,1,10077,10242,10243,10078
CQUADX4,10697,1,10078,10243,10244,10079
CQUADX4,10698,1,10079,10244,10245,10080
CQUADX4,10699,1,10080,10245,10246,10081
CQUADX4,10700,1,10081,10246,10247,10082
CQUADX4,10701,1,10082,10247,10248,10083
CQUADX4,10702,1,10083,10248,10249,10084
CQUADX4,10703,1,10084,10249,10250,10085
CQUADX4,10704,1,10085,10250,10251,10086
CQUADX4,10705,1,10086,10251,10252,10087
CQUADX4,10706,1,10087,10252,10253,10088
CQUADX4,10707,1,10088,10253,10254,10089
CQUADX4,10708,1,10089,10254,10255,10090
CQUADX4,10709,1,10090,10255,10256,10091
CQUADX4,10710,1,10091,10256,10257,10092
CQUADX4,10711,1,10092,10257,10258,10093
CQUADX4,10712,1,10093,10258,10259,10094
CQUADX4,10713,1,10094,10259,10260,10095
CQUADX4,10714,1,10095,10260,10261,10096
CQUADX4,10715,1,10096,10261,10262,10097
CQUADX4,10716,1,10097,10262,10263,10098
CQUADX4,10717,1,10098,10263,10264,10099
CQUADX4,10718,1,10099,10264,10265,10100
CQUADX4,10719,1,10100,10265,10266,10101
CQUADX4,10720,1,10101,10266,10267,10102
CQUADX4,10721,1,10102,10267,10268,10103
CQUADX4,10722,1,10103,10268,10269,10104
CQUADX4,10723,1,10104,10269,10270,10105
CQUADX4,10724,1,10105,10270,10271,10106
CQUADX4,10725,1,10106,10271,10272,10107
CQUADX4,10726,1,10107,10272,10273,10108
CQUADX4,10727,1,10108,10273,10274,10109
CQUADX4,10728,1,10109,10274,10275,10110
CQUADX4,10729,1,10110,10275,10276,10111
CQUADX4,10730,1,10111,10276,10277,10112
CQUADX4,10731,1,10112,10277,10278,10113
CQUADX4,10732,1,10113,10278,10279,10114
CQUADX4,10733,1,10114,10279,10280,10115
CQUADX4,10734,1,10115,10280,10281,10116
CQUADX4,10735,1,10116,10281,10282,10117
CQUADX4,10736,1,10117,10282,10283,10118
CQUADX4,10737,1,10118,10283,10284,10119
CQUADX4,10738,1,10119,10284,10285,10120
CQUADX4,10739,1,10120,10285,10286,10121
CQUADX4,10740,1,10121,10286,10287,10122
CQUADX4,10741,1,10122,10287,10288,10123
CQUADX4,10742,1,10123,10288,10289,10124
CQUADX4,10743,1,10124,10289,10290,10125
CQUADX4,10744,1,10125,10290,10291,10126
CQUADX4,10745,1,10126,10291,10292,10127
CQUADX4,10746,1,10127,10292,10293,10128
CQUADX4,10747,1,10128,10293,10294,10129
CQUADX4,10748,1,10129,10294,10295,10130
CQUADX4,10749,1,10130,10295,10296,10131
CQUADX4,10750,1,10131,10296,10297,10132
CQUADX4,10751,1,10132,10297,10298,10133
CQUADX4,10752,1,10133,10298,10299,10134
CQUADX4,10753,1,10134,10299,10300,10135
CQUADX4,10754,1,10135,10300,10301,10136
CQUADX4,10755,1,10136,10301,10302,10137
CQUADX4,10756,1,10137,10302,10303,10138
CQUADX4,10757,1,10138,10303,10304,10139
CQUADX4,10758,1,10139,10304,10305,10140
CQUADX4,10759,1,10140,10305,10306,10141
CQUADX4,10760,1,10141,10306,10307,10142
CQUADX4,10761,1,10142,10307,10308,10143
CQUADX4,10762,1,10143,10308,10309,10144
CQUADX4,10763,1,10144,10309,10310,10145
CQUADX4,10764,1,10145,10310,10311,10146
CQUADX4,10765,1,10146,10311,10312,10147
CQUADX4,10766,1,10147,10312,10313,10148
CQUADX4,10767,1,10148,10313,10314,10149
CQUADX4,10768,1,10149,10314,10315,10150
CQUADX4,10769,1,10150,10315,10316,10151
CQUADX4,10770,1,10151,10316,10317,10152
CQUADX4,10771,1,10152,10317,10318,10153
CQUADX4,10772,1,10153,10318,10319,10154
CQUADX4,10773,1,10154,10319,10320,10155
CQUADX4,10774,1,10155,10320,10321,10156
CQUADX4,10775,1,10156,10321,10322,10157
CQUADX4,10776,1,10157,10322,10323,10158
CQUADX4,10777,1,10158,10323,10324,10159
CQUADX4,10778,1,10159,10324,10325,10160
CQUADX4,10779,1,10160,10325,10326,10161
CQUADX4,10780,1,10161,10326,10327,10162
CQUADX4,10781,1,10162,10327,10328,10163
CQUADX4,10782,1,10163,10328,10329,10164
CQUADX4,10783,1,10164,10329,10330,10165
CQUADX4,10784,1,10165,10330,10331,10166
CQUADX4,10785,1,10166,10331,10332,10167
CQUADX4,10786,1,10167,10332,10333,10168
CQUADX4,10787,1,10168,10333,10334,10169
CQUADX4,10788,1,10169,10334,10335,10170
CQUADX4,10789,1,10170,10335,10336,10171
CQUADX4,10790,1,10171,10336,10337,10172
CQUADX4,10791,1,10172,10337,10338,10173
CQUADX4,10792,1,10173,10338,10339,10174
CQUADX4,10793,1,11939,11712,7865,11488
CQUADX4,10794,1,11712,11711,8030,7865
CQUADX4,10795,1,11711,11710,8195,8030
CQUADX4,10796,1,11710,11709,8360,8195
CQUADX4,10797,1,11709,11708,8525,8360
CQUADX4,10798,1,11708,11707,8690,8525
CQUADX4,10799,1,11707,11706,8855,8690
CQUADX4,10800,1,11706,11705,9020,8855
CQUADX4,10801,1,11705,11704,9185,9020
CQUADX4,10802,1,11704,11703,9350,9185
CQUADX4,10803,1,11703,11702,9515,9350
CQUADX4,10804,1,11702,11701,9680,9515
CQUADX4,10805,1,11701,11700,9845,9680
CQUADX4,10806,1,11700,11699,10010,9845
CQUADX4,10807,1,11699,11698,10175,10010
CQUADX4,10808,1,11698,11938,11394,10175
CQUADX4,10809,1,10175,11394,11395,10176
CQUADX4,10810,1,10176,11395,11396,10177
CQUADX4,10811,1,10177,11396,11397,10178
CQUADX4,10812,1,10178,11397,11935,10179
CQUADX4,10813,1,10179,11935,11314,10180
CQUADX4,10814,1,10180,11314,11315,10181
CQUADX4,10815,1,10181,11315,11316,10182
CQUADX4,10816,1,10182,11316,11317,10183
CQUADX4,10817,1,10183,11317,11318,10184
CQUADX4,10818,1,10184,11318,11319,10185
CQUADX4,10819,1,10185,11319,11320,10186
CQUADX4,10820,1,10186,11320,11321,10187
CQUADX4,10821,1,10187,11321,11322,10188
CQUADX4,10822,1,10188,11322,11323,10189
CQUADX4,10823,1,10189,11323,11324,10190
CQUADX4,10824,1,10190,11324,11325,10191
CQUADX4,10825,1,10191,11325,11326,10192
CQUADX4,10826,1,10192,11326,11327,10193
CQUADX4,10827,1,10193,11327,11328,10194
CQUADX4,10828,1,10194,11328,11329,10195
CQUADX4,10829,1,10195,11329,11330,10196
CQUADX4,10830,1,10196,11330,11331,10197
CQUADX4,10831,1,10197,11331,11332,10198
CQUADX4,10832,1,10198,11332,11333,10199
CQUADX4,10833,1,10199,11333,11334,10200
CQUADX4,10834,1,10200,11334,11335,10201
CQUADX4,10835,1,10201,11335,11336,10202
CQUADX4,10836,1,10202,11336,11337,10203
CQUADX4,10837,1,10203,11337,11338,10204
CQUADX4,10838,1,10204,11338,11339,10205
CQUADX4,10839,1,10205,11339,11340,10206
CQUADX4,10840,1,10206,11340,11341,10207
CQUADX4,10841,1,10207,11341,11342,10208
CQUADX4,10842,1,10208,11342,11343,10209
CQUADX4,10843,1,10209,11343,11344,10210
CQUADX4,10844,1,10210,11344,11345,10211
CQUADX4,10845,1,10211,11345,11346,10212
CQUADX4,10846,1,10212,11346,11347,10213
CQUADX4,10847,1,10213,11347,11348,10214
CQUADX4,10848,1,10214,11348,11349,10215
CQUADX4,10849,1,10215,11349,11350,10216
CQUADX4,10850,1,10216,11350,11351,10217
CQUADX4,10851,1,10217,11351,11352,10218
CQUADX4,10852,1,10218,11352,11353,10219
CQUADX4,10853,1,10219,11353,11354,10220
CQUADX4,10854,1,10220,11354,11355,10221
CQUADX4,10855,1,10221,11355,11356,10222
CQUADX4,10856,1,10222,11356,11357,10223
CQUADX4,10857,1,10223,11357,11358,10224
CQUADX4,10858,1,10224,11358,11359,10225
CQUADX4,10859,1,10225,11359,11360,10226
CQUADX4,10860,1,10226,11360,11361,10227
CQUADX4,10861,1,10227,11361,11362,10228
CQUADX4,10862,1,10228,11362,11363,10229
CQUADX4,10863,1,10229,11363,11364,10230
CQUADX4,10864,1,10230,11364,11365,10231
CQUADX4,10865,1,10231,11365,11366,10232
CQUADX4,10866,1,10232,11366,11367,10233
CQUADX4,10867,1,10233,11367,11368,10234
CQUADX4,10868,1,10234,11368,11369,10235
CQUADX4,10869,1,10235,11369,11370,10236
CQUADX4,10870,1,10236,11370,11371,10237
CQUADX4,10871,1,10237,11371,11372,10238
CQUADX4,10872,1,10238,11372,11373,10239
CQUADX4,10873,1,10239,11373,11374,10240
CQUADX4,10874,1,10240,11374,11375,10241
CQUADX4,10875,1,10241,11375,11376,10242
CQUADX4,10876,1,10242,11376,11377,10243
CQUADX4,10877,1,10243,11377,11378,10244
CQUADX4,10878,1,10244,11378,11379,10245
CQUADX4,10879,1,10245,11379,11380,10246
CQUADX4,10880,1,10246,11380,11381,10247
CQUADX4,10881,1,10247,11381,11382,10248
CQUADX4,10882,1,10248,11382,11383,10249
CQUADX4,10883,1,10249,11383,11384,10250
CQUADX4,10884,1,10250,11384,11385,10251
CQUADX4,10885,1,10251,11385,11386,10252
CQUADX4,10886,1,10252,11386,11387,10253
CQUADX4,10887,1,10253,11387,11388,10254
CQUADX4,10888,1,10254,11388,11389,10255
CQUADX4,10889,1,10255,11389,11390,10256
CQUADX4,10890,1,10256,11390,11391,10257
CQUADX4,10891,1,10257,11391,11392,10258
CQUADX4,10892,1,10258,11392,11393,10259
CQUADX4,10893,1,10259,11393,11933,10260
CQUADX4,10894,1,10260,11933,11203,10261
CQUADX4,10895,1,10261,11203,11204,10262
CQUADX4,10896,1,10262,11204,11205,10263
CQUADX4,10897,1,10263,11205,11206,10264
CQUADX4,10898,1,10264,11206,11207,10265
CQUADX4,10899,1,10265,11207,11208,10266
CQUADX4,10900,1,10266,11208,11209,10267
CQUADX4,10901,1,10267,11209,11210,10268
CQUADX4,10902,1,10268,11210,11211,10269
CQUADX4,10903,1,10269,11211,11212,10270
CQUADX4,10904,1,10270,11212,11213,10271
CQUADX4,10905,1,10271,11213,11214,10272
CQUADX4,10906,1,10272,11214,11215,10273
CQUADX4,10907,1,10273,11215,11216,10274
CQUADX4,10908,1,10274,11216,11217,10275
CQUADX4,10909,1,10275,11217,11218,10276
CQUADX4,10910,1,10276,11218,11219,10277
CQUADX4,10911,1,10277,11219,11220,10278
CQUADX4,10912,1,10278,11220,11221,10279
CQUADX4,10913,1,10279,11221,11222,10280
CQUADX4,10914,1,10280,11222,11223,10281
CQUADX4,10915,1,10281,11223,11224,10282
CQUADX4,10916,1,10282,11224,11225,10283
CQUADX4,10917,1,10283,11225,11226,10284
CQUADX4,10918,1,10284,11226,11227,10285
CQUADX4,10919,1,10285,11227,11228,10286
CQUADX4,10920,1,10286,11228,11229,10287
CQUADX4,10921,1,10287,11229,11230,10288
CQUADX4,10922,1,10288,11230,11231,10289
CQUADX4,10923,1,10289,11231,11232,10290
CQUADX4,10924,1,10290,11232,11233,10291
CQUADX4,10925,1,10291,11233,11234,10292
CQUADX4,10926,1,10292,11234,11235,10293
CQUADX4,10927,1,10293,11235,11236,10294
CQUADX4,10928,1,10294,11236,11237,10295
CQUADX4,10929,1,10295,11237,11238,10296
CQUADX4,10930,1,10296,11238,11239,10297
CQUADX4,10931,1,10297,11239,11240,10298
CQUADX4,10932,1,10298,11240,11241,10299
CQUADX4,10933,1,10299,11241,11242,10300
CQUADX4,10934,1,10300,11242,11932,10301
CQUADX4,10935,1,10301,11932,11165,10302
CQUADX4,10936,1,10302,11165,11166,10303
CQUADX4,10937,1,10303,11166,11167,10304
CQUADX4,10938,1,10304,11167,11168,10305
CQUADX4,10939,1,10305,11168,11169,10306
CQUADX4,10940,1,10306,11169,11170,10307
CQUADX4,10941,1,10307,11170,11171,10308
CQUADX4,10942,1,10308,11171,11172,10309
CQUADX4,10943,1,10309,11172,11173,10310
CQUADX4,10944,1,10310,11173,11174,10311
CQUADX4,10945,1,10311,11174,11175,10312
CQUADX4,10946,1,10312,11175,11176,10313
CQUADX4,10947,1,10313,11176,11177,10314
CQUADX4,10948,1,10314,11177,11178,10315
CQUADX4,10949,1,10315,11178,11179,10316
CQUADX4,10950,1,10316,11179,11180,10317
CQUADX4,10951,1,10317,11180,11181,10318
CQUADX4,10952,1,10318,11181,11182,10319
CQUADX4,10953,1,10319,11182,11183,10320
CQUADX4,10954,1,10320,11183,11184,10321
CQUADX4,10955,1,10321,11184,11185,10322
CQUADX4,10956,1,10322,11185,11186,10323
CQUADX4,10957,1,10323,11186,11187,10324
CQUADX4,10958,1,10324,11187,11188,10325
CQUADX4,10959,1,10325,11188,11189,10326
CQUADX4,10960,1,10326,11189,11190,10327
CQUADX4,10961,1,10327,11190,11191,10328
CQUADX4,10962,1,10328,11191,11192,10329
CQUADX4,10963,1,10329,11192,11193,10330
CQUADX4,10964,1,10330,11193,11194,10331
CQUADX4,10965,1,10331,11194,11195,10332
CQUADX4,10966,1,10332,11195,11196,10333
CQUADX4,10967,1,10333,11196,11197,10334
CQUADX4,10968,1,10334,11197,11198,10335
CQUADX4,10969,1,10335,11198,11199,10336
CQUADX4,10970,1,10336,11199,11200,10337
CQUADX4,10971,1,10337,11200,11201,10338
CQUADX4,10972,1,10338,11201,11202,10339
CQUADX4,10973,1,10339,11202,11930,11150
CQUADX4,10974,1,10174,10339,11150,11151
CQUADX4,10975,1,10009,10174,11151,11152
CQUADX4,10976,1,9844,10009,11152,11153
CQUADX4,10977,1,9679,9844,11153,11154
CQUADX4,10978,1,9514,9679,11154,11155
CQUADX4,10979,1,9349,9514,11155,11156
CQUADX4,10980,1,9184,9349,11156,11157
CQUADX4,10981,1,9019,9184,11157,11158
CQUADX4,10982,1,8854,9019,11158,11159
CQUADX4,10983,1,8689,8854,11159,11160
CQUADX4,10984,1,8524,8689,11160,11161
CQUADX4,10985,1,8359,8524,11161,11162
CQUADX4,10986,1,8194,8359,11162,11163
CQUADX4,10987,1,8029,8194,11163,11164
CQUADX4,10988,1,11243,8029,11164,11931
CQUADX4,10989,1,11244,8028,8029,11243
CQUADX4,10990,1,11245,8027,8028,11244
CQUADX4,10991,1,11246,8026,8027,11245
CQUADX4,10992,1,11247,8025,8026,11246
CQUADX4,10993,1,11248,8024,8025,11247
CQUADX4,10994,1,11249,8023,8024,11248
CQUADX4,10995,1,11250,8022,8023,11249
CQUADX4,10996,1,11251,8021,8022,11250
CQUADX4,10997,1,11252,8020,8021,11251
CQUADX4,10998,1,11253,8019,8020,11252
CQUADX4,10999,1,11254,8018,8019,11253
CQUADX4,11000,1,11255,8017,8018,11254
CQUADX4,11001,1,11256,8016,8017,11255
CQUADX4,11002,1,11257,8015,8016,11256
CQUADX4,11003,1,11258,8014,8015,11257
CQUADX4,11004,1,11259,8013,8014,11258
CQUADX4,11005,1,11260,8012,8013,11259
CQUADX4,11006,1,11261,8011,8012,11260
CQUADX4,11007,1,11262,8010,8011,11261
CQUADX4,11008,1,11263,8009,8010,11262
CQUADX4,11009,1,11264,8008,8009,11263
CQUADX4,11010,1,11265,8007,8008,11264
CQUADX4,11011,1,11266,8006,8007,11265
CQUADX4,11012,1,11267,8005,8006,11266
CQUADX4,11013,1,11268,8004,8005,11267
CQUADX4,11014,1,11269,8003,8004,11268
CQUADX4,11015,1,11270,8002,8003,11269
CQUADX4,11016,1,11271,8001,8002,11270
CQUADX4,11017,1,11272,8000,8001,11271
CQUADX4,11018,1,11273,7999,8000,11272
CQUADX4,11019,1,11274,7998,7999,11273
CQUADX4,11020,1,11275,7997,7998,11274
CQUADX4,11021,1,11276,7996,7997,11275
CQUADX4,11022,1,11277,7995,7996,11276
CQUADX4,11023,1,11278,7994,7995,11277
CQUADX4,11024,1,11279,7993,7994,11278
CQUADX4,11025,1,11280,7992,7993,11279
CQUADX4,11026,1,11281,7991,7992,11280
CQUADX4,11027,1,11282,7990,7991,11281
CQUADX4,11028,1,11283,7989,7990,11282
CQUADX4,11029,1,11284,7988,7989,11283
CQUADX4,11030,1,11285,7987,7988,11284
CQUADX4,11031,1,11286,7986,7987,11285
CQUADX4,11032,1,11287,7985,7986,11286
CQUADX4,11033,1,11288,7984,7985,11287
CQUADX4,11034,1,11289,7983,7984,11288
CQUADX4,11035,1,11290,7982,7983,11289
CQUADX4,11036,1,11291,7981,7982,11290
CQUADX4,11037,1,11292,7980,7981,11291
CQUADX4,11038,1,11293,7979,7980,11292
CQUADX4,11039,1,11294,7978,7979,11293
CQUADX4,11040,1,11295,7977,7978,11294
CQUADX4,11041,1,11296,7976,7977,11295
CQUADX4,11042,1,11297,7975,7976,11296
CQUADX4,11043,1,11298,7974,7975,11297
CQUADX4,11044,1,11299,7973,7974,11298
CQUADX4,11045,1,11300,7972,7973,11299
CQUADX4,11046,1,11301,7971,7972,11300
CQUADX4,11047,1,11302,7970,7971,11301
CQUADX4,11048,1,11303,7969,7970,11302
CQUADX4,11049,1,11304,7968,7969,11303
CQUADX4,11050,1,11305,7967,7968,11304
CQUADX4,11051,1,11306,7966,7967,11305
CQUADX4,11052,1,11307,7965,7966,11306
CQUADX4,11053,1,11308,7964,7965,11307
CQUADX4,11054,1,11309,7963,7964,11308
CQUADX4,11055,1,11310,7962,7963,11309
CQUADX4,11056,1,11311,7961,7962,11310
CQUADX4,11057,1,11312,7960,7961,11311
CQUADX4,11058,1,11313,7959,7960,11312
CQUADX4,11059,1,11934,7958,7959,11313
CQUADX4,11060,1,11398,7957,7958,11934
CQUADX4,11061,1,11399,7956,7957,11398
CQUADX4,11062,1,11400,7955,7956,11399
CQUADX4,11063,1,11401,7954,7955,11400
CQUADX4,11064,1,11402,7953,7954,11401
CQUADX4,11065,1,11936,7952,7953,11402
CQUADX4,11066,1,11403,7951,7952,11936
CQUADX4,11067,1,11404,7950,7951,11403
CQUADX4,11068,1,11405,7949,7950,11404
CQUADX4,11069,1,11406,7948,7949,11405
CQUADX4,11070,1,11407,7947,7948,11406
CQUADX4,11071,1,11408,7946,7947,11407
CQUADX4,11072,1,11409,7945,7946,11408
CQUADX4,11073,1,11410,7944,7945,11409
CQUADX4,11074,1,11411,7943,7944,11410
CQUADX4,11075,1,11412,7942,7943,11411
CQUADX4,11076,1,11413,7941,7942,11412
CQUADX4,11077,1,11414,7940,7941,11413
CQUADX4,11078,1,11415,7939,7940,11414
CQUADX4,11079,1,11416,7938,7939,11415
CQUADX4,11080,1,11417,7937,7938,11416
CQUADX4,11081,1,11418,7936,7937,11417
CQUADX4,11082,1,11419,7935,7936,11418
CQUADX4,11083,1,11420,7934,7935,11419
CQUADX4,11084,1,11421,7933,7934,11420
CQUADX4,11085,1,11422,7932,7933,11421
CQUADX4,11086,1,11423,7931,7932,11422
CQUADX4,11087,1,11424,7930,7931,11423
CQUADX4,11088,1,11425,7929,7930,11424
CQUADX4,11089,1,11426,7928,7929,11425
CQUADX4,11090,1,11427,7927,7928,11426
CQUADX4,11091,1,11428,7926,7927,11427
CQUADX4,11092,1,11429,7925,7926,11428
CQUADX4,11093,1,11430,7924,7925,11429
CQUADX4,11094,1,11431,7923,7924,11430
CQUADX4,11095,1,11432,7922,7923,11431
CQUADX4,11096,1,11433,7921,7922,11432
CQUADX4,11097,1,11434,7920,7921,11433
CQUADX4,11098,1,11435,7919,7920,11434
CQUADX4,11099,1,11436,7918,7919,11435
CQUADX4,11100,1,11437,7917,7918,11436
CQUADX4,11101,1,11438,7916,7917,11437
CQUADX4,11102,1,11439,7915,7916,11438
CQUADX4,11103,1,11440,7914,7915,11439
CQUADX4,11104,1,11441,7913,7914,11440
CQUADX4,11105,1,11442,7912,7913,11441
CQUADX4,11106,1,11443,7911,7912,11442
CQUADX4,11107,1,11444,7910,7911,11443
CQUADX4,11108,1,11445,7909,7910,11444
CQUADX4,11109,1,11446,7908,7909,11445
CQUADX4,11110,1,11447,7907,7908,11446
CQUADX4,11111,1,11448,7906,7907,11447
CQUADX4,11112,1,11449,7905,7906,11448
CQUADX4,11113,1,11450,7904,7905,11449
CQUADX4,11114,1,11451,7903,7904,11450
CQUADX4,11115,1,11452,7902,7903,11451
CQUADX4,11116,1,11453,7901,7902,11452
CQUADX4,11117,1,11937,7900,7901,11453
CQUADX4,11118,1,11454,7899,7900,11937
CQUADX4,11119,1,11455,7898,7899,11454
CQUADX4,11120,1,11456,7897,7898,11455
CQUADX4,11121,1,11457,7896,7897,11456
CQUADX4,11122,1,11458,7895,7896,11457
CQUADX4,11123,1,11459,7894,7895,11458
CQUADX4,11124,1,11460,7893,7894,11459
CQUADX4,11125,1,11461,7892,7893,11460
CQUADX4,11126,1,11462,7891,7892,11461
CQUADX4,11127,1,11463,7890,7891,11462
CQUADX4,11128,1,11464,7889,7890,11463
CQUADX4,11129,1,11465,7888,7889,11464
CQUADX4,11130,1,11466,7887,7888,11465
CQUADX4,11131,1,11467,7886,7887,11466
CQUADX4,11132,1,11468,7885,7886,11467
CQUADX4,11133,1,11469,7884,7885,11468
CQUADX4,11134,1,11470,7883,7884,11469
CQUADX4,11135,1,11471,7882,7883,11470
CQUADX4,11136,1,11472,7881,7882,11471
CQUADX4,11137,1,11473,7880,7881,11472
CQUADX4,11138,1,11474,7879,7880,11473
CQUADX4,11139,1,11475,7878,7879,11474
CQUADX4,11140,1,11476,7877,7878,11475
CQUADX4,11141,1,11477,7876,7877,11476
CQUADX4,11142,1,11478,7875,7876,11477
CQUADX4,11143,1,11479,7874,7875,11478
CQUADX4,11144,1,11480,7873,7874,11479
CQUADX4,11145,1,11481,7872,7873,11480
CQUADX4,11146,1,11482,7871,7872,11481
CQUADX4,11147,1,11483,7870,7871,11482
CQUADX4,11148,1,11484,7869,7870,11483
CQUADX4,11149,1,11485,7868,7869,11484
CQUADX4,11150,1,11486,7867,7868,11485
CQUADX4,11151,1,11487,7866,7867,11486
CQUADX4,11152,1,11488,7865,7866,11487
SPC,1,10340,15,0.0
SPC,1,10341,15,0.0
SPC,1,10342,15,0.0
SPC,1,10343,15,0.0
SPC,1,10344,15,0.0
SPC,1,10345,15,0.0
SPC,1,10346,15,0.0
SPC,1,10347,15,0.0
SPC,1,10348,15,0.0
SPC,1,10349,15,0.0
SPC,1,10350,15,0.0
SPC,1,10351,15,0.0
SPC,1,10352,15,0.0
SPC,1,10353,15,0.0
SPC,1,10354,15,0.0
SPC,1,11150,15,0.0
SPC,1,11151,15,0.0
SPC,1,11152,15,0.0
SPC,1,11153,15,0.0
SPC,1,11154,15,0.0
SPC,1,11155,15,0.0
SPC,1,11156,15,0.0
SPC,1,11157,15,0.0
SPC,1,11158,15,0.0
SPC,1,11159,15,0.0
SPC,1,11160,15,0.0
SPC,1,11161,15,0.0
SPC,1,11162,15,0.0
SPC,1,11163,15,0.0
SPC,1,11164,15,0.0
SPC,1,11922,15,0.0
SPC,1,11923,15,0.0
SPC,1,11930,15,0.0
SPC,1,11931,15,0.0
SPC,2,4633,3,0.0
SPC,2,6394,3,0.0
SPCADD,100,1,2
