     Elem ID      Node ID      R Coord      T Coord      Z Coord           RR           TT           ZZ           RT           TZ           ZR    Von-Mises
          54           55   3.0721e+02   0.0000e+00  -5.0000e+02  -9.0885e+01   1.6208e+02   1.1889e+02   0.0000e+00   0.0000e+00  -1.4764e-02   2.3437e+02
          54          159   3.1441e+02   0.0000e+00  -5.0000e+02  -9.0885e+01   1.5383e+02   1.1639e+02   0.0000e+00   0.0000e+00  -1.4925e-02   2.2831e+02
          55           55   0.0000e+00   0.0000e+00   0.0000e+00  -9.0881e+01   1.6208e+02   1.1890e+02   0.0000e+00   0.0000e+00  -6.6035e-04   2.3437e+02
          55          159   3.1441e+02   0.0000e+00  -5.0000e+02  -9.0881e+01   1.5383e+02   1.1640e+02   0.0000e+00   0.0000e+00  -4.9811e-04   2.2831e+02
         157          159   0.0000e+00   0.0000e+00   0.0000e+00  -8.5323e+01   1.5621e+02   1.1877e+02   0.0000e+00   0.0000e+00  -2.3737e-02   2.2516e+02
         157          263   3.2162e+02   0.0000e+00  -5.0000e+02  -8.5323e+01   1.4851e+02   1.1645e+02   0.0000e+00   0.0000e+00  -2.3817e-02   2.1957e+02
         158          159   0.0000e+00   0.0000e+00   0.0000e+00  -8.5320e+01   1.5622e+02   1.1878e+02   0.0000e+00   0.0000e+00  -1.9673e-03   2.2516e+02
         158          263   3.2162e+02   0.0000e+00  -5.0000e+02  -8.5320e+01   1.4852e+02   1.1646e+02   0.0000e+00   0.0000e+00  -1.8817e-03   2.1957e+02
         260          263   0.0000e+00   0.0000e+00   0.0000e+00  -8.0132e+01   1.5074e+02   1.1867e+02   0.0000e+00   0.0000e+00  -3.1451e-02   2.1663e+02
         260          367   3.2883e+02   0.0000e+00  -5.0000e+02  -8.0132e+01   1.4354e+02   1.1651e+02   0.0000e+00   0.0000e+00  -3.1470e-02   2.1146e+02
         261          263   0.0000e+00   0.0000e+00   0.0000e+00  -8.0129e+01   1.5074e+02   1.1868e+02   0.0000e+00   0.0000e+00  -3.5527e-03   2.1663e+02
         261          367   3.2883e+02   0.0000e+00  -5.0000e+02  -8.0129e+01   1.4355e+02   1.1652e+02   0.0000e+00   0.0000e+00  -3.5262e-03   2.1146e+02
         363          367   0.0000e+00   0.0000e+00   0.0000e+00  -7.5280e+01   1.4563e+02   1.1859e+02   0.0000e+00   0.0000e+00  -3.7608e-02   2.0871e+02
         363          471   3.3603e+02   0.0000e+00  -5.0000e+02  -7.5280e+01   1.3889e+02   1.1658e+02   0.0000e+00   0.0000e+00  -3.7581e-02   2.0393e+02
         364          367   0.0000e+00   0.0000e+00   0.0000e+00  -7.5278e+01   1.4563e+02   1.1860e+02   0.0000e+00   0.0000e+00  -5.0795e-03   2.0871e+02
         364          471   3.3603e+02   0.0000e+00  -5.0000e+02  -7.5278e+01   1.3889e+02   1.1658e+02   0.0000e+00   0.0000e+00  -5.0964e-03   2.0393e+02
         466          471   0.0000e+00   0.0000e+00   0.0000e+00  -7.0737e+01   1.4084e+02   1.1852e+02   0.0000e+00   0.0000e+00  -4.1993e-02   2.0135e+02
         466          575   3.4324e+02   0.0000e+00  -5.0000e+02  -7.0737e+01   1.3452e+02   1.1664e+02   0.0000e+00   0.0000e+00  -4.1936e-02   1.9693e+02
         467          471   0.0000e+00   0.0000e+00   0.0000e+00  -7.0736e+01   1.4084e+02   1.1853e+02   0.0000e+00   0.0000e+00  -6.2980e-03   2.0135e+02
         467          575   3.4324e+02   0.0000e+00  -5.0000e+02  -7.0736e+01   1.3453e+02   1.1664e+02   0.0000e+00   0.0000e+00  -6.3435e-03   1.9693e+02
         569          575   0.0000e+00   0.0000e+00   0.0000e+00  -6.6478e+01   1.3635e+02   1.1846e+02   0.0000e+00   0.0000e+00  -4.4476e-02   1.9450e+02
         569          679   3.5045e+02   0.0000e+00  -5.0000e+02  -6.6478e+01   1.3042e+02   1.1670e+02   0.0000e+00   0.0000e+00  -4.4404e-02   1.9041e+02
         570          575   0.0000e+00   0.0000e+00   0.0000e+00  -6.6477e+01   1.3635e+02   1.1847e+02   0.0000e+00   0.0000e+00  -7.0404e-03   1.9450e+02
         570          679   3.5045e+02   0.0000e+00  -5.0000e+02  -6.6477e+01   1.3042e+02   1.1670e+02   0.0000e+00   0.0000e+00  -7.1012e-03   1.9041e+02
         672          679   0.0000e+00   0.0000e+00   0.0000e+00  -6.2477e+01   1.3214e+02   1.1841e+02   0.0000e+00   0.0000e+00  -4.5004e-02   1.8813e+02
         672          783   3.5765e+02   0.0000e+00  -5.0000e+02  -6.2477e+01   1.2656e+02   1.1675e+02   0.0000e+00   0.0000e+00  -4.4929e-02   1.8433e+02
         673          679   0.0000e+00   0.0000e+00   0.0000e+00  -6.2477e+01   1.3214e+02   1.1841e+02   0.0000e+00   0.0000e+00  -7.2173e-03   1.8813e+02
         673          783   3.5765e+02   0.0000e+00  -5.0000e+02  -6.2477e+01   1.2656e+02   1.1675e+02   0.0000e+00   0.0000e+00  -7.2812e-03   1.8433e+02
         775          783   0.0000e+00   0.0000e+00   0.0000e+00  -5.8715e+01   1.2818e+02   1.1837e+02   0.0000e+00   0.0000e+00  -4.3598e-02   1.8219e+02
         775          887   3.6486e+02   0.0000e+00  -5.0000e+02  -5.8715e+01   1.2293e+02   1.1680e+02   0.0000e+00   0.0000e+00  -4.3531e-02   1.7866e+02
         776          783   0.0000e+00   0.0000e+00   0.0000e+00  -5.8716e+01   1.2818e+02   1.1837e+02   0.0000e+00   0.0000e+00  -6.8139e-03   1.8219e+02
         776          887   3.6486e+02   0.0000e+00  -5.0000e+02  -5.8716e+01   1.2293e+02   1.1680e+02   0.0000e+00   0.0000e+00  -6.8697e-03   1.7866e+02
         878          887   0.0000e+00   0.0000e+00   0.0000e+00  -5.5171e+01   1.2445e+02   1.1832e+02   0.0000e+00   0.0000e+00  -4.0349e-02   1.7664e+02
         878          991   3.7207e+02   0.0000e+00  -5.0000e+02  -5.5171e+01   1.1950e+02   1.1685e+02   0.0000e+00   0.0000e+00  -4.0301e-02   1.7336e+02
         879          887   0.0000e+00   0.0000e+00   0.0000e+00  -5.5173e+01   1.2445e+02   1.1832e+02   0.0000e+00   0.0000e+00  -5.8865e-03   1.7664e+02
         879          991   3.7207e+02   0.0000e+00  -5.0000e+02  -5.5173e+01   1.1950e+02   1.1684e+02   0.0000e+00   0.0000e+00  -5.9239e-03   1.7336e+02
         981          991   0.0000e+00   0.0000e+00   0.0000e+00  -5.1829e+01   1.2094e+02   1.1828e+02   0.0000e+00   0.0000e+00  -3.5416e-02   1.7145e+02
         981         1095   3.7927e+02   0.0000e+00  -5.0000e+02  -5.1829e+01   1.1627e+02   1.1688e+02   0.0000e+00   0.0000e+00  -3.5398e-02   1.6840e+02
         982          991   0.0000e+00   0.0000e+00   0.0000e+00  -5.1830e+01   1.2094e+02   1.1828e+02   0.0000e+00   0.0000e+00  -4.5592e-03   1.7145e+02
         982         1095   3.7927e+02   0.0000e+00  -5.0000e+02  -5.1830e+01   1.1627e+02   1.1688e+02   0.0000e+00   0.0000e+00  -4.5688e-03   1.6840e+02
        1084         1095   0.0000e+00   0.0000e+00   0.0000e+00  -4.8671e+01   1.1762e+02   1.1824e+02   0.0000e+00   0.0000e+00  -2.9025e-02   1.6660e+02
        1084         1199   3.8648e+02   0.0000e+00  -5.0000e+02  -4.8671e+01   1.1321e+02   1.1691e+02   0.0000e+00   0.0000e+00  -2.9046e-02   1.6376e+02
        1085         1095   0.0000e+00   0.0000e+00   0.0000e+00  -4.8673e+01   1.1762e+02   1.1823e+02   0.0000e+00   0.0000e+00  -3.0214e-03   1.6660e+02
        1085         1199   3.8648e+02   0.0000e+00  -5.0000e+02  -4.8673e+01   1.1321e+02   1.1690e+02   0.0000e+00   0.0000e+00  -2.9946e-03   1.6376e+02
        1187         1199   0.0000e+00   0.0000e+00   0.0000e+00  -4.5684e+01   1.1449e+02   1.1819e+02   0.0000e+00   0.0000e+00  -2.1464e-02   1.6205e+02
        1187         1303   3.9369e+02   0.0000e+00  -5.0000e+02  -4.5684e+01   1.1031e+02   1.1692e+02   0.0000e+00   0.0000e+00  -2.1532e-02   1.5940e+02
        1188         1199   0.0000e+00   0.0000e+00   0.0000e+00  -4.5687e+01   1.1449e+02   1.1818e+02   0.0000e+00   0.0000e+00  -1.5248e-03   1.6205e+02
        1188         1303   3.9369e+02   0.0000e+00  -5.0000e+02  -4.5687e+01   1.1031e+02   1.1692e+02   0.0000e+00   0.0000e+00  -1.4536e-03   1.5940e+02
        1290         1303   0.0000e+00   0.0000e+00   0.0000e+00  -4.2854e+01   1.1153e+02   1.1813e+02   0.0000e+00   0.0000e+00  -1.3081e-02   1.5779e+02
        1290         1407   4.0089e+02   0.0000e+00  -5.0000e+02  -4.2854e+01   1.0757e+02   1.1692e+02   0.0000e+00   0.0000e+00  -1.3203e-02   1.5531e+02
        1291         1303         -nan         -nan         -nan  -4.2857e+01   1.1152e+02   1.1813e+02   0.0000e+00   0.0000e+00  -3.8072e-04   1.5779e+02
        1291         1407   4.0089e+02   0.0000e+00  -5.0000e+02  -4.2857e+01   1.0757e+02   1.1692e+02   0.0000e+00   0.0000e+00  -2.5811e-04   1.5531e+02
        1408         1407   0.0000e+00   0.0000e+00   0.0000e+00  -4.0169e+01   1.0872e+02   1.1807e+02   0.0000e+00   0.0000e+00  -4.2839e-03   1.5378e+02
        1408         5447   4.0810e+02   0.0000e+00  -5.0000e+02  -4.0169e+01   1.0496e+02   1.1691e+02   0.0000e+00   0.0000e+00  -4.4673e-03   1.5146e+02
        1409         1407   0.0000e+00   0.0000e+00   0.0000e+00  -4.0172e+01   1.0872e+02   1.1807e+02   0.0000e+00   0.0000e+00   4.1804e-05   1.5378e+02
        1409         5447   4.0810e+02   0.0000e+00  -5.0000e+02  -4.0172e+01   1.0496e+02   1.1690e+02   0.0000e+00   0.0000e+00   2.2242e-04   1.5146e+02
        1521           55   0.0000e+00   0.0000e+00   2.8026e-45  -9.6851e+01   1.5952e+02   1.1634e+02   0.0000e+00   0.0000e+00   1.9751e-04   2.3774e+02
        1521         5324   3.0000e+02   0.0000e+00  -5.0000e+02  -9.6851e+01   1.6838e+02   1.1904e+02   0.0000e+00   0.0000e+00  -6.0414e-05   2.4432e+02
        1522           55   0.0000e+00   0.0000e+00   0.0000e+00  -9.6854e+01   1.5952e+02   1.1633e+02   0.0000e+00   0.0000e+00  -5.1842e-03   2.3774e+02
        1522         5324   3.0000e+02   0.0000e+00  -5.0000e+02  -9.6854e+01   1.6837e+02   1.1903e+02   0.0000e+00   0.0000e+00  -4.9226e-03   2.4432e+02
        4497         4263   1.3901e-42   0.0000e+00   0.0000e+00  -5.1649e+00   1.8594e+02  -8.7683e-01   0.0000e+00   0.0000e+00  -5.3956e-03   1.8900e+02
        4497         4264   4.6931e+02   0.0000e+00  -5.0000e+02  -5.1649e+00   1.9109e+02   7.0027e-01   0.0000e+00   0.0000e+00  -5.2594e-03   1.9338e+02
        4498         4264   5.8776e-39   9.0000e+01   0.0000e+00  -8.8500e+00   1.8950e+02  -8.7934e-01   0.0000e+00   0.0000e+00  -8.3445e-03   1.9449e+02
        4498         4265   4.6052e+02   0.0000e+00  -5.0000e+02  -8.8500e+00   1.9494e+02   7.7696e-01   0.0000e+00   0.0000e+00  -8.2427e-03   1.9915e+02
        4499         4265   0.0000e+00   0.0000e+00   0.0000e+00  -1.2748e+01   1.9327e+02  -8.9369e-01   0.0000e+00   0.0000e+00  -1.0336e-02   2.0036e+02
        4499         4266   4.5173e+02   0.0000e+00  -5.0000e+02  -1.2748e+01   1.9903e+02   8.5262e-01   0.0000e+00   0.0000e+00  -1.0255e-02   2.0531e+02
        4500         4266   0.0000e+00   0.0000e+00   0.0000e+00  -1.6876e+01   1.9726e+02  -9.1707e-01   0.0000e+00   0.0000e+00  -1.1108e-02   2.0662e+02
        4500         4267   4.4295e+02   0.0000e+00  -5.0000e+02  -1.6876e+01   2.0336e+02   9.3088e-01   0.0000e+00   0.0000e+00  -1.1033e-02   2.1189e+02
        4501         4267   0.0000e+00   0.0000e+00   0.0000e+00  -2.1256e+01   2.0148e+02  -9.4662e-01   0.0000e+00   0.0000e+00  -1.0546e-02   2.1331e+02
        4501         4268   4.3416e+02   0.0000e+00  -5.0000e+02  -2.1256e+01   2.0796e+02   1.0155e+00   0.0000e+00   0.0000e+00  -1.0462e-02   2.1893e+02
        4502         4268   0.0000e+00   0.0000e+00   0.0000e+00  -2.5911e+01   2.0596e+02  -9.7946e-01   0.0000e+00   0.0000e+00  -8.6900e-03   2.2047e+02
        4502         4269   4.2537e+02   0.0000e+00  -5.0000e+02  -2.5910e+01   2.1284e+02   1.1104e+00   0.0000e+00   0.0000e+00  -8.5792e-03   2.2646e+02
        4503         4269   0.0000e+00   0.0000e+00   0.0000e+00  -3.0863e+01   2.1072e+02  -1.0127e+00   0.0000e+00   0.0000e+00  -5.7404e-03   2.2813e+02
        4503         4270   4.1658e+02   0.0000e+00  -5.0000e+02  -3.0863e+01   2.1805e+02   1.2196e+00   0.0000e+00   0.0000e+00  -5.5838e-03   2.3452e+02
        4504         4263   0.0000e+00   0.0000e+00   0.0000e+00  -5.1652e+00   1.8594e+02  -8.7721e-01   0.0000e+00   0.0000e+00   4.7839e-03   1.8900e+02
        4504         4264   4.6931e+02   0.0000e+00  -5.0000e+02  -5.1652e+00   1.9108e+02   6.9938e-01   0.0000e+00   0.0000e+00   4.6479e-03   1.9338e+02
        4505         4264   0.0000e+00   0.0000e+00   0.0000e+00  -8.8503e+00   1.8950e+02  -8.8006e-01   0.0000e+00   0.0000e+00   6.4459e-03   1.9449e+02
        4505         4265   4.6052e+02   0.0000e+00  -5.0000e+02  -8.8503e+00   1.9494e+02   7.7624e-01   0.0000e+00   0.0000e+00   6.3425e-03   1.9915e+02
        4506         4265   0.0000e+00   0.0000e+00   0.0000e+00  -1.2748e+01   1.9327e+02  -8.9428e-01   0.0000e+00   0.0000e+00   7.3247e-03   2.0036e+02
        4506         4266   4.5173e+02   0.0000e+00  -5.0000e+02  -1.2748e+01   1.9903e+02   8.5232e-01   0.0000e+00   0.0000e+00   7.2411e-03   2.0531e+02
        4507         4266   0.0000e+00   0.0000e+00   0.0000e+00  -1.6876e+01   1.9726e+02  -9.1726e-01   0.0000e+00   0.0000e+00   7.6289e-03   2.0662e+02
        4507         4267   4.4295e+02   0.0000e+00  -5.0000e+02  -1.6876e+01   2.0336e+02   9.3108e-01   0.0000e+00   0.0000e+00   7.5512e-03   2.1189e+02
        4508         4267   0.0000e+00   0.0000e+00   0.0000e+00  -2.1256e+01   2.0148e+02  -9.4629e-01   0.0000e+00   0.0000e+00   7.4245e-03   2.1331e+02
        4508         4268   4.3416e+02   0.0000e+00  -5.0000e+02  -2.1256e+01   2.0796e+02   1.0161e+00   0.0000e+00   0.0000e+00   7.3375e-03   2.1893e+02
        4509         4268   0.0000e+00   0.0000e+00   0.0000e+00  -2.5910e+01   2.0596e+02  -9.7867e-01   0.0000e+00   0.0000e+00   6.6283e-03   2.2047e+02
        4509         4269   4.2537e+02   0.0000e+00  -5.0000e+02  -2.5910e+01   2.1284e+02   1.1111e+00   0.0000e+00   0.0000e+00   6.5156e-03   2.2646e+02
        4510         4269   0.0000e+00   0.0000e+00   0.0000e+00  -3.0863e+01   2.1072e+02  -1.0117e+00   0.0000e+00   0.0000e+00   5.0008e-03   2.2813e+02
        4510         4270   4.1658e+02   0.0000e+00  -5.0000e+02  -3.0863e+01   2.1805e+02   1.2200e+00   0.0000e+00   0.0000e+00   4.8445e-03   2.3452e+02
        4916         4263   0.0000e+00   0.0000e+00   0.0000e+00  -1.6753e+00   1.8744e+02   6.1906e-01   0.0000e+00   0.0000e+00  -1.7089e-03   1.8798e+02
        4916         5043   4.8689e+02   0.0000e+00  -5.0000e+02  -1.6753e+00   1.8256e+02  -8.8887e-01   0.0000e+00   0.0000e+00  -1.8918e-03   1.8385e+02
        4917         4263   0.0000e+00   0.0000e+00   0.0000e+00  -1.6754e+00   1.8744e+02   6.1840e-01   0.0000e+00   0.0000e+00   1.8140e-03   1.8798e+02
        4917         5043   4.8689e+02   0.0000e+00  -5.0000e+02  -1.6753e+00   1.8256e+02  -8.8833e-01   0.0000e+00   0.0000e+00   1.9940e-03   1.8385e+02
        5023         4270   0.0000e+00   0.0000e+00   1.4013e-45  -3.6142e+01   2.1578e+02  -1.0425e+00   0.0000e+00   0.0000e+00   2.1390e-03   2.3634e+02
        5023         4888   4.0779e+02   0.0000e+00  -5.0000e+02  -3.6142e+01   2.2359e+02   1.3467e+00   0.0000e+00   0.0000e+00   1.9197e-03   2.4316e+02
        5024         4270   0.0000e+00   0.0000e+00   0.0000e+00  -3.6142e+01   2.1578e+02  -1.0433e+00   0.0000e+00   0.0000e+00  -2.0662e-03   2.3634e+02
        5024         4888   4.0779e+02   0.0000e+00  -5.0000e+02  -3.6142e+01   2.2359e+02   1.3473e+00   0.0000e+00   0.0000e+00  -1.8434e-03   2.4316e+02
