ECHO = NONE
SPC = 100
OUTPUT
BCRESULTS(TRACTION,FORCE,PLOT) = ALL
DISPLACEMENT(PLOT,REAL) = ALL
FORCE(PLOT,REAL,CENTER) = ALL
OLOAD(PLOT,REAL) = ALL
SPCFORCES(PLOT,REAL) = ALL
STRESS(PLOT,REAL,VONMISES,CENTER) = ALL
PARAM,BAILOUT,0
SUBCASE 1
  LABEL = Subcase - Static Loads 1
GRID,1,0,389.8651,0.0,13.0325,0
GRID,2,0,371.8584,0.0,12.43047,0
GRID,3,0,353.8518,0.0,11.82844,0
GRID,4,0,335.8451,0.0,11.22642,0
GRID,5,0,317.8385,0.0,10.62439,0
GRID,6,0,389.2125,0.0,26.05045,0
GRID,7,0,371.236,0.0,24.84707,0
GRID,8,0,353.2595,0.0,23.64369,0
GRID,9,0,335.2831,0.0,22.44031,0
GRID,10,0,317.3066,0.0,21.23693,0
GRID,11,0,388.1249,0.0,39.03931,0
GRID,12,0,370.1987,0.0,37.23592,0
GRID,13,0,352.2725,0.0,35.43253,0
GRID,14,0,334.3463,0.0,33.62914,0
GRID,15,0,316.4201,0.0,31.82574,0
GRID,16,0,386.6039,0.0,51.98458,0
GRID,17,0,368.748,0.0,49.58319,0
GRID,18,0,350.8921,0.0,47.18181,0
GRID,19,0,333.0362,0.0,44.78042,0
GRID,20,0,315.1802,0.0,42.37903,0
GRID,21,0,384.6513,0.0,64.87181,0
GRID,22,0,366.8856,0.0,61.87511,0
GRID,23,0,349.1199,0.0,58.87841,0
GRID,24,0,331.3542,0.0,55.88171,0
GRID,25,0,313.5885,0.0,52.88501,0
GRID,26,0,382.2692,0.0,77.68662,0
GRID,27,0,364.6136,0.0,74.09795,0
GRID,28,0,346.9579,0.0,70.50928,0
GRID,29,0,329.3023,0.0,66.92061,0
GRID,30,0,311.6467,0.0,63.33195,0
GRID,31,0,379.4604,0.0,90.41468,0
GRID,32,0,361.9345,0.0,86.23806,0
GRID,33,0,344.4086,0.0,82.06143,0
GRID,34,0,326.8828,0.0,77.88481,0
GRID,35,0,309.3569,0.0,73.70818,0
GRID,36,0,376.2278,0.0,103.0418,0
GRID,37,0,358.8513,0.0,98.28188,0
GRID,38,0,341.4748,0.0,93.52196,0
GRID,39,0,324.0983,0.0,88.76204,0
GRID,40,0,306.7218,0.0,84.00213,0
GRID,41,0,372.5752,0.0,115.5539,0
GRID,42,0,355.3675,0.0,110.216,0
GRID,43,0,338.1597,0.0,104.8781,0
GRID,44,0,320.9519,0.0,99.54017,0
GRID,45,0,303.7442,0.0,94.20227,0
GRID,46,0,368.5066,0.0,127.9369,0
GRID,47,0,351.4868,0.0,122.027,0
GRID,48,0,334.467,0.0,116.1171,0
GRID,49,0,317.4473,0.0,110.2072,0
GRID,50,0,300.4275,0.0,104.2973,0
GRID,51,0,364.0266,0.0,140.1771,0
GRID,52,0,347.2138,0.0,133.7018,0
GRID,53,0,330.401,0.0,127.2265,0
GRID,54,0,313.5882,0.0,120.7511,0
GRID,55,0,296.7754,0.0,114.2758,0
GRID,56,0,359.1401,0.0,152.2608,0
GRID,57,0,342.5531,0.0,145.2273,0
GRID,58,0,325.966,0.0,138.1938,0
GRID,59,0,309.379,0.0,131.1603,0
GRID,60,0,292.7919,0.0,124.1268,0
GRID,61,0,353.8527,0.0,164.1745,0
GRID,62,0,337.5099,0.0,156.5907,0
GRID,63,0,321.1672,0.0,149.0069,0
GRID,64,0,304.8244,0.0,141.423,0
GRID,65,0,288.4817,0.0,133.8392,0
GRID,66,0,348.1701,0.0,175.9049,0
GRID,67,0,332.0899,0.0,167.7792,0
GRID,68,0,316.0097,0.0,159.6535,0
GRID,69,0,299.9295,0.0,151.5278,0
GRID,70,0,283.8493,0.0,143.4021,0
GRID,71,0,342.0989,0.0,187.4389,0
GRID,72,0,326.2991,0.0,178.7804,0
GRID,73,0,310.4994,0.0,170.122,0
GRID,74,0,294.6997,0.0,161.4635,0
GRID,75,0,278.9,0.0,152.805,0
GRID,76,0,335.6456,0.0,198.7637,0
GRID,77,0,320.1441,0.0,189.5821,0
GRID,78,0,304.6425,0.0,180.4005,0
GRID,79,0,289.1409,0.0,171.2189,0
GRID,80,0,273.6394,0.0,162.0373,0
GRID,81,0,328.8177,0.0,209.8664,0
GRID,82,0,313.6315,0.0,200.172,0
GRID,83,0,298.4454,0.0,190.4775,0
GRID,84,0,283.2593,0.0,180.7831,0
GRID,85,0,268.0732,0.0,171.0886,0
GRID,86,0,321.6226,0.0,220.735,0
GRID,87,0,306.7689,0.0,210.5385,0
GRID,88,0,291.9152,0.0,200.342,0
GRID,89,0,277.0615,0.0,190.1455,0
GRID,90,0,262.2078,0.0,179.949,0
GRID,91,0,314.0684,0.0,231.357,0
GRID,92,0,299.5637,0.0,220.6698,0
GRID,93,0,285.059,0.0,209.9827,0
GRID,94,0,270.5543,0.0,199.2956,0
GRID,95,0,256.0496,0.0,188.6085,0
GRID,96,0,306.1635,0.0,241.7207,0
GRID,97,0,292.0241,0.0,230.5549,0
GRID,98,0,277.8846,0.0,219.389,0
GRID,99,0,263.7451,0.0,208.2232,0
GRID,100,0,249.6056,0.0,197.0574,0
GRID,101,0,297.9168,0.0,251.8145,0
GRID,102,0,284.1584,0.0,240.1825,0
GRID,103,0,270.3999,0.0,228.5504,0
GRID,104,0,256.6414,0.0,216.9183,0
GRID,105,0,242.883,0.0,205.2863,0
GRID,106,0,289.3375,0.0,261.6272,0
GRID,107,0,275.9754,0.0,249.5419,0
GRID,108,0,262.6133,0.0,237.4566,0
GRID,109,0,249.2512,0.0,225.3713,0
GRID,110,0,235.8891,0.0,213.286,0
GRID,111,0,280.4351,0.0,271.1478,0
GRID,112,0,267.4843,0.0,258.6227,0
GRID,113,0,254.5335,0.0,246.0977,0
GRID,114,0,241.5827,0.0,233.5726,0
GRID,115,0,228.6319,0.0,221.0476,0
GRID,116,0,271.2197,0.0,280.3656,0
GRID,117,0,258.6946,0.0,267.4148,0
GRID,118,0,246.1696,0.0,254.464,0
GRID,119,0,233.6445,0.0,241.5132,0
GRID,120,0,221.1195,0.0,228.5624,0
GRID,121,0,261.7014,0.0,289.2704,0
GRID,122,0,249.6161,0.0,275.9083,0
GRID,123,0,237.5308,0.0,262.5462,0
GRID,124,0,225.4455,0.0,249.1841,0
GRID,125,0,213.3601,0.0,235.822,0
GRID,126,0,251.8909,0.0,297.8523,0
GRID,127,0,240.2588,0.0,284.0938,0
GRID,128,0,228.6268,0.0,270.3353,0
GRID,129,0,216.9947,0.0,256.5769,0
GRID,130,0,205.3627,0.0,242.8184,0
GRID,131,0,241.7992,0.0,306.1016,0
GRID,132,0,230.6334,0.0,291.9621,0
GRID,133,0,219.4675,0.0,277.8226,0
GRID,134,0,208.3017,0.0,263.6831,0
GRID,135,0,197.1359,0.0,249.5437,0
GRID,136,0,231.4375,0.0,314.009,0
GRID,137,0,220.7504,0.0,299.5044,0
GRID,138,0,210.0632,0.0,284.9997,0
GRID,139,0,199.3761,0.0,270.495,0
GRID,140,0,188.689,0.0,255.9903,0
GRID,141,0,220.8174,0.0,321.566,0
GRID,142,0,210.6209,0.0,306.7123,0
GRID,143,0,200.4244,0.0,291.8586,0
GRID,144,0,190.228,0.0,277.0049,0
GRID,145,0,180.0315,0.0,262.1512,0
GRID,146,0,209.9507,0.0,328.7638,0
GRID,147,0,200.2563,0.0,313.5777,0
GRID,148,0,190.5618,0.0,298.3916,0
GRID,149,0,180.8674,0.0,283.2055,0
GRID,150,0,171.1729,0.0,268.0194,0
GRID,151,0,198.8497,0.0,335.5947,0
GRID,152,0,189.6681,0.0,320.0931,0
GRID,153,0,180.4865,0.0,304.5915,0
GRID,154,0,171.3049,0.0,289.09,0
GRID,155,0,162.1233,0.0,273.5884,0
GRID,156,0,187.5266,0.0,342.0508,0
GRID,157,0,178.8681,0.0,326.2511,0
GRID,158,0,170.2097,0.0,310.4514,0
GRID,159,0,161.5512,0.0,294.6517,0
GRID,160,0,152.8927,0.0,278.8519,0
GRID,161,0,175.9942,0.0,348.125,0
GRID,162,0,167.8685,0.0,332.0448,0
GRID,163,0,159.7428,0.0,315.9646,0
GRID,164,0,151.6171,0.0,299.8844,0
GRID,165,0,143.4914,0.0,283.8042,0
GRID,166,0,164.2652,0.0,353.8106,0
GRID,167,0,156.6814,0.0,337.4678,0
GRID,168,0,149.0976,0.0,321.1251,0
GRID,169,0,141.5137,0.0,304.7823,0
GRID,170,0,133.9299,0.0,288.4396,0
GRID,171,0,152.3529,0.0,359.1011,0
GRID,172,0,145.3194,0.0,342.514,0
GRID,173,0,138.2859,0.0,325.927,0
GRID,174,0,131.2524,0.0,309.3399,0
GRID,175,0,124.2188,0.0,292.7529,0
GRID,176,0,140.2705,0.0,363.9906,0
GRID,177,0,133.7951,0.0,347.1778,0
GRID,178,0,127.3198,0.0,330.365,0
GRID,179,0,120.8445,0.0,313.5522,0
GRID,180,0,114.3691,0.0,296.7394,0
GRID,181,0,128.0314,0.0,368.4738,0
GRID,182,0,122.1215,0.0,351.454,0
GRID,183,0,116.2116,0.0,334.4342,0
GRID,184,0,110.3016,0.0,317.4144,0
GRID,185,0,104.3917,0.0,300.3947,0
GRID,186,0,115.6494,0.0,372.5456,0
GRID,187,0,110.3115,0.0,355.3378,0
GRID,188,0,104.9736,0.0,338.13,0
GRID,189,0,99.63568,0.0,320.9223,0
GRID,190,0,94.29778,0.0,303.7145,0
GRID,191,0,103.1382,0.0,376.2014,0
GRID,192,0,98.37832,0.0,358.8249,0
GRID,193,0,93.6184,0.0,341.4484,0
GRID,194,0,88.85848,0.0,324.0718,0
GRID,195,0,84.09857,0.0,306.6953,0
GRID,196,0,90.51196,0.0,379.4372,0
GRID,197,0,86.33533,0.0,361.9113,0
GRID,198,0,82.1587,0.0,344.3854,0
GRID,199,0,77.98208,0.0,326.8596,0
GRID,200,0,73.80545,0.0,309.3337,0
GRID,201,0,77.78461,0.0,382.2493,0
GRID,202,0,74.19594,0.0,364.5937,0
GRID,203,0,70.60728,0.0,346.938,0
GRID,204,0,67.01861,0.0,329.2824,0
GRID,205,0,63.42994,0.0,311.6267,0
GRID,206,0,64.97042,0.0,384.6347,0
GRID,207,0,61.97372,0.0,366.869,0
GRID,208,0,58.97702,0.0,349.1033,0
GRID,209,0,55.98032,0.0,331.3376,0
GRID,210,0,52.98362,0.0,313.5719,0
GRID,211,0,52.08369,0.0,386.5906,0
GRID,212,0,49.6823,0.0,368.7347,0
GRID,213,0,47.28091,0.0,350.8787,0
GRID,214,0,44.87953,0.0,333.0228,0
GRID,215,0,42.47814,0.0,315.1669,0
GRID,216,0,39.1388,0.0,388.1149,0
GRID,217,0,37.33541,0.0,370.1887,0
GRID,218,0,35.53202,0.0,352.2625,0
GRID,219,0,33.72863,0.0,334.3363,0
GRID,220,0,31.92524,0.0,316.4101,0
GRID,221,0,26.15023,0.0,389.2058,0
GRID,222,0,24.94684,0.0,371.2293,0
GRID,223,0,23.74346,0.0,353.2528,0
GRID,224,0,22.54008,0.0,335.2764,0
GRID,225,0,21.3367,0.0,317.2999,0
GRID,226,0,13.13244,0.0,389.8617,0
GRID,227,0,12.53041,0.0,371.8551,0
GRID,228,0,11.92839,0.0,353.8484,0
GRID,229,0,11.32636,0.0,335.8418,0
GRID,230,0,10.72433,0.0,317.8351,0
GRID,231,0,467.115,0.0,-1185.0,0
GRID,232,0,447.34,0.0,-1185.0,0
GRID,233,0,427.565,0.0,-1185.0,0
GRID,234,0,467.115,0.0,-1170.0,0
GRID,235,0,447.34,0.0,-1170.0,0
GRID,236,0,427.565,0.0,-1170.0,0
GRID,237,0,467.115,0.0,-1155.0,0
GRID,238,0,447.34,0.0,-1155.0,0
GRID,239,0,427.565,0.0,-1155.0,0
GRID,240,0,467.115,0.0,-1140.0,0
GRID,241,0,447.34,0.0,-1140.0,0
GRID,242,0,427.565,0.0,-1140.0,0
GRID,243,0,467.115,0.0,-1125.0,0
GRID,244,0,447.34,0.0,-1125.0,0
GRID,245,0,427.565,0.0,-1125.0,0
GRID,246,0,467.115,0.0,-1110.0,0
GRID,247,0,447.34,0.0,-1110.0,0
GRID,248,0,427.565,0.0,-1110.0,0
GRID,249,0,467.115,0.0,-1095.0,0
GRID,250,0,447.34,0.0,-1095.0,0
GRID,251,0,427.565,0.0,-1095.0,0
GRID,252,0,467.115,0.0,-1080.0,0
GRID,253,0,447.34,0.0,-1080.0,0
GRID,254,0,427.565,0.0,-1080.0,0
GRID,255,0,467.115,0.0,-1065.0,0
GRID,256,0,447.34,0.0,-1065.0,0
GRID,257,0,427.565,0.0,-1065.0,0
GRID,258,0,467.115,0.0,-1050.0,0
GRID,259,0,447.34,0.0,-1050.0,0
GRID,260,0,427.565,0.0,-1050.0,0
GRID,261,0,467.115,0.0,-1035.0,0
GRID,262,0,447.34,0.0,-1035.0,0
GRID,263,0,427.565,0.0,-1035.0,0
GRID,264,0,467.115,0.0,-1020.0,0
GRID,265,0,447.34,0.0,-1020.0,0
GRID,266,0,427.565,0.0,-1020.0,0
GRID,267,0,467.115,0.0,-1005.0,0
GRID,268,0,447.34,0.0,-1005.0,0
GRID,269,0,427.565,0.0,-1005.0,0
GRID,270,0,467.115,0.0,-990.0,0
GRID,271,0,447.34,0.0,-990.0,0
GRID,272,0,427.565,0.0,-990.0,0
GRID,273,0,467.115,0.0,-975.0,0
GRID,274,0,447.34,0.0,-975.0,0
GRID,275,0,427.565,0.0,-975.0,0
GRID,276,0,467.115,0.0,-960.0,0
GRID,277,0,447.34,0.0,-960.0,0
GRID,278,0,427.565,0.0,-960.0,0
GRID,279,0,467.115,0.0,-945.0,0
GRID,280,0,447.34,0.0,-945.0,0
GRID,281,0,427.565,0.0,-945.0,0
GRID,282,0,467.115,0.0,-930.0,0
GRID,283,0,447.34,0.0,-930.0,0
GRID,284,0,427.565,0.0,-930.0,0
GRID,285,0,467.115,0.0,-915.0,0
GRID,286,0,447.34,0.0,-915.0,0
GRID,287,0,427.565,0.0,-915.0,0
GRID,288,0,467.115,0.0,-900.0,0
GRID,289,0,447.34,0.0,-900.0,0
GRID,290,0,427.565,0.0,-900.0,0
GRID,291,0,467.115,0.0,-885.0,0
GRID,292,0,447.34,0.0,-885.0,0
GRID,293,0,427.565,0.0,-885.0,0
GRID,294,0,467.115,0.0,-870.0,0
GRID,295,0,447.34,0.0,-870.0,0
GRID,296,0,427.565,0.0,-870.0,0
GRID,297,0,467.115,0.0,-855.0,0
GRID,298,0,447.34,0.0,-855.0,0
GRID,299,0,427.565,0.0,-855.0,0
GRID,300,0,467.115,0.0,-840.0,0
GRID,301,0,447.34,0.0,-840.0,0
GRID,302,0,427.565,0.0,-840.0,0
GRID,303,0,467.115,0.0,-825.0,0
GRID,304,0,447.34,0.0,-825.0,0
GRID,305,0,427.565,0.0,-825.0,0
GRID,306,0,467.115,0.0,-810.0,0
GRID,307,0,447.34,0.0,-810.0,0
GRID,308,0,427.565,0.0,-810.0,0
GRID,309,0,467.115,0.0,-795.0,0
GRID,310,0,447.34,0.0,-795.0,0
GRID,311,0,427.565,0.0,-795.0,0
GRID,312,0,467.115,0.0,-780.0,0
GRID,313,0,447.34,0.0,-780.0,0
GRID,314,0,427.565,0.0,-780.0,0
GRID,315,0,467.115,0.0,-765.0,0
GRID,316,0,447.34,0.0,-765.0,0
GRID,317,0,427.565,0.0,-765.0,0
GRID,318,0,467.115,0.0,-750.0,0
GRID,319,0,447.34,0.0,-750.0,0
GRID,320,0,427.565,0.0,-750.0,0
GRID,321,0,467.115,0.0,-735.0,0
GRID,322,0,447.34,0.0,-735.0,0
GRID,323,0,427.565,0.0,-735.0,0
GRID,324,0,467.115,0.0,-720.0,0
GRID,325,0,447.34,0.0,-720.0,0
GRID,326,0,427.565,0.0,-720.0,0
GRID,327,0,467.115,0.0,-705.0,0
GRID,328,0,447.34,0.0,-705.0,0
GRID,329,0,427.565,0.0,-705.0,0
GRID,330,0,467.115,0.0,-690.0,0
GRID,331,0,447.34,0.0,-690.0,0
GRID,332,0,427.565,0.0,-690.0,0
GRID,333,0,467.115,0.0,-675.0,0
GRID,334,0,447.34,0.0,-675.0,0
GRID,335,0,427.565,0.0,-675.0,0
GRID,336,0,467.115,0.0,-660.0,0
GRID,337,0,447.34,0.0,-660.0,0
GRID,338,0,427.565,0.0,-660.0,0
GRID,339,0,467.115,0.0,-645.0,0
GRID,340,0,447.34,0.0,-645.0,0
GRID,341,0,427.565,0.0,-645.0,0
GRID,342,0,467.115,0.0,-630.0,0
GRID,343,0,447.34,0.0,-630.0,0
GRID,344,0,427.565,0.0,-630.0,0
GRID,345,0,467.115,0.0,-615.0,0
GRID,346,0,447.34,0.0,-615.0,0
GRID,347,0,427.565,0.0,-615.0,0
GRID,348,0,467.115,0.0,-600.0,0
GRID,349,0,447.34,0.0,-600.0,0
GRID,350,0,427.565,0.0,-600.0,0
GRID,351,0,467.115,0.0,-585.0,0
GRID,352,0,447.34,0.0,-585.0,0
GRID,353,0,427.565,0.0,-585.0,0
GRID,354,0,467.115,0.0,-570.0,0
GRID,355,0,447.34,0.0,-570.0,0
GRID,356,0,427.565,0.0,-570.0,0
GRID,357,0,467.115,0.0,-555.0,0
GRID,358,0,447.34,0.0,-555.0,0
GRID,359,0,427.565,0.0,-555.0,0
GRID,360,0,467.115,0.0,-540.0,0
GRID,361,0,447.34,0.0,-540.0,0
GRID,362,0,427.565,0.0,-540.0,0
GRID,363,0,467.115,0.0,-525.0,0
GRID,364,0,447.34,0.0,-525.0,0
GRID,365,0,427.565,0.0,-525.0,0
GRID,366,0,467.115,0.0,-510.0,0
GRID,367,0,447.34,0.0,-510.0,0
GRID,368,0,427.565,0.0,-510.0,0
GRID,369,0,467.115,0.0,-495.0,0
GRID,370,0,447.34,0.0,-495.0,0
GRID,371,0,427.565,0.0,-495.0,0
GRID,372,0,467.115,0.0,-480.0,0
GRID,373,0,447.34,0.0,-480.0,0
GRID,374,0,427.565,0.0,-480.0,0
GRID,375,0,467.115,0.0,-465.0,0
GRID,376,0,447.34,0.0,-465.0,0
GRID,377,0,427.565,0.0,-465.0,0
GRID,378,0,467.115,0.0,-450.0,0
GRID,379,0,447.34,0.0,-450.0,0
GRID,380,0,427.565,0.0,-450.0,0
GRID,381,0,467.115,0.0,-435.0,0
GRID,382,0,447.34,0.0,-435.0,0
GRID,383,0,427.565,0.0,-435.0,0
GRID,384,0,467.115,0.0,-420.0,0
GRID,385,0,447.34,0.0,-420.0,0
GRID,386,0,427.565,0.0,-420.0,0
GRID,387,0,467.115,0.0,-405.0,0
GRID,388,0,447.34,0.0,-405.0,0
GRID,389,0,427.565,0.0,-405.0,0
GRID,390,0,467.115,0.0,-390.0,0
GRID,391,0,447.34,0.0,-390.0,0
GRID,392,0,427.565,0.0,-390.0,0
GRID,393,0,467.115,0.0,-375.0,0
GRID,394,0,447.34,0.0,-375.0,0
GRID,395,0,427.565,0.0,-375.0,0
GRID,396,0,467.115,0.0,-360.0,0
GRID,397,0,447.34,0.0,-360.0,0
GRID,398,0,427.565,0.0,-360.0,0
GRID,399,0,467.115,0.0,-345.0,0
GRID,400,0,447.34,0.0,-345.0,0
GRID,401,0,427.565,0.0,-345.0,0
GRID,402,0,467.115,0.0,-330.0,0
GRID,403,0,447.34,0.0,-330.0,0
GRID,404,0,427.565,0.0,-330.0,0
GRID,405,0,467.115,0.0,-315.0,0
GRID,406,0,447.34,0.0,-315.0,0
GRID,407,0,427.565,0.0,-315.0,0
GRID,408,0,467.115,0.0,-300.0,0
GRID,409,0,447.34,0.0,-300.0,0
GRID,410,0,427.565,0.0,-300.0,0
GRID,411,0,467.115,0.0,-285.0,0
GRID,412,0,447.34,0.0,-285.0,0
GRID,413,0,427.565,0.0,-285.0,0
GRID,414,0,467.115,0.0,-270.0,0
GRID,415,0,447.34,0.0,-270.0,0
GRID,416,0,427.565,0.0,-270.0,0
GRID,417,0,467.115,0.0,-255.0,0
GRID,418,0,447.34,0.0,-255.0,0
GRID,419,0,427.565,0.0,-255.0,0
GRID,420,0,467.115,0.0,-240.0,0
GRID,421,0,447.34,0.0,-240.0,0
GRID,422,0,427.565,0.0,-240.0,0
GRID,423,0,467.115,0.0,-225.0,0
GRID,424,0,447.34,0.0,-225.0,0
GRID,425,0,427.565,0.0,-225.0,0
GRID,426,0,467.115,0.0,-210.0,0
GRID,427,0,447.34,0.0,-210.0,0
GRID,428,0,427.565,0.0,-210.0,0
GRID,429,0,467.115,0.0,-195.0,0
GRID,430,0,447.34,0.0,-195.0,0
GRID,431,0,427.565,0.0,-195.0,0
GRID,432,0,467.115,0.0,-180.0,0
GRID,433,0,447.34,0.0,-180.0,0
GRID,434,0,427.565,0.0,-180.0,0
GRID,435,0,467.115,0.0,-165.0,0
GRID,436,0,447.34,0.0,-165.0,0
GRID,437,0,427.565,0.0,-165.0,0
GRID,438,0,467.115,0.0,-150.0,0
GRID,439,0,447.34,0.0,-150.0,0
GRID,440,0,427.565,0.0,-150.0,0
GRID,441,0,467.115,0.0,-135.0,0
GRID,442,0,447.34,0.0,-135.0,0
GRID,443,0,427.565,0.0,-135.0,0
GRID,444,0,467.115,0.0,-120.0,0
GRID,445,0,447.34,0.0,-120.0,0
GRID,446,0,427.565,0.0,-120.0,0
GRID,447,0,467.115,0.0,-105.0,0
GRID,448,0,447.34,0.0,-105.0,0
GRID,449,0,427.565,0.0,-105.0,0
GRID,450,0,467.115,0.0,-90.0,0
GRID,451,0,447.34,0.0,-90.0,0
GRID,452,0,427.565,0.0,-90.0,0
GRID,453,0,467.115,0.0,-75.0,0
GRID,454,0,447.34,0.0,-75.0,0
GRID,455,0,427.565,0.0,-75.0,0
GRID,456,0,467.115,0.0,-60.0,0
GRID,457,0,447.34,0.0,-60.0,0
GRID,458,0,427.565,0.0,-60.0,0
GRID,459,0,467.115,0.0,-45.0,0
GRID,460,0,447.34,0.0,-45.0,0
GRID,461,0,427.565,0.0,-45.0,0
GRID,462,0,467.115,0.0,-30.0,0
GRID,463,0,447.34,0.0,-30.0,0
GRID,464,0,427.565,0.0,-30.0,0
GRID,465,0,467.115,0.0,-15.0,0
GRID,466,0,447.34,0.0,-15.0,0
GRID,467,0,427.565,0.0,-15.0,0
GRID,468,0,318.0167,0.0,-1035.0,0
GRID,469,0,318.0167,0.0,-1020.0,0
GRID,470,0,318.0167,0.0,-1005.0,0
GRID,471,0,318.0167,0.0,-990.0,0
GRID,472,0,318.0167,0.0,-975.0,0
GRID,473,0,318.0167,0.0,-960.0,0
GRID,474,0,318.0167,0.0,-945.0,0
GRID,475,0,318.0167,0.0,-930.0,0
GRID,476,0,318.0167,0.0,-915.0,0
GRID,477,0,318.0167,0.0,-900.0,0
GRID,478,0,318.0167,0.0,-885.0,0
GRID,479,0,318.0167,0.0,-870.0,0
GRID,480,0,318.0167,0.0,-855.0,0
GRID,481,0,318.0167,0.0,-840.0,0
GRID,482,0,318.0167,0.0,-825.0,0
GRID,483,0,318.0167,0.0,-810.0,0
GRID,484,0,318.0167,0.0,-795.0,0
GRID,485,0,318.0167,0.0,-780.0,0
GRID,486,0,318.0167,0.0,-765.0,0
GRID,487,0,318.0167,0.0,-750.0,0
GRID,488,0,318.0167,0.0,-735.0,0
GRID,489,0,318.0167,0.0,-720.0,0
GRID,490,0,318.0167,0.0,-705.0,0
GRID,491,0,318.0167,0.0,-690.0,0
GRID,492,0,318.0167,0.0,-675.0,0
GRID,493,0,318.0167,0.0,-660.0,0
GRID,494,0,318.0167,0.0,-645.0,0
GRID,495,0,318.0167,0.0,-630.0,0
GRID,496,0,318.0167,0.0,-615.0,0
GRID,497,0,318.0167,0.0,-600.0,0
GRID,498,0,318.0167,0.0,-585.0,0
GRID,499,0,318.0167,0.0,-570.0,0
GRID,500,0,318.0167,0.0,-555.0,0
GRID,501,0,318.0167,0.0,-540.0,0
GRID,502,0,318.0167,0.0,-525.0,0
GRID,503,0,318.0167,0.0,-510.0,0
GRID,504,0,318.0167,0.0,-495.0,0
GRID,505,0,318.0167,0.0,-480.0,0
GRID,506,0,318.0167,0.0,-465.0,0
GRID,507,0,318.0167,0.0,-450.0,0
GRID,508,0,318.0167,0.0,-435.0,0
GRID,509,0,318.0167,0.0,-420.0,0
GRID,510,0,318.0167,0.0,-405.0,0
GRID,511,0,318.0167,0.0,-390.0,0
GRID,512,0,318.0167,0.0,-375.0,0
GRID,513,0,318.0167,0.0,-360.0,0
GRID,514,0,318.0167,0.0,-345.0,0
GRID,515,0,318.0167,0.0,-330.0,0
GRID,516,0,318.0167,0.0,-315.0,0
GRID,517,0,318.0167,0.0,-300.0,0
GRID,518,0,318.0167,0.0,-285.0,0
GRID,519,0,318.0167,0.0,-270.0,0
GRID,520,0,318.0167,0.0,-255.0,0
GRID,521,0,318.0167,0.0,-240.0,0
GRID,522,0,318.0167,0.0,-225.0,0
GRID,523,0,318.0167,0.0,-210.0,0
GRID,524,0,318.0167,0.0,-195.0,0
GRID,525,0,318.0167,0.0,-180.0,0
GRID,526,0,318.0167,0.0,-165.0,0
GRID,527,0,318.0167,0.0,-150.0,0
GRID,528,0,318.0167,0.0,-135.0,0
GRID,529,0,318.0167,0.0,-120.0,0
GRID,530,0,318.0167,0.0,-105.0,0
GRID,531,0,318.0167,0.0,-90.0,0
GRID,532,0,318.0167,0.0,-75.0,0
GRID,533,0,318.0167,0.0,-60.0,0
GRID,534,0,318.0167,0.0,-45.0,0
GRID,535,0,318.0167,0.0,-30.0,0
GRID,536,0,318.0167,0.0,-15.0,0
GRID,537,0,336.0333,0.0,-1035.0,0
GRID,538,0,336.0333,0.0,-1020.0,0
GRID,539,0,336.0333,0.0,-1005.0,0
GRID,540,0,336.0333,0.0,-990.0,0
GRID,541,0,336.0333,0.0,-975.0,0
GRID,542,0,336.0333,0.0,-960.0,0
GRID,543,0,336.0333,0.0,-945.0,0
GRID,544,0,336.0333,0.0,-930.0,0
GRID,545,0,336.0333,0.0,-915.0,0
GRID,546,0,336.0333,0.0,-900.0,0
GRID,547,0,336.0333,0.0,-885.0,0
GRID,548,0,336.0333,0.0,-870.0,0
GRID,549,0,336.0333,0.0,-855.0,0
GRID,550,0,336.0333,0.0,-840.0,0
GRID,551,0,336.0333,0.0,-825.0,0
GRID,552,0,336.0333,0.0,-810.0,0
GRID,553,0,336.0333,0.0,-795.0,0
GRID,554,0,336.0333,0.0,-780.0,0
GRID,555,0,336.0333,0.0,-765.0,0
GRID,556,0,336.0333,0.0,-750.0,0
GRID,557,0,336.0333,0.0,-735.0,0
GRID,558,0,336.0333,0.0,-720.0,0
GRID,559,0,336.0333,0.0,-705.0,0
GRID,560,0,336.0333,0.0,-690.0,0
GRID,561,0,336.0333,0.0,-675.0,0
GRID,562,0,336.0333,0.0,-660.0,0
GRID,563,0,336.0333,0.0,-645.0,0
GRID,564,0,336.0333,0.0,-630.0,0
GRID,565,0,336.0333,0.0,-615.0,0
GRID,566,0,336.0333,0.0,-600.0,0
GRID,567,0,336.0333,0.0,-585.0,0
GRID,568,0,336.0333,0.0,-570.0,0
GRID,569,0,336.0333,0.0,-555.0,0
GRID,570,0,336.0333,0.0,-540.0,0
GRID,571,0,336.0333,0.0,-525.0,0
GRID,572,0,336.0333,0.0,-510.0,0
GRID,573,0,336.0333,0.0,-495.0,0
GRID,574,0,336.0333,0.0,-480.0,0
GRID,575,0,336.0333,0.0,-465.0,0
GRID,576,0,336.0333,0.0,-450.0,0
GRID,577,0,336.0333,0.0,-435.0,0
GRID,578,0,336.0333,0.0,-420.0,0
GRID,579,0,336.0333,0.0,-405.0,0
GRID,580,0,336.0333,0.0,-390.0,0
GRID,581,0,336.0333,0.0,-375.0,0
GRID,582,0,336.0333,0.0,-360.0,0
GRID,583,0,336.0333,0.0,-345.0,0
GRID,584,0,336.0333,0.0,-330.0,0
GRID,585,0,336.0333,0.0,-315.0,0
GRID,586,0,336.0333,0.0,-300.0,0
GRID,587,0,336.0333,0.0,-285.0,0
GRID,588,0,336.0333,0.0,-270.0,0
GRID,589,0,336.0333,0.0,-255.0,0
GRID,590,0,336.0333,0.0,-240.0,0
GRID,591,0,336.0333,0.0,-225.0,0
GRID,592,0,336.0333,0.0,-210.0,0
GRID,593,0,336.0333,0.0,-195.0,0
GRID,594,0,336.0333,0.0,-180.0,0
GRID,595,0,336.0333,0.0,-165.0,0
GRID,596,0,336.0333,0.0,-150.0,0
GRID,597,0,336.0333,0.0,-135.0,0
GRID,598,0,336.0333,0.0,-120.0,0
GRID,599,0,336.0333,0.0,-105.0,0
GRID,600,0,336.0333,0.0,-90.0,0
GRID,601,0,336.0333,0.0,-75.0,0
GRID,602,0,336.0333,0.0,-60.0,0
GRID,603,0,336.0333,0.0,-45.0,0
GRID,604,0,336.0333,0.0,-30.0,0
GRID,605,0,336.0333,0.0,-15.0,0
GRID,606,0,354.05,0.0,-1035.0,0
GRID,607,0,354.05,0.0,-1020.0,0
GRID,608,0,354.05,0.0,-1005.0,0
GRID,609,0,354.05,0.0,-990.0,0
GRID,610,0,354.05,0.0,-975.0,0
GRID,611,0,354.05,0.0,-960.0,0
GRID,612,0,354.05,0.0,-945.0,0
GRID,613,0,354.05,0.0,-930.0,0
GRID,614,0,354.05,0.0,-915.0,0
GRID,615,0,354.05,0.0,-900.0,0
GRID,616,0,354.05,0.0,-885.0,0
GRID,617,0,354.05,0.0,-870.0,0
GRID,618,0,354.05,0.0,-855.0,0
GRID,619,0,354.05,0.0,-840.0,0
GRID,620,0,354.05,0.0,-825.0,0
GRID,621,0,354.05,0.0,-810.0,0
GRID,622,0,354.05,0.0,-795.0,0
GRID,623,0,354.05,0.0,-780.0,0
GRID,624,0,354.05,0.0,-765.0,0
GRID,625,0,354.05,0.0,-750.0,0
GRID,626,0,354.05,0.0,-735.0,0
GRID,627,0,354.05,0.0,-720.0,0
GRID,628,0,354.05,0.0,-705.0,0
GRID,629,0,354.05,0.0,-690.0,0
GRID,630,0,354.05,0.0,-675.0,0
GRID,631,0,354.05,0.0,-660.0,0
GRID,632,0,354.05,0.0,-645.0,0
GRID,633,0,354.05,0.0,-630.0,0
GRID,634,0,354.05,0.0,-615.0,0
GRID,635,0,354.05,0.0,-600.0,0
GRID,636,0,354.05,0.0,-585.0,0
GRID,637,0,354.05,0.0,-570.0,0
GRID,638,0,354.05,0.0,-555.0,0
GRID,639,0,354.05,0.0,-540.0,0
GRID,640,0,354.05,0.0,-525.0,0
GRID,641,0,354.05,0.0,-510.0,0
GRID,642,0,354.05,0.0,-495.0,0
GRID,643,0,354.05,0.0,-480.0,0
GRID,644,0,354.05,0.0,-465.0,0
GRID,645,0,354.05,0.0,-450.0,0
GRID,646,0,354.05,0.0,-435.0,0
GRID,647,0,354.05,0.0,-420.0,0
GRID,648,0,354.05,0.0,-405.0,0
GRID,649,0,354.05,0.0,-390.0,0
GRID,650,0,354.05,0.0,-375.0,0
GRID,651,0,354.05,0.0,-360.0,0
GRID,652,0,354.05,0.0,-345.0,0
GRID,653,0,354.05,0.0,-330.0,0
GRID,654,0,354.05,0.0,-315.0,0
GRID,655,0,354.05,0.0,-300.0,0
GRID,656,0,354.05,0.0,-285.0,0
GRID,657,0,354.05,0.0,-270.0,0
GRID,658,0,354.05,0.0,-255.0,0
GRID,659,0,354.05,0.0,-240.0,0
GRID,660,0,354.05,0.0,-225.0,0
GRID,661,0,354.05,0.0,-210.0,0
GRID,662,0,354.05,0.0,-195.0,0
GRID,663,0,354.05,0.0,-180.0,0
GRID,664,0,354.05,0.0,-165.0,0
GRID,665,0,354.05,0.0,-150.0,0
GRID,666,0,354.05,0.0,-135.0,0
GRID,667,0,354.05,0.0,-120.0,0
GRID,668,0,354.05,0.0,-105.0,0
GRID,669,0,354.05,0.0,-90.0,0
GRID,670,0,354.05,0.0,-75.0,0
GRID,671,0,354.05,0.0,-60.0,0
GRID,672,0,354.05,0.0,-45.0,0
GRID,673,0,354.05,0.0,-30.0,0
GRID,674,0,354.05,0.0,-15.0,0
GRID,675,0,372.0667,0.0,-1035.0,0
GRID,676,0,372.0667,0.0,-1020.0,0
GRID,677,0,372.0667,0.0,-1005.0,0
GRID,678,0,372.0667,0.0,-990.0,0
GRID,679,0,372.0667,0.0,-975.0,0
GRID,680,0,372.0667,0.0,-960.0,0
GRID,681,0,372.0667,0.0,-945.0,0
GRID,682,0,372.0667,0.0,-930.0,0
GRID,683,0,372.0667,0.0,-915.0,0
GRID,684,0,372.0667,0.0,-900.0,0
GRID,685,0,372.0667,0.0,-885.0,0
GRID,686,0,372.0667,0.0,-870.0,0
GRID,687,0,372.0667,0.0,-855.0,0
GRID,688,0,372.0667,0.0,-840.0,0
GRID,689,0,372.0667,0.0,-825.0,0
GRID,690,0,372.0667,0.0,-810.0,0
GRID,691,0,372.0667,0.0,-795.0,0
GRID,692,0,372.0667,0.0,-780.0,0
GRID,693,0,372.0667,0.0,-765.0,0
GRID,694,0,372.0667,0.0,-750.0,0
GRID,695,0,372.0667,0.0,-735.0,0
GRID,696,0,372.0667,0.0,-720.0,0
GRID,697,0,372.0667,0.0,-705.0,0
GRID,698,0,372.0667,0.0,-690.0,0
GRID,699,0,372.0667,0.0,-675.0,0
GRID,700,0,372.0667,0.0,-660.0,0
GRID,701,0,372.0667,0.0,-645.0,0
GRID,702,0,372.0667,0.0,-630.0,0
GRID,703,0,372.0667,0.0,-615.0,0
GRID,704,0,372.0667,0.0,-600.0,0
GRID,705,0,372.0667,0.0,-585.0,0
GRID,706,0,372.0667,0.0,-570.0,0
GRID,707,0,372.0667,0.0,-555.0,0
GRID,708,0,372.0667,0.0,-540.0,0
GRID,709,0,372.0667,0.0,-525.0,0
GRID,710,0,372.0667,0.0,-510.0,0
GRID,711,0,372.0667,0.0,-495.0,0
GRID,712,0,372.0667,0.0,-480.0,0
GRID,713,0,372.0667,0.0,-465.0,0
GRID,714,0,372.0667,0.0,-450.0,0
GRID,715,0,372.0667,0.0,-435.0,0
GRID,716,0,372.0667,0.0,-420.0,0
GRID,717,0,372.0667,0.0,-405.0,0
GRID,718,0,372.0667,0.0,-390.0,0
GRID,719,0,372.0667,0.0,-375.0,0
GRID,720,0,372.0667,0.0,-360.0,0
GRID,721,0,372.0667,0.0,-345.0,0
GRID,722,0,372.0667,0.0,-330.0,0
GRID,723,0,372.0667,0.0,-315.0,0
GRID,724,0,372.0667,0.0,-300.0,0
GRID,725,0,372.0667,0.0,-285.0,0
GRID,726,0,372.0667,0.0,-270.0,0
GRID,727,0,372.0667,0.0,-255.0,0
GRID,728,0,372.0667,0.0,-240.0,0
GRID,729,0,372.0667,0.0,-225.0,0
GRID,730,0,372.0667,0.0,-210.0,0
GRID,731,0,372.0667,0.0,-195.0,0
GRID,732,0,372.0667,0.0,-180.0,0
GRID,733,0,372.0667,0.0,-165.0,0
GRID,734,0,372.0667,0.0,-150.0,0
GRID,735,0,372.0667,0.0,-135.0,0
GRID,736,0,372.0667,0.0,-120.0,0
GRID,737,0,372.0667,0.0,-105.0,0
GRID,738,0,372.0667,0.0,-90.0,0
GRID,739,0,372.0667,0.0,-75.0,0
GRID,740,0,372.0667,0.0,-60.0,0
GRID,741,0,372.0667,0.0,-45.0,0
GRID,742,0,372.0667,0.0,-30.0,0
GRID,743,0,372.0667,0.0,-15.0,0
GRID,744,0,390.0833,0.0,-1035.0,0
GRID,745,0,390.0833,0.0,-1020.0,0
GRID,746,0,390.0833,0.0,-1005.0,0
GRID,747,0,390.0833,0.0,-990.0,0
GRID,748,0,390.0833,0.0,-975.0,0
GRID,749,0,390.0833,0.0,-960.0,0
GRID,750,0,390.0833,0.0,-945.0,0
GRID,751,0,390.0833,0.0,-930.0,0
GRID,752,0,390.0833,0.0,-915.0,0
GRID,753,0,390.0833,0.0,-900.0,0
GRID,754,0,390.0833,0.0,-885.0,0
GRID,755,0,390.0833,0.0,-870.0,0
GRID,756,0,390.0833,0.0,-855.0,0
GRID,757,0,390.0833,0.0,-840.0,0
GRID,758,0,390.0833,0.0,-825.0,0
GRID,759,0,390.0833,0.0,-810.0,0
GRID,760,0,390.0833,0.0,-795.0,0
GRID,761,0,390.0833,0.0,-780.0,0
GRID,762,0,390.0833,0.0,-765.0,0
GRID,763,0,390.0833,0.0,-750.0,0
GRID,764,0,390.0833,0.0,-735.0,0
GRID,765,0,390.0833,0.0,-720.0,0
GRID,766,0,390.0833,0.0,-705.0,0
GRID,767,0,390.0833,0.0,-690.0,0
GRID,768,0,390.0833,0.0,-675.0,0
GRID,769,0,390.0833,0.0,-660.0,0
GRID,770,0,390.0833,0.0,-645.0,0
GRID,771,0,390.0833,0.0,-630.0,0
GRID,772,0,390.0833,0.0,-615.0,0
GRID,773,0,390.0833,0.0,-600.0,0
GRID,774,0,390.0833,0.0,-585.0,0
GRID,775,0,390.0833,0.0,-570.0,0
GRID,776,0,390.0833,0.0,-555.0,0
GRID,777,0,390.0833,0.0,-540.0,0
GRID,778,0,390.0833,0.0,-525.0,0
GRID,779,0,390.0833,0.0,-510.0,0
GRID,780,0,390.0833,0.0,-495.0,0
GRID,781,0,390.0833,0.0,-480.0,0
GRID,782,0,390.0833,0.0,-465.0,0
GRID,783,0,390.0833,0.0,-450.0,0
GRID,784,0,390.0833,0.0,-435.0,0
GRID,785,0,390.0833,0.0,-420.0,0
GRID,786,0,390.0833,0.0,-405.0,0
GRID,787,0,390.0833,0.0,-390.0,0
GRID,788,0,390.0833,0.0,-375.0,0
GRID,789,0,390.0833,0.0,-360.0,0
GRID,790,0,390.0833,0.0,-345.0,0
GRID,791,0,390.0833,0.0,-330.0,0
GRID,792,0,390.0833,0.0,-315.0,0
GRID,793,0,390.0833,0.0,-300.0,0
GRID,794,0,390.0833,0.0,-285.0,0
GRID,795,0,390.0833,0.0,-270.0,0
GRID,796,0,390.0833,0.0,-255.0,0
GRID,797,0,390.0833,0.0,-240.0,0
GRID,798,0,390.0833,0.0,-225.0,0
GRID,799,0,390.0833,0.0,-210.0,0
GRID,800,0,390.0833,0.0,-195.0,0
GRID,801,0,390.0833,0.0,-180.0,0
GRID,802,0,390.0833,0.0,-165.0,0
GRID,803,0,390.0833,0.0,-150.0,0
GRID,804,0,390.0833,0.0,-135.0,0
GRID,805,0,390.0833,0.0,-120.0,0
GRID,806,0,390.0833,0.0,-105.0,0
GRID,807,0,390.0833,0.0,-90.0,0
GRID,808,0,390.0833,0.0,-75.0,0
GRID,809,0,390.0833,0.0,-60.0,0
GRID,810,0,390.0833,0.0,-45.0,0
GRID,811,0,390.0833,0.0,-30.0,0
GRID,812,0,390.0833,0.0,-15.0,0
GRID,813,0,390.0833,0.0,-1064.12,0
GRID,814,0,390.0603,0.0,-1077.19,0
GRID,815,0,389.9918,0.0,-1090.27,0
GRID,816,0,389.8777,0.0,-1103.34,0
GRID,817,0,389.7179,0.0,-1116.41,0
GRID,818,0,389.5127,0.0,-1129.47,0
GRID,819,0,389.2622,0.0,-1142.53,0
GRID,820,0,388.9667,0.0,-1155.58,0
GRID,821,0,388.6264,0.0,-1168.62,0
GRID,822,0,388.2416,0.0,-1181.65,0
GRID,823,0,387.8127,0.0,-1194.67,0
GRID,824,0,387.3399,0.0,-1207.67,0
GRID,825,0,386.5568,0.0,-1220.69,0
GRID,826,0,385.1992,0.0,-1233.67,0
GRID,827,0,383.268,0.0,-1246.58,0
GRID,828,0,380.7671,0.0,-1259.4,0
GRID,829,0,377.7008,0.0,-1272.1,0
GRID,830,0,374.0749,0.0,-1284.67,0
GRID,831,0,369.896,0.0,-1297.06,0
GRID,832,0,365.1723,0.0,-1309.26,0
GRID,833,0,359.9127,0.0,-1321.24,0
GRID,834,0,354.1274,0.0,-1332.99,0
GRID,835,0,347.8276,0.0,-1344.47,0
GRID,836,0,341.0254,0.0,-1355.66,0
GRID,837,0,333.7344,0.0,-1366.55,0
GRID,838,0,325.9685,0.0,-1377.1,0
GRID,839,0,317.7432,0.0,-1387.3,0
GRID,840,0,309.0744,0.0,-1397.13,0
GRID,841,0,300.006,0.0,-1406.58,0
GRID,842,0,291.1297,0.0,-1415.45,0
GRID,843,0,282.2535,0.0,-1424.33,0
GRID,844,0,272.9458,0.0,-1433.3,0
GRID,845,0,263.3112,0.0,-1441.9,0
GRID,846,0,253.3642,0.0,-1450.14,0
GRID,847,0,243.1212,0.0,-1458.0,0
GRID,848,0,232.5987,0.0,-1465.45,0
GRID,849,0,221.814,0.0,-1472.51,0
GRID,850,0,210.7844,0.0,-1479.14,0
GRID,851,0,199.5283,0.0,-1485.35,0
GRID,852,0,188.0639,0.0,-1491.11,0
GRID,853,0,176.41,0.0,-1496.44,0
GRID,854,0,164.586,0.0,-1501.3,0
GRID,855,0,152.5472,0.0,-1505.71,0
GRID,856,0,140.3139,0.0,-1509.58,0
GRID,857,0,127.9101,0.0,-1512.89,0
GRID,858,0,115.3607,0.0,-1515.66,0
GRID,859,0,102.691,0.0,-1517.86,0
GRID,860,0,89.92643,0.0,-1519.5,0
GRID,861,0,77.09279,0.0,-1520.56,0
GRID,862,0,64.21602,0.0,-1521.05,0
GRID,863,0,51.3222,0.0,-1520.97,0
GRID,864,0,38.43752,0.0,-1520.31,0
GRID,865,0,25.58816,0.0,-1519.07,0
GRID,866,0,12.8004,0.0,-1517.26,0
GRID,867,0,372.0667,0.0,-1064.43,0
GRID,868,0,372.0207,0.0,-1076.78,0
GRID,869,0,371.8837,0.0,-1089.12,0
GRID,870,0,371.6553,0.0,-1101.46,0
GRID,871,0,371.3357,0.0,-1113.79,0
GRID,872,0,370.9253,0.0,-1126.11,0
GRID,873,0,370.4244,0.0,-1138.42,0
GRID,874,0,369.8334,0.0,-1150.71,0
GRID,875,0,369.1528,0.0,-1162.99,0
GRID,876,0,368.3833,0.0,-1175.24,0
GRID,877,0,367.5253,0.0,-1187.47,0
GRID,878,0,366.5798,0.0,-1199.67,0
GRID,879,0,365.3339,0.0,-1211.87,0
GRID,880,0,363.5769,0.0,-1224.02,0
GRID,881,0,361.3099,0.0,-1236.09,0
GRID,882,0,358.5368,0.0,-1248.07,0
GRID,883,0,355.2616,0.0,-1259.93,0
GRID,884,0,351.4897,0.0,-1271.65,0
GRID,885,0,347.2272,0.0,-1283.21,0
GRID,886,0,342.4813,0.0,-1294.59,0
GRID,887,0,337.2599,0.0,-1305.77,0
GRID,888,0,331.5721,0.0,-1316.73,0
GRID,889,0,325.4278,0.0,-1327.44,0
GRID,890,0,318.8375,0.0,-1337.89,0
GRID,891,0,311.8131,0.0,-1348.06,0
GRID,892,0,304.3668,0.0,-1357.93,0
GRID,893,0,296.5119,0.0,-1367.49,0
GRID,894,0,288.2624,0.0,-1376.7,0
GRID,895,0,279.6856,0.0,-1385.58,0
GRID,896,0,271.2625,0.0,-1394.0,0
GRID,897,0,262.8395,0.0,-1402.43,0
GRID,898,0,254.0712,0.0,-1410.92,0
GRID,899,0,245.0415,0.0,-1419.13,0
GRID,900,0,235.7617,0.0,-1427.04,0
GRID,901,0,226.2452,0.0,-1434.65,0
GRID,902,0,216.5051,0.0,-1441.94,0
GRID,903,0,206.5553,0.0,-1448.9,0
GRID,904,0,196.4096,0.0,-1455.53,0
GRID,905,0,186.0825,0.0,-1461.82,0
GRID,906,0,175.5889,0.0,-1467.75,0
GRID,907,0,164.9438,0.0,-1473.33,0
GRID,908,0,154.1624,0.0,-1478.55,0
GRID,909,0,143.1327,0.0,-1483.39,0
GRID,910,0,131.8709,0.0,-1487.71,0
GRID,911,0,120.4015,0.0,-1491.51,0
GRID,912,0,108.75,0.0,-1494.77,0
GRID,913,0,96.94248,0.0,-1497.48,0
GRID,914,0,85.00525,0.0,-1499.63,0
GRID,915,0,72.96519,0.0,-1501.22,0
GRID,916,0,60.84943,0.0,-1502.25,0
GRID,917,0,48.6854,0.0,-1502.7,0
GRID,918,0,36.50071,0.0,-1502.58,0
GRID,919,0,24.32306,0.0,-1501.89,0
GRID,920,0,12.18032,0.0,-1500.62,0
GRID,921,0,354.05,0.0,-1064.74,0
GRID,922,0,353.981,0.0,-1076.36,0
GRID,923,0,353.7755,0.0,-1087.97,0
GRID,924,0,353.433,0.0,-1099.58,0
GRID,925,0,352.9536,0.0,-1111.17,0
GRID,926,0,352.3379,0.0,-1122.75,0
GRID,927,0,351.5866,0.0,-1134.31,0
GRID,928,0,350.7001,0.0,-1145.85,0
GRID,929,0,349.6792,0.0,-1157.36,0
GRID,930,0,348.5249,0.0,-1168.83,0
GRID,931,0,347.238,0.0,-1180.27,0
GRID,932,0,345.8197,0.0,-1191.67,0
GRID,933,0,344.111,0.0,-1203.05,0
GRID,934,0,341.9545,0.0,-1214.36,0
GRID,935,0,339.3518,0.0,-1225.6,0
GRID,936,0,336.3065,0.0,-1236.73,0
GRID,937,0,332.8225,0.0,-1247.75,0
GRID,938,0,328.9046,0.0,-1258.63,0
GRID,939,0,324.5584,0.0,-1269.36,0
GRID,940,0,319.7902,0.0,-1279.92,0
GRID,941,0,314.6071,0.0,-1290.3,0
GRID,942,0,309.0168,0.0,-1300.46,0
GRID,943,0,303.0279,0.0,-1310.41,0
GRID,944,0,296.6496,0.0,-1320.12,0
GRID,945,0,289.8919,0.0,-1329.58,0
GRID,946,0,282.7651,0.0,-1338.77,0
GRID,947,0,275.2806,0.0,-1347.67,0
GRID,948,0,267.4505,0.0,-1356.27,0
GRID,949,0,259.3653,0.0,-1364.59,0
GRID,950,0,251.3954,0.0,-1372.56,0
GRID,951,0,243.4254,0.0,-1380.53,0
GRID,952,0,235.1966,0.0,-1388.55,0
GRID,953,0,226.7717,0.0,-1396.36,0
GRID,954,0,218.1593,0.0,-1403.94,0
GRID,955,0,209.3693,0.0,-1411.3,0
GRID,956,0,200.4116,0.0,-1418.42,0
GRID,957,0,191.2966,0.0,-1425.3,0
GRID,958,0,182.0347,0.0,-1431.92,0
GRID,959,0,172.6368,0.0,-1438.29,0
GRID,960,0,163.1139,0.0,-1444.39,0
GRID,961,0,153.4775,0.0,-1450.23,0
GRID,962,0,143.7388,0.0,-1455.8,0
GRID,963,0,133.7181,0.0,-1461.07,0
GRID,964,0,123.428,0.0,-1465.85,0
GRID,965,0,112.893,0.0,-1470.13,0
GRID,966,0,102.1394,0.0,-1473.87,0
GRID,967,0,91.19398,0.0,-1477.09,0
GRID,968,0,80.08408,0.0,-1479.76,0
GRID,969,0,68.83758,0.0,-1481.88,0
GRID,970,0,57.48284,0.0,-1483.44,0
GRID,971,0,46.04861,0.0,-1484.43,0
GRID,972,0,34.56389,0.0,-1484.85,0
GRID,973,0,23.05796,0.0,-1484.7,0
GRID,974,0,11.56025,0.0,-1483.98,0
GRID,975,0,336.0333,0.0,-1065.05,0
GRID,976,0,335.9414,0.0,-1075.94,0
GRID,977,0,335.6673,0.0,-1086.82,0
GRID,978,0,335.2106,0.0,-1097.7,0
GRID,979,0,334.5714,0.0,-1108.56,0
GRID,980,0,333.7506,0.0,-1119.39,0
GRID,981,0,332.7488,0.0,-1130.2,0
GRID,982,0,331.5667,0.0,-1140.98,0
GRID,983,0,330.2056,0.0,-1151.72,0
GRID,984,0,328.6665,0.0,-1162.42,0
GRID,985,0,326.9506,0.0,-1173.08,0
GRID,986,0,325.0596,0.0,-1183.68,0
GRID,987,0,322.8881,0.0,-1194.23,0
GRID,988,0,320.3321,0.0,-1204.71,0
GRID,989,0,317.3937,0.0,-1215.1,0
GRID,990,0,314.0762,0.0,-1225.4,0
GRID,991,0,310.3833,0.0,-1235.57,0
GRID,992,0,306.3195,0.0,-1245.62,0
GRID,993,0,301.8896,0.0,-1255.52,0
GRID,994,0,297.0992,0.0,-1265.26,0
GRID,995,0,291.9543,0.0,-1274.82,0
GRID,996,0,286.4616,0.0,-1284.2,0
GRID,997,0,280.6281,0.0,-1293.38,0
GRID,998,0,274.4617,0.0,-1302.35,0
GRID,999,0,267.9707,0.0,-1311.09,0
GRID,1000,0,261.1634,0.0,-1319.6,0
GRID,1001,0,254.0493,0.0,-1327.85,0
GRID,1002,0,246.6386,0.0,-1335.84,0
GRID,1003,0,239.0449,0.0,-1343.59,0
GRID,1004,0,231.5282,0.0,-1351.11,0
GRID,1005,0,224.0114,0.0,-1358.62,0
GRID,1006,0,216.322,0.0,-1366.17,0
GRID,1007,0,208.5019,0.0,-1373.58,0
GRID,1008,0,200.5568,0.0,-1380.85,0
GRID,1009,0,192.4933,0.0,-1387.95,0
GRID,1010,0,184.318,0.0,-1394.9,0
GRID,1011,0,176.0379,0.0,-1401.69,0
GRID,1012,0,167.6598,0.0,-1408.31,0
GRID,1013,0,159.191,0.0,-1414.76,0
GRID,1014,0,150.639,0.0,-1421.03,0
GRID,1015,0,142.0112,0.0,-1427.13,0
GRID,1016,0,133.3152,0.0,-1433.04,0
GRID,1017,0,124.3035,0.0,-1438.75,0
GRID,1018,0,114.985,0.0,-1443.99,0
GRID,1019,0,105.3844,0.0,-1448.74,0
GRID,1020,0,95.52876,0.0,-1452.98,0
GRID,1021,0,85.44548,0.0,-1456.7,0
GRID,1022,0,75.1629,0.0,-1459.89,0
GRID,1023,0,64.70997,0.0,-1462.54,0
GRID,1024,0,54.11625,0.0,-1464.63,0
GRID,1025,0,43.41181,0.0,-1466.16,0
GRID,1026,0,32.62708,0.0,-1467.12,0
GRID,1027,0,21.79286,0.0,-1467.52,0
GRID,1028,0,10.94017,0.0,-1467.34,0
GRID,1029,0,318.0167,0.0,-1065.36,0
GRID,1030,0,317.9017,0.0,-1075.52,0
GRID,1031,0,317.5591,0.0,-1085.68,0
GRID,1032,0,316.9883,0.0,-1095.82,0
GRID,1033,0,316.1893,0.0,-1105.94,0
GRID,1034,0,315.1632,0.0,-1116.03,0
GRID,1035,0,313.911,0.0,-1126.09,0
GRID,1036,0,312.4334,0.0,-1136.12,0
GRID,1037,0,310.732,0.0,-1146.09,0
GRID,1038,0,308.8081,0.0,-1156.01,0
GRID,1039,0,306.6633,0.0,-1165.88,0
GRID,1040,0,304.2995,0.0,-1175.68,0
GRID,1041,0,301.6652,0.0,-1185.41,0
GRID,1042,0,298.7097,0.0,-1195.06,0
GRID,1043,0,295.4356,0.0,-1204.61,0
GRID,1044,0,291.8459,0.0,-1214.06,0
GRID,1045,0,287.9442,0.0,-1223.39,0
GRID,1046,0,283.7344,0.0,-1232.6,0
GRID,1047,0,279.2208,0.0,-1241.67,0
GRID,1048,0,274.4081,0.0,-1250.59,0
GRID,1049,0,269.3015,0.0,-1259.35,0
GRID,1050,0,263.9063,0.0,-1267.94,0
GRID,1051,0,258.2283,0.0,-1276.36,0
GRID,1052,0,252.2738,0.0,-1284.58,0
GRID,1053,0,246.0494,0.0,-1292.61,0
GRID,1054,0,239.5616,0.0,-1300.43,0
GRID,1055,0,232.818,0.0,-1308.04,0
GRID,1056,0,225.8267,0.0,-1315.41,0
GRID,1057,0,218.7246,0.0,-1322.59,0
GRID,1058,0,211.661,0.0,-1329.66,0
GRID,1059,0,204.5974,0.0,-1336.72,0
GRID,1060,0,197.4474,0.0,-1343.8,0
GRID,1061,0,190.2321,0.0,-1350.81,0
GRID,1062,0,182.9544,0.0,-1357.75,0
GRID,1063,0,175.6174,0.0,-1364.61,0
GRID,1064,0,168.2245,0.0,-1371.39,0
GRID,1065,0,160.7792,0.0,-1378.08,0
GRID,1066,0,153.2849,0.0,-1384.7,0
GRID,1067,0,145.7453,0.0,-1391.23,0
GRID,1068,0,138.164,0.0,-1397.67,0
GRID,1069,0,130.5449,0.0,-1404.02,0
GRID,1070,0,122.8917,0.0,-1410.29,0
GRID,1071,0,114.889,0.0,-1416.44,0
GRID,1072,0,106.5421,0.0,-1422.13,0
GRID,1073,0,97.87589,0.0,-1427.36,0
GRID,1074,0,88.91812,0.0,-1432.09,0
GRID,1075,0,79.69697,0.0,-1436.32,0
GRID,1076,0,70.24172,0.0,-1440.02,0
GRID,1077,0,60.58236,0.0,-1443.19,0
GRID,1078,0,50.74967,0.0,-1445.82,0
GRID,1079,0,40.77501,0.0,-1447.89,0
GRID,1080,0,30.69027,0.0,-1449.39,0
GRID,1081,0,20.52776,0.0,-1450.33,0
GRID,1082,0,10.32009,0.0,-1450.7,0
GRID,1083,0,.1,0.0,390.0833,0
GRID,1084,0,.1,0.0,372.0666,0
GRID,1085,0,.1,0.0,354.05,0
GRID,1086,0,.1,0.0,336.0333,0
GRID,1087,0,.1,0.0,318.0166,0
GRID,1088,0,10.12231,0.0,299.8285,0
GRID,1089,0,20.13332,0.0,299.3234,0
GRID,1090,0,30.12185,0.0,298.4839,0
GRID,1091,0,40.07675,0.0,297.311,0
GRID,1092,0,49.98692,0.0,295.8062,0
GRID,1093,0,59.84127,0.0,293.9711,0
GRID,1094,0,69.62882,0.0,291.8078,0
GRID,1095,0,79.33865,0.0,289.3188,0
GRID,1096,0,88.95988,0.0,286.5067,0
GRID,1097,0,98.48181,0.0,283.3749,0
GRID,1098,0,107.8938,0.0,279.9266,0
GRID,1099,0,117.1853,0.0,276.1658,0
GRID,1100,0,126.3461,0.0,272.0968,0
GRID,1101,0,135.3657,0.0,267.7239,0
GRID,1102,0,144.2342,0.0,263.0522,0
GRID,1103,0,152.9417,0.0,258.0868,0
GRID,1104,0,161.4785,0.0,252.8333,0
GRID,1105,0,169.835,0.0,247.2975,0
GRID,1106,0,178.0019,0.0,241.4857,0
GRID,1107,0,185.97,0.0,235.4042,0
GRID,1108,0,193.7306,0.0,229.0599,0
GRID,1109,0,201.2748,0.0,222.4599,0
GRID,1110,0,208.5944,0.0,215.6116,0
GRID,1111,0,215.6811,0.0,208.5225,0
GRID,1112,0,222.527,0.0,201.2007,0
GRID,1113,0,229.1245,0.0,193.6542,0
GRID,1114,0,235.4662,0.0,185.8915,0
GRID,1115,0,241.545,0.0,177.9214,0
GRID,1116,0,247.3541,0.0,169.7525,0
GRID,1117,0,252.8871,0.0,161.3942,0
GRID,1118,0,258.1378,0.0,152.8557,0
GRID,1119,0,263.1003,0.0,144.1465,0
GRID,1120,0,267.7691,0.0,135.2764,0
GRID,1121,0,272.1389,0.0,126.2553,0
GRID,1122,0,276.2049,0.0,117.0933,0
GRID,1123,0,279.9626,0.0,107.8005,0
GRID,1124,0,283.4077,0.0,98.38735,0
GRID,1125,0,286.5364,0.0,88.86437,0
GRID,1126,0,289.3453,0.0,79.24221,0
GRID,1127,0,291.831,0.0,69.53155,0
GRID,1128,0,293.991,0.0,59.74328,0
GRID,1129,0,295.8228,0.0,49.88831,0
GRID,1130,0,297.3243,0.0,39.97764,0
GRID,1131,0,298.494,0.0,30.02235,0
GRID,1132,0,299.3301,0.0,20.03355,0
GRID,1133,0,299.8319,0.0,10.02236,0
GRID,1134,0,407.8717,0.0,13.63452,0
GRID,1135,0,407.1889,0.0,27.25383,0
GRID,1136,0,406.0511,0.0,40.8427,0
GRID,1137,0,404.4598,0.0,54.38597,0
GRID,1138,0,402.417,0.0,67.86851,0
GRID,1139,0,399.9249,0.0,81.27528,0
GRID,1140,0,396.9862,0.0,94.59131,0
GRID,1141,0,393.6043,0.0,107.8017,0
GRID,1142,0,389.783,0.0,120.8918,0
GRID,1143,0,385.5264,0.0,133.8468,0
GRID,1144,0,380.8394,0.0,146.6525,0
GRID,1145,0,375.7271,0.0,159.2943,0
GRID,1146,0,370.1954,0.0,171.7584,0
GRID,1147,0,364.2504,0.0,184.0306,0
GRID,1148,0,357.8986,0.0,196.0974,0
GRID,1149,0,351.1472,0.0,207.9453,0
GRID,1150,0,344.0038,0.0,219.5609,0
GRID,1151,0,336.4763,0.0,230.9314,0
GRID,1152,0,328.573,0.0,242.0441,0
GRID,1153,0,320.303,0.0,252.8865,0
GRID,1154,0,311.6753,0.0,263.4466,0
GRID,1155,0,302.6996,0.0,273.7125,0
GRID,1156,0,293.3859,0.0,283.6728,0
GRID,1157,0,283.7447,0.0,293.3164,0
GRID,1158,0,273.7867,0.0,302.6325,0
GRID,1159,0,263.5229,0.0,311.6107,0
GRID,1160,0,252.965,0.0,320.241,0
GRID,1161,0,242.1246,0.0,328.5137,0
GRID,1162,0,231.0139,0.0,336.4197,0
GRID,1163,0,219.6452,0.0,343.95,0
GRID,1164,0,208.0313,0.0,351.0963,0
GRID,1165,0,196.1851,0.0,357.8505,0
GRID,1166,0,184.1199,0.0,364.2052,0
GRID,1167,0,171.8491,0.0,370.1533,0
GRID,1168,0,159.3864,0.0,375.6881,0
GRID,1169,0,146.7458,0.0,380.8035,0
GRID,1170,0,133.9413,0.0,385.4936,0
GRID,1171,0,120.9873,0.0,389.7533,0
GRID,1172,0,107.8982,0.0,393.5779,0
GRID,1173,0,94.68859,0.0,396.9631,0
GRID,1174,0,81.37328,0.0,399.905,0
GRID,1175,0,67.96712,0.0,402.4004,0
GRID,1176,0,54.48507,0.0,404.4465,0
GRID,1177,0,40.94219,0.0,406.041,0
GRID,1178,0,27.35361,0.0,407.1822,0
GRID,1179,0,13.73447,0.0,407.8684,0
GRID,1180,0,318.0167,0.0,8.33E-15,0
GRID,1181,0,336.0333,0.0,1.67E-14,0
GRID,1182,0,354.05,0.0,2.5E-14,0
GRID,1183,0,372.0667,0.0,3.33E-14,0
GRID,1184,0,390.0833,0.0,4.16E-14,0
GRID,1185,0,407.79,0.0,-15.0,0
GRID,1186,0,407.79,0.0,-30.0,0
GRID,1187,0,407.79,0.0,-45.0,0
GRID,1188,0,407.79,0.0,-60.0,0
GRID,1189,0,407.79,0.0,-75.0,0
GRID,1190,0,407.79,0.0,-90.0,0
GRID,1191,0,407.79,0.0,-105.0,0
GRID,1192,0,407.79,0.0,-120.0,0
GRID,1193,0,407.79,0.0,-135.0,0
GRID,1194,0,407.79,0.0,-150.0,0
GRID,1195,0,407.79,0.0,-165.0,0
GRID,1196,0,407.79,0.0,-180.0,0
GRID,1197,0,407.79,0.0,-195.0,0
GRID,1198,0,407.79,0.0,-210.0,0
GRID,1199,0,407.79,0.0,-225.0,0
GRID,1200,0,407.79,0.0,-240.0,0
GRID,1201,0,407.79,0.0,-255.0,0
GRID,1202,0,407.79,0.0,-270.0,0
GRID,1203,0,407.79,0.0,-285.0,0
GRID,1204,0,407.79,0.0,-300.0,0
GRID,1205,0,407.79,0.0,-315.0,0
GRID,1206,0,407.79,0.0,-330.0,0
GRID,1207,0,407.79,0.0,-345.0,0
GRID,1208,0,407.79,0.0,-360.0,0
GRID,1209,0,407.79,0.0,-375.0,0
GRID,1210,0,407.79,0.0,-390.0,0
GRID,1211,0,407.79,0.0,-405.0,0
GRID,1212,0,407.79,0.0,-420.0,0
GRID,1213,0,407.79,0.0,-435.0,0
GRID,1214,0,407.79,0.0,-450.0,0
GRID,1215,0,407.79,0.0,-465.0,0
GRID,1216,0,407.79,0.0,-480.0,0
GRID,1217,0,407.79,0.0,-495.0,0
GRID,1218,0,407.79,0.0,-510.0,0
GRID,1219,0,407.79,0.0,-525.0,0
GRID,1220,0,407.79,0.0,-540.0,0
GRID,1221,0,407.79,0.0,-555.0,0
GRID,1222,0,407.79,0.0,-570.0,0
GRID,1223,0,407.79,0.0,-585.0,0
GRID,1224,0,407.79,0.0,-600.0,0
GRID,1225,0,407.79,0.0,-615.0,0
GRID,1226,0,407.79,0.0,-630.0,0
GRID,1227,0,407.79,0.0,-645.0,0
GRID,1228,0,407.79,0.0,-660.0,0
GRID,1229,0,407.79,0.0,-675.0,0
GRID,1230,0,407.79,0.0,-690.0,0
GRID,1231,0,407.79,0.0,-705.0,0
GRID,1232,0,407.79,0.0,-720.0,0
GRID,1233,0,407.79,0.0,-735.0,0
GRID,1234,0,407.79,0.0,-750.0,0
GRID,1235,0,407.79,0.0,-765.0,0
GRID,1236,0,407.79,0.0,-780.0,0
GRID,1237,0,407.79,0.0,-795.0,0
GRID,1238,0,407.79,0.0,-810.0,0
GRID,1239,0,407.79,0.0,-825.0,0
GRID,1240,0,407.79,0.0,-840.0,0
GRID,1241,0,407.79,0.0,-855.0,0
GRID,1242,0,407.79,0.0,-870.0,0
GRID,1243,0,407.79,0.0,-885.0,0
GRID,1244,0,407.79,0.0,-900.0,0
GRID,1245,0,407.79,0.0,-915.0,0
GRID,1246,0,407.79,0.0,-930.0,0
GRID,1247,0,407.79,0.0,-945.0,0
GRID,1248,0,407.79,0.0,-960.0,0
GRID,1249,0,407.79,0.0,-975.0,0
GRID,1250,0,407.79,0.0,-990.0,0
GRID,1251,0,407.79,0.0,-1005.0,0
GRID,1252,0,407.79,0.0,-1020.0,0
GRID,1253,0,407.79,0.0,-1035.0,0
GRID,1254,0,407.79,0.0,-1050.0,0
GRID,1255,0,407.79,0.0,-1065.0,0
GRID,1256,0,407.79,0.0,-1080.0,0
GRID,1257,0,407.79,0.0,-1095.0,0
GRID,1258,0,407.79,0.0,-1110.0,0
GRID,1259,0,407.79,0.0,-1125.0,0
GRID,1260,0,407.79,0.0,-1140.0,0
GRID,1261,0,407.79,0.0,-1155.0,0
GRID,1262,0,407.79,0.0,-1170.0,0
GRID,1263,0,407.79,0.0,-1185.0,0
GRID,1264,0,427.565,0.0,-1200.0,0
GRID,1265,0,447.34,0.0,-1200.0,0
GRID,1266,0,467.115,0.0,-1200.0,0
GRID,1267,0,467.115,0.0,0.0,0
GRID,1268,0,447.34,0.0,0.0,0
GRID,1269,0,427.565,0.0,0.0,0
GRID,1270,0,486.89,0.0,-1185.0,0
GRID,1271,0,486.89,0.0,-1170.0,0
GRID,1272,0,486.89,0.0,-1155.0,0
GRID,1273,0,486.89,0.0,-1140.0,0
GRID,1274,0,486.89,0.0,-1125.0,0
GRID,1275,0,486.89,0.0,-1110.0,0
GRID,1276,0,486.89,0.0,-1095.0,0
GRID,1277,0,486.89,0.0,-1080.0,0
GRID,1278,0,486.89,0.0,-1065.0,0
GRID,1279,0,486.89,0.0,-1050.0,0
GRID,1280,0,486.89,0.0,-1035.0,0
GRID,1281,0,486.89,0.0,-1020.0,0
GRID,1282,0,486.89,0.0,-1005.0,0
GRID,1283,0,486.89,0.0,-990.0,0
GRID,1284,0,486.89,0.0,-975.0,0
GRID,1285,0,486.89,0.0,-960.0,0
GRID,1286,0,486.89,0.0,-945.0,0
GRID,1287,0,486.89,0.0,-930.0,0
GRID,1288,0,486.89,0.0,-915.0,0
GRID,1289,0,486.89,0.0,-900.0,0
GRID,1290,0,486.89,0.0,-885.0,0
GRID,1291,0,486.89,0.0,-870.0,0
GRID,1292,0,486.89,0.0,-855.0,0
GRID,1293,0,486.89,0.0,-840.0,0
GRID,1294,0,486.89,0.0,-825.0,0
GRID,1295,0,486.89,0.0,-810.0,0
GRID,1296,0,486.89,0.0,-795.0,0
GRID,1297,0,486.89,0.0,-780.0,0
GRID,1298,0,486.89,0.0,-765.0,0
GRID,1299,0,486.89,0.0,-750.0,0
GRID,1300,0,486.89,0.0,-735.0,0
GRID,1301,0,486.89,0.0,-720.0,0
GRID,1302,0,486.89,0.0,-705.0,0
GRID,1303,0,486.89,0.0,-690.0,0
GRID,1304,0,486.89,0.0,-675.0,0
GRID,1305,0,486.89,0.0,-660.0,0
GRID,1306,0,486.89,0.0,-645.0,0
GRID,1307,0,486.89,0.0,-630.0,0
GRID,1308,0,486.89,0.0,-615.0,0
GRID,1309,0,486.89,0.0,-600.0,0
GRID,1310,0,486.89,0.0,-585.0,0
GRID,1311,0,486.89,0.0,-570.0,0
GRID,1312,0,486.89,0.0,-555.0,0
GRID,1313,0,486.89,0.0,-540.0,0
GRID,1314,0,486.89,0.0,-525.0,0
GRID,1315,0,486.89,0.0,-510.0,0
GRID,1316,0,486.89,0.0,-495.0,0
GRID,1317,0,486.89,0.0,-480.0,0
GRID,1318,0,486.89,0.0,-465.0,0
GRID,1319,0,486.89,0.0,-450.0,0
GRID,1320,0,486.89,0.0,-435.0,0
GRID,1321,0,486.89,0.0,-420.0,0
GRID,1322,0,486.89,0.0,-405.0,0
GRID,1323,0,486.89,0.0,-390.0,0
GRID,1324,0,486.89,0.0,-375.0,0
GRID,1325,0,486.89,0.0,-360.0,0
GRID,1326,0,486.89,0.0,-345.0,0
GRID,1327,0,486.89,0.0,-330.0,0
GRID,1328,0,486.89,0.0,-315.0,0
GRID,1329,0,486.89,0.0,-300.0,0
GRID,1330,0,486.89,0.0,-285.0,0
GRID,1331,0,486.89,0.0,-270.0,0
GRID,1332,0,486.89,0.0,-255.0,0
GRID,1333,0,486.89,0.0,-240.0,0
GRID,1334,0,486.89,0.0,-225.0,0
GRID,1335,0,486.89,0.0,-210.0,0
GRID,1336,0,486.89,0.0,-195.0,0
GRID,1337,0,486.89,0.0,-180.0,0
GRID,1338,0,486.89,0.0,-165.0,0
GRID,1339,0,486.89,0.0,-150.0,0
GRID,1340,0,486.89,0.0,-135.0,0
GRID,1341,0,486.89,0.0,-120.0,0
GRID,1342,0,486.89,0.0,-105.0,0
GRID,1343,0,486.89,0.0,-90.0,0
GRID,1344,0,486.89,0.0,-75.0,0
GRID,1345,0,486.89,0.0,-60.0,0
GRID,1346,0,486.89,0.0,-45.0,0
GRID,1347,0,486.89,0.0,-30.0,0
GRID,1348,0,486.89,0.0,-15.0,0
GRID,1349,0,.1,0.0,-1450.49,0
GRID,1350,0,.1,0.0,-1466.59,0
GRID,1351,0,.1,0.0,-1482.68,0
GRID,1352,0,.1,0.0,-1498.78,0
GRID,1353,0,.1,0.0,-1514.88,0
GRID,1354,0,105.4744,0.0,-1394.12,0
GRID,1355,0,98.09915,0.0,-1400.27,0
GRID,1356,0,90.36735,0.0,-1405.97,0
GRID,1357,0,82.30747,0.0,-1411.2,0
GRID,1358,0,73.94847,0.0,-1415.93,0
GRID,1359,0,65.32054,0.0,-1420.15,0
GRID,1360,0,56.45476,0.0,-1423.85,0
GRID,1361,0,47.38308,0.0,-1427.01,0
GRID,1362,0,38.13822,0.0,-1429.62,0
GRID,1363,0,28.75346,0.0,-1431.67,0
GRID,1364,0,19.26266,0.0,-1433.15,0
GRID,1365,0,9.700012,0.0,-1434.06,0
GRID,1366,0,198.4043,0.0,-1301.6,0
GRID,1367,0,191.7938,0.0,-1308.21,0
GRID,1368,0,185.1833,0.0,-1314.82,0
GRID,1369,0,178.5728,0.0,-1321.43,0
GRID,1370,0,171.9624,0.0,-1328.04,0
GRID,1371,0,165.3519,0.0,-1334.65,0
GRID,1372,0,158.7414,0.0,-1341.26,0
GRID,1373,0,152.131,0.0,-1347.87,0
GRID,1374,0,145.5205,0.0,-1354.48,0
GRID,1375,0,138.91,0.0,-1361.09,0
GRID,1376,0,132.2995,0.0,-1367.7,0
GRID,1377,0,125.6891,0.0,-1374.31,0
GRID,1378,0,119.0786,0.0,-1380.92,0
GRID,1379,0,13.42048,0.0,-1533.9,0
GRID,1380,0,26.85326,0.0,-1536.26,0
GRID,1381,0,40.37433,0.0,-1538.04,0
GRID,1382,0,53.959,0.0,-1539.24,0
GRID,1383,0,67.58261,0.0,-1539.86,0
GRID,1384,0,81.2204,0.0,-1539.91,0
GRID,1385,0,94.84761,0.0,-1539.37,0
GRID,1386,0,108.4395,0.0,-1538.25,0
GRID,1387,0,121.9713,0.0,-1536.55,0
GRID,1388,0,135.4186,0.0,-1534.28,0
GRID,1389,0,148.7568,0.0,-1531.44,0
GRID,1390,0,161.9618,0.0,-1528.03,0
GRID,1391,0,175.0095,0.0,-1524.06,0
GRID,1392,0,187.8763,0.0,-1519.54,0
GRID,1393,0,200.5388,0.0,-1514.47,0
GRID,1394,0,212.974,0.0,-1508.87,0
GRID,1395,0,225.1593,0.0,-1502.75,0
GRID,1396,0,237.0726,0.0,-1496.11,0
GRID,1397,0,248.6922,0.0,-1488.97,0
GRID,1398,0,259.9971,0.0,-1481.34,0
GRID,1399,0,270.9666,0.0,-1473.24,0
GRID,1400,0,281.581,0.0,-1464.68,0
GRID,1401,0,291.8204,0.0,-1455.67,0
GRID,1402,0,299.8621,0.0,-1075.1,0
GRID,1403,0,299.4509,0.0,-1084.53,0
GRID,1404,0,298.7659,0.0,-1093.94,0
GRID,1405,0,297.8072,0.0,-1103.32,0
GRID,1406,0,296.5759,0.0,-1112.67,0
GRID,1407,0,295.0731,0.0,-1121.98,0
GRID,1408,0,293.3001,0.0,-1131.25,0
GRID,1409,0,291.2584,0.0,-1140.46,0
GRID,1410,0,288.9497,0.0,-1149.61,0
GRID,1411,0,286.376,0.0,-1158.68,0
GRID,1412,0,283.5393,0.0,-1167.68,0
GRID,1413,0,280.4423,0.0,-1176.59,0
GRID,1414,0,277.0874,0.0,-1185.4,0
GRID,1415,0,273.4774,0.0,-1194.12,0
GRID,1416,0,269.6156,0.0,-1202.73,0
GRID,1417,0,265.505,0.0,-1211.22,0
GRID,1418,0,261.1493,0.0,-1219.58,0
GRID,1419,0,256.552,0.0,-1227.82,0
GRID,1420,0,251.7171,0.0,-1235.92,0
GRID,1421,0,246.6486,0.0,-1243.88,0
GRID,1422,0,241.351,0.0,-1251.68,0
GRID,1423,0,235.8285,0.0,-1259.33,0
GRID,1424,0,230.0859,0.0,-1266.81,0
GRID,1425,0,224.1282,0.0,-1274.13,0
GRID,1426,0,217.9599,0.0,-1281.26,0
GRID,1427,0,211.5867,0.0,-1288.22,0
GRID,1428,0,310.9969,0.0,-1436.9,0
GRID,1429,0,329.8863,0.0,-1417.56,0
GRID,1430,0,338.9744,0.0,-1407.12,0
GRID,1431,0,347.5702,0.0,-1396.27,0
GRID,1432,0,355.6556,0.0,-1385.03,0
GRID,1433,0,363.2133,0.0,-1373.43,0
GRID,1434,0,370.2274,0.0,-1361.5,0
GRID,1435,0,376.6827,0.0,-1349.25,0
GRID,1436,0,382.5656,0.0,-1336.72,0
GRID,1437,0,387.8634,0.0,-1323.93,0
GRID,1438,0,392.5649,0.0,-1310.91,0
GRID,1439,0,396.66,0.0,-1297.68,0
GRID,1440,0,400.1399,0.0,-1284.28,0
GRID,1441,0,402.9974,0.0,-1270.74,0
GRID,1442,0,405.2262,0.0,-1257.07,0
GRID,1443,0,406.8216,0.0,-1243.32,0
GRID,1444,0,407.7797,0.0,-1229.51,0
GRID,1445,0,408.1,0.0,-1201.86,0
GRID,1446,0,408.1,0.0,-1188.06,0
GRID,1447,0,408.1,0.0,-1174.25,0
GRID,1448,0,408.1,0.0,-1160.45,0
GRID,1449,0,408.1,0.0,-1146.64,0
GRID,1450,0,408.1,0.0,-1132.84,0
GRID,1451,0,408.1,0.0,-1119.03,0
GRID,1452,0,408.1,0.0,-1105.22,0
GRID,1453,0,408.1,0.0,-1091.42,0
GRID,1454,0,408.1,0.0,-1077.61,0
GRID,1455,0,408.1,0.0,-1063.81,0
GRID,1456,0,300.0,0.0,-15.0,0
GRID,1457,0,300.0,0.0,-30.0,0
GRID,1458,0,300.0,0.0,-45.0,0
GRID,1459,0,300.0,0.0,-60.0,0
GRID,1460,0,300.0,0.0,-75.0,0
GRID,1461,0,300.0,0.0,-90.0,0
GRID,1462,0,300.0,0.0,-105.0,0
GRID,1463,0,300.0,0.0,-120.0,0
GRID,1464,0,300.0,0.0,-135.0,0
GRID,1465,0,300.0,0.0,-150.0,0
GRID,1466,0,300.0,0.0,-165.0,0
GRID,1467,0,300.0,0.0,-180.0,0
GRID,1468,0,300.0,0.0,-195.0,0
GRID,1469,0,300.0,0.0,-210.0,0
GRID,1470,0,300.0,0.0,-225.0,0
GRID,1471,0,300.0,0.0,-240.0,0
GRID,1472,0,300.0,0.0,-255.0,0
GRID,1473,0,300.0,0.0,-270.0,0
GRID,1474,0,300.0,0.0,-285.0,0
GRID,1475,0,300.0,0.0,-300.0,0
GRID,1476,0,300.0,0.0,-315.0,0
GRID,1477,0,300.0,0.0,-330.0,0
GRID,1478,0,300.0,0.0,-345.0,0
GRID,1479,0,300.0,0.0,-360.0,0
GRID,1480,0,300.0,0.0,-375.0,0
GRID,1481,0,300.0,0.0,-390.0,0
GRID,1482,0,300.0,0.0,-405.0,0
GRID,1483,0,300.0,0.0,-420.0,0
GRID,1484,0,300.0,0.0,-435.0,0
GRID,1485,0,300.0,0.0,-450.0,0
GRID,1486,0,300.0,0.0,-465.0,0
GRID,1487,0,300.0,0.0,-480.0,0
GRID,1488,0,300.0,0.0,-495.0,0
GRID,1489,0,300.0,0.0,-510.0,0
GRID,1490,0,300.0,0.0,-525.0,0
GRID,1491,0,300.0,0.0,-540.0,0
GRID,1492,0,300.0,0.0,-555.0,0
GRID,1493,0,300.0,0.0,-570.0,0
GRID,1494,0,300.0,0.0,-585.0,0
GRID,1495,0,300.0,0.0,-600.0,0
GRID,1496,0,300.0,0.0,-615.0,0
GRID,1497,0,300.0,0.0,-630.0,0
GRID,1498,0,300.0,0.0,-645.0,0
GRID,1499,0,300.0,0.0,-660.0,0
GRID,1500,0,300.0,0.0,-675.0,0
GRID,1501,0,300.0,0.0,-690.0,0
GRID,1502,0,300.0,0.0,-705.0,0
GRID,1503,0,300.0,0.0,-720.0,0
GRID,1504,0,300.0,0.0,-735.0,0
GRID,1505,0,300.0,0.0,-750.0,0
GRID,1506,0,300.0,0.0,-765.0,0
GRID,1507,0,300.0,0.0,-780.0,0
GRID,1508,0,300.0,0.0,-795.0,0
GRID,1509,0,300.0,0.0,-810.0,0
GRID,1510,0,300.0,0.0,-825.0,0
GRID,1511,0,300.0,0.0,-840.0,0
GRID,1512,0,300.0,0.0,-855.0,0
GRID,1513,0,300.0,0.0,-870.0,0
GRID,1514,0,300.0,0.0,-885.0,0
GRID,1515,0,300.0,0.0,-900.0,0
GRID,1516,0,300.0,0.0,-915.0,0
GRID,1517,0,300.0,0.0,-930.0,0
GRID,1518,0,300.0,0.0,-945.0,0
GRID,1519,0,300.0,0.0,-960.0,0
GRID,1520,0,300.0,0.0,-975.0,0
GRID,1521,0,300.0,0.0,-990.0,0
GRID,1522,0,300.0,0.0,-1005.0,0
GRID,1523,0,300.0,0.0,-1020.0,0
GRID,1524,0,300.0,0.0,-1035.0,0
GRID,1525,0,318.0167,0.0,-1050.0,0
GRID,1526,0,336.0333,0.0,-1050.0,0
GRID,1527,0,354.05,0.0,-1050.0,0
GRID,1528,0,372.0667,0.0,-1050.0,0
GRID,1529,0,390.0833,0.0,-1050.0,0
GRID,1530,0,408.1,0.0,-1035.0,0
GRID,1531,0,408.1,0.0,-1020.0,0
GRID,1532,0,408.1,0.0,-1005.0,0
GRID,1533,0,408.1,0.0,-990.0,0
GRID,1534,0,408.1,0.0,-975.0,0
GRID,1535,0,408.1,0.0,-960.0,0
GRID,1536,0,408.1,0.0,-945.0,0
GRID,1537,0,408.1,0.0,-930.0,0
GRID,1538,0,408.1,0.0,-915.0,0
GRID,1539,0,408.1,0.0,-900.0,0
GRID,1540,0,408.1,0.0,-885.0,0
GRID,1541,0,408.1,0.0,-870.0,0
GRID,1542,0,408.1,0.0,-855.0,0
GRID,1543,0,408.1,0.0,-840.0,0
GRID,1544,0,408.1,0.0,-825.0,0
GRID,1545,0,408.1,0.0,-810.0,0
GRID,1546,0,408.1,0.0,-795.0,0
GRID,1547,0,408.1,0.0,-780.0,0
GRID,1548,0,408.1,0.0,-765.0,0
GRID,1549,0,408.1,0.0,-750.0,0
GRID,1550,0,408.1,0.0,-735.0,0
GRID,1551,0,408.1,0.0,-720.0,0
GRID,1552,0,408.1,0.0,-705.0,0
GRID,1553,0,408.1,0.0,-690.0,0
GRID,1554,0,408.1,0.0,-675.0,0
GRID,1555,0,408.1,0.0,-660.0,0
GRID,1556,0,408.1,0.0,-645.0,0
GRID,1557,0,408.1,0.0,-630.0,0
GRID,1558,0,408.1,0.0,-615.0,0
GRID,1559,0,408.1,0.0,-600.0,0
GRID,1560,0,408.1,0.0,-585.0,0
GRID,1561,0,408.1,0.0,-570.0,0
GRID,1562,0,408.1,0.0,-555.0,0
GRID,1563,0,408.1,0.0,-540.0,0
GRID,1564,0,408.1,0.0,-525.0,0
GRID,1565,0,408.1,0.0,-510.0,0
GRID,1566,0,408.1,0.0,-495.0,0
GRID,1567,0,408.1,0.0,-480.0,0
GRID,1568,0,408.1,0.0,-465.0,0
GRID,1569,0,408.1,0.0,-450.0,0
GRID,1570,0,408.1,0.0,-435.0,0
GRID,1571,0,408.1,0.0,-420.0,0
GRID,1572,0,408.1,0.0,-405.0,0
GRID,1573,0,408.1,0.0,-390.0,0
GRID,1574,0,408.1,0.0,-375.0,0
GRID,1575,0,408.1,0.0,-360.0,0
GRID,1576,0,408.1,0.0,-345.0,0
GRID,1577,0,408.1,0.0,-330.0,0
GRID,1578,0,408.1,0.0,-315.0,0
GRID,1579,0,408.1,0.0,-300.0,0
GRID,1580,0,408.1,0.0,-285.0,0
GRID,1581,0,408.1,0.0,-270.0,0
GRID,1582,0,408.1,0.0,-255.0,0
GRID,1583,0,408.1,0.0,-240.0,0
GRID,1584,0,408.1,0.0,-225.0,0
GRID,1585,0,408.1,0.0,-210.0,0
GRID,1586,0,408.1,0.0,-195.0,0
GRID,1587,0,408.1,0.0,-180.0,0
GRID,1588,0,408.1,0.0,-165.0,0
GRID,1589,0,408.1,0.0,-150.0,0
GRID,1590,0,408.1,0.0,-135.0,0
GRID,1591,0,408.1,0.0,-120.0,0
GRID,1592,0,408.1,0.0,-105.0,0
GRID,1593,0,408.1,0.0,-90.0,0
GRID,1594,0,408.1,0.0,-75.0,0
GRID,1595,0,408.1,0.0,-60.0,0
GRID,1596,0,408.1,0.0,-45.0,0
GRID,1597,0,408.1,0.0,-30.0,0
GRID,1598,0,408.1,0.0,-15.0,0
GRID,1599,0,.1,0.0,408.1,0
GRID,1600,0,.1,0.0,300.0,0
GRID,1601,0,300.0,0.0,0.0,0
GRID,1602,0,408.1,0.0,5.0E-14,0
GRID,1603,0,407.79,0.0,0.0,0
GRID,1604,0,407.79,0.0,-1200.0,0
GRID,1605,0,486.89,0.0,-1200.0,0
GRID,1606,0,486.89,0.0,0.0,0
GRID,1607,0,.1,0.0,-1434.39,0
GRID,1608,0,.1,0.0,-1530.98,0
GRID,1609,0,112.4681,0.0,-1387.53,0
GRID,1610,0,205.0147,0.0,-1294.99,0
GRID,1611,0,301.6675,0.0,-1446.23,0
GRID,1612,0,300.0,0.0,-1065.67,0
GRID,1613,0,320.3263,0.0,-1427.57,0
GRID,1614,0,408.1,0.0,-1215.67,0
GRID,1615,0,300.0,0.0,-1050.0,0
GRID,1616,0,408.1,0.0,-1050.0,0
CQUADX4,1,1,1,6,7,2
CQUADX4,2,1,2,7,8,3
CQUADX4,3,1,3,8,9,4
CQUADX4,4,1,4,9,10,5
CQUADX4,5,1,6,11,12,7
CQUADX4,6,1,7,12,13,8
CQUADX4,7,1,8,13,14,9
CQUADX4,8,1,9,14,15,10
CQUADX4,9,1,11,16,17,12
CQUADX4,10,1,12,17,18,13
CQUADX4,11,1,13,18,19,14
CQUADX4,12,1,14,19,20,15
CQUADX4,13,1,16,21,22,17
CQUADX4,14,1,17,22,23,18
CQUADX4,15,1,18,23,24,19
CQUADX4,16,1,19,24,25,20
CQUADX4,17,1,21,26,27,22
CQUADX4,18,1,22,27,28,23
CQUADX4,19,1,23,28,29,24
CQUADX4,20,1,24,29,30,25
CQUADX4,21,1,26,31,32,27
CQUADX4,22,1,27,32,33,28
CQUADX4,23,1,28,33,34,29
CQUADX4,24,1,29,34,35,30
CQUADX4,25,1,31,36,37,32
CQUADX4,26,1,32,37,38,33
CQUADX4,27,1,33,38,39,34
CQUADX4,28,1,34,39,40,35
CQUADX4,29,1,36,41,42,37
CQUADX4,30,1,37,42,43,38
CQUADX4,31,1,38,43,44,39
CQUADX4,32,1,39,44,45,40
CQUADX4,33,1,41,46,47,42
CQUADX4,34,1,42,47,48,43
CQUADX4,35,1,43,48,49,44
CQUADX4,36,1,44,49,50,45
CQUADX4,37,1,46,51,52,47
CQUADX4,38,1,47,52,53,48
CQUADX4,39,1,48,53,54,49
CQUADX4,40,1,49,54,55,50
CQUADX4,41,1,51,56,57,52
CQUADX4,42,1,52,57,58,53
CQUADX4,43,1,53,58,59,54
CQUADX4,44,1,54,59,60,55
CQUADX4,45,1,56,61,62,57
CQUADX4,46,1,57,62,63,58
CQUADX4,47,1,58,63,64,59
CQUADX4,48,1,59,64,65,60
CQUADX4,49,1,61,66,67,62
CQUADX4,50,1,62,67,68,63
CQUADX4,51,1,63,68,69,64
CQUADX4,52,1,64,69,70,65
CQUADX4,53,1,66,71,72,67
CQUADX4,54,1,67,72,73,68
CQUADX4,55,1,68,73,74,69
CQUADX4,56,1,69,74,75,70
CQUADX4,57,1,71,76,77,72
CQUADX4,58,1,72,77,78,73
CQUADX4,59,1,73,78,79,74
CQUADX4,60,1,74,79,80,75
CQUADX4,61,1,76,81,82,77
CQUADX4,62,1,77,82,83,78
CQUADX4,63,1,78,83,84,79
CQUADX4,64,1,79,84,85,80
CQUADX4,65,1,81,86,87,82
CQUADX4,66,1,82,87,88,83
CQUADX4,67,1,83,88,89,84
CQUADX4,68,1,84,89,90,85
CQUADX4,69,1,86,91,92,87
CQUADX4,70,1,87,92,93,88
CQUADX4,71,1,88,93,94,89
CQUADX4,72,1,89,94,95,90
CQUADX4,73,1,91,96,97,92
CQUADX4,74,1,92,97,98,93
CQUADX4,75,1,93,98,99,94
CQUADX4,76,1,94,99,100,95
CQUADX4,77,1,96,101,102,97
CQUADX4,78,1,97,102,103,98
CQUADX4,79,1,98,103,104,99
CQUADX4,80,1,99,104,105,100
CQUADX4,81,1,101,106,107,102
CQUADX4,82,1,102,107,108,103
CQUADX4,83,1,103,108,109,104
CQUADX4,84,1,104,109,110,105
CQUADX4,85,1,106,111,112,107
CQUADX4,86,1,107,112,113,108
CQUADX4,87,1,108,113,114,109
CQUADX4,88,1,109,114,115,110
CQUADX4,89,1,111,116,117,112
CQUADX4,90,1,112,117,118,113
CQUADX4,91,1,113,118,119,114
CQUADX4,92,1,114,119,120,115
CQUADX4,93,1,116,121,122,117
CQUADX4,94,1,117,122,123,118
CQUADX4,95,1,118,123,124,119
CQUADX4,96,1,119,124,125,120
CQUADX4,97,1,121,126,127,122
CQUADX4,98,1,122,127,128,123
CQUADX4,99,1,123,128,129,124
CQUADX4,100,1,124,129,130,125
CQUADX4,101,1,126,131,132,127
CQUADX4,102,1,127,132,133,128
CQUADX4,103,1,128,133,134,129
CQUADX4,104,1,129,134,135,130
CQUADX4,105,1,131,136,137,132
CQUADX4,106,1,132,137,138,133
CQUADX4,107,1,133,138,139,134
CQUADX4,108,1,134,139,140,135
CQUADX4,109,1,136,141,142,137
CQUADX4,110,1,137,142,143,138
CQUADX4,111,1,138,143,144,139
CQUADX4,112,1,139,144,145,140
CQUADX4,113,1,141,146,147,142
CQUADX4,114,1,142,147,148,143
CQUADX4,115,1,143,148,149,144
CQUADX4,116,1,144,149,150,145
CQUADX4,117,1,146,151,152,147
CQUADX4,118,1,147,152,153,148
CQUADX4,119,1,148,153,154,149
CQUADX4,120,1,149,154,155,150
CQUADX4,121,1,151,156,157,152
CQUADX4,122,1,152,157,158,153
CQUADX4,123,1,153,158,159,154
CQUADX4,124,1,154,159,160,155
CQUADX4,125,1,156,161,162,157
CQUADX4,126,1,157,162,163,158
CQUADX4,127,1,158,163,164,159
CQUADX4,128,1,159,164,165,160
CQUADX4,129,1,161,166,167,162
CQUADX4,130,1,162,167,168,163
CQUADX4,131,1,163,168,169,164
CQUADX4,132,1,164,169,170,165
CQUADX4,133,1,166,171,172,167
CQUADX4,134,1,167,172,173,168
CQUADX4,135,1,168,173,174,169
CQUADX4,136,1,169,174,175,170
CQUADX4,137,1,171,176,177,172
CQUADX4,138,1,172,177,178,173
CQUADX4,139,1,173,178,179,174
CQUADX4,140,1,174,179,180,175
CQUADX4,141,1,176,181,182,177
CQUADX4,142,1,177,182,183,178
CQUADX4,143,1,178,183,184,179
CQUADX4,144,1,179,184,185,180
CQUADX4,145,1,181,186,187,182
CQUADX4,146,1,182,187,188,183
CQUADX4,147,1,183,188,189,184
CQUADX4,148,1,184,189,190,185
CQUADX4,149,1,186,191,192,187
CQUADX4,150,1,187,192,193,188
CQUADX4,151,1,188,193,194,189
CQUADX4,152,1,189,194,195,190
CQUADX4,153,1,191,196,197,192
CQUADX4,154,1,192,197,198,193
CQUADX4,155,1,193,198,199,194
CQUADX4,156,1,194,199,200,195
CQUADX4,157,1,196,201,202,197
CQUADX4,158,1,197,202,203,198
CQUADX4,159,1,198,203,204,199
CQUADX4,160,1,199,204,205,200
CQUADX4,161,1,201,206,207,202
CQUADX4,162,1,202,207,208,203
CQUADX4,163,1,203,208,209,204
CQUADX4,164,1,204,209,210,205
CQUADX4,165,1,206,211,212,207
CQUADX4,166,1,207,212,213,208
CQUADX4,167,1,208,213,214,209
CQUADX4,168,1,209,214,215,210
CQUADX4,169,1,211,216,217,212
CQUADX4,170,1,212,217,218,213
CQUADX4,171,1,213,218,219,214
CQUADX4,172,1,214,219,220,215
CQUADX4,173,1,216,221,222,217
CQUADX4,174,1,217,222,223,218
CQUADX4,175,1,218,223,224,219
CQUADX4,176,1,219,224,225,220
CQUADX4,177,1,221,226,227,222
CQUADX4,178,1,222,227,228,223
CQUADX4,179,1,223,228,229,224
CQUADX4,180,1,224,229,230,225
CQUADX4,181,1,1602,1134,1,1184
CQUADX4,182,1,1134,1135,6,1
CQUADX4,183,1,1135,1136,11,6
CQUADX4,184,1,1136,1137,16,11
CQUADX4,185,1,1137,1138,21,16
CQUADX4,186,1,1138,1139,26,21
CQUADX4,187,1,1139,1140,31,26
CQUADX4,188,1,1140,1141,36,31
CQUADX4,189,1,1141,1142,41,36
CQUADX4,190,1,1142,1143,46,41
CQUADX4,191,1,1143,1144,51,46
CQUADX4,192,1,1144,1145,56,51
CQUADX4,193,1,1145,1146,61,56
CQUADX4,194,1,1146,1147,66,61
CQUADX4,195,1,1147,1148,71,66
CQUADX4,196,1,1148,1149,76,71
CQUADX4,197,1,1149,1150,81,76
CQUADX4,198,1,1150,1151,86,81
CQUADX4,199,1,1151,1152,91,86
CQUADX4,200,1,1152,1153,96,91
CQUADX4,201,1,1153,1154,101,96
CQUADX4,202,1,1154,1155,106,101
CQUADX4,203,1,1155,1156,111,106
CQUADX4,204,1,1156,1157,116,111
CQUADX4,205,1,1157,1158,121,116
CQUADX4,206,1,1158,1159,126,121
CQUADX4,207,1,1159,1160,131,126
CQUADX4,208,1,1160,1161,136,131
CQUADX4,209,1,1161,1162,141,136
CQUADX4,210,1,1162,1163,146,141
CQUADX4,211,1,1163,1164,151,146
CQUADX4,212,1,1164,1165,156,151
CQUADX4,213,1,1165,1166,161,156
CQUADX4,214,1,1166,1167,166,161
CQUADX4,215,1,1167,1168,171,166
CQUADX4,216,1,1168,1169,176,171
CQUADX4,217,1,1169,1170,181,176
CQUADX4,218,1,1170,1171,186,181
CQUADX4,219,1,1171,1172,191,186
CQUADX4,220,1,1172,1173,196,191
CQUADX4,221,1,1173,1174,201,196
CQUADX4,222,1,1174,1175,206,201
CQUADX4,223,1,1175,1176,211,206
CQUADX4,224,1,1176,1177,216,211
CQUADX4,225,1,1177,1178,221,216
CQUADX4,226,1,1178,1179,226,221
CQUADX4,227,1,1179,1599,1083,226
CQUADX4,228,1,226,1083,1084,227
CQUADX4,229,1,227,1084,1085,228
CQUADX4,230,1,228,1085,1086,229
CQUADX4,231,1,229,1086,1087,230
CQUADX4,232,1,230,1087,1600,1088
CQUADX4,233,1,225,230,1088,1089
CQUADX4,234,1,220,225,1089,1090
CQUADX4,235,1,215,220,1090,1091
CQUADX4,236,1,210,215,1091,1092
CQUADX4,237,1,205,210,1092,1093
CQUADX4,238,1,200,205,1093,1094
CQUADX4,239,1,195,200,1094,1095
CQUADX4,240,1,190,195,1095,1096
CQUADX4,241,1,185,190,1096,1097
CQUADX4,242,1,180,185,1097,1098
CQUADX4,243,1,175,180,1098,1099
CQUADX4,244,1,170,175,1099,1100
CQUADX4,245,1,165,170,1100,1101
CQUADX4,246,1,160,165,1101,1102
CQUADX4,247,1,155,160,1102,1103
CQUADX4,248,1,150,155,1103,1104
CQUADX4,249,1,145,150,1104,1105
CQUADX4,250,1,140,145,1105,1106
CQUADX4,251,1,135,140,1106,1107
CQUADX4,252,1,130,135,1107,1108
CQUADX4,253,1,125,130,1108,1109
CQUADX4,254,1,120,125,1109,1110
CQUADX4,255,1,115,120,1110,1111
CQUADX4,256,1,110,115,1111,1112
CQUADX4,257,1,105,110,1112,1113
CQUADX4,258,1,100,105,1113,1114
CQUADX4,259,1,95,100,1114,1115
CQUADX4,260,1,90,95,1115,1116
CQUADX4,261,1,85,90,1116,1117
CQUADX4,262,1,80,85,1117,1118
CQUADX4,263,1,75,80,1118,1119
CQUADX4,264,1,70,75,1119,1120
CQUADX4,265,1,65,70,1120,1121
CQUADX4,266,1,60,65,1121,1122
CQUADX4,267,1,55,60,1122,1123
CQUADX4,268,1,50,55,1123,1124
CQUADX4,269,1,45,50,1124,1125
CQUADX4,270,1,40,45,1125,1126
CQUADX4,271,1,35,40,1126,1127
CQUADX4,272,1,30,35,1127,1128
CQUADX4,273,1,25,30,1128,1129
CQUADX4,274,1,20,25,1129,1130
CQUADX4,275,1,15,20,1130,1131
CQUADX4,276,1,10,15,1131,1132
CQUADX4,277,1,5,10,1132,1133
CQUADX4,278,1,1180,5,1133,1601
CQUADX4,279,1,1181,4,5,1180
CQUADX4,280,1,1182,3,4,1181
CQUADX4,281,1,1183,2,3,1182
CQUADX4,282,1,1184,1,2,1183
CQUADX4,283,1,231,234,235,232
CQUADX4,284,1,232,235,236,233
CQUADX4,285,1,234,237,238,235
CQUADX4,286,1,235,238,239,236
CQUADX4,287,1,237,240,241,238
CQUADX4,288,1,238,241,242,239
CQUADX4,289,1,240,243,244,241
CQUADX4,290,1,241,244,245,242
CQUADX4,291,1,243,246,247,244
CQUADX4,292,1,244,247,248,245
CQUADX4,293,1,246,249,250,247
CQUADX4,294,1,247,250,251,248
CQUADX4,295,1,249,252,253,250
CQUADX4,296,1,250,253,254,251
CQUADX4,297,1,252,255,256,253
CQUADX4,298,1,253,256,257,254
CQUADX4,299,1,255,258,259,256
CQUADX4,300,1,256,259,260,257
CQUADX4,301,1,258,261,262,259
CQUADX4,302,1,259,262,263,260
CQUADX4,303,1,261,264,265,262
CQUADX4,304,1,262,265,266,263
CQUADX4,305,1,264,267,268,265
CQUADX4,306,1,265,268,269,266
CQUADX4,307,1,267,270,271,268
CQUADX4,308,1,268,271,272,269
CQUADX4,309,1,270,273,274,271
CQUADX4,310,1,271,274,275,272
CQUADX4,311,1,273,276,277,274
CQUADX4,312,1,274,277,278,275
CQUADX4,313,1,276,279,280,277
CQUADX4,314,1,277,280,281,278
CQUADX4,315,1,279,282,283,280
CQUADX4,316,1,280,283,284,281
CQUADX4,317,1,282,285,286,283
CQUADX4,318,1,283,286,287,284
CQUADX4,319,1,285,288,289,286
CQUADX4,320,1,286,289,290,287
CQUADX4,321,1,288,291,292,289
CQUADX4,322,1,289,292,293,290
CQUADX4,323,1,291,294,295,292
CQUADX4,324,1,292,295,296,293
CQUADX4,325,1,294,297,298,295
CQUADX4,326,1,295,298,299,296
CQUADX4,327,1,297,300,301,298
CQUADX4,328,1,298,301,302,299
CQUADX4,329,1,300,303,304,301
CQUADX4,330,1,301,304,305,302
CQUADX4,331,1,303,306,307,304
CQUADX4,332,1,304,307,308,305
CQUADX4,333,1,306,309,310,307
CQUADX4,334,1,307,310,311,308
CQUADX4,335,1,309,312,313,310
CQUADX4,336,1,310,313,314,311
CQUADX4,337,1,312,315,316,313
CQUADX4,338,1,313,316,317,314
CQUADX4,339,1,315,318,319,316
CQUADX4,340,1,316,319,320,317
CQUADX4,341,1,318,321,322,319
CQUADX4,342,1,319,322,323,320
CQUADX4,343,1,321,324,325,322
CQUADX4,344,1,322,325,326,323
CQUADX4,345,1,324,327,328,325
CQUADX4,346,1,325,328,329,326
CQUADX4,347,1,327,330,331,328
CQUADX4,348,1,328,331,332,329
CQUADX4,349,1,330,333,334,331
CQUADX4,350,1,331,334,335,332
CQUADX4,351,1,333,336,337,334
CQUADX4,352,1,334,337,338,335
CQUADX4,353,1,336,339,340,337
CQUADX4,354,1,337,340,341,338
CQUADX4,355,1,339,342,343,340
CQUADX4,356,1,340,343,344,341
CQUADX4,357,1,342,345,346,343
CQUADX4,358,1,343,346,347,344
CQUADX4,359,1,345,348,349,346
CQUADX4,360,1,346,349,350,347
CQUADX4,361,1,348,351,352,349
CQUADX4,362,1,349,352,353,350
CQUADX4,363,1,351,354,355,352
CQUADX4,364,1,352,355,356,353
CQUADX4,365,1,354,357,358,355
CQUADX4,366,1,355,358,359,356
CQUADX4,367,1,357,360,361,358
CQUADX4,368,1,358,361,362,359
CQUADX4,369,1,360,363,364,361
CQUADX4,370,1,361,364,365,362
CQUADX4,371,1,363,366,367,364
CQUADX4,372,1,364,367,368,365
CQUADX4,373,1,366,369,370,367
CQUADX4,374,1,367,370,371,368
CQUADX4,375,1,369,372,373,370
CQUADX4,376,1,370,373,374,371
CQUADX4,377,1,372,375,376,373
CQUADX4,378,1,373,376,377,374
CQUADX4,379,1,375,378,379,376
CQUADX4,380,1,376,379,380,377
CQUADX4,381,1,378,381,382,379
CQUADX4,382,1,379,382,383,380
CQUADX4,383,1,381,384,385,382
CQUADX4,384,1,382,385,386,383
CQUADX4,385,1,384,387,388,385
CQUADX4,386,1,385,388,389,386
CQUADX4,387,1,387,390,391,388
CQUADX4,388,1,388,391,392,389
CQUADX4,389,1,390,393,394,391
CQUADX4,390,1,391,394,395,392
CQUADX4,391,1,393,396,397,394
CQUADX4,392,1,394,397,398,395
CQUADX4,393,1,396,399,400,397
CQUADX4,394,1,397,400,401,398
CQUADX4,395,1,399,402,403,400
CQUADX4,396,1,400,403,404,401
CQUADX4,397,1,402,405,406,403
CQUADX4,398,1,403,406,407,404
CQUADX4,399,1,405,408,409,406
CQUADX4,400,1,406,409,410,407
CQUADX4,401,1,408,411,412,409
CQUADX4,402,1,409,412,413,410
CQUADX4,403,1,411,414,415,412
CQUADX4,404,1,412,415,416,413
CQUADX4,405,1,414,417,418,415
CQUADX4,406,1,415,418,419,416
CQUADX4,407,1,417,420,421,418
CQUADX4,408,1,418,421,422,419
CQUADX4,409,1,420,423,424,421
CQUADX4,410,1,421,424,425,422
CQUADX4,411,1,423,426,427,424
CQUADX4,412,1,424,427,428,425
CQUADX4,413,1,426,429,430,427
CQUADX4,414,1,427,430,431,428
CQUADX4,415,1,429,432,433,430
CQUADX4,416,1,430,433,434,431
CQUADX4,417,1,432,435,436,433
CQUADX4,418,1,433,436,437,434
CQUADX4,419,1,435,438,439,436
CQUADX4,420,1,436,439,440,437
CQUADX4,421,1,438,441,442,439
CQUADX4,422,1,439,442,443,440
CQUADX4,423,1,441,444,445,442
CQUADX4,424,1,442,445,446,443
CQUADX4,425,1,444,447,448,445
CQUADX4,426,1,445,448,449,446
CQUADX4,427,1,447,450,451,448
CQUADX4,428,1,448,451,452,449
CQUADX4,429,1,450,453,454,451
CQUADX4,430,1,451,454,455,452
CQUADX4,431,1,453,456,457,454
CQUADX4,432,1,454,457,458,455
CQUADX4,433,1,456,459,460,457
CQUADX4,434,1,457,460,461,458
CQUADX4,435,1,459,462,463,460
CQUADX4,436,1,460,463,464,461
CQUADX4,437,1,462,465,466,463
CQUADX4,438,1,463,466,467,464
CQUADX4,439,1,1605,1270,231,1266
CQUADX4,440,1,1270,1271,234,231
CQUADX4,441,1,1271,1272,237,234
CQUADX4,442,1,1272,1273,240,237
CQUADX4,443,1,1273,1274,243,240
CQUADX4,444,1,1274,1275,246,243
CQUADX4,445,1,1275,1276,249,246
CQUADX4,446,1,1276,1277,252,249
CQUADX4,447,1,1277,1278,255,252
CQUADX4,448,1,1278,1279,258,255
CQUADX4,449,1,1279,1280,261,258
CQUADX4,450,1,1280,1281,264,261
CQUADX4,451,1,1281,1282,267,264
CQUADX4,452,1,1282,1283,270,267
CQUADX4,453,1,1283,1284,273,270
CQUADX4,454,1,1284,1285,276,273
CQUADX4,455,1,1285,1286,279,276
CQUADX4,456,1,1286,1287,282,279
CQUADX4,457,1,1287,1288,285,282
CQUADX4,458,1,1288,1289,288,285
CQUADX4,459,1,1289,1290,291,288
CQUADX4,460,1,1290,1291,294,291
CQUADX4,461,1,1291,1292,297,294
CQUADX4,462,1,1292,1293,300,297
CQUADX4,463,1,1293,1294,303,300
CQUADX4,464,1,1294,1295,306,303
CQUADX4,465,1,1295,1296,309,306
CQUADX4,466,1,1296,1297,312,309
CQUADX4,467,1,1297,1298,315,312
CQUADX4,468,1,1298,1299,318,315
CQUADX4,469,1,1299,1300,321,318
CQUADX4,470,1,1300,1301,324,321
CQUADX4,471,1,1301,1302,327,324
CQUADX4,472,1,1302,1303,330,327
CQUADX4,473,1,1303,1304,333,330
CQUADX4,474,1,1304,1305,336,333
CQUADX4,475,1,1305,1306,339,336
CQUADX4,476,1,1306,1307,342,339
CQUADX4,477,1,1307,1308,345,342
CQUADX4,478,1,1308,1309,348,345
CQUADX4,479,1,1309,1310,351,348
CQUADX4,480,1,1310,1311,354,351
CQUADX4,481,1,1311,1312,357,354
CQUADX4,482,1,1312,1313,360,357
CQUADX4,483,1,1313,1314,363,360
CQUADX4,484,1,1314,1315,366,363
CQUADX4,485,1,1315,1316,369,366
CQUADX4,486,1,1316,1317,372,369
CQUADX4,487,1,1317,1318,375,372
CQUADX4,488,1,1318,1319,378,375
CQUADX4,489,1,1319,1320,381,378
CQUADX4,490,1,1320,1321,384,381
CQUADX4,491,1,1321,1322,387,384
CQUADX4,492,1,1322,1323,390,387
CQUADX4,493,1,1323,1324,393,390
CQUADX4,494,1,1324,1325,396,393
CQUADX4,495,1,1325,1326,399,396
CQUADX4,496,1,1326,1327,402,399
CQUADX4,497,1,1327,1328,405,402
CQUADX4,498,1,1328,1329,408,405
CQUADX4,499,1,1329,1330,411,408
CQUADX4,500,1,1330,1331,414,411
CQUADX4,501,1,1331,1332,417,414
CQUADX4,502,1,1332,1333,420,417
CQUADX4,503,1,1333,1334,423,420
CQUADX4,504,1,1334,1335,426,423
CQUADX4,505,1,1335,1336,429,426
CQUADX4,506,1,1336,1337,432,429
CQUADX4,507,1,1337,1338,435,432
CQUADX4,508,1,1338,1339,438,435
CQUADX4,509,1,1339,1340,441,438
CQUADX4,510,1,1340,1341,444,441
CQUADX4,511,1,1341,1342,447,444
CQUADX4,512,1,1342,1343,450,447
CQUADX4,513,1,1343,1344,453,450
CQUADX4,514,1,1344,1345,456,453
CQUADX4,515,1,1345,1346,459,456
CQUADX4,516,1,1346,1347,462,459
CQUADX4,517,1,1347,1348,465,462
CQUADX4,518,1,1348,1606,1267,465
CQUADX4,519,1,465,1267,1268,466
CQUADX4,520,1,466,1268,1269,467
CQUADX4,521,1,467,1269,1603,1185
CQUADX4,522,1,464,467,1185,1186
CQUADX4,523,1,461,464,1186,1187
CQUADX4,524,1,458,461,1187,1188
CQUADX4,525,1,455,458,1188,1189
CQUADX4,526,1,452,455,1189,1190
CQUADX4,527,1,449,452,1190,1191
CQUADX4,528,1,446,449,1191,1192
CQUADX4,529,1,443,446,1192,1193
CQUADX4,530,1,440,443,1193,1194
CQUADX4,531,1,437,440,1194,1195
CQUADX4,532,1,434,437,1195,1196
CQUADX4,533,1,431,434,1196,1197
CQUADX4,534,1,428,431,1197,1198
CQUADX4,535,1,425,428,1198,1199
CQUADX4,536,1,422,425,1199,1200
CQUADX4,537,1,419,422,1200,1201
CQUADX4,538,1,416,419,1201,1202
CQUADX4,539,1,413,416,1202,1203
CQUADX4,540,1,410,413,1203,1204
CQUADX4,541,1,407,410,1204,1205
CQUADX4,542,1,404,407,1205,1206
CQUADX4,543,1,401,404,1206,1207
CQUADX4,544,1,398,401,1207,1208
CQUADX4,545,1,395,398,1208,1209
CQUADX4,546,1,392,395,1209,1210
CQUADX4,547,1,389,392,1210,1211
CQUADX4,548,1,386,389,1211,1212
CQUADX4,549,1,383,386,1212,1213
CQUADX4,550,1,380,383,1213,1214
CQUADX4,551,1,377,380,1214,1215
CQUADX4,552,1,374,377,1215,1216
CQUADX4,553,1,371,374,1216,1217
CQUADX4,554,1,368,371,1217,1218
CQUADX4,555,1,365,368,1218,1219
CQUADX4,556,1,362,365,1219,1220
CQUADX4,557,1,359,362,1220,1221
CQUADX4,558,1,356,359,1221,1222
CQUADX4,559,1,353,356,1222,1223
CQUADX4,560,1,350,353,1223,1224
CQUADX4,561,1,347,350,1224,1225
CQUADX4,562,1,344,347,1225,1226
CQUADX4,563,1,341,344,1226,1227
CQUADX4,564,1,338,341,1227,1228
CQUADX4,565,1,335,338,1228,1229
CQUADX4,566,1,332,335,1229,1230
CQUADX4,567,1,329,332,1230,1231
CQUADX4,568,1,326,329,1231,1232
CQUADX4,569,1,323,326,1232,1233
CQUADX4,570,1,320,323,1233,1234
CQUADX4,571,1,317,320,1234,1235
CQUADX4,572,1,314,317,1235,1236
CQUADX4,573,1,311,314,1236,1237
CQUADX4,574,1,308,311,1237,1238
CQUADX4,575,1,305,308,1238,1239
CQUADX4,576,1,302,305,1239,1240
CQUADX4,577,1,299,302,1240,1241
CQUADX4,578,1,296,299,1241,1242
CQUADX4,579,1,293,296,1242,1243
CQUADX4,580,1,290,293,1243,1244
CQUADX4,581,1,287,290,1244,1245
CQUADX4,582,1,284,287,1245,1246
CQUADX4,583,1,281,284,1246,1247
CQUADX4,584,1,278,281,1247,1248
CQUADX4,585,1,275,278,1248,1249
CQUADX4,586,1,272,275,1249,1250
CQUADX4,587,1,269,272,1250,1251
CQUADX4,588,1,266,269,1251,1252
CQUADX4,589,1,263,266,1252,1253
CQUADX4,590,1,260,263,1253,1254
CQUADX4,591,1,257,260,1254,1255
CQUADX4,592,1,254,257,1255,1256
CQUADX4,593,1,251,254,1256,1257
CQUADX4,594,1,248,251,1257,1258
CQUADX4,595,1,245,248,1258,1259
CQUADX4,596,1,242,245,1259,1260
CQUADX4,597,1,239,242,1260,1261
CQUADX4,598,1,236,239,1261,1262
CQUADX4,599,1,233,236,1262,1263
CQUADX4,600,1,1264,233,1263,1604
CQUADX4,601,1,1265,232,233,1264
CQUADX4,602,1,1266,231,232,1265
CQUADX4,603,1,537,538,469,468
CQUADX4,604,1,538,539,470,469
CQUADX4,605,1,539,540,471,470
CQUADX4,606,1,540,541,472,471
CQUADX4,607,1,541,542,473,472
CQUADX4,608,1,542,543,474,473
CQUADX4,609,1,543,544,475,474
CQUADX4,610,1,544,545,476,475
CQUADX4,611,1,545,546,477,476
CQUADX4,612,1,546,547,478,477
CQUADX4,613,1,547,548,479,478
CQUADX4,614,1,548,549,480,479
CQUADX4,615,1,549,550,481,480
CQUADX4,616,1,550,551,482,481
CQUADX4,617,1,551,552,483,482
CQUADX4,618,1,552,553,484,483
CQUADX4,619,1,553,554,485,484
CQUADX4,620,1,554,555,486,485
CQUADX4,621,1,555,556,487,486
CQUADX4,622,1,556,557,488,487
CQUADX4,623,1,557,558,489,488
CQUADX4,624,1,558,559,490,489
CQUADX4,625,1,559,560,491,490
CQUADX4,626,1,560,561,492,491
CQUADX4,627,1,561,562,493,492
CQUADX4,628,1,562,563,494,493
CQUADX4,629,1,563,564,495,494
CQUADX4,630,1,564,565,496,495
CQUADX4,631,1,565,566,497,496
CQUADX4,632,1,566,567,498,497
CQUADX4,633,1,567,568,499,498
CQUADX4,634,1,568,569,500,499
CQUADX4,635,1,569,570,501,500
CQUADX4,636,1,570,571,502,501
CQUADX4,637,1,571,572,503,502
CQUADX4,638,1,572,573,504,503
CQUADX4,639,1,573,574,505,504
CQUADX4,640,1,574,575,506,505
CQUADX4,641,1,575,576,507,506
CQUADX4,642,1,576,577,508,507
CQUADX4,643,1,577,578,509,508
CQUADX4,644,1,578,579,510,509
CQUADX4,645,1,579,580,511,510
CQUADX4,646,1,580,581,512,511
CQUADX4,647,1,581,582,513,512
CQUADX4,648,1,582,583,514,513
CQUADX4,649,1,583,584,515,514
CQUADX4,650,1,584,585,516,515
CQUADX4,651,1,585,586,517,516
CQUADX4,652,1,586,587,518,517
CQUADX4,653,1,587,588,519,518
CQUADX4,654,1,588,589,520,519
CQUADX4,655,1,589,590,521,520
CQUADX4,656,1,590,591,522,521
CQUADX4,657,1,591,592,523,522
CQUADX4,658,1,592,593,524,523
CQUADX4,659,1,593,594,525,524
CQUADX4,660,1,594,595,526,525
CQUADX4,661,1,595,596,527,526
CQUADX4,662,1,596,597,528,527
CQUADX4,663,1,597,598,529,528
CQUADX4,664,1,598,599,530,529
CQUADX4,665,1,599,600,531,530
CQUADX4,666,1,600,601,532,531
CQUADX4,667,1,601,602,533,532
CQUADX4,668,1,602,603,534,533
CQUADX4,669,1,603,604,535,534
CQUADX4,670,1,604,605,536,535
CQUADX4,671,1,606,607,538,537
CQUADX4,672,1,607,608,539,538
CQUADX4,673,1,608,609,540,539
CQUADX4,674,1,609,610,541,540
CQUADX4,675,1,610,611,542,541
CQUADX4,676,1,611,612,543,542
CQUADX4,677,1,612,613,544,543
CQUADX4,678,1,613,614,545,544
CQUADX4,679,1,614,615,546,545
CQUADX4,680,1,615,616,547,546
CQUADX4,681,1,616,617,548,547
CQUADX4,682,1,617,618,549,548
CQUADX4,683,1,618,619,550,549
CQUADX4,684,1,619,620,551,550
CQUADX4,685,1,620,621,552,551
CQUADX4,686,1,621,622,553,552
CQUADX4,687,1,622,623,554,553
CQUADX4,688,1,623,624,555,554
CQUADX4,689,1,624,625,556,555
CQUADX4,690,1,625,626,557,556
CQUADX4,691,1,626,627,558,557
CQUADX4,692,1,627,628,559,558
CQUADX4,693,1,628,629,560,559
CQUADX4,694,1,629,630,561,560
CQUADX4,695,1,630,631,562,561
CQUADX4,696,1,631,632,563,562
CQUADX4,697,1,632,633,564,563
CQUADX4,698,1,633,634,565,564
CQUADX4,699,1,634,635,566,565
CQUADX4,700,1,635,636,567,566
CQUADX4,701,1,636,637,568,567
CQUADX4,702,1,637,638,569,568
CQUADX4,703,1,638,639,570,569
CQUADX4,704,1,639,640,571,570
CQUADX4,705,1,640,641,572,571
CQUADX4,706,1,641,642,573,572
CQUADX4,707,1,642,643,574,573
CQUADX4,708,1,643,644,575,574
CQUADX4,709,1,644,645,576,575
CQUADX4,710,1,645,646,577,576
CQUADX4,711,1,646,647,578,577
CQUADX4,712,1,647,648,579,578
CQUADX4,713,1,648,649,580,579
CQUADX4,714,1,649,650,581,580
CQUADX4,715,1,650,651,582,581
CQUADX4,716,1,651,652,583,582
CQUADX4,717,1,652,653,584,583
CQUADX4,718,1,653,654,585,584
CQUADX4,719,1,654,655,586,585
CQUADX4,720,1,655,656,587,586
CQUADX4,721,1,656,657,588,587
CQUADX4,722,1,657,658,589,588
CQUADX4,723,1,658,659,590,589
CQUADX4,724,1,659,660,591,590
CQUADX4,725,1,660,661,592,591
CQUADX4,726,1,661,662,593,592
CQUADX4,727,1,662,663,594,593
CQUADX4,728,1,663,664,595,594
CQUADX4,729,1,664,665,596,595
CQUADX4,730,1,665,666,597,596
CQUADX4,731,1,666,667,598,597
CQUADX4,732,1,667,668,599,598
CQUADX4,733,1,668,669,600,599
CQUADX4,734,1,669,670,601,600
CQUADX4,735,1,670,671,602,601
CQUADX4,736,1,671,672,603,602
CQUADX4,737,1,672,673,604,603
CQUADX4,738,1,673,674,605,604
CQUADX4,739,1,675,676,607,606
CQUADX4,740,1,676,677,608,607
CQUADX4,741,1,677,678,609,608
CQUADX4,742,1,678,679,610,609
CQUADX4,743,1,679,680,611,610
CQUADX4,744,1,680,681,612,611
CQUADX4,745,1,681,682,613,612
CQUADX4,746,1,682,683,614,613
CQUADX4,747,1,683,684,615,614
CQUADX4,748,1,684,685,616,615
CQUADX4,749,1,685,686,617,616
CQUADX4,750,1,686,687,618,617
CQUADX4,751,1,687,688,619,618
CQUADX4,752,1,688,689,620,619
CQUADX4,753,1,689,690,621,620
CQUADX4,754,1,690,691,622,621
CQUADX4,755,1,691,692,623,622
CQUADX4,756,1,692,693,624,623
CQUADX4,757,1,693,694,625,624
CQUADX4,758,1,694,695,626,625
CQUADX4,759,1,695,696,627,626
CQUADX4,760,1,696,697,628,627
CQUADX4,761,1,697,698,629,628
CQUADX4,762,1,698,699,630,629
CQUADX4,763,1,699,700,631,630
CQUADX4,764,1,700,701,632,631
CQUADX4,765,1,701,702,633,632
CQUADX4,766,1,702,703,634,633
CQUADX4,767,1,703,704,635,634
CQUADX4,768,1,704,705,636,635
CQUADX4,769,1,705,706,637,636
CQUADX4,770,1,706,707,638,637
CQUADX4,771,1,707,708,639,638
CQUADX4,772,1,708,709,640,639
CQUADX4,773,1,709,710,641,640
CQUADX4,774,1,710,711,642,641
CQUADX4,775,1,711,712,643,642
CQUADX4,776,1,712,713,644,643
CQUADX4,777,1,713,714,645,644
CQUADX4,778,1,714,715,646,645
CQUADX4,779,1,715,716,647,646
CQUADX4,780,1,716,717,648,647
CQUADX4,781,1,717,718,649,648
CQUADX4,782,1,718,719,650,649
CQUADX4,783,1,719,720,651,650
CQUADX4,784,1,720,721,652,651
CQUADX4,785,1,721,722,653,652
CQUADX4,786,1,722,723,654,653
CQUADX4,787,1,723,724,655,654
CQUADX4,788,1,724,725,656,655
CQUADX4,789,1,725,726,657,656
CQUADX4,790,1,726,727,658,657
CQUADX4,791,1,727,728,659,658
CQUADX4,792,1,728,729,660,659
CQUADX4,793,1,729,730,661,660
CQUADX4,794,1,730,731,662,661
CQUADX4,795,1,731,732,663,662
CQUADX4,796,1,732,733,664,663
CQUADX4,797,1,733,734,665,664
CQUADX4,798,1,734,735,666,665
CQUADX4,799,1,735,736,667,666
CQUADX4,800,1,736,737,668,667
CQUADX4,801,1,737,738,669,668
CQUADX4,802,1,738,739,670,669
CQUADX4,803,1,739,740,671,670
CQUADX4,804,1,740,741,672,671
CQUADX4,805,1,741,742,673,672
CQUADX4,806,1,742,743,674,673
CQUADX4,807,1,744,745,676,675
CQUADX4,808,1,745,746,677,676
CQUADX4,809,1,746,747,678,677
CQUADX4,810,1,747,748,679,678
CQUADX4,811,1,748,749,680,679
CQUADX4,812,1,749,750,681,680
CQUADX4,813,1,750,751,682,681
CQUADX4,814,1,751,752,683,682
CQUADX4,815,1,752,753,684,683
CQUADX4,816,1,753,754,685,684
CQUADX4,817,1,754,755,686,685
CQUADX4,818,1,755,756,687,686
CQUADX4,819,1,756,757,688,687
CQUADX4,820,1,757,758,689,688
CQUADX4,821,1,758,759,690,689
CQUADX4,822,1,759,760,691,690
CQUADX4,823,1,760,761,692,691
CQUADX4,824,1,761,762,693,692
CQUADX4,825,1,762,763,694,693
CQUADX4,826,1,763,764,695,694
CQUADX4,827,1,764,765,696,695
CQUADX4,828,1,765,766,697,696
CQUADX4,829,1,766,767,698,697
CQUADX4,830,1,767,768,699,698
CQUADX4,831,1,768,769,700,699
CQUADX4,832,1,769,770,701,700
CQUADX4,833,1,770,771,702,701
CQUADX4,834,1,771,772,703,702
CQUADX4,835,1,772,773,704,703
CQUADX4,836,1,773,774,705,704
CQUADX4,837,1,774,775,706,705
CQUADX4,838,1,775,776,707,706
CQUADX4,839,1,776,777,708,707
CQUADX4,840,1,777,778,709,708
CQUADX4,841,1,778,779,710,709
CQUADX4,842,1,779,780,711,710
CQUADX4,843,1,780,781,712,711
CQUADX4,844,1,781,782,713,712
CQUADX4,845,1,782,783,714,713
CQUADX4,846,1,783,784,715,714
CQUADX4,847,1,784,785,716,715
CQUADX4,848,1,785,786,717,716
CQUADX4,849,1,786,787,718,717
CQUADX4,850,1,787,788,719,718
CQUADX4,851,1,788,789,720,719
CQUADX4,852,1,789,790,721,720
CQUADX4,853,1,790,791,722,721
CQUADX4,854,1,791,792,723,722
CQUADX4,855,1,792,793,724,723
CQUADX4,856,1,793,794,725,724
CQUADX4,857,1,794,795,726,725
CQUADX4,858,1,795,796,727,726
CQUADX4,859,1,796,797,728,727
CQUADX4,860,1,797,798,729,728
CQUADX4,861,1,798,799,730,729
CQUADX4,862,1,799,800,731,730
CQUADX4,863,1,800,801,732,731
CQUADX4,864,1,801,802,733,732
CQUADX4,865,1,802,803,734,733
CQUADX4,866,1,803,804,735,734
CQUADX4,867,1,804,805,736,735
CQUADX4,868,1,805,806,737,736
CQUADX4,869,1,806,807,738,737
CQUADX4,870,1,807,808,739,738
CQUADX4,871,1,808,809,740,739
CQUADX4,872,1,809,810,741,740
CQUADX4,873,1,810,811,742,741
CQUADX4,874,1,811,812,743,742
CQUADX4,875,1,1525,468,1524,1615
CQUADX4,876,1,1526,537,468,1525
CQUADX4,877,1,1527,606,537,1526
CQUADX4,878,1,1528,675,606,1527
CQUADX4,879,1,1529,744,675,1528
CQUADX4,880,1,1616,1530,744,1529
CQUADX4,881,1,1530,1531,745,744
CQUADX4,882,1,1531,1532,746,745
CQUADX4,883,1,1532,1533,747,746
CQUADX4,884,1,1533,1534,748,747
CQUADX4,885,1,1534,1535,749,748
CQUADX4,886,1,1535,1536,750,749
CQUADX4,887,1,1536,1537,751,750
CQUADX4,888,1,1537,1538,752,751
CQUADX4,889,1,1538,1539,753,752
CQUADX4,890,1,1539,1540,754,753
CQUADX4,891,1,1540,1541,755,754
CQUADX4,892,1,1541,1542,756,755
CQUADX4,893,1,1542,1543,757,756
CQUADX4,894,1,1543,1544,758,757
CQUADX4,895,1,1544,1545,759,758
CQUADX4,896,1,1545,1546,760,759
CQUADX4,897,1,1546,1547,761,760
CQUADX4,898,1,1547,1548,762,761
CQUADX4,899,1,1548,1549,763,762
CQUADX4,900,1,1549,1550,764,763
CQUADX4,901,1,1550,1551,765,764
CQUADX4,902,1,1551,1552,766,765
CQUADX4,903,1,1552,1553,767,766
CQUADX4,904,1,1553,1554,768,767
CQUADX4,905,1,1554,1555,769,768
CQUADX4,906,1,1555,1556,770,769
CQUADX4,907,1,1556,1557,771,770
CQUADX4,908,1,1557,1558,772,771
CQUADX4,909,1,1558,1559,773,772
CQUADX4,910,1,1559,1560,774,773
CQUADX4,911,1,1560,1561,775,774
CQUADX4,912,1,1561,1562,776,775
CQUADX4,913,1,1562,1563,777,776
CQUADX4,914,1,1563,1564,778,777
CQUADX4,915,1,1564,1565,779,778
CQUADX4,916,1,1565,1566,780,779
CQUADX4,917,1,1566,1567,781,780
CQUADX4,918,1,1567,1568,782,781
CQUADX4,919,1,1568,1569,783,782
CQUADX4,920,1,1569,1570,784,783
CQUADX4,921,1,1570,1571,785,784
CQUADX4,922,1,1571,1572,786,785
CQUADX4,923,1,1572,1573,787,786
CQUADX4,924,1,1573,1574,788,787
CQUADX4,925,1,1574,1575,789,788
CQUADX4,926,1,1575,1576,790,789
CQUADX4,927,1,1576,1577,791,790
CQUADX4,928,1,1577,1578,792,791
CQUADX4,929,1,1578,1579,793,792
CQUADX4,930,1,1579,1580,794,793
CQUADX4,931,1,1580,1581,795,794
CQUADX4,932,1,1581,1582,796,795
CQUADX4,933,1,1582,1583,797,796
CQUADX4,934,1,1583,1584,798,797
CQUADX4,935,1,1584,1585,799,798
CQUADX4,936,1,1585,1586,800,799
CQUADX4,937,1,1586,1587,801,800
CQUADX4,938,1,1587,1588,802,801
CQUADX4,939,1,1588,1589,803,802
CQUADX4,940,1,1589,1590,804,803
CQUADX4,941,1,1590,1591,805,804
CQUADX4,942,1,1591,1592,806,805
CQUADX4,943,1,1592,1593,807,806
CQUADX4,944,1,1593,1594,808,807
CQUADX4,945,1,1594,1595,809,808
CQUADX4,946,1,1595,1596,810,809
CQUADX4,947,1,1596,1597,811,810
CQUADX4,948,1,1597,1598,812,811
CQUADX4,949,1,1598,1602,1184,812
CQUADX4,950,1,812,1184,1183,743
CQUADX4,951,1,743,1183,1182,674
CQUADX4,952,1,674,1182,1181,605
CQUADX4,953,1,605,1181,1180,536
CQUADX4,954,1,536,1180,1601,1456
CQUADX4,955,1,535,536,1456,1457
CQUADX4,956,1,534,535,1457,1458
CQUADX4,957,1,533,534,1458,1459
CQUADX4,958,1,532,533,1459,1460
CQUADX4,959,1,531,532,1460,1461
CQUADX4,960,1,530,531,1461,1462
CQUADX4,961,1,529,530,1462,1463
CQUADX4,962,1,528,529,1463,1464
CQUADX4,963,1,527,528,1464,1465
CQUADX4,964,1,526,527,1465,1466
CQUADX4,965,1,525,526,1466,1467
CQUADX4,966,1,524,525,1467,1468
CQUADX4,967,1,523,524,1468,1469
CQUADX4,968,1,522,523,1469,1470
CQUADX4,969,1,521,522,1470,1471
CQUADX4,970,1,520,521,1471,1472
CQUADX4,971,1,519,520,1472,1473
CQUADX4,972,1,518,519,1473,1474
CQUADX4,973,1,517,518,1474,1475
CQUADX4,974,1,516,517,1475,1476
CQUADX4,975,1,515,516,1476,1477
CQUADX4,976,1,514,515,1477,1478
CQUADX4,977,1,513,514,1478,1479
CQUADX4,978,1,512,513,1479,1480
CQUADX4,979,1,511,512,1480,1481
CQUADX4,980,1,510,511,1481,1482
CQUADX4,981,1,509,510,1482,1483
CQUADX4,982,1,508,509,1483,1484
CQUADX4,983,1,507,508,1484,1485
CQUADX4,984,1,506,507,1485,1486
CQUADX4,985,1,505,506,1486,1487
CQUADX4,986,1,504,505,1487,1488
CQUADX4,987,1,503,504,1488,1489
CQUADX4,988,1,502,503,1489,1490
CQUADX4,989,1,501,502,1490,1491
CQUADX4,990,1,500,501,1491,1492
CQUADX4,991,1,499,500,1492,1493
CQUADX4,992,1,498,499,1493,1494
CQUADX4,993,1,497,498,1494,1495
CQUADX4,994,1,496,497,1495,1496
CQUADX4,995,1,495,496,1496,1497
CQUADX4,996,1,494,495,1497,1498
CQUADX4,997,1,493,494,1498,1499
CQUADX4,998,1,492,493,1499,1500
CQUADX4,999,1,491,492,1500,1501
CQUADX4,1000,1,490,491,1501,1502
CQUADX4,1001,1,489,490,1502,1503
CQUADX4,1002,1,488,489,1503,1504
CQUADX4,1003,1,487,488,1504,1505
CQUADX4,1004,1,486,487,1505,1506
CQUADX4,1005,1,485,486,1506,1507
CQUADX4,1006,1,484,485,1507,1508
CQUADX4,1007,1,483,484,1508,1509
CQUADX4,1008,1,482,483,1509,1510
CQUADX4,1009,1,481,482,1510,1511
CQUADX4,1010,1,480,481,1511,1512
CQUADX4,1011,1,479,480,1512,1513
CQUADX4,1012,1,478,479,1513,1514
CQUADX4,1013,1,477,478,1514,1515
CQUADX4,1014,1,476,477,1515,1516
CQUADX4,1015,1,475,476,1516,1517
CQUADX4,1016,1,474,475,1517,1518
CQUADX4,1017,1,473,474,1518,1519
CQUADX4,1018,1,472,473,1519,1520
CQUADX4,1019,1,471,472,1520,1521
CQUADX4,1020,1,470,471,1521,1522
CQUADX4,1021,1,469,470,1522,1523
CQUADX4,1022,1,468,469,1523,1524
CQUADX4,1023,1,813,867,868,814
CQUADX4,1024,1,814,868,869,815
CQUADX4,1025,1,815,869,870,816
CQUADX4,1026,1,816,870,871,817
CQUADX4,1027,1,817,871,872,818
CQUADX4,1028,1,818,872,873,819
CQUADX4,1029,1,819,873,874,820
CQUADX4,1030,1,820,874,875,821
CQUADX4,1031,1,821,875,876,822
CQUADX4,1032,1,822,876,877,823
CQUADX4,1033,1,823,877,878,824
CQUADX4,1034,1,824,878,879,825
CQUADX4,1035,1,825,879,880,826
CQUADX4,1036,1,826,880,881,827
CQUADX4,1037,1,827,881,882,828
CQUADX4,1038,1,828,882,883,829
CQUADX4,1039,1,829,883,884,830
CQUADX4,1040,1,830,884,885,831
CQUADX4,1041,1,831,885,886,832
CQUADX4,1042,1,832,886,887,833
CQUADX4,1043,1,833,887,888,834
CQUADX4,1044,1,834,888,889,835
CQUADX4,1045,1,835,889,890,836
CQUADX4,1046,1,836,890,891,837
CQUADX4,1047,1,837,891,892,838
CQUADX4,1048,1,838,892,893,839
CQUADX4,1049,1,839,893,894,840
CQUADX4,1050,1,840,894,895,841
CQUADX4,1051,1,841,895,896,842
CQUADX4,1052,1,842,896,897,843
CQUADX4,1053,1,843,897,898,844
CQUADX4,1054,1,844,898,899,845
CQUADX4,1055,1,845,899,900,846
CQUADX4,1056,1,846,900,901,847
CQUADX4,1057,1,847,901,902,848
CQUADX4,1058,1,848,902,903,849
CQUADX4,1059,1,849,903,904,850
CQUADX4,1060,1,850,904,905,851
CQUADX4,1061,1,851,905,906,852
CQUADX4,1062,1,852,906,907,853
CQUADX4,1063,1,853,907,908,854
CQUADX4,1064,1,854,908,909,855
CQUADX4,1065,1,855,909,910,856
CQUADX4,1066,1,856,910,911,857
CQUADX4,1067,1,857,911,912,858
CQUADX4,1068,1,858,912,913,859
CQUADX4,1069,1,859,913,914,860
CQUADX4,1070,1,860,914,915,861
CQUADX4,1071,1,861,915,916,862
CQUADX4,1072,1,862,916,917,863
CQUADX4,1073,1,863,917,918,864
CQUADX4,1074,1,864,918,919,865
CQUADX4,1075,1,865,919,920,866
CQUADX4,1076,1,867,921,922,868
CQUADX4,1077,1,868,922,923,869
CQUADX4,1078,1,869,923,924,870
CQUADX4,1079,1,870,924,925,871
CQUADX4,1080,1,871,925,926,872
CQUADX4,1081,1,872,926,927,873
CQUADX4,1082,1,873,927,928,874
CQUADX4,1083,1,874,928,929,875
CQUADX4,1084,1,875,929,930,876
CQUADX4,1085,1,876,930,931,877
CQUADX4,1086,1,877,931,932,878
CQUADX4,1087,1,878,932,933,879
CQUADX4,1088,1,879,933,934,880
CQUADX4,1089,1,880,934,935,881
CQUADX4,1090,1,881,935,936,882
CQUADX4,1091,1,882,936,937,883
CQUADX4,1092,1,883,937,938,884
CQUADX4,1093,1,884,938,939,885
CQUADX4,1094,1,885,939,940,886
CQUADX4,1095,1,886,940,941,887
CQUADX4,1096,1,887,941,942,888
CQUADX4,1097,1,888,942,943,889
CQUADX4,1098,1,889,943,944,890
CQUADX4,1099,1,890,944,945,891
CQUADX4,1100,1,891,945,946,892
CQUADX4,1101,1,892,946,947,893
CQUADX4,1102,1,893,947,948,894
CQUADX4,1103,1,894,948,949,895
CQUADX4,1104,1,895,949,950,896
CQUADX4,1105,1,896,950,951,897
CQUADX4,1106,1,897,951,952,898
CQUADX4,1107,1,898,952,953,899
CQUADX4,1108,1,899,953,954,900
CQUADX4,1109,1,900,954,955,901
CQUADX4,1110,1,901,955,956,902
CQUADX4,1111,1,902,956,957,903
CQUADX4,1112,1,903,957,958,904
CQUADX4,1113,1,904,958,959,905
CQUADX4,1114,1,905,959,960,906
CQUADX4,1115,1,906,960,961,907
CQUADX4,1116,1,907,961,962,908
CQUADX4,1117,1,908,962,963,909
CQUADX4,1118,1,909,963,964,910
CQUADX4,1119,1,910,964,965,911
CQUADX4,1120,1,911,965,966,912
CQUADX4,1121,1,912,966,967,913
CQUADX4,1122,1,913,967,968,914
CQUADX4,1123,1,914,968,969,915
CQUADX4,1124,1,915,969,970,916
CQUADX4,1125,1,916,970,971,917
CQUADX4,1126,1,917,971,972,918
CQUADX4,1127,1,918,972,973,919
CQUADX4,1128,1,919,973,974,920
CQUADX4,1129,1,921,975,976,922
CQUADX4,1130,1,922,976,977,923
CQUADX4,1131,1,923,977,978,924
CQUADX4,1132,1,924,978,979,925
CQUADX4,1133,1,925,979,980,926
CQUADX4,1134,1,926,980,981,927
CQUADX4,1135,1,927,981,982,928
CQUADX4,1136,1,928,982,983,929
CQUADX4,1137,1,929,983,984,930
CQUADX4,1138,1,930,984,985,931
CQUADX4,1139,1,931,985,986,932
CQUADX4,1140,1,932,986,987,933
CQUADX4,1141,1,933,987,988,934
CQUADX4,1142,1,934,988,989,935
CQUADX4,1143,1,935,989,990,936
CQUADX4,1144,1,936,990,991,937
CQUADX4,1145,1,937,991,992,938
CQUADX4,1146,1,938,992,993,939
CQUADX4,1147,1,939,993,994,940
CQUADX4,1148,1,940,994,995,941
CQUADX4,1149,1,941,995,996,942
CQUADX4,1150,1,942,996,997,943
CQUADX4,1151,1,943,997,998,944
CQUADX4,1152,1,944,998,999,945
CQUADX4,1153,1,945,999,1000,946
CQUADX4,1154,1,946,1000,1001,947
CQUADX4,1155,1,947,1001,1002,948
CQUADX4,1156,1,948,1002,1003,949
CQUADX4,1157,1,949,1003,1004,950
CQUADX4,1158,1,950,1004,1005,951
CQUADX4,1159,1,951,1005,1006,952
CQUADX4,1160,1,952,1006,1007,953
CQUADX4,1161,1,953,1007,1008,954
CQUADX4,1162,1,954,1008,1009,955
CQUADX4,1163,1,955,1009,1010,956
CQUADX4,1164,1,956,1010,1011,957
CQUADX4,1165,1,957,1011,1012,958
CQUADX4,1166,1,958,1012,1013,959
CQUADX4,1167,1,959,1013,1014,960
CQUADX4,1168,1,960,1014,1015,961
CQUADX4,1169,1,961,1015,1016,962
CQUADX4,1170,1,962,1016,1017,963
CQUADX4,1171,1,963,1017,1018,964
CQUADX4,1172,1,964,1018,1019,965
CQUADX4,1173,1,965,1019,1020,966
CQUADX4,1174,1,966,1020,1021,967
CQUADX4,1175,1,967,1021,1022,968
CQUADX4,1176,1,968,1022,1023,969
CQUADX4,1177,1,969,1023,1024,970
CQUADX4,1178,1,970,1024,1025,971
CQUADX4,1179,1,971,1025,1026,972
CQUADX4,1180,1,972,1026,1027,973
CQUADX4,1181,1,973,1027,1028,974
CQUADX4,1182,1,975,1029,1030,976
CQUADX4,1183,1,976,1030,1031,977
CQUADX4,1184,1,977,1031,1032,978
CQUADX4,1185,1,978,1032,1033,979
CQUADX4,1186,1,979,1033,1034,980
CQUADX4,1187,1,980,1034,1035,981
CQUADX4,1188,1,981,1035,1036,982
CQUADX4,1189,1,982,1036,1037,983
CQUADX4,1190,1,983,1037,1038,984
CQUADX4,1191,1,984,1038,1039,985
CQUADX4,1192,1,985,1039,1040,986
CQUADX4,1193,1,986,1040,1041,987
CQUADX4,1194,1,987,1041,1042,988
CQUADX4,1195,1,988,1042,1043,989
CQUADX4,1196,1,989,1043,1044,990
CQUADX4,1197,1,990,1044,1045,991
CQUADX4,1198,1,991,1045,1046,992
CQUADX4,1199,1,992,1046,1047,993
CQUADX4,1200,1,993,1047,1048,994
CQUADX4,1201,1,994,1048,1049,995
CQUADX4,1202,1,995,1049,1050,996
CQUADX4,1203,1,996,1050,1051,997
CQUADX4,1204,1,997,1051,1052,998
CQUADX4,1205,1,998,1052,1053,999
CQUADX4,1206,1,999,1053,1054,1000
CQUADX4,1207,1,1000,1054,1055,1001
CQUADX4,1208,1,1001,1055,1056,1002
CQUADX4,1209,1,1002,1056,1057,1003
CQUADX4,1210,1,1003,1057,1058,1004
CQUADX4,1211,1,1004,1058,1059,1005
CQUADX4,1212,1,1005,1059,1060,1006
CQUADX4,1213,1,1006,1060,1061,1007
CQUADX4,1214,1,1007,1061,1062,1008
CQUADX4,1215,1,1008,1062,1063,1009
CQUADX4,1216,1,1009,1063,1064,1010
CQUADX4,1217,1,1010,1064,1065,1011
CQUADX4,1218,1,1011,1065,1066,1012
CQUADX4,1219,1,1012,1066,1067,1013
CQUADX4,1220,1,1013,1067,1068,1014
CQUADX4,1221,1,1014,1068,1069,1015
CQUADX4,1222,1,1015,1069,1070,1016
CQUADX4,1223,1,1016,1070,1071,1017
CQUADX4,1224,1,1017,1071,1072,1018
CQUADX4,1225,1,1018,1072,1073,1019
CQUADX4,1226,1,1019,1073,1074,1020
CQUADX4,1227,1,1020,1074,1075,1021
CQUADX4,1228,1,1021,1075,1076,1022
CQUADX4,1229,1,1022,1076,1077,1023
CQUADX4,1230,1,1023,1077,1078,1024
CQUADX4,1231,1,1024,1078,1079,1025
CQUADX4,1232,1,1025,1079,1080,1026
CQUADX4,1233,1,1026,1080,1081,1027
CQUADX4,1234,1,1027,1081,1082,1028
CQUADX4,1235,1,1616,1529,813,1455
CQUADX4,1236,1,1529,1528,867,813
CQUADX4,1237,1,1528,1527,921,867
CQUADX4,1238,1,1527,1526,975,921
CQUADX4,1239,1,1526,1525,1029,975
CQUADX4,1240,1,1525,1615,1612,1029
CQUADX4,1241,1,1029,1612,1402,1030
CQUADX4,1242,1,1030,1402,1403,1031
CQUADX4,1243,1,1031,1403,1404,1032
CQUADX4,1244,1,1032,1404,1405,1033
CQUADX4,1245,1,1033,1405,1406,1034
CQUADX4,1246,1,1034,1406,1407,1035
CQUADX4,1247,1,1035,1407,1408,1036
CQUADX4,1248,1,1036,1408,1409,1037
CQUADX4,1249,1,1037,1409,1410,1038
CQUADX4,1250,1,1038,1410,1411,1039
CQUADX4,1251,1,1039,1411,1412,1040
CQUADX4,1252,1,1040,1412,1413,1041
CQUADX4,1253,1,1041,1413,1414,1042
CQUADX4,1254,1,1042,1414,1415,1043
CQUADX4,1255,1,1043,1415,1416,1044
CQUADX4,1256,1,1044,1416,1417,1045
CQUADX4,1257,1,1045,1417,1418,1046
CQUADX4,1258,1,1046,1418,1419,1047
CQUADX4,1259,1,1047,1419,1420,1048
CQUADX4,1260,1,1048,1420,1421,1049
CQUADX4,1261,1,1049,1421,1422,1050
CQUADX4,1262,1,1050,1422,1423,1051
CQUADX4,1263,1,1051,1423,1424,1052
CQUADX4,1264,1,1052,1424,1425,1053
CQUADX4,1265,1,1053,1425,1426,1054
CQUADX4,1266,1,1054,1426,1427,1055
CQUADX4,1267,1,1055,1427,1610,1056
CQUADX4,1268,1,1056,1610,1366,1057
CQUADX4,1269,1,1057,1366,1367,1058
CQUADX4,1270,1,1058,1367,1368,1059
CQUADX4,1271,1,1059,1368,1369,1060
CQUADX4,1272,1,1060,1369,1370,1061
CQUADX4,1273,1,1061,1370,1371,1062
CQUADX4,1274,1,1062,1371,1372,1063
CQUADX4,1275,1,1063,1372,1373,1064
CQUADX4,1276,1,1064,1373,1374,1065
CQUADX4,1277,1,1065,1374,1375,1066
CQUADX4,1278,1,1066,1375,1376,1067
CQUADX4,1279,1,1067,1376,1377,1068
CQUADX4,1280,1,1068,1377,1378,1069
CQUADX4,1281,1,1069,1378,1609,1070
CQUADX4,1282,1,1070,1609,1354,1071
CQUADX4,1283,1,1071,1354,1355,1072
CQUADX4,1284,1,1072,1355,1356,1073
CQUADX4,1285,1,1073,1356,1357,1074
CQUADX4,1286,1,1074,1357,1358,1075
CQUADX4,1287,1,1075,1358,1359,1076
CQUADX4,1288,1,1076,1359,1360,1077
CQUADX4,1289,1,1077,1360,1361,1078
CQUADX4,1290,1,1078,1361,1362,1079
CQUADX4,1291,1,1079,1362,1363,1080
CQUADX4,1292,1,1080,1363,1364,1081
CQUADX4,1293,1,1081,1364,1365,1082
CQUADX4,1294,1,1082,1365,1607,1349
CQUADX4,1295,1,1028,1082,1349,1350
CQUADX4,1296,1,974,1028,1350,1351
CQUADX4,1297,1,920,974,1351,1352
CQUADX4,1298,1,866,920,1352,1353
CQUADX4,1299,1,1379,866,1353,1608
CQUADX4,1300,1,1380,865,866,1379
CQUADX4,1301,1,1381,864,865,1380
CQUADX4,1302,1,1382,863,864,1381
CQUADX4,1303,1,1383,862,863,1382
CQUADX4,1304,1,1384,861,862,1383
CQUADX4,1305,1,1385,860,861,1384
CQUADX4,1306,1,1386,859,860,1385
CQUADX4,1307,1,1387,858,859,1386
CQUADX4,1308,1,1388,857,858,1387
CQUADX4,1309,1,1389,856,857,1388
CQUADX4,1310,1,1390,855,856,1389
CQUADX4,1311,1,1391,854,855,1390
CQUADX4,1312,1,1392,853,854,1391
CQUADX4,1313,1,1393,852,853,1392
CQUADX4,1314,1,1394,851,852,1393
CQUADX4,1315,1,1395,850,851,1394
CQUADX4,1316,1,1396,849,850,1395
CQUADX4,1317,1,1397,848,849,1396
CQUADX4,1318,1,1398,847,848,1397
CQUADX4,1319,1,1399,846,847,1398
CQUADX4,1320,1,1400,845,846,1399
CQUADX4,1321,1,1401,844,845,1400
CQUADX4,1322,1,1611,843,844,1401
CQUADX4,1323,1,1428,842,843,1611
CQUADX4,1324,1,1613,841,842,1428
CQUADX4,1325,1,1429,840,841,1613
CQUADX4,1326,1,1430,839,840,1429
CQUADX4,1327,1,1431,838,839,1430
CQUADX4,1328,1,1432,837,838,1431
CQUADX4,1329,1,1433,836,837,1432
CQUADX4,1330,1,1434,835,836,1433
CQUADX4,1331,1,1435,834,835,1434
CQUADX4,1332,1,1436,833,834,1435
CQUADX4,1333,1,1437,832,833,1436
CQUADX4,1334,1,1438,831,832,1437
CQUADX4,1335,1,1439,830,831,1438
CQUADX4,1336,1,1440,829,830,1439
CQUADX4,1337,1,1441,828,829,1440
CQUADX4,1338,1,1442,827,828,1441
CQUADX4,1339,1,1443,826,827,1442
CQUADX4,1340,1,1444,825,826,1443
CQUADX4,1341,1,1614,824,825,1444
CQUADX4,1342,1,1445,823,824,1614
CQUADX4,1343,1,1446,822,823,1445
CQUADX4,1344,1,1447,821,822,1446
CQUADX4,1345,1,1448,820,821,1447
CQUADX4,1346,1,1449,819,820,1448
CQUADX4,1347,1,1450,818,819,1449
CQUADX4,1348,1,1451,817,818,1450
CQUADX4,1349,1,1452,816,817,1451
CQUADX4,1350,1,1453,815,816,1452
CQUADX4,1351,1,1454,814,815,1453
CQUADX4,1352,1,1455,813,814,1454
SPC,1,1083,15,0.0
SPC,1,1084,15,0.0
SPC,1,1085,15,0.0
SPC,1,1086,15,0.0
SPC,1,1087,15,0.0
SPC,1,1349,15,0.0
SPC,1,1350,15,0.0
SPC,1,1351,15,0.0
SPC,1,1352,15,0.0
SPC,1,1353,15,0.0
SPC,1,1599,15,0.0
SPC,1,1600,15,0.0
SPC,1,1607,15,0.0
SPC,1,1608,15,0.0
SPC,2,459,3,0.0
SPC,2,602,3,0.0
SPCADD,100,1,2
