ECHO = NONE
SPC = 100
OUTPUT
BCRESULTS(TRACTION,FORCE,PLOT) = ALL
DISPLACEMENT(PLOT,REAL) = ALL
FORCE(PLOT,REAL,CENTER) = ALL
OLOAD(PLOT,REAL) = ALL
SPCFORCES(PLOT,REAL) = ALL
STRESS(PLOT,REAL,VONMISES,CENTER) = ALL
PARAM,BAILOUT,0
SUBCASE 1
  LABEL = Subcase - Static Loads 1
GRID,1,0,406.2868,0.0,3.024198,0
GRID,2,0,404.4852,0.0,3.010785,0
GRID,3,0,402.6836,0.0,2.997373,0
GRID,4,0,400.882,0.0,2.98396,0
GRID,5,0,399.0804,0.0,2.970548,0
GRID,6,0,397.2787,0.0,2.957135,0
GRID,7,0,395.4771,0.0,2.943723,0
GRID,8,0,393.6755,0.0,2.93031,0
GRID,9,0,391.8739,0.0,2.916898,0
GRID,10,0,390.0723,0.0,2.903486,0
GRID,11,0,388.2706,0.0,2.890073,0
GRID,12,0,386.469,0.0,2.876661,0
GRID,13,0,384.6674,0.0,2.863248,0
GRID,14,0,382.8658,0.0,2.849836,0
GRID,15,0,381.0642,0.0,2.836423,0
GRID,16,0,379.2626,0.0,2.823011,0
GRID,17,0,377.4609,0.0,2.809598,0
GRID,18,0,375.6593,0.0,2.796186,0
GRID,19,0,373.8577,0.0,2.782773,0
GRID,20,0,372.0561,0.0,2.769361,0
GRID,21,0,370.2545,0.0,2.755949,0
GRID,22,0,368.4528,0.0,2.742536,0
GRID,23,0,366.6512,0.0,2.729124,0
GRID,24,0,364.8496,0.0,2.715711,0
GRID,25,0,363.048,0.0,2.702299,0
GRID,26,0,361.2464,0.0,2.688886,0
GRID,27,0,359.4448,0.0,2.675474,0
GRID,28,0,357.6431,0.0,2.662061,0
GRID,29,0,355.8415,0.0,2.648649,0
GRID,30,0,354.0399,0.0,2.635236,0
GRID,31,0,352.2383,0.0,2.621824,0
GRID,32,0,350.4367,0.0,2.608412,0
GRID,33,0,348.6351,0.0,2.594999,0
GRID,34,0,346.8334,0.0,2.581587,0
GRID,35,0,345.0318,0.0,2.568174,0
GRID,36,0,343.2302,0.0,2.554762,0
GRID,37,0,341.4286,0.0,2.541349,0
GRID,38,0,339.627,0.0,2.527937,0
GRID,39,0,337.8253,0.0,2.514524,0
GRID,40,0,336.0237,0.0,2.501112,0
GRID,41,0,334.2221,0.0,2.487699,0
GRID,42,0,332.4205,0.0,2.474287,0
GRID,43,0,330.6189,0.0,2.460875,0
GRID,44,0,328.8173,0.0,2.447462,0
GRID,45,0,327.0156,0.0,2.43405,0
GRID,46,0,325.214,0.0,2.420637,0
GRID,47,0,323.4124,0.0,2.407225,0
GRID,48,0,321.6108,0.0,2.393812,0
GRID,49,0,319.8092,0.0,2.3804,0
GRID,50,0,318.0076,0.0,2.366987,0
GRID,51,0,316.2059,0.0,2.353575,0
GRID,52,0,314.4043,0.0,2.340163,0
GRID,53,0,312.6027,0.0,2.32675,0
GRID,54,0,310.8011,0.0,2.313338,0
GRID,55,0,308.9995,0.0,2.299925,0
GRID,56,0,307.1978,0.0,2.286513,0
GRID,57,0,305.3962,0.0,2.2731,0
GRID,58,0,303.5946,0.0,2.259688,0
GRID,59,0,301.793,0.0,2.246275,0
GRID,60,0,406.2529,0.0,6.048228,0
GRID,61,0,404.4514,0.0,6.021404,0
GRID,62,0,402.65,0.0,5.99458,0
GRID,63,0,400.8485,0.0,5.967756,0
GRID,64,0,399.047,0.0,5.940932,0
GRID,65,0,397.2456,0.0,5.914108,0
GRID,66,0,395.4441,0.0,5.887283,0
GRID,67,0,393.6426,0.0,5.860459,0
GRID,68,0,391.8411,0.0,5.833635,0
GRID,69,0,390.0397,0.0,5.806811,0
GRID,70,0,388.2382,0.0,5.779987,0
GRID,71,0,386.4367,0.0,5.753163,0
GRID,72,0,384.6353,0.0,5.726339,0
GRID,73,0,382.8338,0.0,5.699514,0
GRID,74,0,381.0323,0.0,5.67269,0
GRID,75,0,379.2309,0.0,5.645866,0
GRID,76,0,377.4294,0.0,5.619042,0
GRID,77,0,375.6279,0.0,5.592218,0
GRID,78,0,373.8265,0.0,5.565394,0
GRID,79,0,372.025,0.0,5.538569,0
GRID,80,0,370.2235,0.0,5.511745,0
GRID,81,0,368.4221,0.0,5.484921,0
GRID,82,0,366.6206,0.0,5.458097,0
GRID,83,0,364.8191,0.0,5.431273,0
GRID,84,0,363.0176,0.0,5.404449,0
GRID,85,0,361.2162,0.0,5.377624,0
GRID,86,0,359.4147,0.0,5.3508,0
GRID,87,0,357.6132,0.0,5.323976,0
GRID,88,0,355.8118,0.0,5.297152,0
GRID,89,0,354.0103,0.0,5.270328,0
GRID,90,0,352.2088,0.0,5.243504,0
GRID,91,0,350.4074,0.0,5.216679,0
GRID,92,0,348.6059,0.0,5.189855,0
GRID,93,0,346.8044,0.0,5.163031,0
GRID,94,0,345.003,0.0,5.136207,0
GRID,95,0,343.2015,0.0,5.109383,0
GRID,96,0,341.4,0.0,5.082559,0
GRID,97,0,339.5986,0.0,5.055735,0
GRID,98,0,337.7971,0.0,5.02891,0
GRID,99,0,335.9956,0.0,5.002086,0
GRID,100,0,334.1941,0.0,4.975262,0
GRID,101,0,332.3927,0.0,4.948438,0
GRID,102,0,330.5912,0.0,4.921614,0
GRID,103,0,328.7897,0.0,4.89479,0
GRID,104,0,326.9883,0.0,4.867965,0
GRID,105,0,325.1868,0.0,4.841141,0
GRID,106,0,323.3853,0.0,4.814317,0
GRID,107,0,321.5839,0.0,4.787493,0
GRID,108,0,319.7824,0.0,4.760669,0
GRID,109,0,317.9809,0.0,4.733845,0
GRID,110,0,316.1795,0.0,4.70702,0
GRID,111,0,314.378,0.0,4.680196,0
GRID,112,0,312.5765,0.0,4.653372,0
GRID,113,0,310.7751,0.0,4.626548,0
GRID,114,0,308.9736,0.0,4.599724,0
GRID,115,0,307.1721,0.0,4.5729,0
GRID,116,0,305.3706,0.0,4.546075,0
GRID,117,0,303.5692,0.0,4.519251,0
GRID,118,0,301.7677,0.0,4.492427,0
GRID,119,0,406.1966,0.0,9.071925,0
GRID,120,0,404.3953,0.0,9.03169,0
GRID,121,0,402.5941,0.0,8.991456,0
GRID,122,0,400.7929,0.0,8.951222,0
GRID,123,0,398.9917,0.0,8.910987,0
GRID,124,0,397.1905,0.0,8.870753,0
GRID,125,0,395.3892,0.0,8.830519,0
GRID,126,0,393.588,0.0,8.790284,0
GRID,127,0,391.7868,0.0,8.75005,0
GRID,128,0,389.9856,0.0,8.709815,0
GRID,129,0,388.1844,0.0,8.669581,0
GRID,130,0,386.3831,0.0,8.629347,0
GRID,131,0,384.5819,0.0,8.589112,0
GRID,132,0,382.7807,0.0,8.548878,0
GRID,133,0,380.9795,0.0,8.508644,0
GRID,134,0,379.1783,0.0,8.468409,0
GRID,135,0,377.377,0.0,8.428175,0
GRID,136,0,375.5758,0.0,8.38794,0
GRID,137,0,373.7746,0.0,8.347706,0
GRID,138,0,371.9734,0.0,8.307472,0
GRID,139,0,370.1722,0.0,8.267237,0
GRID,140,0,368.3709,0.0,8.227003,0
GRID,141,0,366.5697,0.0,8.186769,0
GRID,142,0,364.7685,0.0,8.146534,0
GRID,143,0,362.9673,0.0,8.1063,0
GRID,144,0,361.1661,0.0,8.066065,0
GRID,145,0,359.3648,0.0,8.025831,0
GRID,146,0,357.5636,0.0,7.985597,0
GRID,147,0,355.7624,0.0,7.945362,0
GRID,148,0,353.9612,0.0,7.905128,0
GRID,149,0,352.16,0.0,7.864894,0
GRID,150,0,350.3587,0.0,7.824659,0
GRID,151,0,348.5575,0.0,7.784425,0
GRID,152,0,346.7563,0.0,7.74419,0
GRID,153,0,344.9551,0.0,7.703956,0
GRID,154,0,343.1539,0.0,7.663722,0
GRID,155,0,341.3526,0.0,7.623487,0
GRID,156,0,339.5514,0.0,7.583253,0
GRID,157,0,337.7502,0.0,7.543018,0
GRID,158,0,335.949,0.0,7.502784,0
GRID,159,0,334.1478,0.0,7.46255,0
GRID,160,0,332.3465,0.0,7.422315,0
GRID,161,0,330.5453,0.0,7.382081,0
GRID,162,0,328.7441,0.0,7.341847,0
GRID,163,0,326.9429,0.0,7.301612,0
GRID,164,0,325.1417,0.0,7.261378,0
GRID,165,0,323.3404,0.0,7.221143,0
GRID,166,0,321.5392,0.0,7.180909,0
GRID,167,0,319.738,0.0,7.140675,0
GRID,168,0,317.9368,0.0,7.10044,0
GRID,169,0,316.1356,0.0,7.060206,0
GRID,170,0,314.3343,0.0,7.019972,0
GRID,171,0,312.5331,0.0,6.979737,0
GRID,172,0,310.7319,0.0,6.939503,0
GRID,173,0,308.9307,0.0,6.899268,0
GRID,174,0,307.1295,0.0,6.859034,0
GRID,175,0,305.3282,0.0,6.8188,0
GRID,176,0,303.527,0.0,6.778565,0
GRID,177,0,301.7258,0.0,6.738331,0
GRID,178,0,406.1178,0.0,12.09512,0
GRID,179,0,404.3169,0.0,12.04148,0
GRID,180,0,402.516,0.0,11.98783,0
GRID,181,0,400.7152,0.0,11.93419,0
GRID,182,0,398.9143,0.0,11.88055,0
GRID,183,0,397.1134,0.0,11.82691,0
GRID,184,0,395.3125,0.0,11.77327,0
GRID,185,0,393.5117,0.0,11.71962,0
GRID,186,0,391.7108,0.0,11.66598,0
GRID,187,0,389.9099,0.0,11.61234,0
GRID,188,0,388.1091,0.0,11.5587,0
GRID,189,0,386.3082,0.0,11.50505,0
GRID,190,0,384.5073,0.0,11.45141,0
GRID,191,0,382.7065,0.0,11.39777,0
GRID,192,0,380.9056,0.0,11.34413,0
GRID,193,0,379.1047,0.0,11.29048,0
GRID,194,0,377.3038,0.0,11.23684,0
GRID,195,0,375.503,0.0,11.1832,0
GRID,196,0,373.7021,0.0,11.12956,0
GRID,197,0,371.9012,0.0,11.07591,0
GRID,198,0,370.1004,0.0,11.02227,0
GRID,199,0,368.2995,0.0,10.96863,0
GRID,200,0,366.4986,0.0,10.91499,0
GRID,201,0,364.6977,0.0,10.86134,0
GRID,202,0,362.8969,0.0,10.8077,0
GRID,203,0,361.096,0.0,10.75406,0
GRID,204,0,359.2951,0.0,10.70042,0
GRID,205,0,357.4943,0.0,10.64678,0
GRID,206,0,355.6934,0.0,10.59313,0
GRID,207,0,353.8925,0.0,10.53949,0
GRID,208,0,352.0916,0.0,10.48585,0
GRID,209,0,350.2908,0.0,10.43221,0
GRID,210,0,348.4899,0.0,10.37856,0
GRID,211,0,346.689,0.0,10.32492,0
GRID,212,0,344.8882,0.0,10.27128,0
GRID,213,0,343.0873,0.0,10.21764,0
GRID,214,0,341.2864,0.0,10.16399,0
GRID,215,0,339.4855,0.0,10.11035,0
GRID,216,0,337.6847,0.0,10.05671,0
GRID,217,0,335.8838,0.0,10.00307,0
GRID,218,0,334.0829,0.0,9.949425,0
GRID,219,0,332.2821,0.0,9.895782,0
GRID,220,0,330.4812,0.0,9.84214,0
GRID,221,0,328.6803,0.0,9.788498,0
GRID,222,0,326.8794,0.0,9.734855,0
GRID,223,0,325.0786,0.0,9.681213,0
GRID,224,0,323.2777,0.0,9.62757,0
GRID,225,0,321.4768,0.0,9.573928,0
GRID,226,0,319.676,0.0,9.520286,0
GRID,227,0,317.8751,0.0,9.466643,0
GRID,228,0,316.0742,0.0,9.413001,0
GRID,229,0,314.2733,0.0,9.359359,0
GRID,230,0,312.4725,0.0,9.305716,0
GRID,231,0,310.6716,0.0,9.252074,0
GRID,232,0,308.8707,0.0,9.198432,0
GRID,233,0,307.0699,0.0,9.144789,0
GRID,234,0,305.269,0.0,9.091147,0
GRID,235,0,303.4681,0.0,9.037505,0
GRID,236,0,301.6672,0.0,8.983862,0
GRID,237,0,406.0166,0.0,15.11764,0
GRID,238,0,404.2161,0.0,15.0506,0
GRID,239,0,402.4157,0.0,14.98355,0
GRID,240,0,400.6153,0.0,14.9165,0
GRID,241,0,398.8149,0.0,14.84945,0
GRID,242,0,397.0144,0.0,14.78241,0
GRID,243,0,395.214,0.0,14.71536,0
GRID,244,0,393.4136,0.0,14.64831,0
GRID,245,0,391.6132,0.0,14.58126,0
GRID,246,0,389.8128,0.0,14.51422,0
GRID,247,0,388.0123,0.0,14.44717,0
GRID,248,0,386.2119,0.0,14.38012,0
GRID,249,0,384.4115,0.0,14.31308,0
GRID,250,0,382.6111,0.0,14.24603,0
GRID,251,0,380.8106,0.0,14.17898,0
GRID,252,0,379.0102,0.0,14.11193,0
GRID,253,0,377.2098,0.0,14.04489,0
GRID,254,0,375.4094,0.0,13.97784,0
GRID,255,0,373.6089,0.0,13.91079,0
GRID,256,0,371.8085,0.0,13.84374,0
GRID,257,0,370.0081,0.0,13.7767,0
GRID,258,0,368.2077,0.0,13.70965,0
GRID,259,0,366.4073,0.0,13.6426,0
GRID,260,0,364.6068,0.0,13.57555,0
GRID,261,0,362.8064,0.0,13.50851,0
GRID,262,0,361.006,0.0,13.44146,0
GRID,263,0,359.2056,0.0,13.37441,0
GRID,264,0,357.4051,0.0,13.30736,0
GRID,265,0,355.6047,0.0,13.24032,0
GRID,266,0,353.8043,0.0,13.17327,0
GRID,267,0,352.0039,0.0,13.10622,0
GRID,268,0,350.2035,0.0,13.03918,0
GRID,269,0,348.403,0.0,12.97213,0
GRID,270,0,346.6026,0.0,12.90508,0
GRID,271,0,344.8022,0.0,12.83803,0
GRID,272,0,343.0018,0.0,12.77099,0
GRID,273,0,341.2013,0.0,12.70394,0
GRID,274,0,339.4009,0.0,12.63689,0
GRID,275,0,337.6005,0.0,12.56984,0
GRID,276,0,335.8001,0.0,12.5028,0
GRID,277,0,333.9997,0.0,12.43575,0
GRID,278,0,332.1992,0.0,12.3687,0
GRID,279,0,330.3988,0.0,12.30165,0
GRID,280,0,328.5984,0.0,12.23461,0
GRID,281,0,326.798,0.0,12.16756,0
GRID,282,0,324.9975,0.0,12.10051,0
GRID,283,0,323.1971,0.0,12.03346,0
GRID,284,0,321.3967,0.0,11.96642,0
GRID,285,0,319.5963,0.0,11.89937,0
GRID,286,0,317.7959,0.0,11.83232,0
GRID,287,0,315.9954,0.0,11.76528,0
GRID,288,0,314.195,0.0,11.69823,0
GRID,289,0,312.3946,0.0,11.63118,0
GRID,290,0,310.5942,0.0,11.56413,0
GRID,291,0,308.7937,0.0,11.49709,0
GRID,292,0,306.9933,0.0,11.43004,0
GRID,293,0,305.1929,0.0,11.36299,0
GRID,294,0,303.3925,0.0,11.29594,0
GRID,295,0,301.5921,0.0,11.2289,0
GRID,296,0,405.8929,0.0,18.13933,0
GRID,297,0,404.093,0.0,18.05888,0
GRID,298,0,402.2931,0.0,17.97843,0
GRID,299,0,400.4933,0.0,17.89799,0
GRID,300,0,398.6934,0.0,17.81754,0
GRID,301,0,396.8935,0.0,17.73709,0
GRID,302,0,395.0936,0.0,17.65664,0
GRID,303,0,393.2938,0.0,17.57619,0
GRID,304,0,391.4939,0.0,17.49574,0
GRID,305,0,389.694,0.0,17.41529,0
GRID,306,0,387.8941,0.0,17.33484,0
GRID,307,0,386.0943,0.0,17.2544,0
GRID,308,0,384.2944,0.0,17.17395,0
GRID,309,0,382.4945,0.0,17.0935,0
GRID,310,0,380.6946,0.0,17.01305,0
GRID,311,0,378.8948,0.0,16.9326,0
GRID,312,0,377.0949,0.0,16.85215,0
GRID,313,0,375.295,0.0,16.7717,0
GRID,314,0,373.4951,0.0,16.69126,0
GRID,315,0,371.6953,0.0,16.61081,0
GRID,316,0,369.8954,0.0,16.53036,0
GRID,317,0,368.0955,0.0,16.44991,0
GRID,318,0,366.2957,0.0,16.36946,0
GRID,319,0,364.4958,0.0,16.28901,0
GRID,320,0,362.6959,0.0,16.20856,0
GRID,321,0,360.896,0.0,16.12811,0
GRID,322,0,359.0962,0.0,16.04767,0
GRID,323,0,357.2963,0.0,15.96722,0
GRID,324,0,355.4964,0.0,15.88677,0
GRID,325,0,353.6965,0.0,15.80632,0
GRID,326,0,351.8967,0.0,15.72587,0
GRID,327,0,350.0968,0.0,15.64542,0
GRID,328,0,348.2969,0.0,15.56497,0
GRID,329,0,346.497,0.0,15.48453,0
GRID,330,0,344.6972,0.0,15.40408,0
GRID,331,0,342.8973,0.0,15.32363,0
GRID,332,0,341.0974,0.0,15.24318,0
GRID,333,0,339.2975,0.0,15.16273,0
GRID,334,0,337.4977,0.0,15.08228,0
GRID,335,0,335.6978,0.0,15.00183,0
GRID,336,0,333.8979,0.0,14.92138,0
GRID,337,0,332.0981,0.0,14.84094,0
GRID,338,0,330.2982,0.0,14.76049,0
GRID,339,0,328.4983,0.0,14.68004,0
GRID,340,0,326.6984,0.0,14.59959,0
GRID,341,0,324.8986,0.0,14.51914,0
GRID,342,0,323.0987,0.0,14.43869,0
GRID,343,0,321.2988,0.0,14.35824,0
GRID,344,0,319.4989,0.0,14.2778,0
GRID,345,0,317.6991,0.0,14.19735,0
GRID,346,0,315.8992,0.0,14.1169,0
GRID,347,0,314.0993,0.0,14.03645,0
GRID,348,0,312.2994,0.0,13.956,0
GRID,349,0,310.4996,0.0,13.87555,0
GRID,350,0,308.6997,0.0,13.7951,0
GRID,351,0,306.8998,0.0,13.71465,0
GRID,352,0,305.0999,0.0,13.63421,0
GRID,353,0,303.3001,0.0,13.55376,0
GRID,354,0,301.5002,0.0,13.47331,0
GRID,355,0,405.7467,0.0,21.16001,0
GRID,356,0,403.9475,0.0,21.06617,0
GRID,357,0,402.1483,0.0,20.97232,0
GRID,358,0,400.3491,0.0,20.87848,0
GRID,359,0,398.5498,0.0,20.78463,0
GRID,360,0,396.7506,0.0,20.69079,0
GRID,361,0,394.9514,0.0,20.59694,0
GRID,362,0,393.1522,0.0,20.50309,0
GRID,363,0,391.3529,0.0,20.40925,0
GRID,364,0,389.5537,0.0,20.3154,0
GRID,365,0,387.7545,0.0,20.22156,0
GRID,366,0,385.9553,0.0,20.12771,0
GRID,367,0,384.156,0.0,20.03387,0
GRID,368,0,382.3568,0.0,19.94002,0
GRID,369,0,380.5576,0.0,19.84618,0
GRID,370,0,378.7584,0.0,19.75233,0
GRID,371,0,376.9591,0.0,19.65849,0
GRID,372,0,375.1599,0.0,19.56464,0
GRID,373,0,373.3607,0.0,19.47079,0
GRID,374,0,371.5615,0.0,19.37695,0
GRID,375,0,369.7622,0.0,19.2831,0
GRID,376,0,367.963,0.0,19.18926,0
GRID,377,0,366.1638,0.0,19.09541,0
GRID,378,0,364.3646,0.0,19.00157,0
GRID,379,0,362.5653,0.0,18.90772,0
GRID,380,0,360.7661,0.0,18.81388,0
GRID,381,0,358.9669,0.0,18.72003,0
GRID,382,0,357.1677,0.0,18.62619,0
GRID,383,0,355.3684,0.0,18.53234,0
GRID,384,0,353.5692,0.0,18.43849,0
GRID,385,0,351.77,0.0,18.34465,0
GRID,386,0,349.9708,0.0,18.2508,0
GRID,387,0,348.1715,0.0,18.15696,0
GRID,388,0,346.3723,0.0,18.06311,0
GRID,389,0,344.5731,0.0,17.96927,0
GRID,390,0,342.7739,0.0,17.87542,0
GRID,391,0,340.9746,0.0,17.78158,0
GRID,392,0,339.1754,0.0,17.68773,0
GRID,393,0,337.3762,0.0,17.59388,0
GRID,394,0,335.577,0.0,17.50004,0
GRID,395,0,333.7777,0.0,17.40619,0
GRID,396,0,331.9785,0.0,17.31235,0
GRID,397,0,330.1793,0.0,17.2185,0
GRID,398,0,328.3801,0.0,17.12466,0
GRID,399,0,326.5808,0.0,17.03081,0
GRID,400,0,324.7816,0.0,16.93697,0
GRID,401,0,322.9824,0.0,16.84312,0
GRID,402,0,321.1832,0.0,16.74928,0
GRID,403,0,319.3839,0.0,16.65543,0
GRID,404,0,317.5847,0.0,16.56158,0
GRID,405,0,315.7855,0.0,16.46774,0
GRID,406,0,313.9863,0.0,16.37389,0
GRID,407,0,312.187,0.0,16.28005,0
GRID,408,0,310.3878,0.0,16.1862,0
GRID,409,0,308.5886,0.0,16.09236,0
GRID,410,0,306.7894,0.0,15.99851,0
GRID,411,0,304.9901,0.0,15.90467,0
GRID,412,0,303.1909,0.0,15.81082,0
GRID,413,0,301.3917,0.0,15.71697,0
GRID,414,0,405.5781,0.0,24.17952,0
GRID,415,0,403.7796,0.0,24.07229,0
GRID,416,0,401.9811,0.0,23.96505,0
GRID,417,0,400.1827,0.0,23.85781,0
GRID,418,0,398.3842,0.0,23.75057,0
GRID,419,0,396.5857,0.0,23.64334,0
GRID,420,0,394.7872,0.0,23.5361,0
GRID,421,0,392.9888,0.0,23.42886,0
GRID,422,0,391.1903,0.0,23.32163,0
GRID,423,0,389.3918,0.0,23.21439,0
GRID,424,0,387.5933,0.0,23.10715,0
GRID,425,0,385.7949,0.0,22.99991,0
GRID,426,0,383.9964,0.0,22.89268,0
GRID,427,0,382.1979,0.0,22.78544,0
GRID,428,0,380.3994,0.0,22.6782,0
GRID,429,0,378.601,0.0,22.57097,0
GRID,430,0,376.8025,0.0,22.46373,0
GRID,431,0,375.004,0.0,22.35649,0
GRID,432,0,373.2055,0.0,22.24925,0
GRID,433,0,371.407,0.0,22.14202,0
GRID,434,0,369.6086,0.0,22.03478,0
GRID,435,0,367.8101,0.0,21.92754,0
GRID,436,0,366.0116,0.0,21.82031,0
GRID,437,0,364.2131,0.0,21.71307,0
GRID,438,0,362.4147,0.0,21.60583,0
GRID,439,0,360.6162,0.0,21.4986,0
GRID,440,0,358.8177,0.0,21.39136,0
GRID,441,0,357.0192,0.0,21.28412,0
GRID,442,0,355.2208,0.0,21.17688,0
GRID,443,0,353.4223,0.0,21.06965,0
GRID,444,0,351.6238,0.0,20.96241,0
GRID,445,0,349.8253,0.0,20.85517,0
GRID,446,0,348.0269,0.0,20.74794,0
GRID,447,0,346.2284,0.0,20.6407,0
GRID,448,0,344.4299,0.0,20.53346,0
GRID,449,0,342.6314,0.0,20.42622,0
GRID,450,0,340.833,0.0,20.31899,0
GRID,451,0,339.0345,0.0,20.21175,0
GRID,452,0,337.236,0.0,20.10451,0
GRID,453,0,335.4375,0.0,19.99728,0
GRID,454,0,333.639,0.0,19.89004,0
GRID,455,0,331.8406,0.0,19.7828,0
GRID,456,0,330.0421,0.0,19.67556,0
GRID,457,0,328.2436,0.0,19.56833,0
GRID,458,0,326.4451,0.0,19.46109,0
GRID,459,0,324.6467,0.0,19.35385,0
GRID,460,0,322.8482,0.0,19.24662,0
GRID,461,0,321.0497,0.0,19.13938,0
GRID,462,0,319.2512,0.0,19.03214,0
GRID,463,0,317.4528,0.0,18.9249,0
GRID,464,0,315.6543,0.0,18.81767,0
GRID,465,0,313.8558,0.0,18.71043,0
GRID,466,0,312.0573,0.0,18.60319,0
GRID,467,0,310.2589,0.0,18.49596,0
GRID,468,0,308.4604,0.0,18.38872,0
GRID,469,0,306.6619,0.0,18.28148,0
GRID,470,0,304.8634,0.0,18.17424,0
GRID,471,0,303.065,0.0,18.06701,0
GRID,472,0,301.2665,0.0,17.95977,0
GRID,473,0,405.387,0.0,27.19769,0
GRID,474,0,403.5893,0.0,27.07707,0
GRID,475,0,401.7917,0.0,26.95645,0
GRID,476,0,399.9941,0.0,26.83582,0
GRID,477,0,398.1965,0.0,26.7152,0
GRID,478,0,396.3988,0.0,26.59458,0
GRID,479,0,394.6012,0.0,26.47396,0
GRID,480,0,392.8036,0.0,26.35333,0
GRID,481,0,391.0059,0.0,26.23271,0
GRID,482,0,389.2083,0.0,26.11209,0
GRID,483,0,387.4107,0.0,25.99146,0
GRID,484,0,385.6131,0.0,25.87084,0
GRID,485,0,383.8154,0.0,25.75022,0
GRID,486,0,382.0178,0.0,25.6296,0
GRID,487,0,380.2202,0.0,25.50897,0
GRID,488,0,378.4226,0.0,25.38835,0
GRID,489,0,376.6249,0.0,25.26773,0
GRID,490,0,374.8273,0.0,25.1471,0
GRID,491,0,373.0297,0.0,25.02648,0
GRID,492,0,371.2321,0.0,24.90586,0
GRID,493,0,369.4344,0.0,24.78524,0
GRID,494,0,367.6368,0.0,24.66461,0
GRID,495,0,365.8392,0.0,24.54399,0
GRID,496,0,364.0415,0.0,24.42337,0
GRID,497,0,362.2439,0.0,24.30275,0
GRID,498,0,360.4463,0.0,24.18212,0
GRID,499,0,358.6487,0.0,24.0615,0
GRID,500,0,356.851,0.0,23.94088,0
GRID,501,0,355.0534,0.0,23.82025,0
GRID,502,0,353.2558,0.0,23.69963,0
GRID,503,0,351.4582,0.0,23.57901,0
GRID,504,0,349.6605,0.0,23.45839,0
GRID,505,0,347.8629,0.0,23.33776,0
GRID,506,0,346.0653,0.0,23.21714,0
GRID,507,0,344.2676,0.0,23.09652,0
GRID,508,0,342.47,0.0,22.97589,0
GRID,509,0,340.6724,0.0,22.85527,0
GRID,510,0,338.8748,0.0,22.73465,0
GRID,511,0,337.0771,0.0,22.61403,0
GRID,512,0,335.2795,0.0,22.4934,0
GRID,513,0,333.4819,0.0,22.37278,0
GRID,514,0,331.6843,0.0,22.25216,0
GRID,515,0,329.8866,0.0,22.13154,0
GRID,516,0,328.089,0.0,22.01091,0
GRID,517,0,326.2914,0.0,21.89029,0
GRID,518,0,324.4937,0.0,21.76967,0
GRID,519,0,322.6961,0.0,21.64904,0
GRID,520,0,320.8985,0.0,21.52842,0
GRID,521,0,319.1009,0.0,21.4078,0
GRID,522,0,317.3032,0.0,21.28718,0
GRID,523,0,315.5056,0.0,21.16655,0
GRID,524,0,313.708,0.0,21.04593,0
GRID,525,0,311.9104,0.0,20.92531,0
GRID,526,0,310.1127,0.0,20.80468,0
GRID,527,0,308.3151,0.0,20.68406,0
GRID,528,0,306.5175,0.0,20.56344,0
GRID,529,0,304.7198,0.0,20.44282,0
GRID,530,0,302.9222,0.0,20.32219,0
GRID,531,0,301.1246,0.0,20.20157,0
GRID,532,0,405.1733,0.0,30.21435,0
GRID,533,0,403.3767,0.0,30.08035,0
GRID,534,0,401.58,0.0,29.94635,0
GRID,535,0,399.7833,0.0,29.81235,0
GRID,536,0,397.9866,0.0,29.67835,0
GRID,537,0,396.1899,0.0,29.54434,0
GRID,538,0,394.3933,0.0,29.41034,0
GRID,539,0,392.5966,0.0,29.27634,0
GRID,540,0,390.7999,0.0,29.14234,0
GRID,541,0,389.0032,0.0,29.00834,0
GRID,542,0,387.2066,0.0,28.87434,0
GRID,543,0,385.4099,0.0,28.74033,0
GRID,544,0,383.6132,0.0,28.60633,0
GRID,545,0,381.8165,0.0,28.47233,0
GRID,546,0,380.0198,0.0,28.33833,0
GRID,547,0,378.2232,0.0,28.20433,0
GRID,548,0,376.4265,0.0,28.07033,0
GRID,549,0,374.6298,0.0,27.93632,0
GRID,550,0,372.8331,0.0,27.80232,0
GRID,551,0,371.0364,0.0,27.66832,0
GRID,552,0,369.2398,0.0,27.53432,0
GRID,553,0,367.4431,0.0,27.40032,0
GRID,554,0,365.6464,0.0,27.26631,0
GRID,555,0,363.8497,0.0,27.13231,0
GRID,556,0,362.0531,0.0,26.99831,0
GRID,557,0,360.2564,0.0,26.86431,0
GRID,558,0,358.4597,0.0,26.73031,0
GRID,559,0,356.663,0.0,26.59631,0
GRID,560,0,354.8663,0.0,26.4623,0
GRID,561,0,353.0697,0.0,26.3283,0
GRID,562,0,351.273,0.0,26.1943,0
GRID,563,0,349.4763,0.0,26.0603,0
GRID,564,0,347.6796,0.0,25.9263,0
GRID,565,0,345.883,0.0,25.7923,0
GRID,566,0,344.0863,0.0,25.65829,0
GRID,567,0,342.2896,0.0,25.52429,0
GRID,568,0,340.4929,0.0,25.39029,0
GRID,569,0,338.6962,0.0,25.25629,0
GRID,570,0,336.8996,0.0,25.12229,0
GRID,571,0,335.1029,0.0,24.98828,0
GRID,572,0,333.3062,0.0,24.85428,0
GRID,573,0,331.5095,0.0,24.72028,0
GRID,574,0,329.7129,0.0,24.58628,0
GRID,575,0,327.9162,0.0,24.45228,0
GRID,576,0,326.1195,0.0,24.31828,0
GRID,577,0,324.3228,0.0,24.18427,0
GRID,578,0,322.5261,0.0,24.05027,0
GRID,579,0,320.7295,0.0,23.91627,0
GRID,580,0,318.9328,0.0,23.78227,0
GRID,581,0,317.1361,0.0,23.64827,0
GRID,582,0,315.3394,0.0,23.51427,0
GRID,583,0,313.5427,0.0,23.38026,0
GRID,584,0,311.7461,0.0,23.24626,0
GRID,585,0,309.9494,0.0,23.11226,0
GRID,586,0,308.1527,0.0,22.97826,0
GRID,587,0,306.356,0.0,22.84426,0
GRID,588,0,304.5594,0.0,22.71025,0
GRID,589,0,302.7627,0.0,22.57625,0
GRID,590,0,300.966,0.0,22.44225,0
GRID,591,0,404.9372,0.0,33.22934,0
GRID,592,0,403.1416,0.0,33.08197,0
GRID,593,0,401.346,0.0,32.93459,0
GRID,594,0,399.5503,0.0,32.78722,0
GRID,595,0,397.7547,0.0,32.63985,0
GRID,596,0,395.9591,0.0,32.49247,0
GRID,597,0,394.1634,0.0,32.3451,0
GRID,598,0,392.3678,0.0,32.19773,0
GRID,599,0,390.5722,0.0,32.05035,0
GRID,600,0,388.7765,0.0,31.90298,0
GRID,601,0,386.9809,0.0,31.75561,0
GRID,602,0,385.1853,0.0,31.60823,0
GRID,603,0,383.3897,0.0,31.46086,0
GRID,604,0,381.594,0.0,31.31349,0
GRID,605,0,379.7984,0.0,31.16611,0
GRID,606,0,378.0028,0.0,31.01874,0
GRID,607,0,376.2071,0.0,30.87137,0
GRID,608,0,374.4115,0.0,30.72399,0
GRID,609,0,372.6159,0.0,30.57662,0
GRID,610,0,370.8203,0.0,30.42925,0
GRID,611,0,369.0246,0.0,30.28187,0
GRID,612,0,367.229,0.0,30.1345,0
GRID,613,0,365.4334,0.0,29.98713,0
GRID,614,0,363.6377,0.0,29.83975,0
GRID,615,0,361.8421,0.0,29.69238,0
GRID,616,0,360.0465,0.0,29.54501,0
GRID,617,0,358.2508,0.0,29.39763,0
GRID,618,0,356.4552,0.0,29.25026,0
GRID,619,0,354.6596,0.0,29.10289,0
GRID,620,0,352.864,0.0,28.95551,0
GRID,621,0,351.0683,0.0,28.80814,0
GRID,622,0,349.2727,0.0,28.66077,0
GRID,623,0,347.4771,0.0,28.51339,0
GRID,624,0,345.6814,0.0,28.36602,0
GRID,625,0,343.8858,0.0,28.21865,0
GRID,626,0,342.0902,0.0,28.07127,0
GRID,627,0,340.2945,0.0,27.9239,0
GRID,628,0,338.4989,0.0,27.77653,0
GRID,629,0,336.7033,0.0,27.62915,0
GRID,630,0,334.9077,0.0,27.48178,0
GRID,631,0,333.112,0.0,27.33441,0
GRID,632,0,331.3164,0.0,27.18703,0
GRID,633,0,329.5208,0.0,27.03966,0
GRID,634,0,327.7251,0.0,26.89229,0
GRID,635,0,325.9295,0.0,26.74491,0
GRID,636,0,324.1339,0.0,26.59754,0
GRID,637,0,322.3383,0.0,26.45017,0
GRID,638,0,320.5426,0.0,26.30279,0
GRID,639,0,318.747,0.0,26.15542,0
GRID,640,0,316.9514,0.0,26.00805,0
GRID,641,0,315.1557,0.0,25.86067,0
GRID,642,0,313.3601,0.0,25.7133,0
GRID,643,0,311.5645,0.0,25.56593,0
GRID,644,0,309.7688,0.0,25.41855,0
GRID,645,0,307.9732,0.0,25.27118,0
GRID,646,0,306.1776,0.0,25.12381,0
GRID,647,0,304.382,0.0,24.97643,0
GRID,648,0,302.5863,0.0,24.82906,0
GRID,649,0,300.7907,0.0,24.68169,0
GRID,650,0,404.6786,0.0,36.24249,0
GRID,651,0,402.8842,0.0,36.08175,0
GRID,652,0,401.0897,0.0,35.92101,0
GRID,653,0,399.2952,0.0,35.76028,0
GRID,654,0,397.5007,0.0,35.59954,0
GRID,655,0,395.7062,0.0,35.4388,0
GRID,656,0,393.9118,0.0,35.27807,0
GRID,657,0,392.1173,0.0,35.11733,0
GRID,658,0,390.3228,0.0,34.95659,0
GRID,659,0,388.5283,0.0,34.79586,0
GRID,660,0,386.7338,0.0,34.63512,0
GRID,661,0,384.9393,0.0,34.47438,0
GRID,662,0,383.1449,0.0,34.31365,0
GRID,663,0,381.3504,0.0,34.15291,0
GRID,664,0,379.5559,0.0,33.99217,0
GRID,665,0,377.7614,0.0,33.83144,0
GRID,666,0,375.9669,0.0,33.6707,0
GRID,667,0,374.1725,0.0,33.50996,0
GRID,668,0,372.378,0.0,33.34923,0
GRID,669,0,370.5835,0.0,33.18849,0
GRID,670,0,368.789,0.0,33.02775,0
GRID,671,0,366.9945,0.0,32.86702,0
GRID,672,0,365.2,0.0,32.70628,0
GRID,673,0,363.4056,0.0,32.54554,0
GRID,674,0,361.6111,0.0,32.38481,0
GRID,675,0,359.8166,0.0,32.22407,0
GRID,676,0,358.0221,0.0,32.06333,0
GRID,677,0,356.2276,0.0,31.90259,0
GRID,678,0,354.4331,0.0,31.74186,0
GRID,679,0,352.6387,0.0,31.58112,0
GRID,680,0,350.8442,0.0,31.42038,0
GRID,681,0,349.0497,0.0,31.25965,0
GRID,682,0,347.2552,0.0,31.09891,0
GRID,683,0,345.4607,0.0,30.93817,0
GRID,684,0,343.6663,0.0,30.77744,0
GRID,685,0,341.8718,0.0,30.6167,0
GRID,686,0,340.0773,0.0,30.45596,0
GRID,687,0,338.2828,0.0,30.29523,0
GRID,688,0,336.4883,0.0,30.13449,0
GRID,689,0,334.6938,0.0,29.97375,0
GRID,690,0,332.8994,0.0,29.81302,0
GRID,691,0,331.1049,0.0,29.65228,0
GRID,692,0,329.3104,0.0,29.49154,0
GRID,693,0,327.5159,0.0,29.33081,0
GRID,694,0,325.7214,0.0,29.17007,0
GRID,695,0,323.927,0.0,29.00933,0
GRID,696,0,322.1325,0.0,28.8486,0
GRID,697,0,320.338,0.0,28.68786,0
GRID,698,0,318.5435,0.0,28.52712,0
GRID,699,0,316.749,0.0,28.36639,0
GRID,700,0,314.9545,0.0,28.20565,0
GRID,701,0,313.1601,0.0,28.04491,0
GRID,702,0,311.3656,0.0,27.88418,0
GRID,703,0,309.5711,0.0,27.72344,0
GRID,704,0,307.7766,0.0,27.5627,0
GRID,705,0,305.9821,0.0,27.40197,0
GRID,706,0,304.1876,0.0,27.24123,0
GRID,707,0,302.3932,0.0,27.08049,0
GRID,708,0,300.5987,0.0,26.91976,0
GRID,709,0,404.3977,0.0,39.25363,0
GRID,710,0,402.6044,0.0,39.07953,0
GRID,711,0,400.8112,0.0,38.90544,0
GRID,712,0,399.018,0.0,38.73135,0
GRID,713,0,397.2247,0.0,38.55726,0
GRID,714,0,395.4315,0.0,38.38317,0
GRID,715,0,393.6382,0.0,38.20908,0
GRID,716,0,391.845,0.0,38.03499,0
GRID,717,0,390.0518,0.0,37.8609,0
GRID,718,0,388.2585,0.0,37.6868,0
GRID,719,0,386.4653,0.0,37.51271,0
GRID,720,0,384.6721,0.0,37.33862,0
GRID,721,0,382.8788,0.0,37.16453,0
GRID,722,0,381.0856,0.0,36.99044,0
GRID,723,0,379.2924,0.0,36.81635,0
GRID,724,0,377.4991,0.0,36.64226,0
GRID,725,0,375.7059,0.0,36.46817,0
GRID,726,0,373.9127,0.0,36.29407,0
GRID,727,0,372.1194,0.0,36.11998,0
GRID,728,0,370.3262,0.0,35.94589,0
GRID,729,0,368.5329,0.0,35.7718,0
GRID,730,0,366.7397,0.0,35.59771,0
GRID,731,0,364.9465,0.0,35.42362,0
GRID,732,0,363.1532,0.0,35.24953,0
GRID,733,0,361.36,0.0,35.07544,0
GRID,734,0,359.5668,0.0,34.90134,0
GRID,735,0,357.7735,0.0,34.72725,0
GRID,736,0,355.9803,0.0,34.55316,0
GRID,737,0,354.1871,0.0,34.37907,0
GRID,738,0,352.3938,0.0,34.20498,0
GRID,739,0,350.6006,0.0,34.03089,0
GRID,740,0,348.8074,0.0,33.8568,0
GRID,741,0,347.0141,0.0,33.68271,0
GRID,742,0,345.2209,0.0,33.50861,0
GRID,743,0,343.4276,0.0,33.33452,0
GRID,744,0,341.6344,0.0,33.16043,0
GRID,745,0,339.8412,0.0,32.98634,0
GRID,746,0,338.0479,0.0,32.81225,0
GRID,747,0,336.2547,0.0,32.63816,0
GRID,748,0,334.4615,0.0,32.46407,0
GRID,749,0,332.6682,0.0,32.28998,0
GRID,750,0,330.875,0.0,32.11588,0
GRID,751,0,329.0818,0.0,31.94179,0
GRID,752,0,327.2885,0.0,31.7677,0
GRID,753,0,325.4953,0.0,31.59361,0
GRID,754,0,323.7021,0.0,31.41952,0
GRID,755,0,321.9088,0.0,31.24543,0
GRID,756,0,320.1156,0.0,31.07134,0
GRID,757,0,318.3223,0.0,30.89725,0
GRID,758,0,316.5291,0.0,30.72315,0
GRID,759,0,314.7359,0.0,30.54906,0
GRID,760,0,312.9426,0.0,30.37497,0
GRID,761,0,311.1494,0.0,30.20088,0
GRID,762,0,309.3562,0.0,30.02679,0
GRID,763,0,307.5629,0.0,29.8527,0
GRID,764,0,305.7697,0.0,29.67861,0
GRID,765,0,303.9765,0.0,29.50452,0
GRID,766,0,302.1832,0.0,29.33042,0
GRID,767,0,300.39,0.0,29.15633,0
GRID,768,0,404.0943,0.0,42.26259,0
GRID,769,0,402.3024,0.0,42.07515,0
GRID,770,0,400.5105,0.0,41.88772,0
GRID,771,0,398.7186,0.0,41.70028,0
GRID,772,0,396.9267,0.0,41.51285,0
GRID,773,0,395.1348,0.0,41.32541,0
GRID,774,0,393.3429,0.0,41.13797,0
GRID,775,0,391.551,0.0,40.95054,0
GRID,776,0,389.7592,0.0,40.7631,0
GRID,777,0,387.9673,0.0,40.57566,0
GRID,778,0,386.1754,0.0,40.38823,0
GRID,779,0,384.3835,0.0,40.20079,0
GRID,780,0,382.5916,0.0,40.01336,0
GRID,781,0,380.7997,0.0,39.82592,0
GRID,782,0,379.0078,0.0,39.63848,0
GRID,783,0,377.2159,0.0,39.45105,0
GRID,784,0,375.424,0.0,39.26361,0
GRID,785,0,373.6321,0.0,39.07618,0
GRID,786,0,371.8403,0.0,38.88874,0
GRID,787,0,370.0484,0.0,38.7013,0
GRID,788,0,368.2565,0.0,38.51387,0
GRID,789,0,366.4646,0.0,38.32643,0
GRID,790,0,364.6727,0.0,38.13899,0
GRID,791,0,362.8808,0.0,37.95156,0
GRID,792,0,361.0889,0.0,37.76412,0
GRID,793,0,359.297,0.0,37.57669,0
GRID,794,0,357.5051,0.0,37.38925,0
GRID,795,0,355.7132,0.0,37.20181,0
GRID,796,0,353.9214,0.0,37.01438,0
GRID,797,0,352.1295,0.0,36.82694,0
GRID,798,0,350.3376,0.0,36.63951,0
GRID,799,0,348.5457,0.0,36.45207,0
GRID,800,0,346.7538,0.0,36.26463,0
GRID,801,0,344.9619,0.0,36.0772,0
GRID,802,0,343.17,0.0,35.88976,0
GRID,803,0,341.3781,0.0,35.70233,0
GRID,804,0,339.5862,0.0,35.51489,0
GRID,805,0,337.7943,0.0,35.32745,0
GRID,806,0,336.0025,0.0,35.14002,0
GRID,807,0,334.2106,0.0,34.95258,0
GRID,808,0,332.4187,0.0,34.76514,0
GRID,809,0,330.6268,0.0,34.57771,0
GRID,810,0,328.8349,0.0,34.39027,0
GRID,811,0,327.043,0.0,34.20284,0
GRID,812,0,325.2511,0.0,34.0154,0
GRID,813,0,323.4592,0.0,33.82796,0
GRID,814,0,321.6673,0.0,33.64053,0
GRID,815,0,319.8754,0.0,33.45309,0
GRID,816,0,318.0836,0.0,33.26566,0
GRID,817,0,316.2917,0.0,33.07822,0
GRID,818,0,314.4998,0.0,32.89078,0
GRID,819,0,312.7079,0.0,32.70335,0
GRID,820,0,310.916,0.0,32.51591,0
GRID,821,0,309.1241,0.0,32.32847,0
GRID,822,0,307.3322,0.0,32.14104,0
GRID,823,0,305.5403,0.0,31.9536,0
GRID,824,0,303.7484,0.0,31.76617,0
GRID,825,0,301.9565,0.0,31.57873,0
GRID,826,0,300.1646,0.0,31.39129,0
GRID,827,0,403.7685,0.0,45.26921,0
GRID,828,0,401.9781,0.0,45.06844,0
GRID,829,0,400.1876,0.0,44.86767,0
GRID,830,0,398.3972,0.0,44.6669,0
GRID,831,0,396.6067,0.0,44.46613,0
GRID,832,0,394.8163,0.0,44.26536,0
GRID,833,0,393.0258,0.0,44.06459,0
GRID,834,0,391.2354,0.0,43.86382,0
GRID,835,0,389.4449,0.0,43.66305,0
GRID,836,0,387.6545,0.0,43.46228,0
GRID,837,0,385.8641,0.0,43.26151,0
GRID,838,0,384.0736,0.0,43.06074,0
GRID,839,0,382.2832,0.0,42.85997,0
GRID,840,0,380.4927,0.0,42.65919,0
GRID,841,0,378.7023,0.0,42.45842,0
GRID,842,0,376.9118,0.0,42.25765,0
GRID,843,0,375.1214,0.0,42.05688,0
GRID,844,0,373.3309,0.0,41.85611,0
GRID,845,0,371.5405,0.0,41.65534,0
GRID,846,0,369.75,0.0,41.45457,0
GRID,847,0,367.9596,0.0,41.2538,0
GRID,848,0,366.1692,0.0,41.05303,0
GRID,849,0,364.3787,0.0,40.85226,0
GRID,850,0,362.5883,0.0,40.65149,0
GRID,851,0,360.7978,0.0,40.45072,0
GRID,852,0,359.0074,0.0,40.24995,0
GRID,853,0,357.2169,0.0,40.04918,0
GRID,854,0,355.4265,0.0,39.84841,0
GRID,855,0,353.636,0.0,39.64764,0
GRID,856,0,351.8456,0.0,39.44686,0
GRID,857,0,350.0551,0.0,39.24609,0
GRID,858,0,348.2647,0.0,39.04532,0
GRID,859,0,346.4743,0.0,38.84455,0
GRID,860,0,344.6838,0.0,38.64378,0
GRID,861,0,342.8934,0.0,38.44301,0
GRID,862,0,341.1029,0.0,38.24224,0
GRID,863,0,339.3125,0.0,38.04147,0
GRID,864,0,337.522,0.0,37.8407,0
GRID,865,0,335.7316,0.0,37.63993,0
GRID,866,0,333.9411,0.0,37.43916,0
GRID,867,0,332.1507,0.0,37.23839,0
GRID,868,0,330.3603,0.0,37.03762,0
GRID,869,0,328.5698,0.0,36.83685,0
GRID,870,0,326.7794,0.0,36.63608,0
GRID,871,0,324.9889,0.0,36.43531,0
GRID,872,0,323.1985,0.0,36.23453,0
GRID,873,0,321.408,0.0,36.03376,0
GRID,874,0,319.6176,0.0,35.83299,0
GRID,875,0,317.8271,0.0,35.63222,0
GRID,876,0,316.0367,0.0,35.43145,0
GRID,877,0,314.2462,0.0,35.23068,0
GRID,878,0,312.4558,0.0,35.02991,0
GRID,879,0,310.6654,0.0,34.82914,0
GRID,880,0,308.8749,0.0,34.62837,0
GRID,881,0,307.0845,0.0,34.4276,0
GRID,882,0,305.294,0.0,34.22683,0
GRID,883,0,303.5036,0.0,34.02606,0
GRID,884,0,301.7131,0.0,33.82529,0
GRID,885,0,299.9227,0.0,33.62452,0
GRID,886,0,403.4204,0.0,48.27333,0
GRID,887,0,401.6315,0.0,48.05923,0
GRID,888,0,399.8426,0.0,47.84514,0
GRID,889,0,398.0537,0.0,47.63105,0
GRID,890,0,396.2648,0.0,47.41695,0
GRID,891,0,394.4759,0.0,47.20286,0
GRID,892,0,392.687,0.0,46.98876,0
GRID,893,0,390.8981,0.0,46.77467,0
GRID,894,0,389.1092,0.0,46.56058,0
GRID,895,0,387.3203,0.0,46.34648,0
GRID,896,0,385.5314,0.0,46.13239,0
GRID,897,0,383.7425,0.0,45.91829,0
GRID,898,0,381.9536,0.0,45.7042,0
GRID,899,0,380.1647,0.0,45.49011,0
GRID,900,0,378.3758,0.0,45.27601,0
GRID,901,0,376.5869,0.0,45.06192,0
GRID,902,0,374.798,0.0,44.84782,0
GRID,903,0,373.009,0.0,44.63373,0
GRID,904,0,371.2201,0.0,44.41964,0
GRID,905,0,369.4312,0.0,44.20554,0
GRID,906,0,367.6423,0.0,43.99145,0
GRID,907,0,365.8534,0.0,43.77735,0
GRID,908,0,364.0645,0.0,43.56326,0
GRID,909,0,362.2756,0.0,43.34917,0
GRID,910,0,360.4867,0.0,43.13507,0
GRID,911,0,358.6978,0.0,42.92098,0
GRID,912,0,356.9089,0.0,42.70688,0
GRID,913,0,355.12,0.0,42.49279,0
GRID,914,0,353.3311,0.0,42.2787,0
GRID,915,0,351.5422,0.0,42.0646,0
GRID,916,0,349.7533,0.0,41.85051,0
GRID,917,0,347.9644,0.0,41.63641,0
GRID,918,0,346.1755,0.0,41.42232,0
GRID,919,0,344.3866,0.0,41.20823,0
GRID,920,0,342.5977,0.0,40.99413,0
GRID,921,0,340.8088,0.0,40.78004,0
GRID,922,0,339.0199,0.0,40.56594,0
GRID,923,0,337.231,0.0,40.35185,0
GRID,924,0,335.4421,0.0,40.13776,0
GRID,925,0,333.6532,0.0,39.92366,0
GRID,926,0,331.8643,0.0,39.70957,0
GRID,927,0,330.0754,0.0,39.49547,0
GRID,928,0,328.2865,0.0,39.28138,0
GRID,929,0,326.4976,0.0,39.06729,0
GRID,930,0,324.7087,0.0,38.85319,0
GRID,931,0,322.9198,0.0,38.6391,0
GRID,932,0,321.1309,0.0,38.425,0
GRID,933,0,319.342,0.0,38.21091,0
GRID,934,0,317.5531,0.0,37.99682,0
GRID,935,0,315.7642,0.0,37.78272,0
GRID,936,0,313.9753,0.0,37.56863,0
GRID,937,0,312.1864,0.0,37.35453,0
GRID,938,0,310.3975,0.0,37.14044,0
GRID,939,0,308.6086,0.0,36.92635,0
GRID,940,0,306.8197,0.0,36.71225,0
GRID,941,0,305.0308,0.0,36.49816,0
GRID,942,0,303.2419,0.0,36.28406,0
GRID,943,0,301.453,0.0,36.06997,0
GRID,944,0,299.6641,0.0,35.85588,0
GRID,945,0,403.0499,0.0,51.27477,0
GRID,946,0,401.2626,0.0,51.04736,0
GRID,947,0,399.4754,0.0,50.81996,0
GRID,948,0,397.6881,0.0,50.59255,0
GRID,949,0,395.9009,0.0,50.36515,0
GRID,950,0,394.1136,0.0,50.13774,0
GRID,951,0,392.3263,0.0,49.91034,0
GRID,952,0,390.5391,0.0,49.68293,0
GRID,953,0,388.7518,0.0,49.45553,0
GRID,954,0,386.9646,0.0,49.22812,0
GRID,955,0,385.1773,0.0,49.00071,0
GRID,956,0,383.39,0.0,48.77331,0
GRID,957,0,381.6028,0.0,48.5459,0
GRID,958,0,379.8155,0.0,48.3185,0
GRID,959,0,378.0283,0.0,48.09109,0
GRID,960,0,376.241,0.0,47.86369,0
GRID,961,0,374.4538,0.0,47.63628,0
GRID,962,0,372.6665,0.0,47.40888,0
GRID,963,0,370.8792,0.0,47.18147,0
GRID,964,0,369.092,0.0,46.95406,0
GRID,965,0,367.3047,0.0,46.72666,0
GRID,966,0,365.5175,0.0,46.49925,0
GRID,967,0,363.7302,0.0,46.27185,0
GRID,968,0,361.943,0.0,46.04444,0
GRID,969,0,360.1557,0.0,45.81704,0
GRID,970,0,358.3684,0.0,45.58963,0
GRID,971,0,356.5812,0.0,45.36223,0
GRID,972,0,354.7939,0.0,45.13482,0
GRID,973,0,353.0067,0.0,44.90742,0
GRID,974,0,351.2194,0.0,44.68001,0
GRID,975,0,349.4321,0.0,44.4526,0
GRID,976,0,347.6449,0.0,44.2252,0
GRID,977,0,345.8576,0.0,43.99779,0
GRID,978,0,344.0704,0.0,43.77039,0
GRID,979,0,342.2831,0.0,43.54298,0
GRID,980,0,340.4959,0.0,43.31558,0
GRID,981,0,338.7086,0.0,43.08817,0
GRID,982,0,336.9213,0.0,42.86077,0
GRID,983,0,335.1341,0.0,42.63336,0
GRID,984,0,333.3468,0.0,42.40596,0
GRID,985,0,331.5596,0.0,42.17855,0
GRID,986,0,329.7723,0.0,41.95114,0
GRID,987,0,327.9851,0.0,41.72374,0
GRID,988,0,326.1978,0.0,41.49633,0
GRID,989,0,324.4105,0.0,41.26893,0
GRID,990,0,322.6233,0.0,41.04152,0
GRID,991,0,320.836,0.0,40.81412,0
GRID,992,0,319.0488,0.0,40.58671,0
GRID,993,0,317.2615,0.0,40.35931,0
GRID,994,0,315.4742,0.0,40.1319,0
GRID,995,0,313.687,0.0,39.9045,0
GRID,996,0,311.8997,0.0,39.67709,0
GRID,997,0,310.1125,0.0,39.44968,0
GRID,998,0,308.3252,0.0,39.22228,0
GRID,999,0,306.538,0.0,38.99487,0
GRID,1000,0,304.7507,0.0,38.76747,0
GRID,1001,0,302.9634,0.0,38.54006,0
GRID,1002,0,301.1762,0.0,38.31266,0
GRID,1003,0,299.3889,0.0,38.08525,0
GRID,1004,0,402.6571,0.0,54.27337,0
GRID,1005,0,400.8716,0.0,54.03267,0
GRID,1006,0,399.086,0.0,53.79196,0
GRID,1007,0,397.3005,0.0,53.55126,0
GRID,1008,0,395.515,0.0,53.31055,0
GRID,1009,0,393.7295,0.0,53.06985,0
GRID,1010,0,391.944,0.0,52.82914,0
GRID,1011,0,390.1585,0.0,52.58844,0
GRID,1012,0,388.373,0.0,52.34773,0
GRID,1013,0,386.5874,0.0,52.10703,0
GRID,1014,0,384.8019,0.0,51.86633,0
GRID,1015,0,383.0164,0.0,51.62562,0
GRID,1016,0,381.2309,0.0,51.38492,0
GRID,1017,0,379.4454,0.0,51.14421,0
GRID,1018,0,377.6599,0.0,50.90351,0
GRID,1019,0,375.8743,0.0,50.6628,0
GRID,1020,0,374.0888,0.0,50.4221,0
GRID,1021,0,372.3033,0.0,50.1814,0
GRID,1022,0,370.5178,0.0,49.94069,0
GRID,1023,0,368.7323,0.0,49.69999,0
GRID,1024,0,366.9468,0.0,49.45928,0
GRID,1025,0,365.1612,0.0,49.21858,0
GRID,1026,0,363.3757,0.0,48.97787,0
GRID,1027,0,361.5902,0.0,48.73717,0
GRID,1028,0,359.8047,0.0,48.49646,0
GRID,1029,0,358.0192,0.0,48.25576,0
GRID,1030,0,356.2337,0.0,48.01506,0
GRID,1031,0,354.4482,0.0,47.77435,0
GRID,1032,0,352.6626,0.0,47.53365,0
GRID,1033,0,350.8771,0.0,47.29294,0
GRID,1034,0,349.0916,0.0,47.05224,0
GRID,1035,0,347.3061,0.0,46.81153,0
GRID,1036,0,345.5206,0.0,46.57083,0
GRID,1037,0,343.7351,0.0,46.33013,0
GRID,1038,0,341.9495,0.0,46.08942,0
GRID,1039,0,340.164,0.0,45.84872,0
GRID,1040,0,338.3785,0.0,45.60801,0
GRID,1041,0,336.593,0.0,45.36731,0
GRID,1042,0,334.8075,0.0,45.1266,0
GRID,1043,0,333.022,0.0,44.8859,0
GRID,1044,0,331.2364,0.0,44.64519,0
GRID,1045,0,329.4509,0.0,44.40449,0
GRID,1046,0,327.6654,0.0,44.16379,0
GRID,1047,0,325.8799,0.0,43.92308,0
GRID,1048,0,324.0944,0.0,43.68238,0
GRID,1049,0,322.3089,0.0,43.44167,0
GRID,1050,0,320.5234,0.0,43.20097,0
GRID,1051,0,318.7378,0.0,42.96026,0
GRID,1052,0,316.9523,0.0,42.71956,0
GRID,1053,0,315.1668,0.0,42.47886,0
GRID,1054,0,313.3813,0.0,42.23815,0
GRID,1055,0,311.5958,0.0,41.99745,0
GRID,1056,0,309.8103,0.0,41.75674,0
GRID,1057,0,308.0247,0.0,41.51604,0
GRID,1058,0,306.2392,0.0,41.27533,0
GRID,1059,0,304.4537,0.0,41.03463,0
GRID,1060,0,302.6682,0.0,40.79393,0
GRID,1061,0,300.8827,0.0,40.55322,0
GRID,1062,0,299.0972,0.0,40.31252,0
GRID,1063,0,402.242,0.0,57.26896,0
GRID,1064,0,400.4583,0.0,57.01497,0
GRID,1065,0,398.6746,0.0,56.76098,0
GRID,1066,0,396.8909,0.0,56.50699,0
GRID,1067,0,395.1073,0.0,56.253,0
GRID,1068,0,393.3236,0.0,55.99901,0
GRID,1069,0,391.5399,0.0,55.74502,0
GRID,1070,0,389.7562,0.0,55.49103,0
GRID,1071,0,387.9726,0.0,55.23704,0
GRID,1072,0,386.1889,0.0,54.98305,0
GRID,1073,0,384.4052,0.0,54.72906,0
GRID,1074,0,382.6215,0.0,54.47507,0
GRID,1075,0,380.8379,0.0,54.22108,0
GRID,1076,0,379.0542,0.0,53.96709,0
GRID,1077,0,377.2705,0.0,53.7131,0
GRID,1078,0,375.4868,0.0,53.45912,0
GRID,1079,0,373.7032,0.0,53.20513,0
GRID,1080,0,371.9195,0.0,52.95114,0
GRID,1081,0,370.1358,0.0,52.69715,0
GRID,1082,0,368.3521,0.0,52.44316,0
GRID,1083,0,366.5685,0.0,52.18917,0
GRID,1084,0,364.7848,0.0,51.93518,0
GRID,1085,0,363.0011,0.0,51.68119,0
GRID,1086,0,361.2174,0.0,51.4272,0
GRID,1087,0,359.4338,0.0,51.17321,0
GRID,1088,0,357.6501,0.0,50.91922,0
GRID,1089,0,355.8664,0.0,50.66523,0
GRID,1090,0,354.0827,0.0,50.41124,0
GRID,1091,0,352.2991,0.0,50.15725,0
GRID,1092,0,350.5154,0.0,49.90326,0
GRID,1093,0,348.7317,0.0,49.64927,0
GRID,1094,0,346.9481,0.0,49.39528,0
GRID,1095,0,345.1644,0.0,49.14129,0
GRID,1096,0,343.3807,0.0,48.8873,0
GRID,1097,0,341.597,0.0,48.63331,0
GRID,1098,0,339.8134,0.0,48.37932,0
GRID,1099,0,338.0297,0.0,48.12533,0
GRID,1100,0,336.246,0.0,47.87134,0
GRID,1101,0,334.4623,0.0,47.61735,0
GRID,1102,0,332.6787,0.0,47.36336,0
GRID,1103,0,330.895,0.0,47.10937,0
GRID,1104,0,329.1113,0.0,46.85538,0
GRID,1105,0,327.3276,0.0,46.60139,0
GRID,1106,0,325.544,0.0,46.3474,0
GRID,1107,0,323.7603,0.0,46.09341,0
GRID,1108,0,321.9766,0.0,45.83942,0
GRID,1109,0,320.1929,0.0,45.58543,0
GRID,1110,0,318.4093,0.0,45.33144,0
GRID,1111,0,316.6256,0.0,45.07745,0
GRID,1112,0,314.8419,0.0,44.82346,0
GRID,1113,0,313.0582,0.0,44.56947,0
GRID,1114,0,311.2746,0.0,44.31548,0
GRID,1115,0,309.4909,0.0,44.06149,0
GRID,1116,0,307.7072,0.0,43.8075,0
GRID,1117,0,305.9235,0.0,43.55351,0
GRID,1118,0,304.1399,0.0,43.29952,0
GRID,1119,0,302.3562,0.0,43.04553,0
GRID,1120,0,300.5725,0.0,42.79154,0
GRID,1121,0,298.7888,0.0,42.53755,0
GRID,1122,0,401.8045,0.0,60.26138,0
GRID,1123,0,400.0228,0.0,59.99412,0
GRID,1124,0,398.2411,0.0,59.72686,0
GRID,1125,0,396.4593,0.0,59.4596,0
GRID,1126,0,394.6776,0.0,59.19234,0
GRID,1127,0,392.8959,0.0,58.92508,0
GRID,1128,0,391.1141,0.0,58.65782,0
GRID,1129,0,389.3324,0.0,58.39055,0
GRID,1130,0,387.5507,0.0,58.12329,0
GRID,1131,0,385.7689,0.0,57.85603,0
GRID,1132,0,383.9872,0.0,57.58877,0
GRID,1133,0,382.2055,0.0,57.32151,0
GRID,1134,0,380.4237,0.0,57.05425,0
GRID,1135,0,378.642,0.0,56.78699,0
GRID,1136,0,376.8603,0.0,56.51973,0
GRID,1137,0,375.0785,0.0,56.25246,0
GRID,1138,0,373.2968,0.0,55.9852,0
GRID,1139,0,371.5151,0.0,55.71794,0
GRID,1140,0,369.7333,0.0,55.45068,0
GRID,1141,0,367.9516,0.0,55.18342,0
GRID,1142,0,366.1699,0.0,54.91616,0
GRID,1143,0,364.3881,0.0,54.6489,0
GRID,1144,0,362.6064,0.0,54.38163,0
GRID,1145,0,360.8247,0.0,54.11437,0
GRID,1146,0,359.0429,0.0,53.84711,0
GRID,1147,0,357.2612,0.0,53.57985,0
GRID,1148,0,355.4795,0.0,53.31259,0
GRID,1149,0,353.6977,0.0,53.04533,0
GRID,1150,0,351.916,0.0,52.77807,0
GRID,1151,0,350.1343,0.0,52.5108,0
GRID,1152,0,348.3525,0.0,52.24354,0
GRID,1153,0,346.5708,0.0,51.97628,0
GRID,1154,0,344.7891,0.0,51.70902,0
GRID,1155,0,343.0073,0.0,51.44176,0
GRID,1156,0,341.2256,0.0,51.1745,0
GRID,1157,0,339.4439,0.0,50.90724,0
GRID,1158,0,337.6621,0.0,50.63998,0
GRID,1159,0,335.8804,0.0,50.37271,0
GRID,1160,0,334.0987,0.0,50.10545,0
GRID,1161,0,332.3169,0.0,49.83819,0
GRID,1162,0,330.5352,0.0,49.57093,0
GRID,1163,0,328.7535,0.0,49.30367,0
GRID,1164,0,326.9717,0.0,49.03641,0
GRID,1165,0,325.19,0.0,48.76915,0
GRID,1166,0,323.4082,0.0,48.50188,0
GRID,1167,0,321.6265,0.0,48.23462,0
GRID,1168,0,319.8448,0.0,47.96736,0
GRID,1169,0,318.063,0.0,47.7001,0
GRID,1170,0,316.2813,0.0,47.43284,0
GRID,1171,0,314.4996,0.0,47.16558,0
GRID,1172,0,312.7178,0.0,46.89832,0
GRID,1173,0,310.9361,0.0,46.63106,0
GRID,1174,0,309.1544,0.0,46.36379,0
GRID,1175,0,307.3726,0.0,46.09653,0
GRID,1176,0,305.5909,0.0,45.82927,0
GRID,1177,0,303.8092,0.0,45.56201,0
GRID,1178,0,302.0274,0.0,45.29475,0
GRID,1179,0,300.2457,0.0,45.02749,0
GRID,1180,0,298.464,0.0,44.76023,0
GRID,1181,0,401.3449,0.0,63.25046,0
GRID,1182,0,399.5652,0.0,62.96995,0
GRID,1183,0,397.7855,0.0,62.68943,0
GRID,1184,0,396.0058,0.0,62.40891,0
GRID,1185,0,394.2261,0.0,62.12839,0
GRID,1186,0,392.4464,0.0,61.84787,0
GRID,1187,0,390.6667,0.0,61.56736,0
GRID,1188,0,388.887,0.0,61.28684,0
GRID,1189,0,387.1073,0.0,61.00632,0
GRID,1190,0,385.3276,0.0,60.7258,0
GRID,1191,0,383.5479,0.0,60.44529,0
GRID,1192,0,381.7682,0.0,60.16477,0
GRID,1193,0,379.9885,0.0,59.88425,0
GRID,1194,0,378.2088,0.0,59.60373,0
GRID,1195,0,376.4291,0.0,59.32321,0
GRID,1196,0,374.6494,0.0,59.0427,0
GRID,1197,0,372.8698,0.0,58.76218,0
GRID,1198,0,371.0901,0.0,58.48166,0
GRID,1199,0,369.3104,0.0,58.20114,0
GRID,1200,0,367.5307,0.0,57.92062,0
GRID,1201,0,365.751,0.0,57.64011,0
GRID,1202,0,363.9713,0.0,57.35959,0
GRID,1203,0,362.1916,0.0,57.07907,0
GRID,1204,0,360.4119,0.0,56.79855,0
GRID,1205,0,358.6322,0.0,56.51803,0
GRID,1206,0,356.8525,0.0,56.23752,0
GRID,1207,0,355.0728,0.0,55.957,0
GRID,1208,0,353.2931,0.0,55.67648,0
GRID,1209,0,351.5134,0.0,55.39596,0
GRID,1210,0,349.7337,0.0,55.11544,0
GRID,1211,0,347.954,0.0,54.83493,0
GRID,1212,0,346.1743,0.0,54.55441,0
GRID,1213,0,344.3946,0.0,54.27389,0
GRID,1214,0,342.6149,0.0,53.99337,0
GRID,1215,0,340.8352,0.0,53.71285,0
GRID,1216,0,339.0556,0.0,53.43234,0
GRID,1217,0,337.2759,0.0,53.15182,0
GRID,1218,0,335.4962,0.0,52.8713,0
GRID,1219,0,333.7165,0.0,52.59078,0
GRID,1220,0,331.9368,0.0,52.31026,0
GRID,1221,0,330.1571,0.0,52.02975,0
GRID,1222,0,328.3774,0.0,51.74923,0
GRID,1223,0,326.5977,0.0,51.46871,0
GRID,1224,0,324.818,0.0,51.18819,0
GRID,1225,0,323.0383,0.0,50.90767,0
GRID,1226,0,321.2586,0.0,50.62716,0
GRID,1227,0,319.4789,0.0,50.34664,0
GRID,1228,0,317.6992,0.0,50.06612,0
GRID,1229,0,315.9195,0.0,49.7856,0
GRID,1230,0,314.1398,0.0,49.50508,0
GRID,1231,0,312.3601,0.0,49.22457,0
GRID,1232,0,310.5804,0.0,48.94405,0
GRID,1233,0,308.8007,0.0,48.66353,0
GRID,1234,0,307.021,0.0,48.38301,0
GRID,1235,0,305.2414,0.0,48.10249,0
GRID,1236,0,303.4617,0.0,47.82198,0
GRID,1237,0,301.682,0.0,47.54146,0
GRID,1238,0,299.9023,0.0,47.26094,0
GRID,1239,0,298.1226,0.0,46.98042,0
GRID,1240,0,400.863,0.0,66.23604,0
GRID,1241,0,399.0854,0.0,65.94228,0
GRID,1242,0,397.3078,0.0,65.64852,0
GRID,1243,0,395.5303,0.0,65.35476,0
GRID,1244,0,393.7527,0.0,65.061,0
GRID,1245,0,391.9752,0.0,64.76725,0
GRID,1246,0,390.1976,0.0,64.47349,0
GRID,1247,0,388.4201,0.0,64.17973,0
GRID,1248,0,386.6425,0.0,63.88597,0
GRID,1249,0,384.8649,0.0,63.59221,0
GRID,1250,0,383.0874,0.0,63.29845,0
GRID,1251,0,381.3098,0.0,63.00469,0
GRID,1252,0,379.5323,0.0,62.71093,0
GRID,1253,0,377.7547,0.0,62.41717,0
GRID,1254,0,375.9772,0.0,62.12341,0
GRID,1255,0,374.1996,0.0,61.82966,0
GRID,1256,0,372.422,0.0,61.5359,0
GRID,1257,0,370.6445,0.0,61.24214,0
GRID,1258,0,368.8669,0.0,60.94838,0
GRID,1259,0,367.0894,0.0,60.65462,0
GRID,1260,0,365.3118,0.0,60.36086,0
GRID,1261,0,363.5343,0.0,60.0671,0
GRID,1262,0,361.7567,0.0,59.77334,0
GRID,1263,0,359.9791,0.0,59.47958,0
GRID,1264,0,358.2016,0.0,59.18582,0
GRID,1265,0,356.424,0.0,58.89206,0
GRID,1266,0,354.6465,0.0,58.59831,0
GRID,1267,0,352.8689,0.0,58.30455,0
GRID,1268,0,351.0914,0.0,58.01079,0
GRID,1269,0,349.3138,0.0,57.71703,0
GRID,1270,0,347.5362,0.0,57.42327,0
GRID,1271,0,345.7587,0.0,57.12951,0
GRID,1272,0,343.9811,0.0,56.83575,0
GRID,1273,0,342.2036,0.0,56.54199,0
GRID,1274,0,340.426,0.0,56.24823,0
GRID,1275,0,338.6485,0.0,55.95447,0
GRID,1276,0,336.8709,0.0,55.66072,0
GRID,1277,0,335.0933,0.0,55.36696,0
GRID,1278,0,333.3158,0.0,55.0732,0
GRID,1279,0,331.5382,0.0,54.77944,0
GRID,1280,0,329.7607,0.0,54.48568,0
GRID,1281,0,327.9831,0.0,54.19192,0
GRID,1282,0,326.2056,0.0,53.89816,0
GRID,1283,0,324.428,0.0,53.6044,0
GRID,1284,0,322.6504,0.0,53.31064,0
GRID,1285,0,320.8729,0.0,53.01688,0
GRID,1286,0,319.0953,0.0,52.72313,0
GRID,1287,0,317.3178,0.0,52.42937,0
GRID,1288,0,315.5402,0.0,52.13561,0
GRID,1289,0,313.7627,0.0,51.84185,0
GRID,1290,0,311.9851,0.0,51.54809,0
GRID,1291,0,310.2076,0.0,51.25433,0
GRID,1292,0,308.43,0.0,50.96057,0
GRID,1293,0,306.6524,0.0,50.66681,0
GRID,1294,0,304.8749,0.0,50.37305,0
GRID,1295,0,303.0973,0.0,50.07929,0
GRID,1296,0,301.3198,0.0,49.78554,0
GRID,1297,0,299.5422,0.0,49.49178,0
GRID,1298,0,297.7647,0.0,49.19802,0
GRID,1299,0,400.3588,0.0,69.21795,0
GRID,1300,0,398.5835,0.0,68.91096,0
GRID,1301,0,396.8082,0.0,68.60398,0
GRID,1302,0,395.0329,0.0,68.29699,0
GRID,1303,0,393.2575,0.0,67.99001,0
GRID,1304,0,391.4822,0.0,67.68303,0
GRID,1305,0,389.7069,0.0,67.37604,0
GRID,1306,0,387.9316,0.0,67.06906,0
GRID,1307,0,386.1563,0.0,66.76208,0
GRID,1308,0,384.3809,0.0,66.45509,0
GRID,1309,0,382.6056,0.0,66.14811,0
GRID,1310,0,380.8303,0.0,65.84112,0
GRID,1311,0,379.055,0.0,65.53414,0
GRID,1312,0,377.2797,0.0,65.22716,0
GRID,1313,0,375.5043,0.0,64.92017,0
GRID,1314,0,373.729,0.0,64.61319,0
GRID,1315,0,371.9537,0.0,64.30621,0
GRID,1316,0,370.1784,0.0,63.99922,0
GRID,1317,0,368.4031,0.0,63.69224,0
GRID,1318,0,366.6277,0.0,63.38525,0
GRID,1319,0,364.8524,0.0,63.07827,0
GRID,1320,0,363.0771,0.0,62.77129,0
GRID,1321,0,361.3018,0.0,62.4643,0
GRID,1322,0,359.5265,0.0,62.15732,0
GRID,1323,0,357.7511,0.0,61.85033,0
GRID,1324,0,355.9758,0.0,61.54335,0
GRID,1325,0,354.2005,0.0,61.23637,0
GRID,1326,0,352.4252,0.0,60.92938,0
GRID,1327,0,350.6499,0.0,60.6224,0
GRID,1328,0,348.8745,0.0,60.31542,0
GRID,1329,0,347.0992,0.0,60.00843,0
GRID,1330,0,345.3239,0.0,59.70145,0
GRID,1331,0,343.5486,0.0,59.39446,0
GRID,1332,0,341.7732,0.0,59.08748,0
GRID,1333,0,339.9979,0.0,58.7805,0
GRID,1334,0,338.2226,0.0,58.47351,0
GRID,1335,0,336.4473,0.0,58.16653,0
GRID,1336,0,334.672,0.0,57.85955,0
GRID,1337,0,332.8966,0.0,57.55256,0
GRID,1338,0,331.1213,0.0,57.24558,0
GRID,1339,0,329.346,0.0,56.93859,0
GRID,1340,0,327.5707,0.0,56.63161,0
GRID,1341,0,325.7954,0.0,56.32463,0
GRID,1342,0,324.02,0.0,56.01764,0
GRID,1343,0,322.2447,0.0,55.71066,0
GRID,1344,0,320.4694,0.0,55.40368,0
GRID,1345,0,318.6941,0.0,55.09669,0
GRID,1346,0,316.9188,0.0,54.78971,0
GRID,1347,0,315.1434,0.0,54.48272,0
GRID,1348,0,313.3681,0.0,54.17574,0
GRID,1349,0,311.5928,0.0,53.86876,0
GRID,1350,0,309.8175,0.0,53.56177,0
GRID,1351,0,308.0422,0.0,53.25479,0
GRID,1352,0,306.2668,0.0,52.94781,0
GRID,1353,0,304.4915,0.0,52.64082,0
GRID,1354,0,302.7162,0.0,52.33384,0
GRID,1355,0,300.9409,0.0,52.02685,0
GRID,1356,0,299.1656,0.0,51.71987,0
GRID,1357,0,297.3902,0.0,51.41289,0
GRID,1358,0,399.8325,0.0,72.19602,0
GRID,1359,0,398.0595,0.0,71.87582,0
GRID,1360,0,396.2865,0.0,71.55563,0
GRID,1361,0,394.5136,0.0,71.23544,0
GRID,1362,0,392.7406,0.0,70.91525,0
GRID,1363,0,390.9676,0.0,70.59506,0
GRID,1364,0,389.1946,0.0,70.27487,0
GRID,1365,0,387.4216,0.0,69.95468,0
GRID,1366,0,385.6486,0.0,69.63448,0
GRID,1367,0,383.8756,0.0,69.31429,0
GRID,1368,0,382.1027,0.0,68.9941,0
GRID,1369,0,380.3297,0.0,68.67391,0
GRID,1370,0,378.5567,0.0,68.35372,0
GRID,1371,0,376.7837,0.0,68.03353,0
GRID,1372,0,375.0107,0.0,67.71333,0
GRID,1373,0,373.2377,0.0,67.39314,0
GRID,1374,0,371.4647,0.0,67.07295,0
GRID,1375,0,369.6918,0.0,66.75276,0
GRID,1376,0,367.9188,0.0,66.43257,0
GRID,1377,0,366.1458,0.0,66.11238,0
GRID,1378,0,364.3728,0.0,65.79219,0
GRID,1379,0,362.5998,0.0,65.47199,0
GRID,1380,0,360.8268,0.0,65.1518,0
GRID,1381,0,359.0538,0.0,64.83161,0
GRID,1382,0,357.2809,0.0,64.51142,0
GRID,1383,0,355.5079,0.0,64.19123,0
GRID,1384,0,353.7349,0.0,63.87104,0
GRID,1385,0,351.9619,0.0,63.55084,0
GRID,1386,0,350.1889,0.0,63.23065,0
GRID,1387,0,348.4159,0.0,62.91046,0
GRID,1388,0,346.6429,0.0,62.59027,0
GRID,1389,0,344.87,0.0,62.27008,0
GRID,1390,0,343.097,0.0,61.94989,0
GRID,1391,0,341.324,0.0,61.6297,0
GRID,1392,0,339.551,0.0,61.3095,0
GRID,1393,0,337.778,0.0,60.98931,0
GRID,1394,0,336.005,0.0,60.66912,0
GRID,1395,0,334.232,0.0,60.34893,0
GRID,1396,0,332.4591,0.0,60.02874,0
GRID,1397,0,330.6861,0.0,59.70855,0
GRID,1398,0,328.9131,0.0,59.38835,0
GRID,1399,0,327.1401,0.0,59.06816,0
GRID,1400,0,325.3671,0.0,58.74797,0
GRID,1401,0,323.5941,0.0,58.42778,0
GRID,1402,0,321.8211,0.0,58.10759,0
GRID,1403,0,320.0482,0.0,57.7874,0
GRID,1404,0,318.2752,0.0,57.46721,0
GRID,1405,0,316.5022,0.0,57.14701,0
GRID,1406,0,314.7292,0.0,56.82682,0
GRID,1407,0,312.9562,0.0,56.50663,0
GRID,1408,0,311.1832,0.0,56.18644,0
GRID,1409,0,309.4102,0.0,55.86625,0
GRID,1410,0,307.6373,0.0,55.54606,0
GRID,1411,0,305.8643,0.0,55.22586,0
GRID,1412,0,304.0913,0.0,54.90567,0
GRID,1413,0,302.3183,0.0,54.58548,0
GRID,1414,0,300.5453,0.0,54.26529,0
GRID,1415,0,298.7723,0.0,53.9451,0
GRID,1416,0,296.9993,0.0,53.62491,0
GRID,1417,0,399.2841,0.0,75.17009,0
GRID,1418,0,397.5135,0.0,74.83671,0
GRID,1419,0,395.743,0.0,74.50332,0
GRID,1420,0,393.9724,0.0,74.16994,0
GRID,1421,0,392.2018,0.0,73.83656,0
GRID,1422,0,390.4313,0.0,73.50318,0
GRID,1423,0,388.6607,0.0,73.1698,0
GRID,1424,0,386.8902,0.0,72.83642,0
GRID,1425,0,385.1196,0.0,72.50303,0
GRID,1426,0,383.3491,0.0,72.16965,0
GRID,1427,0,381.5785,0.0,71.83627,0
GRID,1428,0,379.808,0.0,71.50289,0
GRID,1429,0,378.0374,0.0,71.16951,0
GRID,1430,0,376.2669,0.0,70.83613,0
GRID,1431,0,374.4963,0.0,70.50275,0
GRID,1432,0,372.7258,0.0,70.16936,0
GRID,1433,0,370.9552,0.0,69.83598,0
GRID,1434,0,369.1847,0.0,69.5026,0
GRID,1435,0,367.4141,0.0,69.16922,0
GRID,1436,0,365.6436,0.0,68.83584,0
GRID,1437,0,363.873,0.0,68.50246,0
GRID,1438,0,362.1024,0.0,68.16907,0
GRID,1439,0,360.3319,0.0,67.83569,0
GRID,1440,0,358.5613,0.0,67.50231,0
GRID,1441,0,356.7908,0.0,67.16893,0
GRID,1442,0,355.0202,0.0,66.83555,0
GRID,1443,0,353.2497,0.0,66.50217,0
GRID,1444,0,351.4791,0.0,66.16878,0
GRID,1445,0,349.7086,0.0,65.8354,0
GRID,1446,0,347.938,0.0,65.50202,0
GRID,1447,0,346.1675,0.0,65.16864,0
GRID,1448,0,344.3969,0.0,64.83526,0
GRID,1449,0,342.6264,0.0,64.50188,0
GRID,1450,0,340.8558,0.0,64.16849,0
GRID,1451,0,339.0853,0.0,63.83511,0
GRID,1452,0,337.3147,0.0,63.50173,0
GRID,1453,0,335.5441,0.0,63.16835,0
GRID,1454,0,333.7736,0.0,62.83497,0
GRID,1455,0,332.003,0.0,62.50159,0
GRID,1456,0,330.2325,0.0,62.16821,0
GRID,1457,0,328.4619,0.0,61.83482,0
GRID,1458,0,326.6914,0.0,61.50144,0
GRID,1459,0,324.9208,0.0,61.16806,0
GRID,1460,0,323.1503,0.0,60.83468,0
GRID,1461,0,321.3797,0.0,60.5013,0
GRID,1462,0,319.6092,0.0,60.16792,0
GRID,1463,0,317.8386,0.0,59.83453,0
GRID,1464,0,316.0681,0.0,59.50115,0
GRID,1465,0,314.2975,0.0,59.16777,0
GRID,1466,0,312.527,0.0,58.83439,0
GRID,1467,0,310.7564,0.0,58.50101,0
GRID,1468,0,308.9859,0.0,58.16763,0
GRID,1469,0,307.2153,0.0,57.83424,0
GRID,1470,0,305.4447,0.0,57.50086,0
GRID,1471,0,303.6742,0.0,57.16748,0
GRID,1472,0,301.9036,0.0,56.8341,0
GRID,1473,0,300.1331,0.0,56.50072,0
GRID,1474,0,298.3625,0.0,56.16734,0
GRID,1475,0,296.592,0.0,55.83395,0
GRID,1476,0,398.7135,0.0,78.14,0
GRID,1477,0,396.9455,0.0,77.79344,0
GRID,1478,0,395.1774,0.0,77.44689,0
GRID,1479,0,393.4094,0.0,77.10034,0
GRID,1480,0,391.6414,0.0,76.75378,0
GRID,1481,0,389.8734,0.0,76.40723,0
GRID,1482,0,388.1054,0.0,76.06068,0
GRID,1483,0,386.3373,0.0,75.71412,0
GRID,1484,0,384.5693,0.0,75.36757,0
GRID,1485,0,382.8013,0.0,75.02102,0
GRID,1486,0,381.0333,0.0,74.67446,0
GRID,1487,0,379.2652,0.0,74.32791,0
GRID,1488,0,377.4972,0.0,73.98136,0
GRID,1489,0,375.7292,0.0,73.6348,0
GRID,1490,0,373.9612,0.0,73.28825,0
GRID,1491,0,372.1931,0.0,72.9417,0
GRID,1492,0,370.4251,0.0,72.59514,0
GRID,1493,0,368.6571,0.0,72.24859,0
GRID,1494,0,366.8891,0.0,71.90204,0
GRID,1495,0,365.1211,0.0,71.55548,0
GRID,1496,0,363.353,0.0,71.20893,0
GRID,1497,0,361.585,0.0,70.86238,0
GRID,1498,0,359.817,0.0,70.51582,0
GRID,1499,0,358.049,0.0,70.16927,0
GRID,1500,0,356.2809,0.0,69.82272,0
GRID,1501,0,354.5129,0.0,69.47617,0
GRID,1502,0,352.7449,0.0,69.12961,0
GRID,1503,0,350.9769,0.0,68.78306,0
GRID,1504,0,349.2089,0.0,68.43651,0
GRID,1505,0,347.4408,0.0,68.08995,0
GRID,1506,0,345.6728,0.0,67.7434,0
GRID,1507,0,343.9048,0.0,67.39685,0
GRID,1508,0,342.1368,0.0,67.05029,0
GRID,1509,0,340.3687,0.0,66.70374,0
GRID,1510,0,338.6007,0.0,66.35719,0
GRID,1511,0,336.8327,0.0,66.01063,0
GRID,1512,0,335.0647,0.0,65.66408,0
GRID,1513,0,333.2967,0.0,65.31753,0
GRID,1514,0,331.5286,0.0,64.97097,0
GRID,1515,0,329.7606,0.0,64.62442,0
GRID,1516,0,327.9926,0.0,64.27787,0
GRID,1517,0,326.2246,0.0,63.93131,0
GRID,1518,0,324.4565,0.0,63.58476,0
GRID,1519,0,322.6885,0.0,63.23821,0
GRID,1520,0,320.9205,0.0,62.89165,0
GRID,1521,0,319.1525,0.0,62.5451,0
GRID,1522,0,317.3845,0.0,62.19855,0
GRID,1523,0,315.6164,0.0,61.85199,0
GRID,1524,0,313.8484,0.0,61.50544,0
GRID,1525,0,312.0804,0.0,61.15889,0
GRID,1526,0,310.3124,0.0,60.81233,0
GRID,1527,0,308.5443,0.0,60.46578,0
GRID,1528,0,306.7763,0.0,60.11923,0
GRID,1529,0,305.0083,0.0,59.77267,0
GRID,1530,0,303.2403,0.0,59.42612,0
GRID,1531,0,301.4723,0.0,59.07957,0
GRID,1532,0,299.7042,0.0,58.73301,0
GRID,1533,0,297.9362,0.0,58.38646,0
GRID,1534,0,296.1682,0.0,58.03991,0
GRID,1535,0,398.1208,0.0,81.10558,0
GRID,1536,0,396.3554,0.0,80.74587,0
GRID,1537,0,394.59,0.0,80.38616,0
GRID,1538,0,392.8246,0.0,80.02646,0
GRID,1539,0,391.0593,0.0,79.66675,0
GRID,1540,0,389.2939,0.0,79.30705,0
GRID,1541,0,387.5285,0.0,78.94734,0
GRID,1542,0,385.7631,0.0,78.58764,0
GRID,1543,0,383.9977,0.0,78.22793,0
GRID,1544,0,382.2323,0.0,77.86822,0
GRID,1545,0,380.4669,0.0,77.50852,0
GRID,1546,0,378.7015,0.0,77.14881,0
GRID,1547,0,376.9361,0.0,76.78911,0
GRID,1548,0,375.1707,0.0,76.4294,0
GRID,1549,0,373.4053,0.0,76.0697,0
GRID,1550,0,371.6399,0.0,75.70999,0
GRID,1551,0,369.8745,0.0,75.35028,0
GRID,1552,0,368.1091,0.0,74.99058,0
GRID,1553,0,366.3437,0.0,74.63087,0
GRID,1554,0,364.5783,0.0,74.27117,0
GRID,1555,0,362.813,0.0,73.91146,0
GRID,1556,0,361.0476,0.0,73.55176,0
GRID,1557,0,359.2822,0.0,73.19205,0
GRID,1558,0,357.5168,0.0,72.83235,0
GRID,1559,0,355.7514,0.0,72.47264,0
GRID,1560,0,353.986,0.0,72.11293,0
GRID,1561,0,352.2206,0.0,71.75323,0
GRID,1562,0,350.4552,0.0,71.39352,0
GRID,1563,0,348.6898,0.0,71.03382,0
GRID,1564,0,346.9244,0.0,70.67411,0
GRID,1565,0,345.159,0.0,70.31441,0
GRID,1566,0,343.3936,0.0,69.9547,0
GRID,1567,0,341.6282,0.0,69.59499,0
GRID,1568,0,339.8628,0.0,69.23529,0
GRID,1569,0,338.0974,0.0,68.87558,0
GRID,1570,0,336.332,0.0,68.51588,0
GRID,1571,0,334.5667,0.0,68.15617,0
GRID,1572,0,332.8013,0.0,67.79647,0
GRID,1573,0,331.0359,0.0,67.43676,0
GRID,1574,0,329.2705,0.0,67.07705,0
GRID,1575,0,327.5051,0.0,66.71735,0
GRID,1576,0,325.7397,0.0,66.35764,0
GRID,1577,0,323.9743,0.0,65.99794,0
GRID,1578,0,322.2089,0.0,65.63823,0
GRID,1579,0,320.4435,0.0,65.27853,0
GRID,1580,0,318.6781,0.0,64.91882,0
GRID,1581,0,316.9127,0.0,64.55912,0
GRID,1582,0,315.1473,0.0,64.19941,0
GRID,1583,0,313.3819,0.0,63.8397,0
GRID,1584,0,311.6165,0.0,63.48,0
GRID,1585,0,309.8511,0.0,63.12029,0
GRID,1586,0,308.0858,0.0,62.76059,0
GRID,1587,0,306.3204,0.0,62.40088,0
GRID,1588,0,304.555,0.0,62.04118,0
GRID,1589,0,302.7896,0.0,61.68147,0
GRID,1590,0,301.0242,0.0,61.32176,0
GRID,1591,0,299.2588,0.0,60.96206,0
GRID,1592,0,297.4934,0.0,60.60235,0
GRID,1593,0,295.728,0.0,60.24265,0
GRID,1594,0,397.5061,0.0,84.06666,0
GRID,1595,0,395.7434,0.0,83.69382,0
GRID,1596,0,393.9808,0.0,83.32099,0
GRID,1597,0,392.2181,0.0,82.94815,0
GRID,1598,0,390.4554,0.0,82.57531,0
GRID,1599,0,388.6928,0.0,82.20247,0
GRID,1600,0,386.9301,0.0,81.82963,0
GRID,1601,0,385.1674,0.0,81.4568,0
GRID,1602,0,383.4048,0.0,81.08396,0
GRID,1603,0,381.6421,0.0,80.71112,0
GRID,1604,0,379.8794,0.0,80.33828,0
GRID,1605,0,378.1168,0.0,79.96544,0
GRID,1606,0,376.3541,0.0,79.5926,0
GRID,1607,0,374.5914,0.0,79.21977,0
GRID,1608,0,372.8288,0.0,78.84693,0
GRID,1609,0,371.0661,0.0,78.47409,0
GRID,1610,0,369.3034,0.0,78.10125,0
GRID,1611,0,367.5408,0.0,77.72841,0
GRID,1612,0,365.7781,0.0,77.35558,0
GRID,1613,0,364.0154,0.0,76.98274,0
GRID,1614,0,362.2528,0.0,76.6099,0
GRID,1615,0,360.4901,0.0,76.23706,0
GRID,1616,0,358.7274,0.0,75.86422,0
GRID,1617,0,356.9648,0.0,75.49138,0
GRID,1618,0,355.2021,0.0,75.11855,0
GRID,1619,0,353.4394,0.0,74.74571,0
GRID,1620,0,351.6768,0.0,74.37287,0
GRID,1621,0,349.9141,0.0,74.00003,0
GRID,1622,0,348.1514,0.0,73.62719,0
GRID,1623,0,346.3888,0.0,73.25436,0
GRID,1624,0,344.6261,0.0,72.88152,0
GRID,1625,0,342.8634,0.0,72.50868,0
GRID,1626,0,341.1008,0.0,72.13584,0
GRID,1627,0,339.3381,0.0,71.763,0
GRID,1628,0,337.5754,0.0,71.39017,0
GRID,1629,0,335.8128,0.0,71.01733,0
GRID,1630,0,334.0501,0.0,70.64449,0
GRID,1631,0,332.2874,0.0,70.27165,0
GRID,1632,0,330.5248,0.0,69.89881,0
GRID,1633,0,328.7621,0.0,69.52597,0
GRID,1634,0,326.9994,0.0,69.15314,0
GRID,1635,0,325.2368,0.0,68.7803,0
GRID,1636,0,323.4741,0.0,68.40746,0
GRID,1637,0,321.7114,0.0,68.03462,0
GRID,1638,0,319.9488,0.0,67.66178,0
GRID,1639,0,318.1861,0.0,67.28895,0
GRID,1640,0,316.4234,0.0,66.91611,0
GRID,1641,0,314.6608,0.0,66.54327,0
GRID,1642,0,312.8981,0.0,66.17043,0
GRID,1643,0,311.1354,0.0,65.79759,0
GRID,1644,0,309.3728,0.0,65.42476,0
GRID,1645,0,307.6101,0.0,65.05192,0
GRID,1646,0,305.8474,0.0,64.67908,0
GRID,1647,0,304.0848,0.0,64.30624,0
GRID,1648,0,302.3221,0.0,63.9334,0
GRID,1649,0,300.5594,0.0,63.56056,0
GRID,1650,0,298.7968,0.0,63.18773,0
GRID,1651,0,297.0341,0.0,62.81489,0
GRID,1652,0,295.2714,0.0,62.44205,0
GRID,1653,0,396.8694,0.0,87.02309,0
GRID,1654,0,395.1095,0.0,86.63714,0
GRID,1655,0,393.3497,0.0,86.25119,0
GRID,1656,0,391.5898,0.0,85.86524,0
GRID,1657,0,389.83,0.0,85.47929,0
GRID,1658,0,388.0702,0.0,85.09334,0
GRID,1659,0,386.3103,0.0,84.70739,0
GRID,1660,0,384.5505,0.0,84.32144,0
GRID,1661,0,382.7906,0.0,83.93549,0
GRID,1662,0,381.0308,0.0,83.54954,0
GRID,1663,0,379.2709,0.0,83.16359,0
GRID,1664,0,377.5111,0.0,82.77764,0
GRID,1665,0,375.7513,0.0,82.39169,0
GRID,1666,0,373.9914,0.0,82.00574,0
GRID,1667,0,372.2316,0.0,81.61979,0
GRID,1668,0,370.4717,0.0,81.23384,0
GRID,1669,0,368.7119,0.0,80.84789,0
GRID,1670,0,366.952,0.0,80.46194,0
GRID,1671,0,365.1922,0.0,80.07599,0
GRID,1672,0,363.4324,0.0,79.69004,0
GRID,1673,0,361.6725,0.0,79.30409,0
GRID,1674,0,359.9127,0.0,78.91814,0
GRID,1675,0,358.1528,0.0,78.53219,0
GRID,1676,0,356.393,0.0,78.14624,0
GRID,1677,0,354.6331,0.0,77.76029,0
GRID,1678,0,352.8733,0.0,77.37434,0
GRID,1679,0,351.1135,0.0,76.98839,0
GRID,1680,0,349.3536,0.0,76.60244,0
GRID,1681,0,347.5938,0.0,76.21649,0
GRID,1682,0,345.8339,0.0,75.83054,0
GRID,1683,0,344.0741,0.0,75.44459,0
GRID,1684,0,342.3142,0.0,75.05864,0
GRID,1685,0,340.5544,0.0,74.67269,0
GRID,1686,0,338.7946,0.0,74.28674,0
GRID,1687,0,337.0347,0.0,73.90079,0
GRID,1688,0,335.2749,0.0,73.51484,0
GRID,1689,0,333.515,0.0,73.12889,0
GRID,1690,0,331.7552,0.0,72.74294,0
GRID,1691,0,329.9953,0.0,72.35699,0
GRID,1692,0,328.2355,0.0,71.97104,0
GRID,1693,0,326.4757,0.0,71.58509,0
GRID,1694,0,324.7158,0.0,71.19914,0
GRID,1695,0,322.956,0.0,70.81319,0
GRID,1696,0,321.1961,0.0,70.42724,0
GRID,1697,0,319.4363,0.0,70.04129,0
GRID,1698,0,317.6764,0.0,69.65534,0
GRID,1699,0,315.9166,0.0,69.26939,0
GRID,1700,0,314.1568,0.0,68.88344,0
GRID,1701,0,312.3969,0.0,68.49749,0
GRID,1702,0,310.6371,0.0,68.11154,0
GRID,1703,0,308.8772,0.0,67.72559,0
GRID,1704,0,307.1174,0.0,67.33964,0
GRID,1705,0,305.3575,0.0,66.95369,0
GRID,1706,0,303.5977,0.0,66.56774,0
GRID,1707,0,301.8379,0.0,66.18179,0
GRID,1708,0,300.078,0.0,65.79584,0
GRID,1709,0,298.3182,0.0,65.40989,0
GRID,1710,0,296.5583,0.0,65.02394,0
GRID,1711,0,294.7985,0.0,64.63799,0
GRID,1712,0,396.2106,0.0,89.9747,0
GRID,1713,0,394.4537,0.0,89.57566,0
GRID,1714,0,392.6968,0.0,89.17662,0
GRID,1715,0,390.9399,0.0,88.77758,0
GRID,1716,0,389.183,0.0,88.37854,0
GRID,1717,0,387.426,0.0,87.9795,0
GRID,1718,0,385.6691,0.0,87.58046,0
GRID,1719,0,383.9122,0.0,87.18142,0
GRID,1720,0,382.1553,0.0,86.78238,0
GRID,1721,0,380.3984,0.0,86.38334,0
GRID,1722,0,378.6414,0.0,85.9843,0
GRID,1723,0,376.8845,0.0,85.58525,0
GRID,1724,0,375.1276,0.0,85.18621,0
GRID,1725,0,373.3707,0.0,84.78717,0
GRID,1726,0,371.6138,0.0,84.38813,0
GRID,1727,0,369.8568,0.0,83.98909,0
GRID,1728,0,368.0999,0.0,83.59005,0
GRID,1729,0,366.343,0.0,83.19101,0
GRID,1730,0,364.5861,0.0,82.79197,0
GRID,1731,0,362.8292,0.0,82.39293,0
GRID,1732,0,361.0722,0.0,81.99389,0
GRID,1733,0,359.3153,0.0,81.59485,0
GRID,1734,0,357.5584,0.0,81.19581,0
GRID,1735,0,355.8015,0.0,80.79677,0
GRID,1736,0,354.0445,0.0,80.39773,0
GRID,1737,0,352.2876,0.0,79.99869,0
GRID,1738,0,350.5307,0.0,79.59965,0
GRID,1739,0,348.7738,0.0,79.20061,0
GRID,1740,0,347.0169,0.0,78.80157,0
GRID,1741,0,345.2599,0.0,78.40253,0
GRID,1742,0,343.503,0.0,78.00349,0
GRID,1743,0,341.7461,0.0,77.60445,0
GRID,1744,0,339.9892,0.0,77.20541,0
GRID,1745,0,338.2323,0.0,76.80637,0
GRID,1746,0,336.4753,0.0,76.40733,0
GRID,1747,0,334.7184,0.0,76.00829,0
GRID,1748,0,332.9615,0.0,75.60925,0
GRID,1749,0,331.2046,0.0,75.21021,0
GRID,1750,0,329.4477,0.0,74.81117,0
GRID,1751,0,327.6907,0.0,74.41213,0
GRID,1752,0,325.9338,0.0,74.01308,0
GRID,1753,0,324.1769,0.0,73.61404,0
GRID,1754,0,322.42,0.0,73.215,0
GRID,1755,0,320.663,0.0,72.81596,0
GRID,1756,0,318.9061,0.0,72.41692,0
GRID,1757,0,317.1492,0.0,72.01788,0
GRID,1758,0,315.3923,0.0,71.61884,0
GRID,1759,0,313.6354,0.0,71.2198,0
GRID,1760,0,311.8784,0.0,70.82076,0
GRID,1761,0,310.1215,0.0,70.42172,0
GRID,1762,0,308.3646,0.0,70.02268,0
GRID,1763,0,306.6077,0.0,69.62364,0
GRID,1764,0,304.8508,0.0,69.2246,0
GRID,1765,0,303.0938,0.0,68.82556,0
GRID,1766,0,301.3369,0.0,68.42652,0
GRID,1767,0,299.58,0.0,68.02748,0
GRID,1768,0,297.8231,0.0,67.62844,0
GRID,1769,0,296.0662,0.0,67.2294,0
GRID,1770,0,294.3092,0.0,66.83036,0
GRID,1771,0,395.53,0.0,92.92132,0
GRID,1772,0,393.7761,0.0,92.50921,0
GRID,1773,0,392.0222,0.0,92.0971,0
GRID,1774,0,390.2683,0.0,91.68499,0
GRID,1775,0,388.5144,0.0,91.27289,0
GRID,1776,0,386.7605,0.0,90.86078,0
GRID,1777,0,385.0066,0.0,90.44867,0
GRID,1778,0,383.2527,0.0,90.03656,0
GRID,1779,0,381.4988,0.0,89.62445,0
GRID,1780,0,379.7449,0.0,89.21234,0
GRID,1781,0,377.9909,0.0,88.80023,0
GRID,1782,0,376.237,0.0,88.38812,0
GRID,1783,0,374.4831,0.0,87.97602,0
GRID,1784,0,372.7292,0.0,87.56391,0
GRID,1785,0,370.9753,0.0,87.1518,0
GRID,1786,0,369.2214,0.0,86.73969,0
GRID,1787,0,367.4675,0.0,86.32758,0
GRID,1788,0,365.7136,0.0,85.91547,0
GRID,1789,0,363.9597,0.0,85.50336,0
GRID,1790,0,362.2058,0.0,85.09126,0
GRID,1791,0,360.4519,0.0,84.67915,0
GRID,1792,0,358.698,0.0,84.26704,0
GRID,1793,0,356.9441,0.0,83.85493,0
GRID,1794,0,355.1902,0.0,83.44282,0
GRID,1795,0,353.4363,0.0,83.03071,0
GRID,1796,0,351.6824,0.0,82.6186,0
GRID,1797,0,349.9285,0.0,82.2065,0
GRID,1798,0,348.1746,0.0,81.79439,0
GRID,1799,0,346.4207,0.0,81.38228,0
GRID,1800,0,344.6668,0.0,80.97017,0
GRID,1801,0,342.9129,0.0,80.55806,0
GRID,1802,0,341.159,0.0,80.14595,0
GRID,1803,0,339.4051,0.0,79.73384,0
GRID,1804,0,337.6512,0.0,79.32174,0
GRID,1805,0,335.8973,0.0,78.90963,0
GRID,1806,0,334.1434,0.0,78.49752,0
GRID,1807,0,332.3895,0.0,78.08541,0
GRID,1808,0,330.6356,0.0,77.6733,0
GRID,1809,0,328.8817,0.0,77.26119,0
GRID,1810,0,327.1278,0.0,76.84908,0
GRID,1811,0,325.3739,0.0,76.43698,0
GRID,1812,0,323.62,0.0,76.02487,0
GRID,1813,0,321.8661,0.0,75.61276,0
GRID,1814,0,320.1122,0.0,75.20065,0
GRID,1815,0,318.3583,0.0,74.78854,0
GRID,1816,0,316.6044,0.0,74.37643,0
GRID,1817,0,314.8505,0.0,73.96432,0
GRID,1818,0,313.0966,0.0,73.55222,0
GRID,1819,0,311.3427,0.0,73.14011,0
GRID,1820,0,309.5888,0.0,72.728,0
GRID,1821,0,307.8349,0.0,72.31589,0
GRID,1822,0,306.081,0.0,71.90378,0
GRID,1823,0,304.3271,0.0,71.49167,0
GRID,1824,0,302.5732,0.0,71.07956,0
GRID,1825,0,300.8193,0.0,70.66746,0
GRID,1826,0,299.0654,0.0,70.25535,0
GRID,1827,0,297.3115,0.0,69.84324,0
GRID,1828,0,295.5576,0.0,69.43113,0
GRID,1829,0,293.8037,0.0,69.01902,0
GRID,1830,0,394.8274,0.0,95.86279,0
GRID,1831,0,393.0766,0.0,95.43764,0
GRID,1832,0,391.3258,0.0,95.01248,0
GRID,1833,0,389.575,0.0,94.58733,0
GRID,1834,0,387.8242,0.0,94.16217,0
GRID,1835,0,386.0734,0.0,93.73702,0
GRID,1836,0,384.3227,0.0,93.31187,0
GRID,1837,0,382.5719,0.0,92.88671,0
GRID,1838,0,380.8211,0.0,92.46156,0
GRID,1839,0,379.0703,0.0,92.03641,0
GRID,1840,0,377.3195,0.0,91.61125,0
GRID,1841,0,375.5687,0.0,91.1861,0
GRID,1842,0,373.8179,0.0,90.76094,0
GRID,1843,0,372.0672,0.0,90.33579,0
GRID,1844,0,370.3164,0.0,89.91064,0
GRID,1845,0,368.5656,0.0,89.48548,0
GRID,1846,0,366.8148,0.0,89.06033,0
GRID,1847,0,365.064,0.0,88.63517,0
GRID,1848,0,363.3132,0.0,88.21002,0
GRID,1849,0,361.5625,0.0,87.78487,0
GRID,1850,0,359.8117,0.0,87.35971,0
GRID,1851,0,358.0609,0.0,86.93456,0
GRID,1852,0,356.3101,0.0,86.5094,0
GRID,1853,0,354.5593,0.0,86.08425,0
GRID,1854,0,352.8085,0.0,85.6591,0
GRID,1855,0,351.0577,0.0,85.23394,0
GRID,1856,0,349.307,0.0,84.80879,0
GRID,1857,0,347.5562,0.0,84.38363,0
GRID,1858,0,345.8054,0.0,83.95848,0
GRID,1859,0,344.0546,0.0,83.53333,0
GRID,1860,0,342.3038,0.0,83.10817,0
GRID,1861,0,340.553,0.0,82.68302,0
GRID,1862,0,338.8023,0.0,82.25786,0
GRID,1863,0,337.0515,0.0,81.83271,0
GRID,1864,0,335.3007,0.0,81.40756,0
GRID,1865,0,333.5499,0.0,80.9824,0
GRID,1866,0,331.7991,0.0,80.55725,0
GRID,1867,0,330.0483,0.0,80.13209,0
GRID,1868,0,328.2975,0.0,79.70694,0
GRID,1869,0,326.5468,0.0,79.28179,0
GRID,1870,0,324.796,0.0,78.85663,0
GRID,1871,0,323.0452,0.0,78.43148,0
GRID,1872,0,321.2944,0.0,78.00633,0
GRID,1873,0,319.5436,0.0,77.58117,0
GRID,1874,0,317.7928,0.0,77.15602,0
GRID,1875,0,316.0421,0.0,76.73086,0
GRID,1876,0,314.2913,0.0,76.30571,0
GRID,1877,0,312.5405,0.0,75.88056,0
GRID,1878,0,310.7897,0.0,75.4554,0
GRID,1879,0,309.0389,0.0,75.03025,0
GRID,1880,0,307.2881,0.0,74.60509,0
GRID,1881,0,305.5373,0.0,74.17994,0
GRID,1882,0,303.7866,0.0,73.75479,0
GRID,1883,0,302.0358,0.0,73.32963,0
GRID,1884,0,300.285,0.0,72.90448,0
GRID,1885,0,298.5342,0.0,72.47932,0
GRID,1886,0,296.7834,0.0,72.05417,0
GRID,1887,0,295.0326,0.0,71.62902,0
GRID,1888,0,293.2819,0.0,71.20386,0
GRID,1889,0,394.1029,0.0,98.79895,0
GRID,1890,0,392.3553,0.0,98.36078,0
GRID,1891,0,390.6077,0.0,97.9226,0
GRID,1892,0,388.8602,0.0,97.48442,0
GRID,1893,0,387.1126,0.0,97.04625,0
GRID,1894,0,385.365,0.0,96.60807,0
GRID,1895,0,383.6175,0.0,96.1699,0
GRID,1896,0,381.8699,0.0,95.73172,0
GRID,1897,0,380.1223,0.0,95.29354,0
GRID,1898,0,378.3747,0.0,94.85537,0
GRID,1899,0,376.6272,0.0,94.41719,0
GRID,1900,0,374.8796,0.0,93.97902,0
GRID,1901,0,373.132,0.0,93.54084,0
GRID,1902,0,371.3845,0.0,93.10267,0
GRID,1903,0,369.6369,0.0,92.66449,0
GRID,1904,0,367.8893,0.0,92.22631,0
GRID,1905,0,366.1417,0.0,91.78814,0
GRID,1906,0,364.3942,0.0,91.34996,0
GRID,1907,0,362.6466,0.0,90.91179,0
GRID,1908,0,360.899,0.0,90.47361,0
GRID,1909,0,359.1515,0.0,90.03544,0
GRID,1910,0,357.4039,0.0,89.59726,0
GRID,1911,0,355.6563,0.0,89.15908,0
GRID,1912,0,353.9088,0.0,88.72091,0
GRID,1913,0,352.1612,0.0,88.28273,0
GRID,1914,0,350.4136,0.0,87.84456,0
GRID,1915,0,348.666,0.0,87.40638,0
GRID,1916,0,346.9185,0.0,86.96821,0
GRID,1917,0,345.1709,0.0,86.53003,0
GRID,1918,0,343.4233,0.0,86.09185,0
GRID,1919,0,341.6758,0.0,85.65368,0
GRID,1920,0,339.9282,0.0,85.2155,0
GRID,1921,0,338.1806,0.0,84.77733,0
GRID,1922,0,336.433,0.0,84.33915,0
GRID,1923,0,334.6855,0.0,83.90098,0
GRID,1924,0,332.9379,0.0,83.4628,0
GRID,1925,0,331.1903,0.0,83.02462,0
GRID,1926,0,329.4428,0.0,82.58645,0
GRID,1927,0,327.6952,0.0,82.14827,0
GRID,1928,0,325.9476,0.0,81.7101,0
GRID,1929,0,324.2001,0.0,81.27192,0
GRID,1930,0,322.4525,0.0,80.83375,0
GRID,1931,0,320.7049,0.0,80.39557,0
GRID,1932,0,318.9573,0.0,79.95739,0
GRID,1933,0,317.2098,0.0,79.51922,0
GRID,1934,0,315.4622,0.0,79.08104,0
GRID,1935,0,313.7146,0.0,78.64287,0
GRID,1936,0,311.9671,0.0,78.20469,0
GRID,1937,0,310.2195,0.0,77.76652,0
GRID,1938,0,308.4719,0.0,77.32834,0
GRID,1939,0,306.7243,0.0,76.89016,0
GRID,1940,0,304.9768,0.0,76.45199,0
GRID,1941,0,303.2292,0.0,76.01381,0
GRID,1942,0,301.4816,0.0,75.57564,0
GRID,1943,0,299.7341,0.0,75.13746,0
GRID,1944,0,297.9865,0.0,74.69929,0
GRID,1945,0,296.2389,0.0,74.26111,0
GRID,1946,0,294.4914,0.0,73.82293,0
GRID,1947,0,292.7438,0.0,73.38476,0
GRID,1948,0,393.3566,0.0,101.7296,0
GRID,1949,0,391.6123,0.0,101.2785,0
GRID,1950,0,389.868,0.0,100.8273,0
GRID,1951,0,388.1238,0.0,100.3761,0
GRID,1952,0,386.3795,0.0,99.92494,0
GRID,1953,0,384.6353,0.0,99.47377,0
GRID,1954,0,382.891,0.0,99.0226,0
GRID,1955,0,381.1467,0.0,98.57142,0
GRID,1956,0,379.4025,0.0,98.12025,0
GRID,1957,0,377.6582,0.0,97.66908,0
GRID,1958,0,375.914,0.0,97.21791,0
GRID,1959,0,374.1697,0.0,96.76673,0
GRID,1960,0,372.4254,0.0,96.31556,0
GRID,1961,0,370.6812,0.0,95.86439,0
GRID,1962,0,368.9369,0.0,95.41321,0
GRID,1963,0,367.1927,0.0,94.96204,0
GRID,1964,0,365.4484,0.0,94.51087,0
GRID,1965,0,363.7041,0.0,94.05969,0
GRID,1966,0,361.9599,0.0,93.60852,0
GRID,1967,0,360.2156,0.0,93.15735,0
GRID,1968,0,358.4714,0.0,92.70617,0
GRID,1969,0,356.7271,0.0,92.255,0
GRID,1970,0,354.9828,0.0,91.80383,0
GRID,1971,0,353.2386,0.0,91.35265,0
GRID,1972,0,351.4943,0.0,90.90148,0
GRID,1973,0,349.7501,0.0,90.45031,0
GRID,1974,0,348.0058,0.0,89.99913,0
GRID,1975,0,346.2615,0.0,89.54796,0
GRID,1976,0,344.5173,0.0,89.09679,0
GRID,1977,0,342.773,0.0,88.64561,0
GRID,1978,0,341.0288,0.0,88.19444,0
GRID,1979,0,339.2845,0.0,87.74327,0
GRID,1980,0,337.5402,0.0,87.29209,0
GRID,1981,0,335.796,0.0,86.84092,0
GRID,1982,0,334.0517,0.0,86.38975,0
GRID,1983,0,332.3075,0.0,85.93857,0
GRID,1984,0,330.5632,0.0,85.4874,0
GRID,1985,0,328.8189,0.0,85.03623,0
GRID,1986,0,327.0747,0.0,84.58505,0
GRID,1987,0,325.3304,0.0,84.13388,0
GRID,1988,0,323.5862,0.0,83.68271,0
GRID,1989,0,321.8419,0.0,83.23153,0
GRID,1990,0,320.0976,0.0,82.78036,0
GRID,1991,0,318.3534,0.0,82.32919,0
GRID,1992,0,316.6091,0.0,81.87801,0
GRID,1993,0,314.8649,0.0,81.42684,0
GRID,1994,0,313.1206,0.0,80.97567,0
GRID,1995,0,311.3763,0.0,80.52449,0
GRID,1996,0,309.6321,0.0,80.07332,0
GRID,1997,0,307.8878,0.0,79.62215,0
GRID,1998,0,306.1436,0.0,79.17098,0
GRID,1999,0,304.3993,0.0,78.7198,0
GRID,2000,0,302.655,0.0,78.26863,0
GRID,2001,0,300.9108,0.0,77.81746,0
GRID,2002,0,299.1665,0.0,77.36628,0
GRID,2003,0,297.4223,0.0,76.91511,0
GRID,2004,0,295.678,0.0,76.46394,0
GRID,2005,0,293.9337,0.0,76.01276,0
GRID,2006,0,292.1895,0.0,75.56159,0
GRID,2007,0,392.5885,0.0,104.6547,0
GRID,2008,0,390.8476,0.0,104.1905,0
GRID,2009,0,389.1068,0.0,103.7264,0
GRID,2010,0,387.3659,0.0,103.2623,0
GRID,2011,0,385.6251,0.0,102.7981,0
GRID,2012,0,383.8842,0.0,102.334,0
GRID,2013,0,382.1434,0.0,101.8698,0
GRID,2014,0,380.4025,0.0,101.4057,0
GRID,2015,0,378.6616,0.0,100.9415,0
GRID,2016,0,376.9208,0.0,100.4774,0
GRID,2017,0,375.1799,0.0,100.0132,0
GRID,2018,0,373.4391,0.0,99.54909,0
GRID,2019,0,371.6982,0.0,99.08494,0
GRID,2020,0,369.9574,0.0,98.62079,0
GRID,2021,0,368.2165,0.0,98.15665,0
GRID,2022,0,366.4757,0.0,97.6925,0
GRID,2023,0,364.7348,0.0,97.22836,0
GRID,2024,0,362.994,0.0,96.76421,0
GRID,2025,0,361.2531,0.0,96.30007,0
GRID,2026,0,359.5123,0.0,95.83592,0
GRID,2027,0,357.7714,0.0,95.37177,0
GRID,2028,0,356.0306,0.0,94.90763,0
GRID,2029,0,354.2897,0.0,94.44348,0
GRID,2030,0,352.5489,0.0,93.97934,0
GRID,2031,0,350.808,0.0,93.51519,0
GRID,2032,0,349.0671,0.0,93.05104,0
GRID,2033,0,347.3263,0.0,92.5869,0
GRID,2034,0,345.5854,0.0,92.12275,0
GRID,2035,0,343.8446,0.0,91.65861,0
GRID,2036,0,342.1037,0.0,91.19446,0
GRID,2037,0,340.3629,0.0,90.73032,0
GRID,2038,0,338.622,0.0,90.26617,0
GRID,2039,0,336.8812,0.0,89.80202,0
GRID,2040,0,335.1403,0.0,89.33788,0
GRID,2041,0,333.3995,0.0,88.87373,0
GRID,2042,0,331.6586,0.0,88.40959,0
GRID,2043,0,329.9178,0.0,87.94544,0
GRID,2044,0,328.1769,0.0,87.48129,0
GRID,2045,0,326.4361,0.0,87.01715,0
GRID,2046,0,324.6952,0.0,86.553,0
GRID,2047,0,322.9544,0.0,86.08886,0
GRID,2048,0,321.2135,0.0,85.62471,0
GRID,2049,0,319.4726,0.0,85.16057,0
GRID,2050,0,317.7318,0.0,84.69642,0
GRID,2051,0,315.9909,0.0,84.23227,0
GRID,2052,0,314.2501,0.0,83.76813,0
GRID,2053,0,312.5092,0.0,83.30398,0
GRID,2054,0,310.7684,0.0,82.83984,0
GRID,2055,0,309.0275,0.0,82.37569,0
GRID,2056,0,307.2867,0.0,81.91154,0
GRID,2057,0,305.5458,0.0,81.4474,0
GRID,2058,0,303.805,0.0,80.98325,0
GRID,2059,0,302.0641,0.0,80.51911,0
GRID,2060,0,300.3233,0.0,80.05496,0
GRID,2061,0,298.5824,0.0,79.59082,0
GRID,2062,0,296.8416,0.0,79.12667,0
GRID,2063,0,295.1007,0.0,78.66252,0
GRID,2064,0,293.3599,0.0,78.19838,0
GRID,2065,0,291.619,0.0,77.73423,0
GRID,2066,0,391.7986,0.0,107.5739,0
GRID,2067,0,390.0613,0.0,107.0969,0
GRID,2068,0,388.3239,0.0,106.6198,0
GRID,2069,0,386.5866,0.0,106.1427,0
GRID,2070,0,384.8492,0.0,105.6656,0
GRID,2071,0,383.1119,0.0,105.1885,0
GRID,2072,0,381.3745,0.0,104.7114,0
GRID,2073,0,379.6372,0.0,104.2343,0
GRID,2074,0,377.8998,0.0,103.7572,0
GRID,2075,0,376.1625,0.0,103.2801,0
GRID,2076,0,374.4251,0.0,102.803,0
GRID,2077,0,372.6878,0.0,102.3259,0
GRID,2078,0,370.9504,0.0,101.8488,0
GRID,2079,0,369.2131,0.0,101.3717,0
GRID,2080,0,367.4757,0.0,100.8946,0
GRID,2081,0,365.7384,0.0,100.4176,0
GRID,2082,0,364.001,0.0,99.94046,0
GRID,2083,0,362.2637,0.0,99.46337,0
GRID,2084,0,360.5263,0.0,98.98628,0
GRID,2085,0,358.789,0.0,98.50918,0
GRID,2086,0,357.0516,0.0,98.03209,0
GRID,2087,0,355.3143,0.0,97.555,0
GRID,2088,0,353.5769,0.0,97.0779,0
GRID,2089,0,351.8396,0.0,96.60081,0
GRID,2090,0,350.1022,0.0,96.12372,0
GRID,2091,0,348.3649,0.0,95.64663,0
GRID,2092,0,346.6275,0.0,95.16953,0
GRID,2093,0,344.8902,0.0,94.69244,0
GRID,2094,0,343.1528,0.0,94.21535,0
GRID,2095,0,341.4155,0.0,93.73826,0
GRID,2096,0,339.6781,0.0,93.26116,0
GRID,2097,0,337.9408,0.0,92.78407,0
GRID,2098,0,336.2034,0.0,92.30698,0
GRID,2099,0,334.4661,0.0,91.82989,0
GRID,2100,0,332.7287,0.0,91.35279,0
GRID,2101,0,330.9914,0.0,90.8757,0
GRID,2102,0,329.254,0.0,90.39861,0
GRID,2103,0,327.5167,0.0,89.92151,0
GRID,2104,0,325.7793,0.0,89.44442,0
GRID,2105,0,324.042,0.0,88.96733,0
GRID,2106,0,322.3046,0.0,88.49024,0
GRID,2107,0,320.5673,0.0,88.01314,0
GRID,2108,0,318.8299,0.0,87.53605,0
GRID,2109,0,317.0926,0.0,87.05896,0
GRID,2110,0,315.3552,0.0,86.58187,0
GRID,2111,0,313.6179,0.0,86.10477,0
GRID,2112,0,311.8805,0.0,85.62768,0
GRID,2113,0,310.1432,0.0,85.15059,0
GRID,2114,0,308.4058,0.0,84.67349,0
GRID,2115,0,306.6685,0.0,84.1964,0
GRID,2116,0,304.9312,0.0,83.71931,0
GRID,2117,0,303.1938,0.0,83.24222,0
GRID,2118,0,301.4565,0.0,82.76512,0
GRID,2119,0,299.7191,0.0,82.28803,0
GRID,2120,0,297.9818,0.0,81.81094,0
GRID,2121,0,296.2444,0.0,81.33385,0
GRID,2122,0,294.5071,0.0,80.85675,0
GRID,2123,0,292.7697,0.0,80.37966,0
GRID,2124,0,291.0324,0.0,79.90257,0
GRID,2125,0,390.9871,0.0,110.4872,0
GRID,2126,0,389.2533,0.0,109.9972,0
GRID,2127,0,387.5196,0.0,109.5072,0
GRID,2128,0,385.7858,0.0,109.0172,0
GRID,2129,0,384.0521,0.0,108.5272,0
GRID,2130,0,382.3183,0.0,108.0372,0
GRID,2131,0,380.5846,0.0,107.5472,0
GRID,2132,0,378.8508,0.0,107.0571,0
GRID,2133,0,377.1171,0.0,106.5671,0
GRID,2134,0,375.3833,0.0,106.0771,0
GRID,2135,0,373.6496,0.0,105.5871,0
GRID,2136,0,371.9158,0.0,105.0971,0
GRID,2137,0,370.1821,0.0,104.6071,0
GRID,2138,0,368.4483,0.0,104.1171,0
GRID,2139,0,366.7146,0.0,103.6271,0
GRID,2140,0,364.9808,0.0,103.137,0
GRID,2141,0,363.2471,0.0,102.647,0
GRID,2142,0,361.5133,0.0,102.157,0
GRID,2143,0,359.7796,0.0,101.667,0
GRID,2144,0,358.0458,0.0,101.177,0
GRID,2145,0,356.3121,0.0,100.687,0
GRID,2146,0,354.5783,0.0,100.197,0
GRID,2147,0,352.8446,0.0,99.70695,0
GRID,2148,0,351.1108,0.0,99.21694,0
GRID,2149,0,349.3771,0.0,98.72692,0
GRID,2150,0,347.6433,0.0,98.23691,0
GRID,2151,0,345.9096,0.0,97.7469,0
GRID,2152,0,344.1758,0.0,97.25688,0
GRID,2153,0,342.4421,0.0,96.76687,0
GRID,2154,0,340.7083,0.0,96.27686,0
GRID,2155,0,338.9746,0.0,95.78684,0
GRID,2156,0,337.2408,0.0,95.29683,0
GRID,2157,0,335.5071,0.0,94.80682,0
GRID,2158,0,333.7733,0.0,94.3168,0
GRID,2159,0,332.0396,0.0,93.82679,0
GRID,2160,0,330.3058,0.0,93.33678,0
GRID,2161,0,328.5721,0.0,92.84676,0
GRID,2162,0,326.8383,0.0,92.35675,0
GRID,2163,0,325.1046,0.0,91.86674,0
GRID,2164,0,323.3708,0.0,91.37672,0
GRID,2165,0,321.6371,0.0,90.88671,0
GRID,2166,0,319.9033,0.0,90.3967,0
GRID,2167,0,318.1696,0.0,89.90669,0
GRID,2168,0,316.4358,0.0,89.41667,0
GRID,2169,0,314.7021,0.0,88.92666,0
GRID,2170,0,312.9683,0.0,88.43665,0
GRID,2171,0,311.2346,0.0,87.94663,0
GRID,2172,0,309.5008,0.0,87.45662,0
GRID,2173,0,307.7671,0.0,86.96661,0
GRID,2174,0,306.0333,0.0,86.47659,0
GRID,2175,0,304.2996,0.0,85.98658,0
GRID,2176,0,302.5658,0.0,85.49657,0
GRID,2177,0,300.8321,0.0,85.00655,0
GRID,2178,0,299.0983,0.0,84.51654,0
GRID,2179,0,297.3646,0.0,84.02653,0
GRID,2180,0,295.6308,0.0,83.53651,0
GRID,2181,0,293.8971,0.0,83.0465,0
GRID,2182,0,292.1633,0.0,82.55649,0
GRID,2183,0,290.4296,0.0,82.06647,0
GRID,2184,0,390.1539,0.0,113.3944,0
GRID,2185,0,388.4238,0.0,112.8915,0
GRID,2186,0,386.6938,0.0,112.3886,0
GRID,2187,0,384.9637,0.0,111.8857,0
GRID,2188,0,383.2336,0.0,111.3828,0
GRID,2189,0,381.5036,0.0,110.8799,0
GRID,2190,0,379.7735,0.0,110.377,0
GRID,2191,0,378.0435,0.0,109.8741,0
GRID,2192,0,376.3134,0.0,109.3712,0
GRID,2193,0,374.5834,0.0,108.8683,0
GRID,2194,0,372.8533,0.0,108.3653,0
GRID,2195,0,371.1233,0.0,107.8624,0
GRID,2196,0,369.3932,0.0,107.3595,0
GRID,2197,0,367.6632,0.0,106.8566,0
GRID,2198,0,365.9331,0.0,106.3537,0
GRID,2199,0,364.203,0.0,105.8508,0
GRID,2200,0,362.473,0.0,105.3479,0
GRID,2201,0,360.7429,0.0,104.845,0
GRID,2202,0,359.0129,0.0,104.3421,0
GRID,2203,0,357.2828,0.0,103.8392,0
GRID,2204,0,355.5528,0.0,103.3363,0
GRID,2205,0,353.8227,0.0,102.8334,0
GRID,2206,0,352.0927,0.0,102.3305,0
GRID,2207,0,350.3626,0.0,101.8276,0
GRID,2208,0,348.6326,0.0,101.3247,0
GRID,2209,0,346.9025,0.0,100.8218,0
GRID,2210,0,345.1724,0.0,100.3188,0
GRID,2211,0,343.4424,0.0,99.81594,0
GRID,2212,0,341.7123,0.0,99.31303,0
GRID,2213,0,339.9823,0.0,98.81012,0
GRID,2214,0,338.2522,0.0,98.30722,0
GRID,2215,0,336.5222,0.0,97.80431,0
GRID,2216,0,334.7921,0.0,97.3014,0
GRID,2217,0,333.0621,0.0,96.7985,0
GRID,2218,0,331.332,0.0,96.29559,0
GRID,2219,0,329.602,0.0,95.79268,0
GRID,2220,0,327.8719,0.0,95.28978,0
GRID,2221,0,326.1419,0.0,94.78687,0
GRID,2222,0,324.4118,0.0,94.28397,0
GRID,2223,0,322.6817,0.0,93.78106,0
GRID,2224,0,320.9517,0.0,93.27815,0
GRID,2225,0,319.2216,0.0,92.77525,0
GRID,2226,0,317.4916,0.0,92.27234,0
GRID,2227,0,315.7615,0.0,91.76943,0
GRID,2228,0,314.0315,0.0,91.26653,0
GRID,2229,0,312.3014,0.0,90.76362,0
GRID,2230,0,310.5714,0.0,90.26071,0
GRID,2231,0,308.8413,0.0,89.75781,0
GRID,2232,0,307.1113,0.0,89.2549,0
GRID,2233,0,305.3812,0.0,88.75199,0
GRID,2234,0,303.6511,0.0,88.24909,0
GRID,2235,0,301.9211,0.0,87.74618,0
GRID,2236,0,300.191,0.0,87.24327,0
GRID,2237,0,298.461,0.0,86.74037,0
GRID,2238,0,296.7309,0.0,86.23746,0
GRID,2239,0,295.0009,0.0,85.73455,0
GRID,2240,0,293.2708,0.0,85.23165,0
GRID,2241,0,291.5408,0.0,84.72874,0
GRID,2242,0,289.8107,0.0,84.22583,0
GRID,2243,0,389.299,0.0,116.2953,0
GRID,2244,0,387.5728,0.0,115.7795,0
GRID,2245,0,385.8465,0.0,115.2638,0
GRID,2246,0,384.1202,0.0,114.748,0
GRID,2247,0,382.394,0.0,114.2322,0
GRID,2248,0,380.6677,0.0,113.7164,0
GRID,2249,0,378.9415,0.0,113.2007,0
GRID,2250,0,377.2152,0.0,112.6849,0
GRID,2251,0,375.4889,0.0,112.1691,0
GRID,2252,0,373.7627,0.0,111.6534,0
GRID,2253,0,372.0364,0.0,111.1376,0
GRID,2254,0,370.3101,0.0,110.6218,0
GRID,2255,0,368.5839,0.0,110.106,0
GRID,2256,0,366.8576,0.0,109.5903,0
GRID,2257,0,365.1314,0.0,109.0745,0
GRID,2258,0,363.4051,0.0,108.5587,0
GRID,2259,0,361.6788,0.0,108.043,0
GRID,2260,0,359.9526,0.0,107.5272,0
GRID,2261,0,358.2263,0.0,107.0114,0
GRID,2262,0,356.5,0.0,106.4956,0
GRID,2263,0,354.7738,0.0,105.9799,0
GRID,2264,0,353.0475,0.0,105.4641,0
GRID,2265,0,351.3213,0.0,104.9483,0
GRID,2266,0,349.595,0.0,104.4326,0
GRID,2267,0,347.8687,0.0,103.9168,0
GRID,2268,0,346.1425,0.0,103.401,0
GRID,2269,0,344.4162,0.0,102.8852,0
GRID,2270,0,342.6899,0.0,102.3695,0
GRID,2271,0,340.9637,0.0,101.8537,0
GRID,2272,0,339.2374,0.0,101.3379,0
GRID,2273,0,337.5111,0.0,100.8221,0
GRID,2274,0,335.7849,0.0,100.3064,0
GRID,2275,0,334.0586,0.0,99.7906,0
GRID,2276,0,332.3324,0.0,99.27483,0
GRID,2277,0,330.6061,0.0,98.75906,0
GRID,2278,0,328.8798,0.0,98.24328,0
GRID,2279,0,327.1536,0.0,97.72751,0
GRID,2280,0,325.4273,0.0,97.21174,0
GRID,2281,0,323.701,0.0,96.69597,0
GRID,2282,0,321.9748,0.0,96.1802,0
GRID,2283,0,320.2485,0.0,95.66442,0
GRID,2284,0,318.5223,0.0,95.14865,0
GRID,2285,0,316.796,0.0,94.63288,0
GRID,2286,0,315.0697,0.0,94.11711,0
GRID,2287,0,313.3435,0.0,93.60134,0
GRID,2288,0,311.6172,0.0,93.08556,0
GRID,2289,0,309.8909,0.0,92.56979,0
GRID,2290,0,308.1647,0.0,92.05402,0
GRID,2291,0,306.4384,0.0,91.53825,0
GRID,2292,0,304.7122,0.0,91.02248,0
GRID,2293,0,302.9859,0.0,90.5067,0
GRID,2294,0,301.2596,0.0,89.99093,0
GRID,2295,0,299.5334,0.0,89.47516,0
GRID,2296,0,297.8071,0.0,88.95939,0
GRID,2297,0,296.0808,0.0,88.44361,0
GRID,2298,0,294.3546,0.0,87.92784,0
GRID,2299,0,292.6283,0.0,87.41207,0
GRID,2300,0,290.902,0.0,86.8963,0
GRID,2301,0,289.1758,0.0,86.38053,0
GRID,2302,0,388.4226,0.0,119.1898,0
GRID,2303,0,386.7003,0.0,118.6611,0
GRID,2304,0,384.9779,0.0,118.1325,0
GRID,2305,0,383.2555,0.0,117.6039,0
GRID,2306,0,381.5331,0.0,117.0753,0
GRID,2307,0,379.8108,0.0,116.5467,0
GRID,2308,0,378.0884,0.0,116.0181,0
GRID,2309,0,376.366,0.0,115.4895,0
GRID,2310,0,374.6436,0.0,114.9609,0
GRID,2311,0,372.9213,0.0,114.4323,0
GRID,2312,0,371.1989,0.0,113.9037,0
GRID,2313,0,369.4765,0.0,113.3751,0
GRID,2314,0,367.7541,0.0,112.8464,0
GRID,2315,0,366.0318,0.0,112.3178,0
GRID,2316,0,364.3094,0.0,111.7892,0
GRID,2317,0,362.587,0.0,111.2606,0
GRID,2318,0,360.8646,0.0,110.732,0
GRID,2319,0,359.1422,0.0,110.2034,0
GRID,2320,0,357.4199,0.0,109.6748,0
GRID,2321,0,355.6975,0.0,109.1462,0
GRID,2322,0,353.9751,0.0,108.6176,0
GRID,2323,0,352.2527,0.0,108.089,0
GRID,2324,0,350.5304,0.0,107.5604,0
GRID,2325,0,348.808,0.0,107.0318,0
GRID,2326,0,347.0856,0.0,106.5031,0
GRID,2327,0,345.3632,0.0,105.9745,0
GRID,2328,0,343.6409,0.0,105.4459,0
GRID,2329,0,341.9185,0.0,104.9173,0
GRID,2330,0,340.1961,0.0,104.3887,0
GRID,2331,0,338.4737,0.0,103.8601,0
GRID,2332,0,336.7514,0.0,103.3315,0
GRID,2333,0,335.029,0.0,102.8029,0
GRID,2334,0,333.3066,0.0,102.2743,0
GRID,2335,0,331.5842,0.0,101.7457,0
GRID,2336,0,329.8619,0.0,101.2171,0
GRID,2337,0,328.1395,0.0,100.6884,0
GRID,2338,0,326.4171,0.0,100.1598,0
GRID,2339,0,324.6947,0.0,99.63122,0
GRID,2340,0,322.9724,0.0,99.10262,0
GRID,2341,0,321.25,0.0,98.57401,0
GRID,2342,0,319.5276,0.0,98.0454,0
GRID,2343,0,317.8052,0.0,97.51679,0
GRID,2344,0,316.0829,0.0,96.98818,0
GRID,2345,0,314.3605,0.0,96.45957,0
GRID,2346,0,312.6381,0.0,95.93096,0
GRID,2347,0,310.9157,0.0,95.40235,0
GRID,2348,0,309.1934,0.0,94.87374,0
GRID,2349,0,307.471,0.0,94.34513,0
GRID,2350,0,305.7486,0.0,93.81653,0
GRID,2351,0,304.0262,0.0,93.28792,0
GRID,2352,0,302.3038,0.0,92.75931,0
GRID,2353,0,300.5815,0.0,92.2307,0
GRID,2354,0,298.8591,0.0,91.70209,0
GRID,2355,0,297.1367,0.0,91.17348,0
GRID,2356,0,295.4143,0.0,90.64487,0
GRID,2357,0,293.692,0.0,90.11626,0
GRID,2358,0,291.9696,0.0,89.58765,0
GRID,2359,0,290.2472,0.0,89.05904,0
GRID,2360,0,288.5248,0.0,88.53044,0
GRID,2361,0,387.5247,0.0,122.0776,0
GRID,2362,0,385.8063,0.0,121.5362,0
GRID,2363,0,384.0879,0.0,120.9948,0
GRID,2364,0,382.3695,0.0,120.4533,0
GRID,2365,0,380.6511,0.0,119.9119,0
GRID,2366,0,378.9327,0.0,119.3705,0
GRID,2367,0,377.2144,0.0,118.8291,0
GRID,2368,0,375.496,0.0,118.2877,0
GRID,2369,0,373.7776,0.0,117.7463,0
GRID,2370,0,372.0592,0.0,117.2049,0
GRID,2371,0,370.3408,0.0,116.6634,0
GRID,2372,0,368.6224,0.0,116.122,0
GRID,2373,0,366.904,0.0,115.5806,0
GRID,2374,0,365.1856,0.0,115.0392,0
GRID,2375,0,363.4672,0.0,114.4978,0
GRID,2376,0,361.7488,0.0,113.9564,0
GRID,2377,0,360.0304,0.0,113.4149,0
GRID,2378,0,358.312,0.0,112.8735,0
GRID,2379,0,356.5936,0.0,112.3321,0
GRID,2380,0,354.8752,0.0,111.7907,0
GRID,2381,0,353.1569,0.0,111.2493,0
GRID,2382,0,351.4385,0.0,110.7079,0
GRID,2383,0,349.7201,0.0,110.1664,0
GRID,2384,0,348.0017,0.0,109.625,0
GRID,2385,0,346.2833,0.0,109.0836,0
GRID,2386,0,344.5649,0.0,108.5422,0
GRID,2387,0,342.8465,0.0,108.0008,0
GRID,2388,0,341.1281,0.0,107.4594,0
GRID,2389,0,339.4097,0.0,106.9179,0
GRID,2390,0,337.6913,0.0,106.3765,0
GRID,2391,0,335.9729,0.0,105.8351,0
GRID,2392,0,334.2545,0.0,105.2937,0
GRID,2393,0,332.5361,0.0,104.7523,0
GRID,2394,0,330.8177,0.0,104.2109,0
GRID,2395,0,329.0994,0.0,103.6694,0
GRID,2396,0,327.381,0.0,103.128,0
GRID,2397,0,325.6626,0.0,102.5866,0
GRID,2398,0,323.9442,0.0,102.0452,0
GRID,2399,0,322.2258,0.0,101.5038,0
GRID,2400,0,320.5074,0.0,100.9624,0
GRID,2401,0,318.789,0.0,100.4209,0
GRID,2402,0,317.0706,0.0,99.87952,0
GRID,2403,0,315.3522,0.0,99.33811,0
GRID,2404,0,313.6338,0.0,98.79669,0
GRID,2405,0,311.9154,0.0,98.25527,0
GRID,2406,0,310.197,0.0,97.71386,0
GRID,2407,0,308.4786,0.0,97.17244,0
GRID,2408,0,306.7602,0.0,96.63102,0
GRID,2409,0,305.0419,0.0,96.08961,0
GRID,2410,0,303.3235,0.0,95.54819,0
GRID,2411,0,301.6051,0.0,95.00677,0
GRID,2412,0,299.8867,0.0,94.46536,0
GRID,2413,0,298.1683,0.0,93.92394,0
GRID,2414,0,296.4499,0.0,93.38252,0
GRID,2415,0,294.7315,0.0,92.84111,0
GRID,2416,0,293.0131,0.0,92.29969,0
GRID,2417,0,291.2947,0.0,91.75827,0
GRID,2418,0,289.5763,0.0,91.21686,0
GRID,2419,0,287.8579,0.0,90.67544,0
GRID,2420,0,386.6053,0.0,124.9587,0
GRID,2421,0,384.891,0.0,124.4045,0
GRID,2422,0,383.1767,0.0,123.8503,0
GRID,2423,0,381.4624,0.0,123.2961,0
GRID,2424,0,379.748,0.0,122.7419,0
GRID,2425,0,378.0337,0.0,122.1877,0
GRID,2426,0,376.3194,0.0,121.6335,0
GRID,2427,0,374.6051,0.0,121.0793,0
GRID,2428,0,372.8908,0.0,120.5251,0
GRID,2429,0,371.1765,0.0,119.9709,0
GRID,2430,0,369.4622,0.0,119.4167,0
GRID,2431,0,367.7478,0.0,118.8625,0
GRID,2432,0,366.0335,0.0,118.3083,0
GRID,2433,0,364.3192,0.0,117.7542,0
GRID,2434,0,362.6049,0.0,117.2,0
GRID,2435,0,360.8906,0.0,116.6458,0
GRID,2436,0,359.1763,0.0,116.0916,0
GRID,2437,0,357.462,0.0,115.5374,0
GRID,2438,0,355.7476,0.0,114.9832,0
GRID,2439,0,354.0333,0.0,114.429,0
GRID,2440,0,352.319,0.0,113.8748,0
GRID,2441,0,350.6047,0.0,113.3206,0
GRID,2442,0,348.8904,0.0,112.7664,0
GRID,2443,0,347.1761,0.0,112.2122,0
GRID,2444,0,345.4618,0.0,111.658,0
GRID,2445,0,343.7474,0.0,111.1038,0
GRID,2446,0,342.0331,0.0,110.5496,0
GRID,2447,0,340.3188,0.0,109.9954,0
GRID,2448,0,338.6045,0.0,109.4412,0
GRID,2449,0,336.8902,0.0,108.8871,0
GRID,2450,0,335.1759,0.0,108.3329,0
GRID,2451,0,333.4616,0.0,107.7787,0
GRID,2452,0,331.7472,0.0,107.2245,0
GRID,2453,0,330.0329,0.0,106.6703,0
GRID,2454,0,328.3186,0.0,106.1161,0
GRID,2455,0,326.6043,0.0,105.5619,0
GRID,2456,0,324.89,0.0,105.0077,0
GRID,2457,0,323.1757,0.0,104.4535,0
GRID,2458,0,321.4614,0.0,103.8993,0
GRID,2459,0,319.747,0.0,103.3451,0
GRID,2460,0,318.0327,0.0,102.7909,0
GRID,2461,0,316.3184,0.0,102.2367,0
GRID,2462,0,314.6041,0.0,101.6825,0
GRID,2463,0,312.8898,0.0,101.1283,0
GRID,2464,0,311.1755,0.0,100.5741,0
GRID,2465,0,309.4612,0.0,100.0199,0
GRID,2466,0,307.7468,0.0,99.46575,0
GRID,2467,0,306.0325,0.0,98.91156,0
GRID,2468,0,304.3182,0.0,98.35736,0
GRID,2469,0,302.6039,0.0,97.80317,0
GRID,2470,0,300.8896,0.0,97.24898,0
GRID,2471,0,299.1753,0.0,96.69478,0
GRID,2472,0,297.4609,0.0,96.14059,0
GRID,2473,0,295.7466,0.0,95.58639,0
GRID,2474,0,294.0323,0.0,95.0322,0
GRID,2475,0,292.318,0.0,94.47801,0
GRID,2476,0,290.6037,0.0,93.92381,0
GRID,2477,0,288.8894,0.0,93.36962,0
GRID,2478,0,287.1751,0.0,92.81543,0
GRID,2479,0,385.6645,0.0,127.8328,0
GRID,2480,0,383.9543,0.0,127.2659,0
GRID,2481,0,382.2442,0.0,126.6989,0
GRID,2482,0,380.5341,0.0,126.132,0
GRID,2483,0,378.8239,0.0,125.5651,0
GRID,2484,0,377.1138,0.0,124.9981,0
GRID,2485,0,375.4036,0.0,124.4312,0
GRID,2486,0,373.6935,0.0,123.8642,0
GRID,2487,0,371.9833,0.0,123.2973,0
GRID,2488,0,370.2732,0.0,122.7304,0
GRID,2489,0,368.5631,0.0,122.1634,0
GRID,2490,0,366.8529,0.0,121.5965,0
GRID,2491,0,365.1428,0.0,121.0295,0
GRID,2492,0,363.4326,0.0,120.4626,0
GRID,2493,0,361.7225,0.0,119.8957,0
GRID,2494,0,360.0124,0.0,119.3287,0
GRID,2495,0,358.3022,0.0,118.7618,0
GRID,2496,0,356.5921,0.0,118.1948,0
GRID,2497,0,354.8819,0.0,117.6279,0
GRID,2498,0,353.1718,0.0,117.061,0
GRID,2499,0,351.4617,0.0,116.494,0
GRID,2500,0,349.7515,0.0,115.9271,0
GRID,2501,0,348.0414,0.0,115.3601,0
GRID,2502,0,346.3312,0.0,114.7932,0
GRID,2503,0,344.6211,0.0,114.2263,0
GRID,2504,0,342.911,0.0,113.6593,0
GRID,2505,0,341.2008,0.0,113.0924,0
GRID,2506,0,339.4907,0.0,112.5254,0
GRID,2507,0,337.7805,0.0,111.9585,0
GRID,2508,0,336.0704,0.0,111.3915,0
GRID,2509,0,334.3602,0.0,110.8246,0
GRID,2510,0,332.6501,0.0,110.2577,0
GRID,2511,0,330.94,0.0,109.6907,0
GRID,2512,0,329.2298,0.0,109.1238,0
GRID,2513,0,327.5197,0.0,108.5568,0
GRID,2514,0,325.8095,0.0,107.9899,0
GRID,2515,0,324.0994,0.0,107.423,0
GRID,2516,0,322.3893,0.0,106.856,0
GRID,2517,0,320.6791,0.0,106.2891,0
GRID,2518,0,318.969,0.0,105.7221,0
GRID,2519,0,317.2588,0.0,105.1552,0
GRID,2520,0,315.5487,0.0,104.5883,0
GRID,2521,0,313.8386,0.0,104.0213,0
GRID,2522,0,312.1284,0.0,103.4544,0
GRID,2523,0,310.4183,0.0,102.8874,0
GRID,2524,0,308.7081,0.0,102.3205,0
GRID,2525,0,306.998,0.0,101.7536,0
GRID,2526,0,305.2878,0.0,101.1866,0
GRID,2527,0,303.5777,0.0,100.6197,0
GRID,2528,0,301.8676,0.0,100.0527,0
GRID,2529,0,300.1574,0.0,99.48579,0
GRID,2530,0,298.4473,0.0,98.91885,0
GRID,2531,0,296.7371,0.0,98.35191,0
GRID,2532,0,295.027,0.0,97.78497,0
GRID,2533,0,293.3169,0.0,97.21803,0
GRID,2534,0,291.6067,0.0,96.65109,0
GRID,2535,0,289.8966,0.0,96.08415,0
GRID,2536,0,288.1864,0.0,95.51721,0
GRID,2537,0,286.4763,0.0,94.95027,0
GRID,2538,0,384.7023,0.0,130.6999,0
GRID,2539,0,382.9964,0.0,130.1202,0
GRID,2540,0,381.2905,0.0,129.5406,0
GRID,2541,0,379.5847,0.0,128.9609,0
GRID,2542,0,377.8788,0.0,128.3813,0
GRID,2543,0,376.1729,0.0,127.8016,0
GRID,2544,0,374.4671,0.0,127.222,0
GRID,2545,0,372.7612,0.0,126.6423,0
GRID,2546,0,371.0553,0.0,126.0627,0
GRID,2547,0,369.3494,0.0,125.483,0
GRID,2548,0,367.6436,0.0,124.9033,0
GRID,2549,0,365.9377,0.0,124.3237,0
GRID,2550,0,364.2318,0.0,123.744,0
GRID,2551,0,362.5259,0.0,123.1644,0
GRID,2552,0,360.8201,0.0,122.5847,0
GRID,2553,0,359.1142,0.0,122.0051,0
GRID,2554,0,357.4083,0.0,121.4254,0
GRID,2555,0,355.7024,0.0,120.8457,0
GRID,2556,0,353.9966,0.0,120.2661,0
GRID,2557,0,352.2907,0.0,119.6864,0
GRID,2558,0,350.5848,0.0,119.1068,0
GRID,2559,0,348.879,0.0,118.5271,0
GRID,2560,0,347.1731,0.0,117.9475,0
GRID,2561,0,345.4672,0.0,117.3678,0
GRID,2562,0,343.7613,0.0,116.7882,0
GRID,2563,0,342.0555,0.0,116.2085,0
GRID,2564,0,340.3496,0.0,115.6288,0
GRID,2565,0,338.6437,0.0,115.0492,0
GRID,2566,0,336.9378,0.0,114.4695,0
GRID,2567,0,335.232,0.0,113.8899,0
GRID,2568,0,333.5261,0.0,113.3102,0
GRID,2569,0,331.8202,0.0,112.7306,0
GRID,2570,0,330.1144,0.0,112.1509,0
GRID,2571,0,328.4085,0.0,111.5713,0
GRID,2572,0,326.7026,0.0,110.9916,0
GRID,2573,0,324.9967,0.0,110.4119,0
GRID,2574,0,323.2909,0.0,109.8323,0
GRID,2575,0,321.585,0.0,109.2526,0
GRID,2576,0,319.8791,0.0,108.673,0
GRID,2577,0,318.1732,0.0,108.0933,0
GRID,2578,0,316.4674,0.0,107.5137,0
GRID,2579,0,314.7615,0.0,106.934,0
GRID,2580,0,313.0556,0.0,106.3543,0
GRID,2581,0,311.3498,0.0,105.7747,0
GRID,2582,0,309.6439,0.0,105.195,0
GRID,2583,0,307.938,0.0,104.6154,0
GRID,2584,0,306.2321,0.0,104.0357,0
GRID,2585,0,304.5263,0.0,103.4561,0
GRID,2586,0,302.8204,0.0,102.8764,0
GRID,2587,0,301.1145,0.0,102.2968,0
GRID,2588,0,299.4086,0.0,101.7171,0
GRID,2589,0,297.7028,0.0,101.1374,0
GRID,2590,0,295.9969,0.0,100.5578,0
GRID,2591,0,294.291,0.0,99.97813,0
GRID,2592,0,292.5852,0.0,99.39848,0
GRID,2593,0,290.8793,0.0,98.81882,0
GRID,2594,0,289.1734,0.0,98.23917,0
GRID,2595,0,287.4675,0.0,97.65951,0
GRID,2596,0,285.7617,0.0,97.07985,0
GRID,2597,0,383.7188,0.0,133.5597,0
GRID,2598,0,382.0173,0.0,132.9674,0
GRID,2599,0,380.3158,0.0,132.3751,0
GRID,2600,0,378.6143,0.0,131.7827,0
GRID,2601,0,376.9127,0.0,131.1904,0
GRID,2602,0,375.2112,0.0,130.598,0
GRID,2603,0,373.5097,0.0,130.0057,0
GRID,2604,0,371.8082,0.0,129.4134,0
GRID,2605,0,370.1067,0.0,128.821,0
GRID,2606,0,368.4052,0.0,128.2287,0
GRID,2607,0,366.7037,0.0,127.6363,0
GRID,2608,0,365.0022,0.0,127.044,0
GRID,2609,0,363.3007,0.0,126.4517,0
GRID,2610,0,361.5992,0.0,125.8593,0
GRID,2611,0,359.8976,0.0,125.267,0
GRID,2612,0,358.1961,0.0,124.6746,0
GRID,2613,0,356.4946,0.0,124.0823,0
GRID,2614,0,354.7931,0.0,123.49,0
GRID,2615,0,353.0916,0.0,122.8976,0
GRID,2616,0,351.3901,0.0,122.3053,0
GRID,2617,0,349.6886,0.0,121.7129,0
GRID,2618,0,347.9871,0.0,121.1206,0
GRID,2619,0,346.2856,0.0,120.5283,0
GRID,2620,0,344.5841,0.0,119.9359,0
GRID,2621,0,342.8825,0.0,119.3436,0
GRID,2622,0,341.181,0.0,118.7513,0
GRID,2623,0,339.4795,0.0,118.1589,0
GRID,2624,0,337.778,0.0,117.5666,0
GRID,2625,0,336.0765,0.0,116.9742,0
GRID,2626,0,334.375,0.0,116.3819,0
GRID,2627,0,332.6735,0.0,115.7896,0
GRID,2628,0,330.972,0.0,115.1972,0
GRID,2629,0,329.2705,0.0,114.6049,0
GRID,2630,0,327.569,0.0,114.0125,0
GRID,2631,0,325.8674,0.0,113.4202,0
GRID,2632,0,324.1659,0.0,112.8279,0
GRID,2633,0,322.4644,0.0,112.2355,0
GRID,2634,0,320.7629,0.0,111.6432,0
GRID,2635,0,319.0614,0.0,111.0508,0
GRID,2636,0,317.3599,0.0,110.4585,0
GRID,2637,0,315.6584,0.0,109.8662,0
GRID,2638,0,313.9569,0.0,109.2738,0
GRID,2639,0,312.2554,0.0,108.6815,0
GRID,2640,0,310.5539,0.0,108.0891,0
GRID,2641,0,308.8523,0.0,107.4968,0
GRID,2642,0,307.1508,0.0,106.9045,0
GRID,2643,0,305.4493,0.0,106.3121,0
GRID,2644,0,303.7478,0.0,105.7198,0
GRID,2645,0,302.0463,0.0,105.1275,0
GRID,2646,0,300.3448,0.0,104.5351,0
GRID,2647,0,298.6433,0.0,103.9428,0
GRID,2648,0,296.9418,0.0,103.3504,0
GRID,2649,0,295.2403,0.0,102.7581,0
GRID,2650,0,293.5388,0.0,102.1658,0
GRID,2651,0,291.8372,0.0,101.5734,0
GRID,2652,0,290.1357,0.0,100.9811,0
GRID,2653,0,288.4342,0.0,100.3887,0
GRID,2654,0,286.7327,0.0,99.7964,0
GRID,2655,0,285.0312,0.0,99.20406,0
GRID,2656,0,382.714,0.0,136.4122,0
GRID,2657,0,381.017,0.0,135.8072,0
GRID,2658,0,379.3199,0.0,135.2022,0
GRID,2659,0,377.6229,0.0,134.5972,0
GRID,2660,0,375.9258,0.0,133.9922,0
GRID,2661,0,374.2288,0.0,133.3872,0
GRID,2662,0,372.5317,0.0,132.7822,0
GRID,2663,0,370.8347,0.0,132.1772,0
GRID,2664,0,369.1376,0.0,131.5722,0
GRID,2665,0,367.4406,0.0,130.9673,0
GRID,2666,0,365.7435,0.0,130.3623,0
GRID,2667,0,364.0464,0.0,129.7573,0
GRID,2668,0,362.3494,0.0,129.1523,0
GRID,2669,0,360.6523,0.0,128.5473,0
GRID,2670,0,358.9553,0.0,127.9423,0
GRID,2671,0,357.2582,0.0,127.3373,0
GRID,2672,0,355.5612,0.0,126.7323,0
GRID,2673,0,353.8641,0.0,126.1273,0
GRID,2674,0,352.1671,0.0,125.5224,0
GRID,2675,0,350.47,0.0,124.9174,0
GRID,2676,0,348.773,0.0,124.3124,0
GRID,2677,0,347.0759,0.0,123.7074,0
GRID,2678,0,345.3789,0.0,123.1024,0
GRID,2679,0,343.6818,0.0,122.4974,0
GRID,2680,0,341.9848,0.0,121.8924,0
GRID,2681,0,340.2877,0.0,121.2874,0
GRID,2682,0,338.5906,0.0,120.6824,0
GRID,2683,0,336.8936,0.0,120.0774,0
GRID,2684,0,335.1965,0.0,119.4725,0
GRID,2685,0,333.4995,0.0,118.8675,0
GRID,2686,0,331.8024,0.0,118.2625,0
GRID,2687,0,330.1054,0.0,117.6575,0
GRID,2688,0,328.4083,0.0,117.0525,0
GRID,2689,0,326.7113,0.0,116.4475,0
GRID,2690,0,325.0142,0.0,115.8425,0
GRID,2691,0,323.3172,0.0,115.2375,0
GRID,2692,0,321.6201,0.0,114.6325,0
GRID,2693,0,319.9231,0.0,114.0276,0
GRID,2694,0,318.226,0.0,113.4226,0
GRID,2695,0,316.529,0.0,112.8176,0
GRID,2696,0,314.8319,0.0,112.2126,0
GRID,2697,0,313.1349,0.0,111.6076,0
GRID,2698,0,311.4378,0.0,111.0026,0
GRID,2699,0,309.7407,0.0,110.3976,0
GRID,2700,0,308.0437,0.0,109.7926,0
GRID,2701,0,306.3466,0.0,109.1876,0
GRID,2702,0,304.6496,0.0,108.5826,0
GRID,2703,0,302.9525,0.0,107.9777,0
GRID,2704,0,301.2555,0.0,107.3727,0
GRID,2705,0,299.5584,0.0,106.7677,0
GRID,2706,0,297.8614,0.0,106.1627,0
GRID,2707,0,296.1643,0.0,105.5577,0
GRID,2708,0,294.4673,0.0,104.9527,0
GRID,2709,0,292.7702,0.0,104.3477,0
GRID,2710,0,291.0732,0.0,103.7427,0
GRID,2711,0,289.3761,0.0,103.1377,0
GRID,2712,0,287.6791,0.0,102.5328,0
GRID,2713,0,285.982,0.0,101.9278,0
GRID,2714,0,284.2849,0.0,101.3228,0
GRID,2715,0,381.6881,0.0,139.257,0
GRID,2716,0,379.9956,0.0,138.6394,0
GRID,2717,0,378.3031,0.0,138.0218,0
GRID,2718,0,376.6106,0.0,137.4042,0
GRID,2719,0,374.9181,0.0,136.7866,0
GRID,2720,0,373.2256,0.0,136.169,0
GRID,2721,0,371.5331,0.0,135.5514,0
GRID,2722,0,369.8406,0.0,134.9338,0
GRID,2723,0,368.1481,0.0,134.3162,0
GRID,2724,0,366.4556,0.0,133.6986,0
GRID,2725,0,364.7631,0.0,133.081,0
GRID,2726,0,363.0705,0.0,132.4634,0
GRID,2727,0,361.378,0.0,131.8458,0
GRID,2728,0,359.6855,0.0,131.2282,0
GRID,2729,0,357.993,0.0,130.6105,0
GRID,2730,0,356.3005,0.0,129.9929,0
GRID,2731,0,354.608,0.0,129.3753,0
GRID,2732,0,352.9155,0.0,128.7577,0
GRID,2733,0,351.223,0.0,128.1401,0
GRID,2734,0,349.5305,0.0,127.5225,0
GRID,2735,0,347.838,0.0,126.9049,0
GRID,2736,0,346.1455,0.0,126.2873,0
GRID,2737,0,344.453,0.0,125.6697,0
GRID,2738,0,342.7605,0.0,125.0521,0
GRID,2739,0,341.068,0.0,124.4345,0
GRID,2740,0,339.3755,0.0,123.8169,0
GRID,2741,0,337.683,0.0,123.1993,0
GRID,2742,0,335.9905,0.0,122.5817,0
GRID,2743,0,334.298,0.0,121.9641,0
GRID,2744,0,332.6055,0.0,121.3465,0
GRID,2745,0,330.913,0.0,120.7288,0
GRID,2746,0,329.2205,0.0,120.1112,0
GRID,2747,0,327.528,0.0,119.4936,0
GRID,2748,0,325.8355,0.0,118.876,0
GRID,2749,0,324.143,0.0,118.2584,0
GRID,2750,0,322.4505,0.0,117.6408,0
GRID,2751,0,320.758,0.0,117.0232,0
GRID,2752,0,319.0655,0.0,116.4056,0
GRID,2753,0,317.373,0.0,115.788,0
GRID,2754,0,315.6805,0.0,115.1704,0
GRID,2755,0,313.988,0.0,114.5528,0
GRID,2756,0,312.2955,0.0,113.9352,0
GRID,2757,0,310.603,0.0,113.3176,0
GRID,2758,0,308.9105,0.0,112.7,0
GRID,2759,0,307.218,0.0,112.0824,0
GRID,2760,0,305.5255,0.0,111.4648,0
GRID,2761,0,303.833,0.0,110.8471,0
GRID,2762,0,302.1405,0.0,110.2295,0
GRID,2763,0,300.448,0.0,109.6119,0
GRID,2764,0,298.7555,0.0,108.9943,0
GRID,2765,0,297.063,0.0,108.3767,0
GRID,2766,0,295.3705,0.0,107.7591,0
GRID,2767,0,293.678,0.0,107.1415,0
GRID,2768,0,291.9855,0.0,106.5239,0
GRID,2769,0,290.293,0.0,105.9063,0
GRID,2770,0,288.6004,0.0,105.2887,0
GRID,2771,0,286.9079,0.0,104.6711,0
GRID,2772,0,285.2154,0.0,104.0535,0
GRID,2773,0,283.5229,0.0,103.4359,0
GRID,2774,0,380.641,0.0,142.0942,0
GRID,2775,0,378.9531,0.0,141.464,0
GRID,2776,0,377.2653,0.0,140.8338,0
GRID,2777,0,375.5774,0.0,140.2036,0
GRID,2778,0,373.8895,0.0,139.5734,0
GRID,2779,0,372.2017,0.0,138.9433,0
GRID,2780,0,370.5138,0.0,138.3131,0
GRID,2781,0,368.826,0.0,137.6829,0
GRID,2782,0,367.1381,0.0,137.0527,0
GRID,2783,0,365.4503,0.0,136.4225,0
GRID,2784,0,363.7624,0.0,135.7923,0
GRID,2785,0,362.0745,0.0,135.1621,0
GRID,2786,0,360.3867,0.0,134.5319,0
GRID,2787,0,358.6988,0.0,133.9017,0
GRID,2788,0,357.011,0.0,133.2716,0
GRID,2789,0,355.3231,0.0,132.6414,0
GRID,2790,0,353.6352,0.0,132.0112,0
GRID,2791,0,351.9474,0.0,131.381,0
GRID,2792,0,350.2595,0.0,130.7508,0
GRID,2793,0,348.5717,0.0,130.1206,0
GRID,2794,0,346.8838,0.0,129.4904,0
GRID,2795,0,345.196,0.0,128.8602,0
GRID,2796,0,343.5081,0.0,128.23,0
GRID,2797,0,341.8202,0.0,127.5999,0
GRID,2798,0,340.1324,0.0,126.9697,0
GRID,2799,0,338.4445,0.0,126.3395,0
GRID,2800,0,336.7567,0.0,125.7093,0
GRID,2801,0,335.0688,0.0,125.0791,0
GRID,2802,0,333.381,0.0,124.4489,0
GRID,2803,0,331.6931,0.0,123.8187,0
GRID,2804,0,330.0052,0.0,123.1885,0
GRID,2805,0,328.3174,0.0,122.5583,0
GRID,2806,0,326.6295,0.0,121.9282,0
GRID,2807,0,324.9417,0.0,121.298,0
GRID,2808,0,323.2538,0.0,120.6678,0
GRID,2809,0,321.566,0.0,120.0376,0
GRID,2810,0,319.8781,0.0,119.4074,0
GRID,2811,0,318.1902,0.0,118.7772,0
GRID,2812,0,316.5024,0.0,118.147,0
GRID,2813,0,314.8145,0.0,117.5168,0
GRID,2814,0,313.1267,0.0,116.8866,0
GRID,2815,0,311.4388,0.0,116.2564,0
GRID,2816,0,309.7509,0.0,115.6263,0
GRID,2817,0,308.0631,0.0,114.9961,0
GRID,2818,0,306.3752,0.0,114.3659,0
GRID,2819,0,304.6874,0.0,113.7357,0
GRID,2820,0,302.9995,0.0,113.1055,0
GRID,2821,0,301.3117,0.0,112.4753,0
GRID,2822,0,299.6238,0.0,111.8451,0
GRID,2823,0,297.9359,0.0,111.2149,0
GRID,2824,0,296.2481,0.0,110.5847,0
GRID,2825,0,294.5602,0.0,109.9546,0
GRID,2826,0,292.8724,0.0,109.3244,0
GRID,2827,0,291.1845,0.0,108.6942,0
GRID,2828,0,289.4967,0.0,108.064,0
GRID,2829,0,287.8088,0.0,107.4338,0
GRID,2830,0,286.1209,0.0,106.8036,0
GRID,2831,0,284.4331,0.0,106.1734,0
GRID,2832,0,282.7452,0.0,105.5432,0
GRID,2833,0,379.5728,0.0,144.9235,0
GRID,2834,0,377.8897,0.0,144.2808,0
GRID,2835,0,376.2065,0.0,143.638,0
GRID,2836,0,374.5234,0.0,142.9953,0
GRID,2837,0,372.8403,0.0,142.3525,0
GRID,2838,0,371.1572,0.0,141.7098,0
GRID,2839,0,369.4741,0.0,141.0671,0
GRID,2840,0,367.7909,0.0,140.4243,0
GRID,2841,0,366.1078,0.0,139.7816,0
GRID,2842,0,364.4247,0.0,139.1389,0
GRID,2843,0,362.7416,0.0,138.4961,0
GRID,2844,0,361.0585,0.0,137.8534,0
GRID,2845,0,359.3753,0.0,137.2106,0
GRID,2846,0,357.6922,0.0,136.5679,0
GRID,2847,0,356.0091,0.0,135.9252,0
GRID,2848,0,354.326,0.0,135.2824,0
GRID,2849,0,352.6429,0.0,134.6397,0
GRID,2850,0,350.9597,0.0,133.997,0
GRID,2851,0,349.2766,0.0,133.3542,0
GRID,2852,0,347.5935,0.0,132.7115,0
GRID,2853,0,345.9104,0.0,132.0688,0
GRID,2854,0,344.2273,0.0,131.426,0
GRID,2855,0,342.5441,0.0,130.7833,0
GRID,2856,0,340.861,0.0,130.1405,0
GRID,2857,0,339.1779,0.0,129.4978,0
GRID,2858,0,337.4948,0.0,128.8551,0
GRID,2859,0,335.8117,0.0,128.2123,0
GRID,2860,0,334.1286,0.0,127.5696,0
GRID,2861,0,332.4454,0.0,126.9269,0
GRID,2862,0,330.7623,0.0,126.2841,0
GRID,2863,0,329.0792,0.0,125.6414,0
GRID,2864,0,327.3961,0.0,124.9986,0
GRID,2865,0,325.713,0.0,124.3559,0
GRID,2866,0,324.0298,0.0,123.7132,0
GRID,2867,0,322.3467,0.0,123.0704,0
GRID,2868,0,320.6636,0.0,122.4277,0
GRID,2869,0,318.9805,0.0,121.785,0
GRID,2870,0,317.2974,0.0,121.1422,0
GRID,2871,0,315.6142,0.0,120.4995,0
GRID,2872,0,313.9311,0.0,119.8568,0
GRID,2873,0,312.248,0.0,119.214,0
GRID,2874,0,310.5649,0.0,118.5713,0
GRID,2875,0,308.8818,0.0,117.9285,0
GRID,2876,0,307.1986,0.0,117.2858,0
GRID,2877,0,305.5155,0.0,116.6431,0
GRID,2878,0,303.8324,0.0,116.0003,0
GRID,2879,0,302.1493,0.0,115.3576,0
GRID,2880,0,300.4662,0.0,114.7149,0
GRID,2881,0,298.783,0.0,114.0721,0
GRID,2882,0,297.0999,0.0,113.4294,0
GRID,2883,0,295.4168,0.0,112.7866,0
GRID,2884,0,293.7337,0.0,112.1439,0
GRID,2885,0,292.0506,0.0,111.5012,0
GRID,2886,0,290.3674,0.0,110.8584,0
GRID,2887,0,288.6843,0.0,110.2157,0
GRID,2888,0,287.0012,0.0,109.573,0
GRID,2889,0,285.3181,0.0,108.9302,0
GRID,2890,0,283.635,0.0,108.2875,0
GRID,2891,0,281.9518,0.0,107.6447,0
GRID,2892,0,378.4836,0.0,147.7448,0
GRID,2893,0,376.8053,0.0,147.0895,0
GRID,2894,0,375.127,0.0,146.4343,0
GRID,2895,0,373.4487,0.0,145.779,0
GRID,2896,0,371.7704,0.0,145.1238,0
GRID,2897,0,370.0921,0.0,144.4685,0
GRID,2898,0,368.4138,0.0,143.8133,0
GRID,2899,0,366.7355,0.0,143.158,0
GRID,2900,0,365.0573,0.0,142.5028,0
GRID,2901,0,363.379,0.0,141.8475,0
GRID,2902,0,361.7007,0.0,141.1923,0
GRID,2903,0,360.0224,0.0,140.537,0
GRID,2904,0,358.3441,0.0,139.8818,0
GRID,2905,0,356.6658,0.0,139.2265,0
GRID,2906,0,354.9875,0.0,138.5713,0
GRID,2907,0,353.3092,0.0,137.916,0
GRID,2908,0,351.6309,0.0,137.2608,0
GRID,2909,0,349.9527,0.0,136.6055,0
GRID,2910,0,348.2744,0.0,135.9503,0
GRID,2911,0,346.5961,0.0,135.295,0
GRID,2912,0,344.9178,0.0,134.6398,0
GRID,2913,0,343.2395,0.0,133.9845,0
GRID,2914,0,341.5612,0.0,133.3293,0
GRID,2915,0,339.8829,0.0,132.674,0
GRID,2916,0,338.2046,0.0,132.0188,0
GRID,2917,0,336.5264,0.0,131.3635,0
GRID,2918,0,334.8481,0.0,130.7083,0
GRID,2919,0,333.1698,0.0,130.053,0
GRID,2920,0,331.4915,0.0,129.3978,0
GRID,2921,0,329.8132,0.0,128.7425,0
GRID,2922,0,328.1349,0.0,128.0873,0
GRID,2923,0,326.4566,0.0,127.432,0
GRID,2924,0,324.7783,0.0,126.7768,0
GRID,2925,0,323.1,0.0,126.1215,0
GRID,2926,0,321.4218,0.0,125.4663,0
GRID,2927,0,319.7435,0.0,124.811,0
GRID,2928,0,318.0652,0.0,124.1558,0
GRID,2929,0,316.3869,0.0,123.5005,0
GRID,2930,0,314.7086,0.0,122.8453,0
GRID,2931,0,313.0303,0.0,122.19,0
GRID,2932,0,311.352,0.0,121.5348,0
GRID,2933,0,309.6737,0.0,120.8795,0
GRID,2934,0,307.9954,0.0,120.2243,0
GRID,2935,0,306.3172,0.0,119.569,0
GRID,2936,0,304.6389,0.0,118.9138,0
GRID,2937,0,302.9606,0.0,118.2585,0
GRID,2938,0,301.2823,0.0,117.6033,0
GRID,2939,0,299.604,0.0,116.948,0
GRID,2940,0,297.9257,0.0,116.2928,0
GRID,2941,0,296.2474,0.0,115.6375,0
GRID,2942,0,294.5691,0.0,114.9823,0
GRID,2943,0,292.8908,0.0,114.327,0
GRID,2944,0,291.2126,0.0,113.6718,0
GRID,2945,0,289.5343,0.0,113.0165,0
GRID,2946,0,287.856,0.0,112.3613,0
GRID,2947,0,286.1777,0.0,111.706,0
GRID,2948,0,284.4994,0.0,111.0508,0
GRID,2949,0,282.8211,0.0,110.3956,0
GRID,2950,0,281.1428,0.0,109.7403,0
GRID,2951,0,377.3734,0.0,150.5578,0
GRID,2952,0,375.7,0.0,149.8901,0
GRID,2953,0,374.0266,0.0,149.2224,0
GRID,2954,0,372.3533,0.0,148.5546,0
GRID,2955,0,370.6799,0.0,147.8869,0
GRID,2956,0,369.0066,0.0,147.2192,0
GRID,2957,0,367.3332,0.0,146.5515,0
GRID,2958,0,365.6598,0.0,145.8837,0
GRID,2959,0,363.9865,0.0,145.216,0
GRID,2960,0,362.3131,0.0,144.5483,0
GRID,2961,0,360.6397,0.0,143.8806,0
GRID,2962,0,358.9664,0.0,143.2128,0
GRID,2963,0,357.293,0.0,142.5451,0
GRID,2964,0,355.6196,0.0,141.8774,0
GRID,2965,0,353.9463,0.0,141.2097,0
GRID,2966,0,352.2729,0.0,140.5419,0
GRID,2967,0,350.5995,0.0,139.8742,0
GRID,2968,0,348.9262,0.0,139.2065,0
GRID,2969,0,347.2528,0.0,138.5388,0
GRID,2970,0,345.5795,0.0,137.871,0
GRID,2971,0,343.9061,0.0,137.2033,0
GRID,2972,0,342.2327,0.0,136.5356,0
GRID,2973,0,340.5594,0.0,135.8679,0
GRID,2974,0,338.886,0.0,135.2001,0
GRID,2975,0,337.2126,0.0,134.5324,0
GRID,2976,0,335.5393,0.0,133.8647,0
GRID,2977,0,333.8659,0.0,133.197,0
GRID,2978,0,332.1925,0.0,132.5292,0
GRID,2979,0,330.5192,0.0,131.8615,0
GRID,2980,0,328.8458,0.0,131.1938,0
GRID,2981,0,327.1724,0.0,130.5261,0
GRID,2982,0,325.4991,0.0,129.8583,0
GRID,2983,0,323.8257,0.0,129.1906,0
GRID,2984,0,322.1524,0.0,128.5229,0
GRID,2985,0,320.479,0.0,127.8552,0
GRID,2986,0,318.8056,0.0,127.1874,0
GRID,2987,0,317.1323,0.0,126.5197,0
GRID,2988,0,315.4589,0.0,125.852,0
GRID,2989,0,313.7855,0.0,125.1843,0
GRID,2990,0,312.1122,0.0,124.5165,0
GRID,2991,0,310.4388,0.0,123.8488,0
GRID,2992,0,308.7654,0.0,123.1811,0
GRID,2993,0,307.0921,0.0,122.5134,0
GRID,2994,0,305.4187,0.0,121.8456,0
GRID,2995,0,303.7453,0.0,121.1779,0
GRID,2996,0,302.072,0.0,120.5102,0
GRID,2997,0,300.3986,0.0,119.8425,0
GRID,2998,0,298.7253,0.0,119.1748,0
GRID,2999,0,297.0519,0.0,118.507,0
GRID,3000,0,295.3785,0.0,117.8393,0
GRID,3001,0,293.7052,0.0,117.1716,0
GRID,3002,0,292.0318,0.0,116.5039,0
GRID,3003,0,290.3584,0.0,115.8361,0
GRID,3004,0,288.6851,0.0,115.1684,0
GRID,3005,0,287.0117,0.0,114.5007,0
GRID,3006,0,285.3383,0.0,113.833,0
GRID,3007,0,283.665,0.0,113.1652,0
GRID,3008,0,281.9916,0.0,112.4975,0
GRID,3009,0,280.3182,0.0,111.8298,0
GRID,3010,0,376.2423,0.0,153.3626,0
GRID,3011,0,374.5739,0.0,152.6824,0
GRID,3012,0,372.9056,0.0,152.0022,0
GRID,3013,0,371.2372,0.0,151.3221,0
GRID,3014,0,369.5689,0.0,150.6419,0
GRID,3015,0,367.9005,0.0,149.9617,0
GRID,3016,0,366.2322,0.0,149.2816,0
GRID,3017,0,364.5638,0.0,148.6014,0
GRID,3018,0,362.8955,0.0,147.9212,0
GRID,3019,0,361.2271,0.0,147.2411,0
GRID,3020,0,359.5588,0.0,146.5609,0
GRID,3021,0,357.8904,0.0,145.8808,0
GRID,3022,0,356.2221,0.0,145.2006,0
GRID,3023,0,354.5538,0.0,144.5204,0
GRID,3024,0,352.8854,0.0,143.8403,0
GRID,3025,0,351.2171,0.0,143.1601,0
GRID,3026,0,349.5487,0.0,142.4799,0
GRID,3027,0,347.8804,0.0,141.7998,0
GRID,3028,0,346.212,0.0,141.1196,0
GRID,3029,0,344.5437,0.0,140.4394,0
GRID,3030,0,342.8753,0.0,139.7593,0
GRID,3031,0,341.207,0.0,139.0791,0
GRID,3032,0,339.5386,0.0,138.3989,0
GRID,3033,0,337.8703,0.0,137.7188,0
GRID,3034,0,336.2019,0.0,137.0386,0
GRID,3035,0,334.5336,0.0,136.3585,0
GRID,3036,0,332.8652,0.0,135.6783,0
GRID,3037,0,331.1969,0.0,134.9981,0
GRID,3038,0,329.5286,0.0,134.318,0
GRID,3039,0,327.8602,0.0,133.6378,0
GRID,3040,0,326.1919,0.0,132.9576,0
GRID,3041,0,324.5235,0.0,132.2775,0
GRID,3042,0,322.8552,0.0,131.5973,0
GRID,3043,0,321.1868,0.0,130.9171,0
GRID,3044,0,319.5185,0.0,130.237,0
GRID,3045,0,317.8501,0.0,129.5568,0
GRID,3046,0,316.1818,0.0,128.8767,0
GRID,3047,0,314.5134,0.0,128.1965,0
GRID,3048,0,312.8451,0.0,127.5163,0
GRID,3049,0,311.1767,0.0,126.8362,0
GRID,3050,0,309.5084,0.0,126.156,0
GRID,3051,0,307.84,0.0,125.4758,0
GRID,3052,0,306.1717,0.0,124.7957,0
GRID,3053,0,304.5033,0.0,124.1155,0
GRID,3054,0,302.835,0.0,123.4353,0
GRID,3055,0,301.1667,0.0,122.7552,0
GRID,3056,0,299.4983,0.0,122.075,0
GRID,3057,0,297.83,0.0,121.3949,0
GRID,3058,0,296.1616,0.0,120.7147,0
GRID,3059,0,294.4933,0.0,120.0345,0
GRID,3060,0,292.8249,0.0,119.3544,0
GRID,3061,0,291.1566,0.0,118.6742,0
GRID,3062,0,289.4882,0.0,117.994,0
GRID,3063,0,287.8199,0.0,117.3139,0
GRID,3064,0,286.1515,0.0,116.6337,0
GRID,3065,0,284.4832,0.0,115.9535,0
GRID,3066,0,282.8148,0.0,115.2734,0
GRID,3067,0,281.1465,0.0,114.5932,0
GRID,3068,0,279.4781,0.0,113.9131,0
GRID,3069,0,375.0903,0.0,156.1588,0
GRID,3070,0,373.4271,0.0,155.4662,0
GRID,3071,0,371.7638,0.0,154.7737,0
GRID,3072,0,370.1006,0.0,154.0811,0
GRID,3073,0,368.4374,0.0,153.3885,0
GRID,3074,0,366.7741,0.0,152.696,0
GRID,3075,0,365.1109,0.0,152.0034,0
GRID,3076,0,363.4477,0.0,151.3108,0
GRID,3077,0,361.7844,0.0,150.6183,0
GRID,3078,0,360.1212,0.0,149.9257,0
GRID,3079,0,358.4579,0.0,149.2331,0
GRID,3080,0,356.7947,0.0,148.5406,0
GRID,3081,0,355.1315,0.0,147.848,0
GRID,3082,0,353.4682,0.0,147.1554,0
GRID,3083,0,351.805,0.0,146.4629,0
GRID,3084,0,350.1418,0.0,145.7703,0
GRID,3085,0,348.4785,0.0,145.0777,0
GRID,3086,0,346.8153,0.0,144.3852,0
GRID,3087,0,345.152,0.0,143.6926,0
GRID,3088,0,343.4888,0.0,143.0001,0
GRID,3089,0,341.8256,0.0,142.3075,0
GRID,3090,0,340.1623,0.0,141.6149,0
GRID,3091,0,338.4991,0.0,140.9224,0
GRID,3092,0,336.8359,0.0,140.2298,0
GRID,3093,0,335.1726,0.0,139.5372,0
GRID,3094,0,333.5094,0.0,138.8447,0
GRID,3095,0,331.8461,0.0,138.1521,0
GRID,3096,0,330.1829,0.0,137.4595,0
GRID,3097,0,328.5197,0.0,136.767,0
GRID,3098,0,326.8564,0.0,136.0744,0
GRID,3099,0,325.1932,0.0,135.3818,0
GRID,3100,0,323.53,0.0,134.6893,0
GRID,3101,0,321.8667,0.0,133.9967,0
GRID,3102,0,320.2035,0.0,133.3041,0
GRID,3103,0,318.5402,0.0,132.6116,0
GRID,3104,0,316.877,0.0,131.919,0
GRID,3105,0,315.2138,0.0,131.2265,0
GRID,3106,0,313.5505,0.0,130.5339,0
GRID,3107,0,311.8873,0.0,129.8413,0
GRID,3108,0,310.2241,0.0,129.1488,0
GRID,3109,0,308.5608,0.0,128.4562,0
GRID,3110,0,306.8976,0.0,127.7636,0
GRID,3111,0,305.2344,0.0,127.0711,0
GRID,3112,0,303.5711,0.0,126.3785,0
GRID,3113,0,301.9079,0.0,125.6859,0
GRID,3114,0,300.2446,0.0,124.9934,0
GRID,3115,0,298.5814,0.0,124.3008,0
GRID,3116,0,296.9182,0.0,123.6082,0
GRID,3117,0,295.2549,0.0,122.9157,0
GRID,3118,0,293.5917,0.0,122.2231,0
GRID,3119,0,291.9285,0.0,121.5305,0
GRID,3120,0,290.2652,0.0,120.838,0
GRID,3121,0,288.602,0.0,120.1454,0
GRID,3122,0,286.9387,0.0,119.4529,0
GRID,3123,0,285.2755,0.0,118.7603,0
GRID,3124,0,283.6123,0.0,118.0677,0
GRID,3125,0,281.949,0.0,117.3752,0
GRID,3126,0,280.2858,0.0,116.6826,0
GRID,3127,0,278.6226,0.0,115.99,0
GRID,3128,0,373.9176,0.0,158.9464,0
GRID,3129,0,372.2595,0.0,158.2414,0
GRID,3130,0,370.6015,0.0,157.5365,0
GRID,3131,0,368.9435,0.0,156.8316,0
GRID,3132,0,367.2854,0.0,156.1267,0
GRID,3133,0,365.6274,0.0,155.4217,0
GRID,3134,0,363.9694,0.0,154.7168,0
GRID,3135,0,362.3113,0.0,154.0119,0
GRID,3136,0,360.6533,0.0,153.3069,0
GRID,3137,0,358.9953,0.0,152.602,0
GRID,3138,0,357.3372,0.0,151.8971,0
GRID,3139,0,355.6792,0.0,151.1922,0
GRID,3140,0,354.0212,0.0,150.4872,0
GRID,3141,0,352.3631,0.0,149.7823,0
GRID,3142,0,350.7051,0.0,149.0774,0
GRID,3143,0,349.0471,0.0,148.3725,0
GRID,3144,0,347.389,0.0,147.6675,0
GRID,3145,0,345.731,0.0,146.9626,0
GRID,3146,0,344.0729,0.0,146.2577,0
GRID,3147,0,342.4149,0.0,145.5527,0
GRID,3148,0,340.7569,0.0,144.8478,0
GRID,3149,0,339.0988,0.0,144.1429,0
GRID,3150,0,337.4408,0.0,143.438,0
GRID,3151,0,335.7828,0.0,142.733,0
GRID,3152,0,334.1247,0.0,142.0281,0
GRID,3153,0,332.4667,0.0,141.3232,0
GRID,3154,0,330.8087,0.0,140.6183,0
GRID,3155,0,329.1506,0.0,139.9133,0
GRID,3156,0,327.4926,0.0,139.2084,0
GRID,3157,0,325.8346,0.0,138.5035,0
GRID,3158,0,324.1765,0.0,137.7985,0
GRID,3159,0,322.5185,0.0,137.0936,0
GRID,3160,0,320.8605,0.0,136.3887,0
GRID,3161,0,319.2024,0.0,135.6838,0
GRID,3162,0,317.5444,0.0,134.9788,0
GRID,3163,0,315.8864,0.0,134.2739,0
GRID,3164,0,314.2283,0.0,133.569,0
GRID,3165,0,312.5703,0.0,132.8641,0
GRID,3166,0,310.9122,0.0,132.1591,0
GRID,3167,0,309.2542,0.0,131.4542,0
GRID,3168,0,307.5962,0.0,130.7493,0
GRID,3169,0,305.9381,0.0,130.0443,0
GRID,3170,0,304.2801,0.0,129.3394,0
GRID,3171,0,302.6221,0.0,128.6345,0
GRID,3172,0,300.964,0.0,127.9296,0
GRID,3173,0,299.306,0.0,127.2246,0
GRID,3174,0,297.648,0.0,126.5197,0
GRID,3175,0,295.9899,0.0,125.8148,0
GRID,3176,0,294.3319,0.0,125.1098,0
GRID,3177,0,292.6739,0.0,124.4049,0
GRID,3178,0,291.0158,0.0,123.7,0
GRID,3179,0,289.3578,0.0,122.9951,0
GRID,3180,0,287.6998,0.0,122.2901,0
GRID,3181,0,286.0417,0.0,121.5852,0
GRID,3182,0,284.3837,0.0,120.8803,0
GRID,3183,0,282.7257,0.0,120.1754,0
GRID,3184,0,281.0676,0.0,119.4704,0
GRID,3185,0,279.4096,0.0,118.7655,0
GRID,3186,0,277.7515,0.0,118.0606,0
GRID,3187,0,372.7241,0.0,161.7251,0
GRID,3188,0,371.0714,0.0,161.0079,0
GRID,3189,0,369.4187,0.0,160.2906,0
GRID,3190,0,367.7659,0.0,159.5734,0
GRID,3191,0,366.1132,0.0,158.8561,0
GRID,3192,0,364.4604,0.0,158.1389,0
GRID,3193,0,362.8077,0.0,157.4216,0
GRID,3194,0,361.1549,0.0,156.7044,0
GRID,3195,0,359.5022,0.0,155.9871,0
GRID,3196,0,357.8495,0.0,155.2699,0
GRID,3197,0,356.1967,0.0,154.5526,0
GRID,3198,0,354.544,0.0,153.8354,0
GRID,3199,0,352.8912,0.0,153.1181,0
GRID,3200,0,351.2385,0.0,152.4009,0
GRID,3201,0,349.5858,0.0,151.6836,0
GRID,3202,0,347.933,0.0,150.9664,0
GRID,3203,0,346.2803,0.0,150.2491,0
GRID,3204,0,344.6275,0.0,149.5319,0
GRID,3205,0,342.9748,0.0,148.8146,0
GRID,3206,0,341.3221,0.0,148.0974,0
GRID,3207,0,339.6693,0.0,147.3801,0
GRID,3208,0,338.0166,0.0,146.6629,0
GRID,3209,0,336.3638,0.0,145.9456,0
GRID,3210,0,334.7111,0.0,145.2284,0
GRID,3211,0,333.0583,0.0,144.5111,0
GRID,3212,0,331.4056,0.0,143.7939,0
GRID,3213,0,329.7529,0.0,143.0766,0
GRID,3214,0,328.1001,0.0,142.3594,0
GRID,3215,0,326.4474,0.0,141.6421,0
GRID,3216,0,324.7946,0.0,140.9249,0
GRID,3217,0,323.1419,0.0,140.2076,0
GRID,3218,0,321.4892,0.0,139.4904,0
GRID,3219,0,319.8364,0.0,138.7731,0
GRID,3220,0,318.1837,0.0,138.0559,0
GRID,3221,0,316.5309,0.0,137.3386,0
GRID,3222,0,314.8782,0.0,136.6214,0
GRID,3223,0,313.2255,0.0,135.9041,0
GRID,3224,0,311.5727,0.0,135.1869,0
GRID,3225,0,309.92,0.0,134.4696,0
GRID,3226,0,308.2672,0.0,133.7524,0
GRID,3227,0,306.6145,0.0,133.0351,0
GRID,3228,0,304.9617,0.0,132.3179,0
GRID,3229,0,303.309,0.0,131.6006,0
GRID,3230,0,301.6563,0.0,130.8833,0
GRID,3231,0,300.0035,0.0,130.1661,0
GRID,3232,0,298.3508,0.0,129.4488,0
GRID,3233,0,296.698,0.0,128.7316,0
GRID,3234,0,295.0453,0.0,128.0143,0
GRID,3235,0,293.3926,0.0,127.2971,0
GRID,3236,0,291.7398,0.0,126.5798,0
GRID,3237,0,290.0871,0.0,125.8626,0
GRID,3238,0,288.4343,0.0,125.1453,0
GRID,3239,0,286.7816,0.0,124.4281,0
GRID,3240,0,285.1289,0.0,123.7108,0
GRID,3241,0,283.4761,0.0,122.9936,0
GRID,3242,0,281.8234,0.0,122.2763,0
GRID,3243,0,280.1706,0.0,121.5591,0
GRID,3244,0,278.5179,0.0,120.8418,0
GRID,3245,0,276.8651,0.0,120.1246,0
GRID,3246,0,371.51,0.0,164.495,0
GRID,3247,0,369.8627,0.0,163.7654,0
GRID,3248,0,368.2153,0.0,163.0359,0
GRID,3249,0,366.568,0.0,162.3064,0
GRID,3250,0,364.9206,0.0,161.5768,0
GRID,3251,0,363.2733,0.0,160.8473,0
GRID,3252,0,361.6259,0.0,160.1177,0
GRID,3253,0,359.9786,0.0,159.3882,0
GRID,3254,0,358.3312,0.0,158.6587,0
GRID,3255,0,356.6838,0.0,157.9291,0
GRID,3256,0,355.0365,0.0,157.1996,0
GRID,3257,0,353.3891,0.0,156.4701,0
GRID,3258,0,351.7418,0.0,155.7405,0
GRID,3259,0,350.0944,0.0,155.011,0
GRID,3260,0,348.4471,0.0,154.2815,0
GRID,3261,0,346.7997,0.0,153.5519,0
GRID,3262,0,345.1524,0.0,152.8224,0
GRID,3263,0,343.505,0.0,152.0929,0
GRID,3264,0,341.8576,0.0,151.3633,0
GRID,3265,0,340.2103,0.0,150.6338,0
GRID,3266,0,338.5629,0.0,149.9043,0
GRID,3267,0,336.9156,0.0,149.1747,0
GRID,3268,0,335.2682,0.0,148.4452,0
GRID,3269,0,333.6209,0.0,147.7157,0
GRID,3270,0,331.9735,0.0,146.9861,0
GRID,3271,0,330.3262,0.0,146.2566,0
GRID,3272,0,328.6788,0.0,145.5271,0
GRID,3273,0,327.0314,0.0,144.7975,0
GRID,3274,0,325.3841,0.0,144.068,0
GRID,3275,0,323.7367,0.0,143.3384,0
GRID,3276,0,322.0894,0.0,142.6089,0
GRID,3277,0,320.442,0.0,141.8794,0
GRID,3278,0,318.7947,0.0,141.1498,0
GRID,3279,0,317.1473,0.0,140.4203,0
GRID,3280,0,315.5,0.0,139.6908,0
GRID,3281,0,313.8526,0.0,138.9612,0
GRID,3282,0,312.2052,0.0,138.2317,0
GRID,3283,0,310.5579,0.0,137.5022,0
GRID,3284,0,308.9105,0.0,136.7726,0
GRID,3285,0,307.2632,0.0,136.0431,0
GRID,3286,0,305.6158,0.0,135.3136,0
GRID,3287,0,303.9685,0.0,134.584,0
GRID,3288,0,302.3211,0.0,133.8545,0
GRID,3289,0,300.6738,0.0,133.125,0
GRID,3290,0,299.0264,0.0,132.3954,0
GRID,3291,0,297.379,0.0,131.6659,0
GRID,3292,0,295.7317,0.0,130.9364,0
GRID,3293,0,294.0843,0.0,130.2068,0
GRID,3294,0,292.437,0.0,129.4773,0
GRID,3295,0,290.7896,0.0,128.7478,0
GRID,3296,0,289.1423,0.0,128.0182,0
GRID,3297,0,287.4949,0.0,127.2887,0
GRID,3298,0,285.8476,0.0,126.5591,0
GRID,3299,0,284.2002,0.0,125.8296,0
GRID,3300,0,282.5528,0.0,125.1001,0
GRID,3301,0,280.9055,0.0,124.3705,0
GRID,3302,0,279.2581,0.0,123.641,0
GRID,3303,0,277.6108,0.0,122.9115,0
GRID,3304,0,275.9634,0.0,122.1819,0
GRID,3305,0,370.2754,0.0,167.2557,0
GRID,3306,0,368.6335,0.0,166.5139,0
GRID,3307,0,366.9916,0.0,165.7721,0
GRID,3308,0,365.3497,0.0,165.0303,0
GRID,3309,0,363.7079,0.0,164.2886,0
GRID,3310,0,362.066,0.0,163.5468,0
GRID,3311,0,360.4241,0.0,162.805,0
GRID,3312,0,358.7822,0.0,162.0632,0
GRID,3313,0,357.1403,0.0,161.3214,0
GRID,3314,0,355.4985,0.0,160.5797,0
GRID,3315,0,353.8566,0.0,159.8379,0
GRID,3316,0,352.2147,0.0,159.0961,0
GRID,3317,0,350.5728,0.0,158.3543,0
GRID,3318,0,348.9309,0.0,157.6125,0
GRID,3319,0,347.2891,0.0,156.8708,0
GRID,3320,0,345.6472,0.0,156.129,0
GRID,3321,0,344.0053,0.0,155.3872,0
GRID,3322,0,342.3634,0.0,154.6454,0
GRID,3323,0,340.7216,0.0,153.9037,0
GRID,3324,0,339.0797,0.0,153.1619,0
GRID,3325,0,337.4378,0.0,152.4201,0
GRID,3326,0,335.7959,0.0,151.6783,0
GRID,3327,0,334.154,0.0,150.9365,0
GRID,3328,0,332.5122,0.0,150.1948,0
GRID,3329,0,330.8703,0.0,149.453,0
GRID,3330,0,329.2284,0.0,148.7112,0
GRID,3331,0,327.5865,0.0,147.9694,0
GRID,3332,0,325.9446,0.0,147.2277,0
GRID,3333,0,324.3028,0.0,146.4859,0
GRID,3334,0,322.6609,0.0,145.7441,0
GRID,3335,0,321.019,0.0,145.0023,0
GRID,3336,0,319.3771,0.0,144.2605,0
GRID,3337,0,317.7353,0.0,143.5188,0
GRID,3338,0,316.0934,0.0,142.777,0
GRID,3339,0,314.4515,0.0,142.0352,0
GRID,3340,0,312.8096,0.0,141.2934,0
GRID,3341,0,311.1677,0.0,140.5516,0
GRID,3342,0,309.5259,0.0,139.8099,0
GRID,3343,0,307.884,0.0,139.0681,0
GRID,3344,0,306.2421,0.0,138.3263,0
GRID,3345,0,304.6002,0.0,137.5845,0
GRID,3346,0,302.9583,0.0,136.8428,0
GRID,3347,0,301.3165,0.0,136.101,0
GRID,3348,0,299.6746,0.0,135.3592,0
GRID,3349,0,298.0327,0.0,134.6174,0
GRID,3350,0,296.3908,0.0,133.8756,0
GRID,3351,0,294.7489,0.0,133.1339,0
GRID,3352,0,293.1071,0.0,132.3921,0
GRID,3353,0,291.4652,0.0,131.6503,0
GRID,3354,0,289.8233,0.0,130.9085,0
GRID,3355,0,288.1814,0.0,130.1668,0
GRID,3356,0,286.5396,0.0,129.425,0
GRID,3357,0,284.8977,0.0,128.6832,0
GRID,3358,0,283.2558,0.0,127.9414,0
GRID,3359,0,281.6139,0.0,127.1996,0
GRID,3360,0,279.972,0.0,126.4579,0
GRID,3361,0,278.3302,0.0,125.7161,0
GRID,3362,0,276.6883,0.0,124.9743,0
GRID,3363,0,275.0464,0.0,124.2325,0
GRID,3364,0,369.0202,0.0,170.0071,0
GRID,3365,0,367.3839,0.0,169.2531,0
GRID,3366,0,365.7476,0.0,168.4991,0
GRID,3367,0,364.1113,0.0,167.7452,0
GRID,3368,0,362.4749,0.0,166.9912,0
GRID,3369,0,360.8386,0.0,166.2372,0
GRID,3370,0,359.2023,0.0,165.4832,0
GRID,3371,0,357.566,0.0,164.7292,0
GRID,3372,0,355.9297,0.0,163.9753,0
GRID,3373,0,354.2934,0.0,163.2213,0
GRID,3374,0,352.6571,0.0,162.4673,0
GRID,3375,0,351.0208,0.0,161.7133,0
GRID,3376,0,349.3845,0.0,160.9593,0
GRID,3377,0,347.7481,0.0,160.2054,0
GRID,3378,0,346.1118,0.0,159.4514,0
GRID,3379,0,344.4755,0.0,158.6974,0
GRID,3380,0,342.8392,0.0,157.9434,0
GRID,3381,0,341.2029,0.0,157.1894,0
GRID,3382,0,339.5666,0.0,156.4355,0
GRID,3383,0,337.9303,0.0,155.6815,0
GRID,3384,0,336.294,0.0,154.9275,0
GRID,3385,0,334.6577,0.0,154.1735,0
GRID,3386,0,333.0213,0.0,153.4195,0
GRID,3387,0,331.385,0.0,152.6656,0
GRID,3388,0,329.7487,0.0,151.9116,0
GRID,3389,0,328.1124,0.0,151.1576,0
GRID,3390,0,326.4761,0.0,150.4036,0
GRID,3391,0,324.8398,0.0,149.6496,0
GRID,3392,0,323.2035,0.0,148.8956,0
GRID,3393,0,321.5672,0.0,148.1417,0
GRID,3394,0,319.9309,0.0,147.3877,0
GRID,3395,0,318.2945,0.0,146.6337,0
GRID,3396,0,316.6582,0.0,145.8797,0
GRID,3397,0,315.0219,0.0,145.1257,0
GRID,3398,0,313.3856,0.0,144.3718,0
GRID,3399,0,311.7493,0.0,143.6178,0
GRID,3400,0,310.113,0.0,142.8638,0
GRID,3401,0,308.4767,0.0,142.1098,0
GRID,3402,0,306.8404,0.0,141.3558,0
GRID,3403,0,305.2041,0.0,140.6019,0
GRID,3404,0,303.5677,0.0,139.8479,0
GRID,3405,0,301.9314,0.0,139.0939,0
GRID,3406,0,300.2951,0.0,138.3399,0
GRID,3407,0,298.6588,0.0,137.5859,0
GRID,3408,0,297.0225,0.0,136.832,0
GRID,3409,0,295.3862,0.0,136.078,0
GRID,3410,0,293.7499,0.0,135.324,0
GRID,3411,0,292.1136,0.0,134.57,0
GRID,3412,0,290.4773,0.0,133.816,0
GRID,3413,0,288.8409,0.0,133.0621,0
GRID,3414,0,287.2046,0.0,132.3081,0
GRID,3415,0,285.5683,0.0,131.5541,0
GRID,3416,0,283.932,0.0,130.8001,0
GRID,3417,0,282.2957,0.0,130.0461,0
GRID,3418,0,280.6594,0.0,129.2922,0
GRID,3419,0,279.0231,0.0,128.5382,0
GRID,3420,0,277.3868,0.0,127.7842,0
GRID,3421,0,275.7505,0.0,127.0302,0
GRID,3422,0,274.1141,0.0,126.2762,0
GRID,3423,0,367.7446,0.0,172.7491,0
GRID,3424,0,366.1139,0.0,171.983,0
GRID,3425,0,364.4833,0.0,171.2168,0
GRID,3426,0,362.8526,0.0,170.4507,0
GRID,3427,0,361.222,0.0,169.6846,0
GRID,3428,0,359.5913,0.0,168.9184,0
GRID,3429,0,357.9606,0.0,168.1523,0
GRID,3430,0,356.33,0.0,167.3861,0
GRID,3431,0,354.6993,0.0,166.62,0
GRID,3432,0,353.0687,0.0,165.8539,0
GRID,3433,0,351.438,0.0,165.0877,0
GRID,3434,0,349.8074,0.0,164.3216,0
GRID,3435,0,348.1767,0.0,163.5554,0
GRID,3436,0,346.5461,0.0,162.7893,0
GRID,3437,0,344.9154,0.0,162.0231,0
GRID,3438,0,343.2848,0.0,161.257,0
GRID,3439,0,341.6541,0.0,160.4909,0
GRID,3440,0,340.0235,0.0,159.7247,0
GRID,3441,0,338.3928,0.0,158.9586,0
GRID,3442,0,336.7622,0.0,158.1924,0
GRID,3443,0,335.1315,0.0,157.4263,0
GRID,3444,0,333.5009,0.0,156.6602,0
GRID,3445,0,331.8702,0.0,155.894,0
GRID,3446,0,330.2395,0.0,155.1279,0
GRID,3447,0,328.6089,0.0,154.3617,0
GRID,3448,0,326.9782,0.0,153.5956,0
GRID,3449,0,325.3476,0.0,152.8295,0
GRID,3450,0,323.7169,0.0,152.0633,0
GRID,3451,0,322.0863,0.0,151.2972,0
GRID,3452,0,320.4556,0.0,150.531,0
GRID,3453,0,318.825,0.0,149.7649,0
GRID,3454,0,317.1943,0.0,148.9987,0
GRID,3455,0,315.5637,0.0,148.2326,0
GRID,3456,0,313.933,0.0,147.4665,0
GRID,3457,0,312.3024,0.0,146.7003,0
GRID,3458,0,310.6717,0.0,145.9342,0
GRID,3459,0,309.0411,0.0,145.168,0
GRID,3460,0,307.4104,0.0,144.4019,0
GRID,3461,0,305.7798,0.0,143.6358,0
GRID,3462,0,304.1491,0.0,142.8696,0
GRID,3463,0,302.5184,0.0,142.1035,0
GRID,3464,0,300.8878,0.0,141.3373,0
GRID,3465,0,299.2571,0.0,140.5712,0
GRID,3466,0,297.6265,0.0,139.8051,0
GRID,3467,0,295.9958,0.0,139.0389,0
GRID,3468,0,294.3652,0.0,138.2728,0
GRID,3469,0,292.7345,0.0,137.5066,0
GRID,3470,0,291.1039,0.0,136.7405,0
GRID,3471,0,289.4732,0.0,135.9743,0
GRID,3472,0,287.8426,0.0,135.2082,0
GRID,3473,0,286.2119,0.0,134.4421,0
GRID,3474,0,284.5813,0.0,133.6759,0
GRID,3475,0,282.9506,0.0,132.9098,0
GRID,3476,0,281.32,0.0,132.1436,0
GRID,3477,0,279.6893,0.0,131.3775,0
GRID,3478,0,278.0586,0.0,130.6114,0
GRID,3479,0,276.428,0.0,129.8452,0
GRID,3480,0,274.7973,0.0,129.0791,0
GRID,3481,0,273.1667,0.0,128.3129,0
GRID,3482,0,366.4486,0.0,175.4816,0
GRID,3483,0,364.8237,0.0,174.7033,0
GRID,3484,0,363.1988,0.0,173.9251,0
GRID,3485,0,361.5739,0.0,173.1468,0
GRID,3486,0,359.9489,0.0,172.3685,0
GRID,3487,0,358.324,0.0,171.5903,0
GRID,3488,0,356.6991,0.0,170.812,0
GRID,3489,0,355.0742,0.0,170.0338,0
GRID,3490,0,353.4493,0.0,169.2555,0
GRID,3491,0,351.8244,0.0,168.4772,0
GRID,3492,0,350.1995,0.0,167.699,0
GRID,3493,0,348.5746,0.0,166.9207,0
GRID,3494,0,346.9497,0.0,166.1425,0
GRID,3495,0,345.3248,0.0,165.3642,0
GRID,3496,0,343.6999,0.0,164.5859,0
GRID,3497,0,342.075,0.0,163.8077,0
GRID,3498,0,340.4501,0.0,163.0294,0
GRID,3499,0,338.8252,0.0,162.2512,0
GRID,3500,0,337.2003,0.0,161.4729,0
GRID,3501,0,335.5754,0.0,160.6946,0
GRID,3502,0,333.9505,0.0,159.9164,0
GRID,3503,0,332.3256,0.0,159.1381,0
GRID,3504,0,330.7007,0.0,158.3599,0
GRID,3505,0,329.0758,0.0,157.5816,0
GRID,3506,0,327.4509,0.0,156.8033,0
GRID,3507,0,325.8259,0.0,156.0251,0
GRID,3508,0,324.201,0.0,155.2468,0
GRID,3509,0,322.5761,0.0,154.4686,0
GRID,3510,0,320.9512,0.0,153.6903,0
GRID,3511,0,319.3263,0.0,152.9121,0
GRID,3512,0,317.7014,0.0,152.1338,0
GRID,3513,0,316.0765,0.0,151.3555,0
GRID,3514,0,314.4516,0.0,150.5773,0
GRID,3515,0,312.8267,0.0,149.799,0
GRID,3516,0,311.2018,0.0,149.0208,0
GRID,3517,0,309.5769,0.0,148.2425,0
GRID,3518,0,307.952,0.0,147.4642,0
GRID,3519,0,306.3271,0.0,146.686,0
GRID,3520,0,304.7022,0.0,145.9077,0
GRID,3521,0,303.0773,0.0,145.1295,0
GRID,3522,0,301.4524,0.0,144.3512,0
GRID,3523,0,299.8275,0.0,143.5729,0
GRID,3524,0,298.2026,0.0,142.7947,0
GRID,3525,0,296.5777,0.0,142.0164,0
GRID,3526,0,294.9528,0.0,141.2382,0
GRID,3527,0,293.3279,0.0,140.4599,0
GRID,3528,0,291.703,0.0,139.6816,0
GRID,3529,0,290.078,0.0,138.9034,0
GRID,3530,0,288.4531,0.0,138.1251,0
GRID,3531,0,286.8282,0.0,137.3469,0
GRID,3532,0,285.2033,0.0,136.5686,0
GRID,3533,0,283.5784,0.0,135.7903,0
GRID,3534,0,281.9535,0.0,135.0121,0
GRID,3535,0,280.3286,0.0,134.2338,0
GRID,3536,0,278.7037,0.0,133.4556,0
GRID,3537,0,277.0788,0.0,132.6773,0
GRID,3538,0,275.4539,0.0,131.899,0
GRID,3539,0,273.829,0.0,131.1208,0
GRID,3540,0,272.2041,0.0,130.3425,0
GRID,3541,0,365.1322,0.0,178.2043,0
GRID,3542,0,363.5132,0.0,177.414,0
GRID,3543,0,361.8941,0.0,176.6236,0
GRID,3544,0,360.2751,0.0,175.8333,0
GRID,3545,0,358.656,0.0,175.043,0
GRID,3546,0,357.0369,0.0,174.2526,0
GRID,3547,0,355.4179,0.0,173.4623,0
GRID,3548,0,353.7988,0.0,172.672,0
GRID,3549,0,352.1797,0.0,171.8816,0
GRID,3550,0,350.5607,0.0,171.0913,0
GRID,3551,0,348.9416,0.0,170.301,0
GRID,3552,0,347.3225,0.0,169.5106,0
GRID,3553,0,345.7035,0.0,168.7203,0
GRID,3554,0,344.0844,0.0,167.93,0
GRID,3555,0,342.4653,0.0,167.1396,0
GRID,3556,0,340.8463,0.0,166.3493,0
GRID,3557,0,339.2272,0.0,165.5589,0
GRID,3558,0,337.6081,0.0,164.7686,0
GRID,3559,0,335.9891,0.0,163.9783,0
GRID,3560,0,334.37,0.0,163.1879,0
GRID,3561,0,332.7509,0.0,162.3976,0
GRID,3562,0,331.1319,0.0,161.6073,0
GRID,3563,0,329.5128,0.0,160.8169,0
GRID,3564,0,327.8937,0.0,160.0266,0
GRID,3565,0,326.2747,0.0,159.2363,0
GRID,3566,0,324.6556,0.0,158.4459,0
GRID,3567,0,323.0365,0.0,157.6556,0
GRID,3568,0,321.4175,0.0,156.8653,0
GRID,3569,0,319.7984,0.0,156.0749,0
GRID,3570,0,318.1793,0.0,155.2846,0
GRID,3571,0,316.5603,0.0,154.4943,0
GRID,3572,0,314.9412,0.0,153.7039,0
GRID,3573,0,313.3221,0.0,152.9136,0
GRID,3574,0,311.7031,0.0,152.1233,0
GRID,3575,0,310.084,0.0,151.3329,0
GRID,3576,0,308.4649,0.0,150.5426,0
GRID,3577,0,306.8459,0.0,149.7523,0
GRID,3578,0,305.2268,0.0,148.9619,0
GRID,3579,0,303.6077,0.0,148.1716,0
GRID,3580,0,301.9887,0.0,147.3813,0
GRID,3581,0,300.3696,0.0,146.5909,0
GRID,3582,0,298.7505,0.0,145.8006,0
GRID,3583,0,297.1315,0.0,145.0103,0
GRID,3584,0,295.5124,0.0,144.2199,0
GRID,3585,0,293.8933,0.0,143.4296,0
GRID,3586,0,292.2743,0.0,142.6392,0
GRID,3587,0,290.6552,0.0,141.8489,0
GRID,3588,0,289.0361,0.0,141.0586,0
GRID,3589,0,287.4171,0.0,140.2682,0
GRID,3590,0,285.798,0.0,139.4779,0
GRID,3591,0,284.1789,0.0,138.6876,0
GRID,3592,0,282.5599,0.0,137.8972,0
GRID,3593,0,280.9408,0.0,137.1069,0
GRID,3594,0,279.3218,0.0,136.3166,0
GRID,3595,0,277.7027,0.0,135.5262,0
GRID,3596,0,276.0836,0.0,134.7359,0
GRID,3597,0,274.4646,0.0,133.9456,0
GRID,3598,0,272.8455,0.0,133.1552,0
GRID,3599,0,271.2264,0.0,132.3649,0
GRID,3600,0,363.7957,0.0,180.9171,0
GRID,3601,0,362.1826,0.0,180.1148,0
GRID,3602,0,360.5694,0.0,179.3124,0
GRID,3603,0,358.9563,0.0,178.51,0
GRID,3604,0,357.3431,0.0,177.7077,0
GRID,3605,0,355.73,0.0,176.9053,0
GRID,3606,0,354.1169,0.0,176.103,0
GRID,3607,0,352.5037,0.0,175.3006,0
GRID,3608,0,350.8906,0.0,174.4982,0
GRID,3609,0,349.2775,0.0,173.6959,0
GRID,3610,0,347.6643,0.0,172.8935,0
GRID,3611,0,346.0512,0.0,172.0911,0
GRID,3612,0,344.438,0.0,171.2888,0
GRID,3613,0,342.8249,0.0,170.4864,0
GRID,3614,0,341.2118,0.0,169.684,0
GRID,3615,0,339.5986,0.0,168.8817,0
GRID,3616,0,337.9855,0.0,168.0793,0
GRID,3617,0,336.3724,0.0,167.2769,0
GRID,3618,0,334.7592,0.0,166.4746,0
GRID,3619,0,333.1461,0.0,165.6722,0
GRID,3620,0,331.5329,0.0,164.8698,0
GRID,3621,0,329.9198,0.0,164.0675,0
GRID,3622,0,328.3067,0.0,163.2651,0
GRID,3623,0,326.6935,0.0,162.4627,0
GRID,3624,0,325.0804,0.0,161.6604,0
GRID,3625,0,323.4673,0.0,160.858,0
GRID,3626,0,321.8541,0.0,160.0556,0
GRID,3627,0,320.241,0.0,159.2533,0
GRID,3628,0,318.6278,0.0,158.4509,0
GRID,3629,0,317.0147,0.0,157.6485,0
GRID,3630,0,315.4016,0.0,156.8462,0
GRID,3631,0,313.7884,0.0,156.0438,0
GRID,3632,0,312.1753,0.0,155.2414,0
GRID,3633,0,310.5622,0.0,154.4391,0
GRID,3634,0,308.949,0.0,153.6367,0
GRID,3635,0,307.3359,0.0,152.8343,0
GRID,3636,0,305.7227,0.0,152.032,0
GRID,3637,0,304.1096,0.0,151.2296,0
GRID,3638,0,302.4965,0.0,150.4273,0
GRID,3639,0,300.8833,0.0,149.6249,0
GRID,3640,0,299.2702,0.0,148.8225,0
GRID,3641,0,297.6571,0.0,148.0202,0
GRID,3642,0,296.0439,0.0,147.2178,0
GRID,3643,0,294.4308,0.0,146.4154,0
GRID,3644,0,292.8176,0.0,145.6131,0
GRID,3645,0,291.2045,0.0,144.8107,0
GRID,3646,0,289.5914,0.0,144.0083,0
GRID,3647,0,287.9782,0.0,143.206,0
GRID,3648,0,286.3651,0.0,142.4036,0
GRID,3649,0,284.752,0.0,141.6012,0
GRID,3650,0,283.1388,0.0,140.7989,0
GRID,3651,0,281.5257,0.0,139.9965,0
GRID,3652,0,279.9125,0.0,139.1941,0
GRID,3653,0,278.2994,0.0,138.3918,0
GRID,3654,0,276.6863,0.0,137.5894,0
GRID,3655,0,275.0731,0.0,136.787,0
GRID,3656,0,273.46,0.0,135.9847,0
GRID,3657,0,271.8469,0.0,135.1823,0
GRID,3658,0,270.2337,0.0,134.3799,0
GRID,3659,0,362.439,0.0,183.62,0
GRID,3660,0,360.8319,0.0,182.8056,0
GRID,3661,0,359.2248,0.0,181.9913,0
GRID,3662,0,357.6176,0.0,181.1769,0
GRID,3663,0,356.0105,0.0,180.3626,0
GRID,3664,0,354.4034,0.0,179.5482,0
GRID,3665,0,352.7963,0.0,178.7339,0
GRID,3666,0,351.1892,0.0,177.9195,0
GRID,3667,0,349.582,0.0,177.1052,0
GRID,3668,0,347.9749,0.0,176.2908,0
GRID,3669,0,346.3678,0.0,175.4764,0
GRID,3670,0,344.7607,0.0,174.6621,0
GRID,3671,0,343.1536,0.0,173.8477,0
GRID,3672,0,341.5464,0.0,173.0334,0
GRID,3673,0,339.9393,0.0,172.219,0
GRID,3674,0,338.3322,0.0,171.4047,0
GRID,3675,0,336.7251,0.0,170.5903,0
GRID,3676,0,335.118,0.0,169.776,0
GRID,3677,0,333.5108,0.0,168.9616,0
GRID,3678,0,331.9037,0.0,168.1473,0
GRID,3679,0,330.2966,0.0,167.3329,0
GRID,3680,0,328.6895,0.0,166.5186,0
GRID,3681,0,327.0824,0.0,165.7042,0
GRID,3682,0,325.4752,0.0,164.8899,0
GRID,3683,0,323.8681,0.0,164.0755,0
GRID,3684,0,322.261,0.0,163.2612,0
GRID,3685,0,320.6539,0.0,162.4468,0
GRID,3686,0,319.0468,0.0,161.6325,0
GRID,3687,0,317.4396,0.0,160.8181,0
GRID,3688,0,315.8325,0.0,160.0038,0
GRID,3689,0,314.2254,0.0,159.1894,0
GRID,3690,0,312.6183,0.0,158.375,0
GRID,3691,0,311.0112,0.0,157.5607,0
GRID,3692,0,309.404,0.0,156.7463,0
GRID,3693,0,307.7969,0.0,155.932,0
GRID,3694,0,306.1898,0.0,155.1176,0
GRID,3695,0,304.5827,0.0,154.3033,0
GRID,3696,0,302.9756,0.0,153.4889,0
GRID,3697,0,301.3684,0.0,152.6746,0
GRID,3698,0,299.7613,0.0,151.8602,0
GRID,3699,0,298.1542,0.0,151.0459,0
GRID,3700,0,296.5471,0.0,150.2315,0
GRID,3701,0,294.94,0.0,149.4172,0
GRID,3702,0,293.3328,0.0,148.6028,0
GRID,3703,0,291.7257,0.0,147.7885,0
GRID,3704,0,290.1186,0.0,146.9741,0
GRID,3705,0,288.5115,0.0,146.1598,0
GRID,3706,0,286.9044,0.0,145.3454,0
GRID,3707,0,285.2972,0.0,144.5311,0
GRID,3708,0,283.6901,0.0,143.7167,0
GRID,3709,0,282.083,0.0,142.9023,0
GRID,3710,0,280.4759,0.0,142.088,0
GRID,3711,0,278.8688,0.0,141.2736,0
GRID,3712,0,277.2616,0.0,140.4593,0
GRID,3713,0,275.6545,0.0,139.6449,0
GRID,3714,0,274.0474,0.0,138.8306,0
GRID,3715,0,272.4403,0.0,138.0162,0
GRID,3716,0,270.8332,0.0,137.2019,0
GRID,3717,0,269.226,0.0,136.3875,0
GRID,3718,0,361.0622,0.0,186.3126,0
GRID,3719,0,359.4612,0.0,185.4863,0
GRID,3720,0,357.8602,0.0,184.66,0
GRID,3721,0,356.2592,0.0,183.8337,0
GRID,3722,0,354.6582,0.0,183.0074,0
GRID,3723,0,353.0571,0.0,182.1812,0
GRID,3724,0,351.4561,0.0,181.3549,0
GRID,3725,0,349.8551,0.0,180.5286,0
GRID,3726,0,348.2541,0.0,179.7023,0
GRID,3727,0,346.6531,0.0,178.876,0
GRID,3728,0,345.0521,0.0,178.0497,0
GRID,3729,0,343.4511,0.0,177.2234,0
GRID,3730,0,341.8501,0.0,176.3971,0
GRID,3731,0,340.249,0.0,175.5708,0
GRID,3732,0,338.648,0.0,174.7445,0
GRID,3733,0,337.047,0.0,173.9182,0
GRID,3734,0,335.446,0.0,173.0919,0
GRID,3735,0,333.845,0.0,172.2656,0
GRID,3736,0,332.244,0.0,171.4393,0
GRID,3737,0,330.643,0.0,170.613,0
GRID,3738,0,329.042,0.0,169.7867,0
GRID,3739,0,327.4409,0.0,168.9604,0
GRID,3740,0,325.8399,0.0,168.1342,0
GRID,3741,0,324.2389,0.0,167.3079,0
GRID,3742,0,322.6379,0.0,166.4816,0
GRID,3743,0,321.0369,0.0,165.6553,0
GRID,3744,0,319.4359,0.0,164.829,0
GRID,3745,0,317.8349,0.0,164.0027,0
GRID,3746,0,316.2338,0.0,163.1764,0
GRID,3747,0,314.6328,0.0,162.3501,0
GRID,3748,0,313.0318,0.0,161.5238,0
GRID,3749,0,311.4308,0.0,160.6975,0
GRID,3750,0,309.8298,0.0,159.8712,0
GRID,3751,0,308.2288,0.0,159.0449,0
GRID,3752,0,306.6278,0.0,158.2186,0
GRID,3753,0,305.0268,0.0,157.3923,0
GRID,3754,0,303.4257,0.0,156.566,0
GRID,3755,0,301.8247,0.0,155.7397,0
GRID,3756,0,300.2237,0.0,154.9134,0
GRID,3757,0,298.6227,0.0,154.0872,0
GRID,3758,0,297.0217,0.0,153.2609,0
GRID,3759,0,295.4207,0.0,152.4346,0
GRID,3760,0,293.8197,0.0,151.6083,0
GRID,3761,0,292.2187,0.0,150.782,0
GRID,3762,0,290.6176,0.0,149.9557,0
GRID,3763,0,289.0166,0.0,149.1294,0
GRID,3764,0,287.4156,0.0,148.3031,0
GRID,3765,0,285.8146,0.0,147.4768,0
GRID,3766,0,284.2136,0.0,146.6505,0
GRID,3767,0,282.6126,0.0,145.8242,0
GRID,3768,0,281.0116,0.0,144.9979,0
GRID,3769,0,279.4106,0.0,144.1716,0
GRID,3770,0,277.8095,0.0,143.3453,0
GRID,3771,0,276.2085,0.0,142.519,0
GRID,3772,0,274.6075,0.0,141.6927,0
GRID,3773,0,273.0065,0.0,140.8665,0
GRID,3774,0,271.4055,0.0,140.0402,0
GRID,3775,0,269.8045,0.0,139.2139,0
GRID,3776,0,268.2035,0.0,138.3876,0
GRID,3777,0,359.6654,0.0,188.9949,0
GRID,3778,0,358.0706,0.0,188.1568,0
GRID,3779,0,356.4758,0.0,187.3186,0
GRID,3780,0,354.881,0.0,186.4804,0
GRID,3781,0,353.2862,0.0,185.6422,0
GRID,3782,0,351.6913,0.0,184.804,0
GRID,3783,0,350.0965,0.0,183.9658,0
GRID,3784,0,348.5017,0.0,183.1276,0
GRID,3785,0,346.9069,0.0,182.2894,0
GRID,3786,0,345.3121,0.0,181.4512,0
GRID,3787,0,343.7172,0.0,180.6131,0
GRID,3788,0,342.1224,0.0,179.7749,0
GRID,3789,0,340.5276,0.0,178.9367,0
GRID,3790,0,338.9328,0.0,178.0985,0
GRID,3791,0,337.338,0.0,177.2603,0
GRID,3792,0,335.7432,0.0,176.4221,0
GRID,3793,0,334.1483,0.0,175.5839,0
GRID,3794,0,332.5535,0.0,174.7457,0
GRID,3795,0,330.9587,0.0,173.9075,0
GRID,3796,0,329.3639,0.0,173.0693,0
GRID,3797,0,327.7691,0.0,172.2312,0
GRID,3798,0,326.1743,0.0,171.393,0
GRID,3799,0,324.5794,0.0,170.5548,0
GRID,3800,0,322.9846,0.0,169.7166,0
GRID,3801,0,321.3898,0.0,168.8784,0
GRID,3802,0,319.795,0.0,168.0402,0
GRID,3803,0,318.2002,0.0,167.202,0
GRID,3804,0,316.6054,0.0,166.3638,0
GRID,3805,0,315.0105,0.0,165.5256,0
GRID,3806,0,313.4157,0.0,164.6874,0
GRID,3807,0,311.8209,0.0,163.8493,0
GRID,3808,0,310.2261,0.0,163.0111,0
GRID,3809,0,308.6313,0.0,162.1729,0
GRID,3810,0,307.0365,0.0,161.3347,0
GRID,3811,0,305.4416,0.0,160.4965,0
GRID,3812,0,303.8468,0.0,159.6583,0
GRID,3813,0,302.252,0.0,158.8201,0
GRID,3814,0,300.6572,0.0,157.9819,0
GRID,3815,0,299.0624,0.0,157.1437,0
GRID,3816,0,297.4676,0.0,156.3056,0
GRID,3817,0,295.8727,0.0,155.4674,0
GRID,3818,0,294.2779,0.0,154.6292,0
GRID,3819,0,292.6831,0.0,153.791,0
GRID,3820,0,291.0883,0.0,152.9528,0
GRID,3821,0,289.4935,0.0,152.1146,0
GRID,3822,0,287.8987,0.0,151.2764,0
GRID,3823,0,286.3038,0.0,150.4382,0
GRID,3824,0,284.709,0.0,149.6,0
GRID,3825,0,283.1142,0.0,148.7618,0
GRID,3826,0,281.5194,0.0,147.9237,0
GRID,3827,0,279.9246,0.0,147.0855,0
GRID,3828,0,278.3298,0.0,146.2473,0
GRID,3829,0,276.7349,0.0,145.4091,0
GRID,3830,0,275.1401,0.0,144.5709,0
GRID,3831,0,273.5453,0.0,143.7327,0
GRID,3832,0,271.9505,0.0,142.8945,0
GRID,3833,0,270.3557,0.0,142.0563,0
GRID,3834,0,268.7609,0.0,141.2181,0
GRID,3835,0,267.166,0.0,140.3799,0
GRID,3836,0,358.2487,0.0,191.6668,0
GRID,3837,0,356.6602,0.0,190.8168,0
GRID,3838,0,355.0716,0.0,189.9667,0
GRID,3839,0,353.4831,0.0,189.1167,0
GRID,3840,0,351.8946,0.0,188.2667,0
GRID,3841,0,350.306,0.0,187.4166,0
GRID,3842,0,348.7175,0.0,186.5666,0
GRID,3843,0,347.129,0.0,185.7165,0
GRID,3844,0,345.5404,0.0,184.8665,0
GRID,3845,0,343.9519,0.0,184.0165,0
GRID,3846,0,342.3634,0.0,183.1664,0
GRID,3847,0,340.7748,0.0,182.3164,0
GRID,3848,0,339.1863,0.0,181.4663,0
GRID,3849,0,337.5978,0.0,180.6163,0
GRID,3850,0,336.0092,0.0,179.7663,0
GRID,3851,0,334.4207,0.0,178.9162,0
GRID,3852,0,332.8322,0.0,178.0662,0
GRID,3853,0,331.2437,0.0,177.2161,0
GRID,3854,0,329.6551,0.0,176.3661,0
GRID,3855,0,328.0666,0.0,175.5161,0
GRID,3856,0,326.4781,0.0,174.666,0
GRID,3857,0,324.8895,0.0,173.816,0
GRID,3858,0,323.301,0.0,172.966,0
GRID,3859,0,321.7125,0.0,172.1159,0
GRID,3860,0,320.1239,0.0,171.2659,0
GRID,3861,0,318.5354,0.0,170.4158,0
GRID,3862,0,316.9469,0.0,169.5658,0
GRID,3863,0,315.3583,0.0,168.7158,0
GRID,3864,0,313.7698,0.0,167.8657,0
GRID,3865,0,312.1813,0.0,167.0157,0
GRID,3866,0,310.5927,0.0,166.1656,0
GRID,3867,0,309.0042,0.0,165.3156,0
GRID,3868,0,307.4157,0.0,164.4656,0
GRID,3869,0,305.8271,0.0,163.6155,0
GRID,3870,0,304.2386,0.0,162.7655,0
GRID,3871,0,302.6501,0.0,161.9154,0
GRID,3872,0,301.0615,0.0,161.0654,0
GRID,3873,0,299.473,0.0,160.2154,0
GRID,3874,0,297.8845,0.0,159.3653,0
GRID,3875,0,296.2959,0.0,158.5153,0
GRID,3876,0,294.7074,0.0,157.6653,0
GRID,3877,0,293.1189,0.0,156.8152,0
GRID,3878,0,291.5303,0.0,155.9652,0
GRID,3879,0,289.9418,0.0,155.1151,0
GRID,3880,0,288.3533,0.0,154.2651,0
GRID,3881,0,286.7647,0.0,153.4151,0
GRID,3882,0,285.1762,0.0,152.565,0
GRID,3883,0,283.5877,0.0,151.715,0
GRID,3884,0,281.9991,0.0,150.8649,0
GRID,3885,0,280.4106,0.0,150.0149,0
GRID,3886,0,278.8221,0.0,149.1649,0
GRID,3887,0,277.2335,0.0,148.3148,0
GRID,3888,0,275.645,0.0,147.4648,0
GRID,3889,0,274.0565,0.0,146.6147,0
GRID,3890,0,272.4679,0.0,145.7647,0
GRID,3891,0,270.8794,0.0,144.9147,0
GRID,3892,0,269.2909,0.0,144.0646,0
GRID,3893,0,267.7023,0.0,143.2146,0
GRID,3894,0,266.1138,0.0,142.3645,0
GRID,3895,0,356.8122,0.0,194.3281,0
GRID,3896,0,355.23,0.0,193.4662,0
GRID,3897,0,353.6478,0.0,192.6044,0
GRID,3898,0,352.0657,0.0,191.7425,0
GRID,3899,0,350.4835,0.0,190.8807,0
GRID,3900,0,348.9014,0.0,190.0188,0
GRID,3901,0,347.3192,0.0,189.157,0
GRID,3902,0,345.737,0.0,188.2952,0
GRID,3903,0,344.1549,0.0,187.4333,0
GRID,3904,0,342.5727,0.0,186.5715,0
GRID,3905,0,340.9905,0.0,185.7096,0
GRID,3906,0,339.4084,0.0,184.8478,0
GRID,3907,0,337.8262,0.0,183.986,0
GRID,3908,0,336.2441,0.0,183.1241,0
GRID,3909,0,334.6619,0.0,182.2623,0
GRID,3910,0,333.0797,0.0,181.4004,0
GRID,3911,0,331.4976,0.0,180.5386,0
GRID,3912,0,329.9154,0.0,179.6768,0
GRID,3913,0,328.3333,0.0,178.8149,0
GRID,3914,0,326.7511,0.0,177.9531,0
GRID,3915,0,325.1689,0.0,177.0912,0
GRID,3916,0,323.5868,0.0,176.2294,0
GRID,3917,0,322.0046,0.0,175.3675,0
GRID,3918,0,320.4225,0.0,174.5057,0
GRID,3919,0,318.8403,0.0,173.6439,0
GRID,3920,0,317.2581,0.0,172.782,0
GRID,3921,0,315.676,0.0,171.9202,0
GRID,3922,0,314.0938,0.0,171.0583,0
GRID,3923,0,312.5117,0.0,170.1965,0
GRID,3924,0,310.9295,0.0,169.3347,0
GRID,3925,0,309.3473,0.0,168.4728,0
GRID,3926,0,307.7652,0.0,167.611,0
GRID,3927,0,306.183,0.0,166.7491,0
GRID,3928,0,304.6009,0.0,165.8873,0
GRID,3929,0,303.0187,0.0,165.0255,0
GRID,3930,0,301.4365,0.0,164.1636,0
GRID,3931,0,299.8544,0.0,163.3018,0
GRID,3932,0,298.2722,0.0,162.4399,0
GRID,3933,0,296.69,0.0,161.5781,0
GRID,3934,0,295.1079,0.0,160.7162,0
GRID,3935,0,293.5257,0.0,159.8544,0
GRID,3936,0,291.9436,0.0,158.9926,0
GRID,3937,0,290.3614,0.0,158.1307,0
GRID,3938,0,288.7792,0.0,157.2689,0
GRID,3939,0,287.1971,0.0,156.407,0
GRID,3940,0,285.6149,0.0,155.5452,0
GRID,3941,0,284.0328,0.0,154.6834,0
GRID,3942,0,282.4506,0.0,153.8215,0
GRID,3943,0,280.8684,0.0,152.9597,0
GRID,3944,0,279.2863,0.0,152.0978,0
GRID,3945,0,277.7041,0.0,151.236,0
GRID,3946,0,276.122,0.0,150.3742,0
GRID,3947,0,274.5398,0.0,149.5123,0
GRID,3948,0,272.9576,0.0,148.6505,0
GRID,3949,0,271.3755,0.0,147.7886,0
GRID,3950,0,269.7933,0.0,146.9268,0
GRID,3951,0,268.2112,0.0,146.0649,0
GRID,3952,0,266.629,0.0,145.2031,0
GRID,3953,0,265.0468,0.0,144.3413,0
GRID,3954,0,355.3558,0.0,196.9785,0
GRID,3955,0,353.7801,0.0,196.1049,0
GRID,3956,0,352.2044,0.0,195.2313,0
GRID,3957,0,350.6287,0.0,194.3577,0
GRID,3958,0,349.053,0.0,193.4842,0
GRID,3959,0,347.4773,0.0,192.6106,0
GRID,3960,0,345.9016,0.0,191.737,0
GRID,3961,0,344.3259,0.0,190.8634,0
GRID,3962,0,342.7502,0.0,189.9898,0
GRID,3963,0,341.1745,0.0,189.1162,0
GRID,3964,0,339.5988,0.0,188.2426,0
GRID,3965,0,338.0231,0.0,187.369,0
GRID,3966,0,336.4474,0.0,186.4954,0
GRID,3967,0,334.8717,0.0,185.6218,0
GRID,3968,0,333.296,0.0,184.7482,0
GRID,3969,0,331.7203,0.0,183.8746,0
GRID,3970,0,330.1446,0.0,183.001,0
GRID,3971,0,328.5689,0.0,182.1274,0
GRID,3972,0,326.9932,0.0,181.2538,0
GRID,3973,0,325.4175,0.0,180.3802,0
GRID,3974,0,323.8418,0.0,179.5066,0
GRID,3975,0,322.2661,0.0,178.633,0
GRID,3976,0,320.6904,0.0,177.7594,0
GRID,3977,0,319.1147,0.0,176.8858,0
GRID,3978,0,317.539,0.0,176.0122,0
GRID,3979,0,315.9633,0.0,175.1386,0
GRID,3980,0,314.3876,0.0,174.265,0
GRID,3981,0,312.8119,0.0,173.3915,0
GRID,3982,0,311.2362,0.0,172.5179,0
GRID,3983,0,309.6605,0.0,171.6443,0
GRID,3984,0,308.0848,0.0,170.7707,0
GRID,3985,0,306.5091,0.0,169.8971,0
GRID,3986,0,304.9334,0.0,169.0235,0
GRID,3987,0,303.3577,0.0,168.1499,0
GRID,3988,0,301.782,0.0,167.2763,0
GRID,3989,0,300.2063,0.0,166.4027,0
GRID,3990,0,298.6306,0.0,165.5291,0
GRID,3991,0,297.0549,0.0,164.6555,0
GRID,3992,0,295.4792,0.0,163.7819,0
GRID,3993,0,293.9035,0.0,162.9083,0
GRID,3994,0,292.3278,0.0,162.0347,0
GRID,3995,0,290.7521,0.0,161.1611,0
GRID,3996,0,289.1764,0.0,160.2875,0
GRID,3997,0,287.6007,0.0,159.4139,0
GRID,3998,0,286.025,0.0,158.5403,0
GRID,3999,0,284.4493,0.0,157.6667,0
GRID,4000,0,282.8736,0.0,156.7931,0
GRID,4001,0,281.2979,0.0,155.9195,0
GRID,4002,0,279.7222,0.0,155.0459,0
GRID,4003,0,278.1465,0.0,154.1723,0
GRID,4004,0,276.5708,0.0,153.2988,0
GRID,4005,0,274.9951,0.0,152.4252,0
GRID,4006,0,273.4194,0.0,151.5516,0
GRID,4007,0,271.8437,0.0,150.678,0
GRID,4008,0,270.268,0.0,149.8044,0
GRID,4009,0,268.6923,0.0,148.9308,0
GRID,4010,0,267.1166,0.0,148.0572,0
GRID,4011,0,265.5409,0.0,147.1836,0
GRID,4012,0,263.9652,0.0,146.31,0
GRID,4013,0,353.8798,0.0,199.6181,0
GRID,4014,0,352.3107,0.0,198.7328,0
GRID,4015,0,350.7415,0.0,197.8475,0
GRID,4016,0,349.1724,0.0,196.9622,0
GRID,4017,0,347.6032,0.0,196.0769,0
GRID,4018,0,346.0341,0.0,195.1916,0
GRID,4019,0,344.4649,0.0,194.3063,0
GRID,4020,0,342.8958,0.0,193.421,0
GRID,4021,0,341.3266,0.0,192.5357,0
GRID,4022,0,339.7574,0.0,191.6504,0
GRID,4023,0,338.1883,0.0,190.7651,0
GRID,4024,0,336.6191,0.0,189.8798,0
GRID,4025,0,335.05,0.0,188.9945,0
GRID,4026,0,333.4808,0.0,188.1092,0
GRID,4027,0,331.9117,0.0,187.2239,0
GRID,4028,0,330.3425,0.0,186.3386,0
GRID,4029,0,328.7734,0.0,185.4533,0
GRID,4030,0,327.2042,0.0,184.568,0
GRID,4031,0,325.6351,0.0,183.6827,0
GRID,4032,0,324.0659,0.0,182.7974,0
GRID,4033,0,322.4968,0.0,181.9121,0
GRID,4034,0,320.9276,0.0,181.0268,0
GRID,4035,0,319.3584,0.0,180.1415,0
GRID,4036,0,317.7893,0.0,179.2562,0
GRID,4037,0,316.2201,0.0,178.3709,0
GRID,4038,0,314.651,0.0,177.4856,0
GRID,4039,0,313.0818,0.0,176.6003,0
GRID,4040,0,311.5127,0.0,175.715,0
GRID,4041,0,309.9435,0.0,174.8297,0
GRID,4042,0,308.3744,0.0,173.9444,0
GRID,4043,0,306.8052,0.0,173.0591,0
GRID,4044,0,305.2361,0.0,172.1738,0
GRID,4045,0,303.6669,0.0,171.2884,0
GRID,4046,0,302.0978,0.0,170.4031,0
GRID,4047,0,300.5286,0.0,169.5178,0
GRID,4048,0,298.9595,0.0,168.6325,0
GRID,4049,0,297.3903,0.0,167.7472,0
GRID,4050,0,295.8211,0.0,166.8619,0
GRID,4051,0,294.252,0.0,165.9766,0
GRID,4052,0,292.6828,0.0,165.0913,0
GRID,4053,0,291.1137,0.0,164.206,0
GRID,4054,0,289.5445,0.0,163.3207,0
GRID,4055,0,287.9754,0.0,162.4354,0
GRID,4056,0,286.4062,0.0,161.5501,0
GRID,4057,0,284.8371,0.0,160.6648,0
GRID,4058,0,283.2679,0.0,159.7795,0
GRID,4059,0,281.6988,0.0,158.8942,0
GRID,4060,0,280.1296,0.0,158.0089,0
GRID,4061,0,278.5605,0.0,157.1236,0
GRID,4062,0,276.9913,0.0,156.2383,0
GRID,4063,0,275.4221,0.0,155.353,0
GRID,4064,0,273.853,0.0,154.4677,0
GRID,4065,0,272.2838,0.0,153.5824,0
GRID,4066,0,270.7147,0.0,152.6971,0
GRID,4067,0,269.1455,0.0,151.8118,0
GRID,4068,0,267.5764,0.0,150.9265,0
GRID,4069,0,266.0072,0.0,150.0412,0
GRID,4070,0,264.4381,0.0,149.1559,0
GRID,4071,0,262.8689,0.0,148.2706,0
GRID,4072,0,352.3842,0.0,202.2466,0
GRID,4073,0,350.8217,0.0,201.3496,0
GRID,4074,0,349.2592,0.0,200.4527,0
GRID,4075,0,347.6967,0.0,199.5557,0
GRID,4076,0,346.1341,0.0,198.6588,0
GRID,4077,0,344.5716,0.0,197.7618,0
GRID,4078,0,343.0091,0.0,196.8649,0
GRID,4079,0,341.4466,0.0,195.9679,0
GRID,4080,0,339.8841,0.0,195.0709,0
GRID,4081,0,338.3215,0.0,194.174,0
GRID,4082,0,336.759,0.0,193.277,0
GRID,4083,0,335.1965,0.0,192.3801,0
GRID,4084,0,333.634,0.0,191.4831,0
GRID,4085,0,332.0715,0.0,190.5861,0
GRID,4086,0,330.5089,0.0,189.6892,0
GRID,4087,0,328.9464,0.0,188.7922,0
GRID,4088,0,327.3839,0.0,187.8953,0
GRID,4089,0,325.8214,0.0,186.9983,0
GRID,4090,0,324.2589,0.0,186.1014,0
GRID,4091,0,322.6963,0.0,185.2044,0
GRID,4092,0,321.1338,0.0,184.3074,0
GRID,4093,0,319.5713,0.0,183.4105,0
GRID,4094,0,318.0088,0.0,182.5135,0
GRID,4095,0,316.4463,0.0,181.6166,0
GRID,4096,0,314.8837,0.0,180.7196,0
GRID,4097,0,313.3212,0.0,179.8226,0
GRID,4098,0,311.7587,0.0,178.9257,0
GRID,4099,0,310.1962,0.0,178.0287,0
GRID,4100,0,308.6337,0.0,177.1318,0
GRID,4101,0,307.0711,0.0,176.2348,0
GRID,4102,0,305.5086,0.0,175.3378,0
GRID,4103,0,303.9461,0.0,174.4409,0
GRID,4104,0,302.3836,0.0,173.5439,0
GRID,4105,0,300.8211,0.0,172.647,0
GRID,4106,0,299.2585,0.0,171.75,0
GRID,4107,0,297.696,0.0,170.8531,0
GRID,4108,0,296.1335,0.0,169.9561,0
GRID,4109,0,294.571,0.0,169.0591,0
GRID,4110,0,293.0085,0.0,168.1622,0
GRID,4111,0,291.4459,0.0,167.2652,0
GRID,4112,0,289.8834,0.0,166.3683,0
GRID,4113,0,288.3209,0.0,165.4713,0
GRID,4114,0,286.7584,0.0,164.5743,0
GRID,4115,0,285.1959,0.0,163.6774,0
GRID,4116,0,283.6334,0.0,162.7804,0
GRID,4117,0,282.0708,0.0,161.8835,0
GRID,4118,0,280.5083,0.0,160.9865,0
GRID,4119,0,278.9458,0.0,160.0896,0
GRID,4120,0,277.3833,0.0,159.1926,0
GRID,4121,0,275.8208,0.0,158.2956,0
GRID,4122,0,274.2582,0.0,157.3987,0
GRID,4123,0,272.6957,0.0,156.5017,0
GRID,4124,0,271.1332,0.0,155.6048,0
GRID,4125,0,269.5707,0.0,154.7078,0
GRID,4126,0,268.0082,0.0,153.8108,0
GRID,4127,0,266.4456,0.0,152.9139,0
GRID,4128,0,264.8831,0.0,152.0169,0
GRID,4129,0,263.3206,0.0,151.12,0
GRID,4130,0,261.7581,0.0,150.223,0
GRID,4131,0,350.8691,0.0,204.8639,0
GRID,4132,0,349.3133,0.0,203.9553,0
GRID,4133,0,347.7575,0.0,203.0468,0
GRID,4134,0,346.2017,0.0,202.1382,0
GRID,4135,0,344.6459,0.0,201.2296,0
GRID,4136,0,343.0901,0.0,200.3211,0
GRID,4137,0,341.5343,0.0,199.4125,0
GRID,4138,0,339.9785,0.0,198.5039,0
GRID,4139,0,338.4227,0.0,197.5954,0
GRID,4140,0,336.8669,0.0,196.6868,0
GRID,4141,0,335.3111,0.0,195.7782,0
GRID,4142,0,333.7553,0.0,194.8697,0
GRID,4143,0,332.1995,0.0,193.9611,0
GRID,4144,0,330.6437,0.0,193.0525,0
GRID,4145,0,329.0879,0.0,192.144,0
GRID,4146,0,327.5321,0.0,191.2354,0
GRID,4147,0,325.9763,0.0,190.3269,0
GRID,4148,0,324.4205,0.0,189.4183,0
GRID,4149,0,322.8647,0.0,188.5097,0
GRID,4150,0,321.3089,0.0,187.6012,0
GRID,4151,0,319.7531,0.0,186.6926,0
GRID,4152,0,318.1973,0.0,185.784,0
GRID,4153,0,316.6415,0.0,184.8755,0
GRID,4154,0,315.0857,0.0,183.9669,0
GRID,4155,0,313.5299,0.0,183.0583,0
GRID,4156,0,311.9741,0.0,182.1498,0
GRID,4157,0,310.4183,0.0,181.2412,0
GRID,4158,0,308.8625,0.0,180.3326,0
GRID,4159,0,307.3067,0.0,179.4241,0
GRID,4160,0,305.7509,0.0,178.5155,0
GRID,4161,0,304.1951,0.0,177.6069,0
GRID,4162,0,302.6393,0.0,176.6984,0
GRID,4163,0,301.0835,0.0,175.7898,0
GRID,4164,0,299.5277,0.0,174.8812,0
GRID,4165,0,297.9719,0.0,173.9727,0
GRID,4166,0,296.4161,0.0,173.0641,0
GRID,4167,0,294.8603,0.0,172.1555,0
GRID,4168,0,293.3045,0.0,171.247,0
GRID,4169,0,291.7487,0.0,170.3384,0
GRID,4170,0,290.1929,0.0,169.4298,0
GRID,4171,0,288.6371,0.0,168.5213,0
GRID,4172,0,287.0813,0.0,167.6127,0
GRID,4173,0,285.5255,0.0,166.7041,0
GRID,4174,0,283.9697,0.0,165.7956,0
GRID,4175,0,282.4139,0.0,164.887,0
GRID,4176,0,280.8581,0.0,163.9784,0
GRID,4177,0,279.3023,0.0,163.0699,0
GRID,4178,0,277.7465,0.0,162.1613,0
GRID,4179,0,276.1907,0.0,161.2527,0
GRID,4180,0,274.6349,0.0,160.3442,0
GRID,4181,0,273.0791,0.0,159.4356,0
GRID,4182,0,271.5233,0.0,158.527,0
GRID,4183,0,269.9675,0.0,157.6185,0
GRID,4184,0,268.4117,0.0,156.7099,0
GRID,4185,0,266.8559,0.0,155.8013,0
GRID,4186,0,265.3001,0.0,154.8928,0
GRID,4187,0,263.7443,0.0,153.9842,0
GRID,4188,0,262.1885,0.0,153.0756,0
GRID,4189,0,260.6327,0.0,152.1671,0
GRID,4190,0,349.3345,0.0,207.4698,0
GRID,4191,0,347.7855,0.0,206.5497,0
GRID,4192,0,346.2365,0.0,205.6296,0
GRID,4193,0,344.6875,0.0,204.7095,0
GRID,4194,0,343.1385,0.0,203.7894,0
GRID,4195,0,341.5895,0.0,202.8692,0
GRID,4196,0,340.0405,0.0,201.9491,0
GRID,4197,0,338.4915,0.0,201.029,0
GRID,4198,0,336.9425,0.0,200.1089,0
GRID,4199,0,335.3936,0.0,199.1887,0
GRID,4200,0,333.8446,0.0,198.2686,0
GRID,4201,0,332.2956,0.0,197.3485,0
GRID,4202,0,330.7466,0.0,196.4284,0
GRID,4203,0,329.1976,0.0,195.5083,0
GRID,4204,0,327.6486,0.0,194.5881,0
GRID,4205,0,326.0996,0.0,193.668,0
GRID,4206,0,324.5506,0.0,192.7479,0
GRID,4207,0,323.0016,0.0,191.8278,0
GRID,4208,0,321.4526,0.0,190.9076,0
GRID,4209,0,319.9036,0.0,189.9875,0
GRID,4210,0,318.3546,0.0,189.0674,0
GRID,4211,0,316.8056,0.0,188.1473,0
GRID,4212,0,315.2567,0.0,187.2271,0
GRID,4213,0,313.7077,0.0,186.307,0
GRID,4214,0,312.1587,0.0,185.3869,0
GRID,4215,0,310.6097,0.0,184.4668,0
GRID,4216,0,309.0607,0.0,183.5467,0
GRID,4217,0,307.5117,0.0,182.6265,0
GRID,4218,0,305.9627,0.0,181.7064,0
GRID,4219,0,304.4137,0.0,180.7863,0
GRID,4220,0,302.8647,0.0,179.8662,0
GRID,4221,0,301.3157,0.0,178.946,0
GRID,4222,0,299.7667,0.0,178.0259,0
GRID,4223,0,298.2177,0.0,177.1058,0
GRID,4224,0,296.6688,0.0,176.1857,0
GRID,4225,0,295.1198,0.0,175.2655,0
GRID,4226,0,293.5708,0.0,174.3454,0
GRID,4227,0,292.0218,0.0,173.4253,0
GRID,4228,0,290.4728,0.0,172.5052,0
GRID,4229,0,288.9238,0.0,171.5851,0
GRID,4230,0,287.3748,0.0,170.6649,0
GRID,4231,0,285.8258,0.0,169.7448,0
GRID,4232,0,284.2768,0.0,168.8247,0
GRID,4233,0,282.7278,0.0,167.9046,0
GRID,4234,0,281.1788,0.0,166.9844,0
GRID,4235,0,279.6298,0.0,166.0643,0
GRID,4236,0,278.0808,0.0,165.1442,0
GRID,4237,0,276.5319,0.0,164.2241,0
GRID,4238,0,274.9829,0.0,163.304,0
GRID,4239,0,273.4339,0.0,162.3838,0
GRID,4240,0,271.8849,0.0,161.4637,0
GRID,4241,0,270.3359,0.0,160.5436,0
GRID,4242,0,268.7869,0.0,159.6235,0
GRID,4243,0,267.2379,0.0,158.7033,0
GRID,4244,0,265.6889,0.0,157.7832,0
GRID,4245,0,264.1399,0.0,156.8631,0
GRID,4246,0,262.5909,0.0,155.943,0
GRID,4247,0,261.0419,0.0,155.0228,0
GRID,4248,0,259.4929,0.0,154.1027,0
GRID,4249,0,347.7805,0.0,210.0643,0
GRID,4250,0,346.2384,0.0,209.1327,0
GRID,4251,0,344.6963,0.0,208.201,0
GRID,4252,0,343.1542,0.0,207.2694,0
GRID,4253,0,341.6121,0.0,206.3378,0
GRID,4254,0,340.07,0.0,205.4062,0
GRID,4255,0,338.5279,0.0,204.4745,0
GRID,4256,0,336.9858,0.0,203.5429,0
GRID,4257,0,335.4437,0.0,202.6113,0
GRID,4258,0,333.9016,0.0,201.6796,0
GRID,4259,0,332.3595,0.0,200.748,0
GRID,4260,0,330.8174,0.0,199.8164,0
GRID,4261,0,329.2753,0.0,198.8848,0
GRID,4262,0,327.7332,0.0,197.9531,0
GRID,4263,0,326.1911,0.0,197.0215,0
GRID,4264,0,324.649,0.0,196.0899,0
GRID,4265,0,323.1069,0.0,195.1582,0
GRID,4266,0,321.5648,0.0,194.2266,0
GRID,4267,0,320.0227,0.0,193.295,0
GRID,4268,0,318.4807,0.0,192.3634,0
GRID,4269,0,316.9386,0.0,191.4317,0
GRID,4270,0,315.3965,0.0,190.5001,0
GRID,4271,0,313.8544,0.0,189.5685,0
GRID,4272,0,312.3123,0.0,188.6368,0
GRID,4273,0,310.7702,0.0,187.7052,0
GRID,4274,0,309.2281,0.0,186.7736,0
GRID,4275,0,307.686,0.0,185.8419,0
GRID,4276,0,306.1439,0.0,184.9103,0
GRID,4277,0,304.6018,0.0,183.9787,0
GRID,4278,0,303.0597,0.0,183.0471,0
GRID,4279,0,301.5176,0.0,182.1154,0
GRID,4280,0,299.9755,0.0,181.1838,0
GRID,4281,0,298.4334,0.0,180.2522,0
GRID,4282,0,296.8913,0.0,179.3205,0
GRID,4283,0,295.3492,0.0,178.3889,0
GRID,4284,0,293.8071,0.0,177.4573,0
GRID,4285,0,292.265,0.0,176.5257,0
GRID,4286,0,290.7229,0.0,175.594,0
GRID,4287,0,289.1808,0.0,174.6624,0
GRID,4288,0,287.6387,0.0,173.7308,0
GRID,4289,0,286.0966,0.0,172.7991,0
GRID,4290,0,284.5545,0.0,171.8675,0
GRID,4291,0,283.0124,0.0,170.9359,0
GRID,4292,0,281.4703,0.0,170.0043,0
GRID,4293,0,279.9282,0.0,169.0726,0
GRID,4294,0,278.3861,0.0,168.141,0
GRID,4295,0,276.844,0.0,167.2094,0
GRID,4296,0,275.3019,0.0,166.2777,0
GRID,4297,0,273.7598,0.0,165.3461,0
GRID,4298,0,272.2177,0.0,164.4145,0
GRID,4299,0,270.6756,0.0,163.4829,0
GRID,4300,0,269.1335,0.0,162.5512,0
GRID,4301,0,267.5914,0.0,161.6196,0
GRID,4302,0,266.0493,0.0,160.688,0
GRID,4303,0,264.5072,0.0,159.7563,0
GRID,4304,0,262.9651,0.0,158.8247,0
GRID,4305,0,261.423,0.0,157.8931,0
GRID,4306,0,259.8809,0.0,156.9615,0
GRID,4307,0,258.3388,0.0,156.0298,0
GRID,4308,0,346.2073,0.0,212.6471,0
GRID,4309,0,344.6722,0.0,211.704,0
GRID,4310,0,343.1371,0.0,210.7609,0
GRID,4311,0,341.602,0.0,209.8179,0
GRID,4312,0,340.0668,0.0,208.8748,0
GRID,4313,0,338.5317,0.0,207.9317,0
GRID,4314,0,336.9966,0.0,206.9886,0
GRID,4315,0,335.4615,0.0,206.0455,0
GRID,4316,0,333.9264,0.0,205.1024,0
GRID,4317,0,332.3912,0.0,204.1594,0
GRID,4318,0,330.8561,0.0,203.2163,0
GRID,4319,0,329.321,0.0,202.2732,0
GRID,4320,0,327.7859,0.0,201.3301,0
GRID,4321,0,326.2508,0.0,200.387,0
GRID,4322,0,324.7156,0.0,199.4439,0
GRID,4323,0,323.1805,0.0,198.5009,0
GRID,4324,0,321.6454,0.0,197.5578,0
GRID,4325,0,320.1103,0.0,196.6147,0
GRID,4326,0,318.5751,0.0,195.6716,0
GRID,4327,0,317.04,0.0,194.7285,0
GRID,4328,0,315.5049,0.0,193.7854,0
GRID,4329,0,313.9698,0.0,192.8424,0
GRID,4330,0,312.4347,0.0,191.8993,0
GRID,4331,0,310.8995,0.0,190.9562,0
GRID,4332,0,309.3644,0.0,190.0131,0
GRID,4333,0,307.8293,0.0,189.07,0
GRID,4334,0,306.2942,0.0,188.1269,0
GRID,4335,0,304.7591,0.0,187.1839,0
GRID,4336,0,303.2239,0.0,186.2408,0
GRID,4337,0,301.6888,0.0,185.2977,0
GRID,4338,0,300.1537,0.0,184.3546,0
GRID,4339,0,298.6186,0.0,183.4115,0
GRID,4340,0,297.0834,0.0,182.4684,0
GRID,4341,0,295.5483,0.0,181.5254,0
GRID,4342,0,294.0132,0.0,180.5823,0
GRID,4343,0,292.4781,0.0,179.6392,0
GRID,4344,0,290.943,0.0,178.6961,0
GRID,4345,0,289.4078,0.0,177.753,0
GRID,4346,0,287.8727,0.0,176.81,0
GRID,4347,0,286.3376,0.0,175.8669,0
GRID,4348,0,284.8025,0.0,174.9238,0
GRID,4349,0,283.2674,0.0,173.9807,0
GRID,4350,0,281.7322,0.0,173.0376,0
GRID,4351,0,280.1971,0.0,172.0945,0
GRID,4352,0,278.662,0.0,171.1515,0
GRID,4353,0,277.1269,0.0,170.2084,0
GRID,4354,0,275.5917,0.0,169.2653,0
GRID,4355,0,274.0566,0.0,168.3222,0
GRID,4356,0,272.5215,0.0,167.3791,0
GRID,4357,0,270.9864,0.0,166.436,0
GRID,4358,0,269.4513,0.0,165.493,0
GRID,4359,0,267.9161,0.0,164.5499,0
GRID,4360,0,266.381,0.0,163.6068,0
GRID,4361,0,264.8459,0.0,162.6637,0
GRID,4362,0,263.3108,0.0,161.7206,0
GRID,4363,0,261.7757,0.0,160.7775,0
GRID,4364,0,260.2405,0.0,159.8345,0
GRID,4365,0,258.7054,0.0,158.8914,0
GRID,4366,0,257.1703,0.0,157.9483,0
GRID,4367,0,344.6149,0.0,215.2181,0
GRID,4368,0,343.0869,0.0,214.2637,0
GRID,4369,0,341.5588,0.0,213.3092,0
GRID,4370,0,340.0308,0.0,212.3547,0
GRID,4371,0,338.5027,0.0,211.4002,0
GRID,4372,0,336.9746,0.0,210.4457,0
GRID,4373,0,335.4466,0.0,209.4912,0
GRID,4374,0,333.9185,0.0,208.5367,0
GRID,4375,0,332.3905,0.0,207.5823,0
GRID,4376,0,330.8624,0.0,206.6278,0
GRID,4377,0,329.3344,0.0,205.6733,0
GRID,4378,0,327.8063,0.0,204.7188,0
GRID,4379,0,326.2782,0.0,203.7643,0
GRID,4380,0,324.7502,0.0,202.8098,0
GRID,4381,0,323.2221,0.0,201.8553,0
GRID,4382,0,321.6941,0.0,200.9009,0
GRID,4383,0,320.166,0.0,199.9464,0
GRID,4384,0,318.638,0.0,198.9919,0
GRID,4385,0,317.1099,0.0,198.0374,0
GRID,4386,0,315.5818,0.0,197.0829,0
GRID,4387,0,314.0538,0.0,196.1284,0
GRID,4388,0,312.5257,0.0,195.174,0
GRID,4389,0,310.9977,0.0,194.2195,0
GRID,4390,0,309.4696,0.0,193.265,0
GRID,4391,0,307.9415,0.0,192.3105,0
GRID,4392,0,306.4135,0.0,191.356,0
GRID,4393,0,304.8854,0.0,190.4015,0
GRID,4394,0,303.3574,0.0,189.447,0
GRID,4395,0,301.8293,0.0,188.4926,0
GRID,4396,0,300.3013,0.0,187.5381,0
GRID,4397,0,298.7732,0.0,186.5836,0
GRID,4398,0,297.2451,0.0,185.6291,0
GRID,4399,0,295.7171,0.0,184.6746,0
GRID,4400,0,294.189,0.0,183.7201,0
GRID,4401,0,292.661,0.0,182.7656,0
GRID,4402,0,291.1329,0.0,181.8112,0
GRID,4403,0,289.6048,0.0,180.8567,0
GRID,4404,0,288.0768,0.0,179.9022,0
GRID,4405,0,286.5487,0.0,178.9477,0
GRID,4406,0,285.0207,0.0,177.9932,0
GRID,4407,0,283.4926,0.0,177.0387,0
GRID,4408,0,281.9646,0.0,176.0842,0
GRID,4409,0,280.4365,0.0,175.1298,0
GRID,4410,0,278.9084,0.0,174.1753,0
GRID,4411,0,277.3804,0.0,173.2208,0
GRID,4412,0,275.8523,0.0,172.2663,0
GRID,4413,0,274.3243,0.0,171.3118,0
GRID,4414,0,272.7962,0.0,170.3573,0
GRID,4415,0,271.2682,0.0,169.4029,0
GRID,4416,0,269.7401,0.0,168.4484,0
GRID,4417,0,268.212,0.0,167.4939,0
GRID,4418,0,266.684,0.0,166.5394,0
GRID,4419,0,265.1559,0.0,165.5849,0
GRID,4420,0,263.6279,0.0,164.6304,0
GRID,4421,0,262.0998,0.0,163.6759,0
GRID,4422,0,260.5717,0.0,162.7215,0
GRID,4423,0,259.0437,0.0,161.767,0
GRID,4424,0,257.5156,0.0,160.8125,0
GRID,4425,0,255.9876,0.0,159.858,0
GRID,4426,0,343.0035,0.0,217.7773,0
GRID,4427,0,341.4826,0.0,216.8114,0
GRID,4428,0,339.9616,0.0,215.8456,0
GRID,4429,0,338.4407,0.0,214.8797,0
GRID,4430,0,336.9198,0.0,213.9139,0
GRID,4431,0,335.3989,0.0,212.9481,0
GRID,4432,0,333.878,0.0,211.9822,0
GRID,4433,0,332.3571,0.0,211.0164,0
GRID,4434,0,330.8362,0.0,210.0506,0
GRID,4435,0,329.3153,0.0,209.0847,0
GRID,4436,0,327.7944,0.0,208.1189,0
GRID,4437,0,326.2734,0.0,207.1531,0
GRID,4438,0,324.7525,0.0,206.1872,0
GRID,4439,0,323.2316,0.0,205.2214,0
GRID,4440,0,321.7107,0.0,204.2556,0
GRID,4441,0,320.1898,0.0,203.2897,0
GRID,4442,0,318.6689,0.0,202.3239,0
GRID,4443,0,317.148,0.0,201.3581,0
GRID,4444,0,315.6271,0.0,200.3922,0
GRID,4445,0,314.1062,0.0,199.4264,0
GRID,4446,0,312.5853,0.0,198.4606,0
GRID,4447,0,311.0643,0.0,197.4947,0
GRID,4448,0,309.5434,0.0,196.5289,0
GRID,4449,0,308.0225,0.0,195.5631,0
GRID,4450,0,306.5016,0.0,194.5972,0
GRID,4451,0,304.9807,0.0,193.6314,0
GRID,4452,0,303.4598,0.0,192.6656,0
GRID,4453,0,301.9389,0.0,191.6997,0
GRID,4454,0,300.418,0.0,190.7339,0
GRID,4455,0,298.8971,0.0,189.7681,0
GRID,4456,0,297.3762,0.0,188.8022,0
GRID,4457,0,295.8552,0.0,187.8364,0
GRID,4458,0,294.3343,0.0,186.8706,0
GRID,4459,0,292.8134,0.0,185.9047,0
GRID,4460,0,291.2925,0.0,184.9389,0
GRID,4461,0,289.7716,0.0,183.973,0
GRID,4462,0,288.2507,0.0,183.0072,0
GRID,4463,0,286.7298,0.0,182.0414,0
GRID,4464,0,285.2089,0.0,181.0755,0
GRID,4465,0,283.688,0.0,180.1097,0
GRID,4466,0,282.1671,0.0,179.1439,0
GRID,4467,0,280.6461,0.0,178.178,0
GRID,4468,0,279.1252,0.0,177.2122,0
GRID,4469,0,277.6043,0.0,176.2464,0
GRID,4470,0,276.0834,0.0,175.2805,0
GRID,4471,0,274.5625,0.0,174.3147,0
GRID,4472,0,273.0416,0.0,173.3489,0
GRID,4473,0,271.5207,0.0,172.383,0
GRID,4474,0,269.9998,0.0,171.4172,0
GRID,4475,0,268.4789,0.0,170.4514,0
GRID,4476,0,266.958,0.0,169.4855,0
GRID,4477,0,265.437,0.0,168.5197,0
GRID,4478,0,263.9161,0.0,167.5539,0
GRID,4479,0,262.3952,0.0,166.588,0
GRID,4480,0,260.8743,0.0,165.6222,0
GRID,4481,0,259.3534,0.0,164.6564,0
GRID,4482,0,257.8325,0.0,163.6905,0
GRID,4483,0,256.3116,0.0,162.7247,0
GRID,4484,0,254.7907,0.0,161.7589,0
GRID,4485,0,341.373,0.0,220.3243,0
GRID,4486,0,339.8593,0.0,219.3472,0
GRID,4487,0,338.3456,0.0,218.37,0
GRID,4488,0,336.832,0.0,217.3929,0
GRID,4489,0,335.3183,0.0,216.4158,0
GRID,4490,0,333.8046,0.0,215.4386,0
GRID,4491,0,332.2909,0.0,214.4615,0
GRID,4492,0,330.7772,0.0,213.4844,0
GRID,4493,0,329.2636,0.0,212.5073,0
GRID,4494,0,327.7499,0.0,211.5301,0
GRID,4495,0,326.2362,0.0,210.553,0
GRID,4496,0,324.7225,0.0,209.5759,0
GRID,4497,0,323.2088,0.0,208.5987,0
GRID,4498,0,321.6952,0.0,207.6216,0
GRID,4499,0,320.1815,0.0,206.6445,0
GRID,4500,0,318.6678,0.0,205.6673,0
GRID,4501,0,317.1541,0.0,204.6902,0
GRID,4502,0,315.6405,0.0,203.7131,0
GRID,4503,0,314.1268,0.0,202.736,0
GRID,4504,0,312.6131,0.0,201.7588,0
GRID,4505,0,311.0994,0.0,200.7817,0
GRID,4506,0,309.5857,0.0,199.8046,0
GRID,4507,0,308.0721,0.0,198.8274,0
GRID,4508,0,306.5584,0.0,197.8503,0
GRID,4509,0,305.0447,0.0,196.8732,0
GRID,4510,0,303.531,0.0,195.896,0
GRID,4511,0,302.0174,0.0,194.9189,0
GRID,4512,0,300.5037,0.0,193.9418,0
GRID,4513,0,298.99,0.0,192.9647,0
GRID,4514,0,297.4763,0.0,191.9875,0
GRID,4515,0,295.9626,0.0,191.0104,0
GRID,4516,0,294.449,0.0,190.0333,0
GRID,4517,0,292.9353,0.0,189.0561,0
GRID,4518,0,291.4216,0.0,188.079,0
GRID,4519,0,289.9079,0.0,187.1019,0
GRID,4520,0,288.3943,0.0,186.1247,0
GRID,4521,0,286.8806,0.0,185.1476,0
GRID,4522,0,285.3669,0.0,184.1705,0
GRID,4523,0,283.8532,0.0,183.1934,0
GRID,4524,0,282.3395,0.0,182.2162,0
GRID,4525,0,280.8259,0.0,181.2391,0
GRID,4526,0,279.3122,0.0,180.262,0
GRID,4527,0,277.7985,0.0,179.2848,0
GRID,4528,0,276.2848,0.0,178.3077,0
GRID,4529,0,274.7712,0.0,177.3306,0
GRID,4530,0,273.2575,0.0,176.3534,0
GRID,4531,0,271.7438,0.0,175.3763,0
GRID,4532,0,270.2301,0.0,174.3992,0
GRID,4533,0,268.7164,0.0,173.4221,0
GRID,4534,0,267.2028,0.0,172.4449,0
GRID,4535,0,265.6891,0.0,171.4678,0
GRID,4536,0,264.1754,0.0,170.4907,0
GRID,4537,0,262.6617,0.0,169.5135,0
GRID,4538,0,261.1481,0.0,168.5364,0
GRID,4539,0,259.6344,0.0,167.5593,0
GRID,4540,0,258.1207,0.0,166.5822,0
GRID,4541,0,256.607,0.0,165.605,0
GRID,4542,0,255.0933,0.0,164.6279,0
GRID,4543,0,253.5797,0.0,163.6508,0
GRID,4544,0,339.7236,0.0,222.8591,0
GRID,4545,0,338.2172,0.0,221.8708,0
GRID,4546,0,336.7109,0.0,220.8824,0
GRID,4547,0,335.2045,0.0,219.894,0
GRID,4548,0,333.6981,0.0,218.9057,0
GRID,4549,0,332.1918,0.0,217.9173,0
GRID,4550,0,330.6854,0.0,216.9289,0
GRID,4551,0,329.1791,0.0,215.9405,0
GRID,4552,0,327.6727,0.0,214.9522,0
GRID,4553,0,326.1663,0.0,213.9638,0
GRID,4554,0,324.66,0.0,212.9754,0
GRID,4555,0,323.1536,0.0,211.9871,0
GRID,4556,0,321.6473,0.0,210.9987,0
GRID,4557,0,320.1409,0.0,210.0103,0
GRID,4558,0,318.6345,0.0,209.0219,0
GRID,4559,0,317.1282,0.0,208.0336,0
GRID,4560,0,315.6218,0.0,207.0452,0
GRID,4561,0,314.1154,0.0,206.0568,0
GRID,4562,0,312.6091,0.0,205.0685,0
GRID,4563,0,311.1027,0.0,204.0801,0
GRID,4564,0,309.5964,0.0,203.0917,0
GRID,4565,0,308.09,0.0,202.1033,0
GRID,4566,0,306.5836,0.0,201.115,0
GRID,4567,0,305.0773,0.0,200.1266,0
GRID,4568,0,303.5709,0.0,199.1382,0
GRID,4569,0,302.0646,0.0,198.1499,0
GRID,4570,0,300.5582,0.0,197.1615,0
GRID,4571,0,299.0518,0.0,196.1731,0
GRID,4572,0,297.5455,0.0,195.1847,0
GRID,4573,0,296.0391,0.0,194.1964,0
GRID,4574,0,294.5327,0.0,193.208,0
GRID,4575,0,293.0264,0.0,192.2196,0
GRID,4576,0,291.52,0.0,191.2313,0
GRID,4577,0,290.0137,0.0,190.2429,0
GRID,4578,0,288.5073,0.0,189.2545,0
GRID,4579,0,287.0009,0.0,188.2661,0
GRID,4580,0,285.4946,0.0,187.2778,0
GRID,4581,0,283.9882,0.0,186.2894,0
GRID,4582,0,282.4818,0.0,185.301,0
GRID,4583,0,280.9755,0.0,184.3127,0
GRID,4584,0,279.4691,0.0,183.3243,0
GRID,4585,0,277.9628,0.0,182.3359,0
GRID,4586,0,276.4564,0.0,181.3475,0
GRID,4587,0,274.95,0.0,180.3592,0
GRID,4588,0,273.4437,0.0,179.3708,0
GRID,4589,0,271.9373,0.0,178.3824,0
GRID,4590,0,270.431,0.0,177.3941,0
GRID,4591,0,268.9246,0.0,176.4057,0
GRID,4592,0,267.4182,0.0,175.4173,0
GRID,4593,0,265.9119,0.0,174.4289,0
GRID,4594,0,264.4055,0.0,173.4406,0
GRID,4595,0,262.8991,0.0,172.4522,0
GRID,4596,0,261.3928,0.0,171.4638,0
GRID,4597,0,259.8864,0.0,170.4755,0
GRID,4598,0,258.3801,0.0,169.4871,0
GRID,4599,0,256.8737,0.0,168.4987,0
GRID,4600,0,255.3673,0.0,167.5103,0
GRID,4601,0,253.861,0.0,166.522,0
GRID,4602,0,252.3546,0.0,165.5336,0
GRID,4603,0,338.0554,0.0,225.3816,0
GRID,4604,0,336.5564,0.0,224.3821,0
GRID,4605,0,335.0575,0.0,223.3825,0
GRID,4606,0,333.5585,0.0,222.383,0
GRID,4607,0,332.0595,0.0,221.3834,0
GRID,4608,0,330.5606,0.0,220.3838,0
GRID,4609,0,329.0616,0.0,219.3843,0
GRID,4610,0,327.5627,0.0,218.3847,0
GRID,4611,0,326.0637,0.0,217.3852,0
GRID,4612,0,324.5647,0.0,216.3856,0
GRID,4613,0,323.0658,0.0,215.3861,0
GRID,4614,0,321.5668,0.0,214.3865,0
GRID,4615,0,320.0678,0.0,213.3869,0
GRID,4616,0,318.5689,0.0,212.3874,0
GRID,4617,0,317.0699,0.0,211.3878,0
GRID,4618,0,315.571,0.0,210.3883,0
GRID,4619,0,314.072,0.0,209.3887,0
GRID,4620,0,312.573,0.0,208.3891,0
GRID,4621,0,311.0741,0.0,207.3896,0
GRID,4622,0,309.5751,0.0,206.39,0
GRID,4623,0,308.0761,0.0,205.3905,0
GRID,4624,0,306.5772,0.0,204.3909,0
GRID,4625,0,305.0782,0.0,203.3914,0
GRID,4626,0,303.5793,0.0,202.3918,0
GRID,4627,0,302.0803,0.0,201.3922,0
GRID,4628,0,300.5813,0.0,200.3927,0
GRID,4629,0,299.0824,0.0,199.3931,0
GRID,4630,0,297.5834,0.0,198.3936,0
GRID,4631,0,296.0844,0.0,197.394,0
GRID,4632,0,294.5855,0.0,196.3945,0
GRID,4633,0,293.0865,0.0,195.3949,0
GRID,4634,0,291.5876,0.0,194.3953,0
GRID,4635,0,290.0886,0.0,193.3958,0
GRID,4636,0,288.5896,0.0,192.3962,0
GRID,4637,0,287.0907,0.0,191.3967,0
GRID,4638,0,285.5917,0.0,190.3971,0
GRID,4639,0,284.0927,0.0,189.3975,0
GRID,4640,0,282.5938,0.0,188.398,0
GRID,4641,0,281.0948,0.0,187.3984,0
GRID,4642,0,279.5959,0.0,186.3989,0
GRID,4643,0,278.0969,0.0,185.3993,0
GRID,4644,0,276.5979,0.0,184.3998,0
GRID,4645,0,275.099,0.0,183.4002,0
GRID,4646,0,273.6,0.0,182.4006,0
GRID,4647,0,272.1011,0.0,181.4011,0
GRID,4648,0,270.6021,0.0,180.4015,0
GRID,4649,0,269.1031,0.0,179.402,0
GRID,4650,0,267.6042,0.0,178.4024,0
GRID,4651,0,266.1052,0.0,177.4028,0
GRID,4652,0,264.6062,0.0,176.4033,0
GRID,4653,0,263.1073,0.0,175.4037,0
GRID,4654,0,261.6083,0.0,174.4042,0
GRID,4655,0,260.1094,0.0,173.4046,0
GRID,4656,0,258.6104,0.0,172.4051,0
GRID,4657,0,257.1114,0.0,171.4055,0
GRID,4658,0,255.6125,0.0,170.4059,0
GRID,4659,0,254.1135,0.0,169.4064,0
GRID,4660,0,252.6145,0.0,168.4068,0
GRID,4661,0,251.1156,0.0,167.4073,0
GRID,4662,0,336.3684,0.0,227.8916,0
GRID,4663,0,334.877,0.0,226.881,0
GRID,4664,0,333.3855,0.0,225.8703,0
GRID,4665,0,331.894,0.0,224.8596,0
GRID,4666,0,330.4025,0.0,223.8489,0
GRID,4667,0,328.9111,0.0,222.8382,0
GRID,4668,0,327.4196,0.0,221.8275,0
GRID,4669,0,325.9281,0.0,220.8168,0
GRID,4670,0,324.4366,0.0,219.8061,0
GRID,4671,0,322.9451,0.0,218.7954,0
GRID,4672,0,321.4537,0.0,217.7848,0
GRID,4673,0,319.9622,0.0,216.7741,0
GRID,4674,0,318.4707,0.0,215.7634,0
GRID,4675,0,316.9792,0.0,214.7527,0
GRID,4676,0,315.4877,0.0,213.742,0
GRID,4677,0,313.9963,0.0,212.7313,0
GRID,4678,0,312.5048,0.0,211.7206,0
GRID,4679,0,311.0133,0.0,210.7099,0
GRID,4680,0,309.5218,0.0,209.6992,0
GRID,4681,0,308.0303,0.0,208.6885,0
GRID,4682,0,306.5389,0.0,207.6779,0
GRID,4683,0,305.0474,0.0,206.6672,0
GRID,4684,0,303.5559,0.0,205.6565,0
GRID,4685,0,302.0644,0.0,204.6458,0
GRID,4686,0,300.5729,0.0,203.6351,0
GRID,4687,0,299.0815,0.0,202.6244,0
GRID,4688,0,297.59,0.0,201.6137,0
GRID,4689,0,296.0985,0.0,200.603,0
GRID,4690,0,294.607,0.0,199.5923,0
GRID,4691,0,293.1155,0.0,198.5817,0
GRID,4692,0,291.6241,0.0,197.571,0
GRID,4693,0,290.1326,0.0,196.5603,0
GRID,4694,0,288.6411,0.0,195.5496,0
GRID,4695,0,287.1496,0.0,194.5389,0
GRID,4696,0,285.6581,0.0,193.5282,0
GRID,4697,0,284.1667,0.0,192.5175,0
GRID,4698,0,282.6752,0.0,191.5068,0
GRID,4699,0,281.1837,0.0,190.4961,0
GRID,4700,0,279.6922,0.0,189.4855,0
GRID,4701,0,278.2008,0.0,188.4748,0
GRID,4702,0,276.7093,0.0,187.4641,0
GRID,4703,0,275.2178,0.0,186.4534,0
GRID,4704,0,273.7263,0.0,185.4427,0
GRID,4705,0,272.2348,0.0,184.432,0
GRID,4706,0,270.7434,0.0,183.4213,0
GRID,4707,0,269.2519,0.0,182.4106,0
GRID,4708,0,267.7604,0.0,181.3999,0
GRID,4709,0,266.2689,0.0,180.3892,0
GRID,4710,0,264.7774,0.0,179.3786,0
GRID,4711,0,263.286,0.0,178.3679,0
GRID,4712,0,261.7945,0.0,177.3572,0
GRID,4713,0,260.303,0.0,176.3465,0
GRID,4714,0,258.8115,0.0,175.3358,0
GRID,4715,0,257.32,0.0,174.3251,0
GRID,4716,0,255.8286,0.0,173.3144,0
GRID,4717,0,254.3371,0.0,172.3037,0
GRID,4718,0,252.8456,0.0,171.293,0
GRID,4719,0,251.3541,0.0,170.2824,0
GRID,4720,0,249.8626,0.0,169.2717,0
GRID,4721,0,334.6629,0.0,230.389,0
GRID,4722,0,333.179,0.0,229.3673,0
GRID,4723,0,331.695,0.0,228.3455,0
GRID,4724,0,330.2111,0.0,227.3237,0
GRID,4725,0,328.7272,0.0,226.302,0
GRID,4726,0,327.2433,0.0,225.2802,0
GRID,4727,0,325.7594,0.0,224.2584,0
GRID,4728,0,324.2755,0.0,223.2367,0
GRID,4729,0,322.7916,0.0,222.2149,0
GRID,4730,0,321.3076,0.0,221.1931,0
GRID,4731,0,319.8237,0.0,220.1714,0
GRID,4732,0,318.3398,0.0,219.1496,0
GRID,4733,0,316.8559,0.0,218.1278,0
GRID,4734,0,315.372,0.0,217.1061,0
GRID,4735,0,313.8881,0.0,216.0843,0
GRID,4736,0,312.4042,0.0,215.0626,0
GRID,4737,0,310.9202,0.0,214.0408,0
GRID,4738,0,309.4363,0.0,213.019,0
GRID,4739,0,307.9524,0.0,211.9973,0
GRID,4740,0,306.4685,0.0,210.9755,0
GRID,4741,0,304.9846,0.0,209.9537,0
GRID,4742,0,303.5007,0.0,208.932,0
GRID,4743,0,302.0168,0.0,207.9102,0
GRID,4744,0,300.5328,0.0,206.8884,0
GRID,4745,0,299.0489,0.0,205.8667,0
GRID,4746,0,297.565,0.0,204.8449,0
GRID,4747,0,296.0811,0.0,203.8231,0
GRID,4748,0,294.5972,0.0,202.8014,0
GRID,4749,0,293.1133,0.0,201.7796,0
GRID,4750,0,291.6294,0.0,200.7579,0
GRID,4751,0,290.1454,0.0,199.7361,0
GRID,4752,0,288.6615,0.0,198.7143,0
GRID,4753,0,287.1776,0.0,197.6926,0
GRID,4754,0,285.6937,0.0,196.6708,0
GRID,4755,0,284.2098,0.0,195.649,0
GRID,4756,0,282.7259,0.0,194.6273,0
GRID,4757,0,281.242,0.0,193.6055,0
GRID,4758,0,279.7581,0.0,192.5837,0
GRID,4759,0,278.2741,0.0,191.562,0
GRID,4760,0,276.7902,0.0,190.5402,0
GRID,4761,0,275.3063,0.0,189.5184,0
GRID,4762,0,273.8224,0.0,188.4967,0
GRID,4763,0,272.3385,0.0,187.4749,0
GRID,4764,0,270.8546,0.0,186.4531,0
GRID,4765,0,269.3707,0.0,185.4314,0
GRID,4766,0,267.8867,0.0,184.4096,0
GRID,4767,0,266.4028,0.0,183.3879,0
GRID,4768,0,264.9189,0.0,182.3661,0
GRID,4769,0,263.435,0.0,181.3443,0
GRID,4770,0,261.9511,0.0,180.3226,0
GRID,4771,0,260.4672,0.0,179.3008,0
GRID,4772,0,258.9833,0.0,178.279,0
GRID,4773,0,257.4993,0.0,177.2573,0
GRID,4774,0,256.0154,0.0,176.2355,0
GRID,4775,0,254.5315,0.0,175.2137,0
GRID,4776,0,253.0476,0.0,174.192,0
GRID,4777,0,251.5637,0.0,173.1702,0
GRID,4778,0,250.0798,0.0,172.1484,0
GRID,4779,0,248.5959,0.0,171.1267,0
GRID,4780,0,332.9387,0.0,232.8736,0
GRID,4781,0,331.4625,0.0,231.8408,0
GRID,4782,0,329.9862,0.0,230.8081,0
GRID,4783,0,328.5099,0.0,229.7753,0
GRID,4784,0,327.0337,0.0,228.7425,0
GRID,4785,0,325.5574,0.0,227.7097,0
GRID,4786,0,324.0811,0.0,226.6769,0
GRID,4787,0,322.6049,0.0,225.6441,0
GRID,4788,0,321.1286,0.0,224.6114,0
GRID,4789,0,319.6523,0.0,223.5786,0
GRID,4790,0,318.1761,0.0,222.5458,0
GRID,4791,0,316.6998,0.0,221.513,0
GRID,4792,0,315.2235,0.0,220.4802,0
GRID,4793,0,313.7473,0.0,219.4475,0
GRID,4794,0,312.271,0.0,218.4147,0
GRID,4795,0,310.7947,0.0,217.3819,0
GRID,4796,0,309.3185,0.0,216.3491,0
GRID,4797,0,307.8422,0.0,215.3163,0
GRID,4798,0,306.3659,0.0,214.2835,0
GRID,4799,0,304.8897,0.0,213.2508,0
GRID,4800,0,303.4134,0.0,212.218,0
GRID,4801,0,301.9371,0.0,211.1852,0
GRID,4802,0,300.4609,0.0,210.1524,0
GRID,4803,0,298.9846,0.0,209.1196,0
GRID,4804,0,297.5083,0.0,208.0868,0
GRID,4805,0,296.0321,0.0,207.0541,0
GRID,4806,0,294.5558,0.0,206.0213,0
GRID,4807,0,293.0795,0.0,204.9885,0
GRID,4808,0,291.6033,0.0,203.9557,0
GRID,4809,0,290.127,0.0,202.9229,0
GRID,4810,0,288.6508,0.0,201.8901,0
GRID,4811,0,287.1745,0.0,200.8574,0
GRID,4812,0,285.6982,0.0,199.8246,0
GRID,4813,0,284.222,0.0,198.7918,0
GRID,4814,0,282.7457,0.0,197.759,0
GRID,4815,0,281.2694,0.0,196.7262,0
GRID,4816,0,279.7932,0.0,195.6934,0
GRID,4817,0,278.3169,0.0,194.6607,0
GRID,4818,0,276.8406,0.0,193.6279,0
GRID,4819,0,275.3644,0.0,192.5951,0
GRID,4820,0,273.8881,0.0,191.5623,0
GRID,4821,0,272.4118,0.0,190.5295,0
GRID,4822,0,270.9356,0.0,189.4967,0
GRID,4823,0,269.4593,0.0,188.464,0
GRID,4824,0,267.983,0.0,187.4312,0
GRID,4825,0,266.5068,0.0,186.3984,0
GRID,4826,0,265.0305,0.0,185.3656,0
GRID,4827,0,263.5542,0.0,184.3328,0
GRID,4828,0,262.078,0.0,183.3,0
GRID,4829,0,260.6017,0.0,182.2673,0
GRID,4830,0,259.1254,0.0,181.2345,0
GRID,4831,0,257.6492,0.0,180.2017,0
GRID,4832,0,256.1729,0.0,179.1689,0
GRID,4833,0,254.6966,0.0,178.1361,0
GRID,4834,0,253.2204,0.0,177.1033,0
GRID,4835,0,251.7441,0.0,176.0706,0
GRID,4836,0,250.2678,0.0,175.0378,0
GRID,4837,0,248.7916,0.0,174.005,0
GRID,4838,0,247.3153,0.0,172.9722,0
GRID,4839,0,331.1962,0.0,235.3453,0
GRID,4840,0,329.7276,0.0,234.3016,0
GRID,4841,0,328.2591,0.0,233.2578,0
GRID,4842,0,326.7905,0.0,232.2141,0
GRID,4843,0,325.322,0.0,231.1704,0
GRID,4844,0,323.8535,0.0,230.1266,0
GRID,4845,0,322.3849,0.0,229.0829,0
GRID,4846,0,320.9164,0.0,228.0391,0
GRID,4847,0,319.4479,0.0,226.9954,0
GRID,4848,0,317.9793,0.0,225.9516,0
GRID,4849,0,316.5108,0.0,224.9079,0
GRID,4850,0,315.0423,0.0,223.8641,0
GRID,4851,0,313.5737,0.0,222.8204,0
GRID,4852,0,312.1052,0.0,221.7767,0
GRID,4853,0,310.6366,0.0,220.7329,0
GRID,4854,0,309.1681,0.0,219.6892,0
GRID,4855,0,307.6996,0.0,218.6454,0
GRID,4856,0,306.231,0.0,217.6017,0
GRID,4857,0,304.7625,0.0,216.5579,0
GRID,4858,0,303.294,0.0,215.5142,0
GRID,4859,0,301.8254,0.0,214.4704,0
GRID,4860,0,300.3569,0.0,213.4267,0
GRID,4861,0,298.8883,0.0,212.383,0
GRID,4862,0,297.4198,0.0,211.3392,0
GRID,4863,0,295.9513,0.0,210.2955,0
GRID,4864,0,294.4827,0.0,209.2517,0
GRID,4865,0,293.0142,0.0,208.208,0
GRID,4866,0,291.5457,0.0,207.1642,0
GRID,4867,0,290.0771,0.0,206.1205,0
GRID,4868,0,288.6086,0.0,205.0768,0
GRID,4869,0,287.1401,0.0,204.033,0
GRID,4870,0,285.6715,0.0,202.9893,0
GRID,4871,0,284.203,0.0,201.9455,0
GRID,4872,0,282.7344,0.0,200.9018,0
GRID,4873,0,281.2659,0.0,199.858,0
GRID,4874,0,279.7974,0.0,198.8143,0
GRID,4875,0,278.3288,0.0,197.7705,0
GRID,4876,0,276.8603,0.0,196.7268,0
GRID,4877,0,275.3918,0.0,195.6831,0
GRID,4878,0,273.9232,0.0,194.6393,0
GRID,4879,0,272.4547,0.0,193.5956,0
GRID,4880,0,270.9862,0.0,192.5518,0
GRID,4881,0,269.5176,0.0,191.5081,0
GRID,4882,0,268.0491,0.0,190.4643,0
GRID,4883,0,266.5805,0.0,189.4206,0
GRID,4884,0,265.112,0.0,188.3768,0
GRID,4885,0,263.6435,0.0,187.3331,0
GRID,4886,0,262.1749,0.0,186.2894,0
GRID,4887,0,260.7064,0.0,185.2456,0
GRID,4888,0,259.2379,0.0,184.2019,0
GRID,4889,0,257.7693,0.0,183.1581,0
GRID,4890,0,256.3008,0.0,182.1144,0
GRID,4891,0,254.8323,0.0,181.0706,0
GRID,4892,0,253.3637,0.0,180.0269,0
GRID,4893,0,251.8952,0.0,178.9831,0
GRID,4894,0,250.4266,0.0,177.9394,0
GRID,4895,0,248.9581,0.0,176.8957,0
GRID,4896,0,247.4896,0.0,175.8519,0
GRID,4897,0,246.021,0.0,174.8082,0
GRID,4898,0,329.4352,0.0,237.804,0
GRID,4899,0,327.9745,0.0,236.7494,0
GRID,4900,0,326.5138,0.0,235.6947,0
GRID,4901,0,325.0531,0.0,234.6401,0
GRID,4902,0,323.5923,0.0,233.5854,0
GRID,4903,0,322.1316,0.0,232.5308,0
GRID,4904,0,320.6709,0.0,231.4761,0
GRID,4905,0,319.2101,0.0,230.4215,0
GRID,4906,0,317.7494,0.0,229.3668,0
GRID,4907,0,316.2887,0.0,228.3122,0
GRID,4908,0,314.828,0.0,227.2575,0
GRID,4909,0,313.3672,0.0,226.2029,0
GRID,4910,0,311.9065,0.0,225.1482,0
GRID,4911,0,310.4458,0.0,224.0936,0
GRID,4912,0,308.9851,0.0,223.0389,0
GRID,4913,0,307.5243,0.0,221.9843,0
GRID,4914,0,306.0636,0.0,220.9296,0
GRID,4915,0,304.6029,0.0,219.875,0
GRID,4916,0,303.1422,0.0,218.8203,0
GRID,4917,0,301.6814,0.0,217.7657,0
GRID,4918,0,300.2207,0.0,216.711,0
GRID,4919,0,298.76,0.0,215.6564,0
GRID,4920,0,297.2993,0.0,214.6017,0
GRID,4921,0,295.8385,0.0,213.5471,0
GRID,4922,0,294.3778,0.0,212.4925,0
GRID,4923,0,292.9171,0.0,211.4378,0
GRID,4924,0,291.4564,0.0,210.3832,0
GRID,4925,0,289.9956,0.0,209.3285,0
GRID,4926,0,288.5349,0.0,208.2739,0
GRID,4927,0,287.0742,0.0,207.2192,0
GRID,4928,0,285.6135,0.0,206.1646,0
GRID,4929,0,284.1527,0.0,205.1099,0
GRID,4930,0,282.692,0.0,204.0553,0
GRID,4931,0,281.2313,0.0,203.0006,0
GRID,4932,0,279.7706,0.0,201.946,0
GRID,4933,0,278.3098,0.0,200.8913,0
GRID,4934,0,276.8491,0.0,199.8367,0
GRID,4935,0,275.3884,0.0,198.782,0
GRID,4936,0,273.9276,0.0,197.7274,0
GRID,4937,0,272.4669,0.0,196.6727,0
GRID,4938,0,271.0062,0.0,195.6181,0
GRID,4939,0,269.5455,0.0,194.5634,0
GRID,4940,0,268.0847,0.0,193.5088,0
GRID,4941,0,266.624,0.0,192.4541,0
GRID,4942,0,265.1633,0.0,191.3995,0
GRID,4943,0,263.7026,0.0,190.3448,0
GRID,4944,0,262.2418,0.0,189.2902,0
GRID,4945,0,260.7811,0.0,188.2356,0
GRID,4946,0,259.3204,0.0,187.1809,0
GRID,4947,0,257.8597,0.0,186.1263,0
GRID,4948,0,256.3989,0.0,185.0716,0
GRID,4949,0,254.9382,0.0,184.017,0
GRID,4950,0,253.4775,0.0,182.9623,0
GRID,4951,0,252.0168,0.0,181.9077,0
GRID,4952,0,250.556,0.0,180.853,0
GRID,4953,0,249.0953,0.0,179.7984,0
GRID,4954,0,247.6346,0.0,178.7437,0
GRID,4955,0,246.1739,0.0,177.6891,0
GRID,4956,0,244.7131,0.0,176.6344,0
GRID,4957,0,327.6561,0.0,240.2495,0
GRID,4958,0,326.2032,0.0,239.184,0
GRID,4959,0,324.7504,0.0,238.1185,0
GRID,4960,0,323.2976,0.0,237.053,0
GRID,4961,0,321.8447,0.0,235.9875,0
GRID,4962,0,320.3919,0.0,234.922,0
GRID,4963,0,318.939,0.0,233.8565,0
GRID,4964,0,317.4862,0.0,232.791,0
GRID,4965,0,316.0334,0.0,231.7256,0
GRID,4966,0,314.5805,0.0,230.6601,0
GRID,4967,0,313.1277,0.0,229.5946,0
GRID,4968,0,311.6749,0.0,228.5291,0
GRID,4969,0,310.222,0.0,227.4636,0
GRID,4970,0,308.7692,0.0,226.3981,0
GRID,4971,0,307.3164,0.0,225.3326,0
GRID,4972,0,305.8635,0.0,224.2671,0
GRID,4973,0,304.4107,0.0,223.2016,0
GRID,4974,0,302.9579,0.0,222.1361,0
GRID,4975,0,301.505,0.0,221.0706,0
GRID,4976,0,300.0522,0.0,220.0051,0
GRID,4977,0,298.5994,0.0,218.9396,0
GRID,4978,0,297.1465,0.0,217.8741,0
GRID,4979,0,295.6937,0.0,216.8086,0
GRID,4980,0,294.2409,0.0,215.7432,0
GRID,4981,0,292.788,0.0,214.6777,0
GRID,4982,0,291.3352,0.0,213.6122,0
GRID,4983,0,289.8824,0.0,212.5467,0
GRID,4984,0,288.4295,0.0,211.4812,0
GRID,4985,0,286.9767,0.0,210.4157,0
GRID,4986,0,285.5239,0.0,209.3502,0
GRID,4987,0,284.071,0.0,208.2847,0
GRID,4988,0,282.6182,0.0,207.2192,0
GRID,4989,0,281.1654,0.0,206.1537,0
GRID,4990,0,279.7125,0.0,205.0882,0
GRID,4991,0,278.2597,0.0,204.0227,0
GRID,4992,0,276.8069,0.0,202.9572,0
GRID,4993,0,275.354,0.0,201.8917,0
GRID,4994,0,273.9012,0.0,200.8263,0
GRID,4995,0,272.4484,0.0,199.7608,0
GRID,4996,0,270.9955,0.0,198.6953,0
GRID,4997,0,269.5427,0.0,197.6298,0
GRID,4998,0,268.0899,0.0,196.5643,0
GRID,4999,0,266.637,0.0,195.4988,0
GRID,5000,0,265.1842,0.0,194.4333,0
GRID,5001,0,263.7314,0.0,193.3678,0
GRID,5002,0,262.2785,0.0,192.3023,0
GRID,5003,0,260.8257,0.0,191.2368,0
GRID,5004,0,259.3728,0.0,190.1713,0
GRID,5005,0,257.92,0.0,189.1058,0
GRID,5006,0,256.4672,0.0,188.0403,0
GRID,5007,0,255.0143,0.0,186.9748,0
GRID,5008,0,253.5615,0.0,185.9094,0
GRID,5009,0,252.1087,0.0,184.8439,0
GRID,5010,0,250.6558,0.0,183.7784,0
GRID,5011,0,249.203,0.0,182.7129,0
GRID,5012,0,247.7502,0.0,181.6474,0
GRID,5013,0,246.2973,0.0,180.5819,0
GRID,5014,0,244.8445,0.0,179.5164,0
GRID,5015,0,243.3917,0.0,178.4509,0
GRID,5016,0,325.8587,0.0,242.6817,0
GRID,5017,0,324.4139,0.0,241.6054,0
GRID,5018,0,322.969,0.0,240.5291,0
GRID,5019,0,321.5241,0.0,239.4528,0
GRID,5020,0,320.0793,0.0,238.3766,0
GRID,5021,0,318.6344,0.0,237.3003,0
GRID,5022,0,317.1896,0.0,236.224,0
GRID,5023,0,315.7447,0.0,235.1477,0
GRID,5024,0,314.2998,0.0,234.0714,0
GRID,5025,0,312.855,0.0,232.9952,0
GRID,5026,0,311.4101,0.0,231.9189,0
GRID,5027,0,309.9652,0.0,230.8426,0
GRID,5028,0,308.5204,0.0,229.7663,0
GRID,5029,0,307.0755,0.0,228.6901,0
GRID,5030,0,305.6307,0.0,227.6138,0
GRID,5031,0,304.1858,0.0,226.5375,0
GRID,5032,0,302.7409,0.0,225.4612,0
GRID,5033,0,301.2961,0.0,224.3849,0
GRID,5034,0,299.8512,0.0,223.3087,0
GRID,5035,0,298.4063,0.0,222.2324,0
GRID,5036,0,296.9615,0.0,221.1561,0
GRID,5037,0,295.5166,0.0,220.0798,0
GRID,5038,0,294.0718,0.0,219.0035,0
GRID,5039,0,292.6269,0.0,217.9273,0
GRID,5040,0,291.182,0.0,216.851,0
GRID,5041,0,289.7372,0.0,215.7747,0
GRID,5042,0,288.2923,0.0,214.6984,0
GRID,5043,0,286.8475,0.0,213.6221,0
GRID,5044,0,285.4026,0.0,212.5459,0
GRID,5045,0,283.9577,0.0,211.4696,0
GRID,5046,0,282.5129,0.0,210.3933,0
GRID,5047,0,281.068,0.0,209.317,0
GRID,5048,0,279.6231,0.0,208.2407,0
GRID,5049,0,278.1783,0.0,207.1645,0
GRID,5050,0,276.7334,0.0,206.0882,0
GRID,5051,0,275.2886,0.0,205.0119,0
GRID,5052,0,273.8437,0.0,203.9356,0
GRID,5053,0,272.3988,0.0,202.8594,0
GRID,5054,0,270.954,0.0,201.7831,0
GRID,5055,0,269.5091,0.0,200.7068,0
GRID,5056,0,268.0642,0.0,199.6305,0
GRID,5057,0,266.6194,0.0,198.5542,0
GRID,5058,0,265.1745,0.0,197.478,0
GRID,5059,0,263.7297,0.0,196.4017,0
GRID,5060,0,262.2848,0.0,195.3254,0
GRID,5061,0,260.8399,0.0,194.2491,0
GRID,5062,0,259.3951,0.0,193.1728,0
GRID,5063,0,257.9502,0.0,192.0966,0
GRID,5064,0,256.5054,0.0,191.0203,0
GRID,5065,0,255.0605,0.0,189.944,0
GRID,5066,0,253.6156,0.0,188.8677,0
GRID,5067,0,252.1708,0.0,187.7914,0
GRID,5068,0,250.7259,0.0,186.7152,0
GRID,5069,0,249.281,0.0,185.6389,0
GRID,5070,0,247.8362,0.0,184.5626,0
GRID,5071,0,246.3913,0.0,183.4863,0
GRID,5072,0,244.9465,0.0,182.41,0
GRID,5073,0,243.5016,0.0,181.3338,0
GRID,5074,0,242.0567,0.0,180.2575,0
GRID,5075,0,324.0434,0.0,245.1004,0
GRID,5076,0,322.6065,0.0,244.0134,0
GRID,5077,0,321.1697,0.0,242.9264,0
GRID,5078,0,319.7329,0.0,241.8394,0
GRID,5079,0,318.2961,0.0,240.7524,0
GRID,5080,0,316.8593,0.0,239.6654,0
GRID,5081,0,315.4225,0.0,238.5784,0
GRID,5082,0,313.9857,0.0,237.4914,0
GRID,5083,0,312.5489,0.0,236.4044,0
GRID,5084,0,311.1121,0.0,235.3174,0
GRID,5085,0,309.6753,0.0,234.2304,0
GRID,5086,0,308.2384,0.0,233.1434,0
GRID,5087,0,306.8016,0.0,232.0564,0
GRID,5088,0,305.3648,0.0,230.9694,0
GRID,5089,0,303.928,0.0,229.8823,0
GRID,5090,0,302.4912,0.0,228.7953,0
GRID,5091,0,301.0544,0.0,227.7083,0
GRID,5092,0,299.6176,0.0,226.6213,0
GRID,5093,0,298.1808,0.0,225.5343,0
GRID,5094,0,296.744,0.0,224.4473,0
GRID,5095,0,295.3072,0.0,223.3603,0
GRID,5096,0,293.8703,0.0,222.2733,0
GRID,5097,0,292.4335,0.0,221.1863,0
GRID,5098,0,290.9967,0.0,220.0993,0
GRID,5099,0,289.5599,0.0,219.0123,0
GRID,5100,0,288.1231,0.0,217.9253,0
GRID,5101,0,286.6863,0.0,216.8383,0
GRID,5102,0,285.2495,0.0,215.7513,0
GRID,5103,0,283.8127,0.0,214.6643,0
GRID,5104,0,282.3759,0.0,213.5773,0
GRID,5105,0,280.9391,0.0,212.4903,0
GRID,5106,0,279.5022,0.0,211.4032,0
GRID,5107,0,278.0654,0.0,210.3162,0
GRID,5108,0,276.6286,0.0,209.2292,0
GRID,5109,0,275.1918,0.0,208.1422,0
GRID,5110,0,273.755,0.0,207.0552,0
GRID,5111,0,272.3182,0.0,205.9682,0
GRID,5112,0,270.8814,0.0,204.8812,0
GRID,5113,0,269.4446,0.0,203.7942,0
GRID,5114,0,268.0078,0.0,202.7072,0
GRID,5115,0,266.571,0.0,201.6202,0
GRID,5116,0,265.1342,0.0,200.5332,0
GRID,5117,0,263.6973,0.0,199.4462,0
GRID,5118,0,262.2605,0.0,198.3592,0
GRID,5119,0,260.8237,0.0,197.2722,0
GRID,5120,0,259.3869,0.0,196.1852,0
GRID,5121,0,257.9501,0.0,195.0982,0
GRID,5122,0,256.5133,0.0,194.0112,0
GRID,5123,0,255.0765,0.0,192.9242,0
GRID,5124,0,253.6397,0.0,191.8371,0
GRID,5125,0,252.2029,0.0,190.7501,0
GRID,5126,0,250.7661,0.0,189.6631,0
GRID,5127,0,249.3292,0.0,188.5761,0
GRID,5128,0,247.8924,0.0,187.4891,0
GRID,5129,0,246.4556,0.0,186.4021,0
GRID,5130,0,245.0188,0.0,185.3151,0
GRID,5131,0,243.582,0.0,184.2281,0
GRID,5132,0,242.1452,0.0,183.1411,0
GRID,5133,0,240.7084,0.0,182.0541,0
GRID,5134,0,322.21,0.0,247.5056,0
GRID,5135,0,320.7813,0.0,246.4079,0
GRID,5136,0,319.3527,0.0,245.3102,0
GRID,5137,0,317.924,0.0,244.2126,0
GRID,5138,0,316.4953,0.0,243.1149,0
GRID,5139,0,315.0666,0.0,242.0172,0
GRID,5140,0,313.638,0.0,240.9196,0
GRID,5141,0,312.2093,0.0,239.8219,0
GRID,5142,0,310.7806,0.0,238.7242,0
GRID,5143,0,309.3519,0.0,237.6265,0
GRID,5144,0,307.9232,0.0,236.5289,0
GRID,5145,0,306.4946,0.0,235.4312,0
GRID,5146,0,305.0659,0.0,234.3335,0
GRID,5147,0,303.6372,0.0,233.2359,0
GRID,5148,0,302.2085,0.0,232.1382,0
GRID,5149,0,300.7799,0.0,231.0405,0
GRID,5150,0,299.3512,0.0,229.9428,0
GRID,5151,0,297.9225,0.0,228.8452,0
GRID,5152,0,296.4938,0.0,227.7475,0
GRID,5153,0,295.0651,0.0,226.6498,0
GRID,5154,0,293.6365,0.0,225.5522,0
GRID,5155,0,292.2078,0.0,224.4545,0
GRID,5156,0,290.7791,0.0,223.3568,0
GRID,5157,0,289.3504,0.0,222.2591,0
GRID,5158,0,287.9218,0.0,221.1615,0
GRID,5159,0,286.4931,0.0,220.0638,0
GRID,5160,0,285.0644,0.0,218.9661,0
GRID,5161,0,283.6357,0.0,217.8684,0
GRID,5162,0,282.207,0.0,216.7708,0
GRID,5163,0,280.7784,0.0,215.6731,0
GRID,5164,0,279.3497,0.0,214.5754,0
GRID,5165,0,277.921,0.0,213.4778,0
GRID,5166,0,276.4923,0.0,212.3801,0
GRID,5167,0,275.0637,0.0,211.2824,0
GRID,5168,0,273.635,0.0,210.1847,0
GRID,5169,0,272.2063,0.0,209.0871,0
GRID,5170,0,270.7776,0.0,207.9894,0
GRID,5171,0,269.3489,0.0,206.8917,0
GRID,5172,0,267.9203,0.0,205.7941,0
GRID,5173,0,266.4916,0.0,204.6964,0
GRID,5174,0,265.0629,0.0,203.5987,0
GRID,5175,0,263.6342,0.0,202.501,0
GRID,5176,0,262.2056,0.0,201.4034,0
GRID,5177,0,260.7769,0.0,200.3057,0
GRID,5178,0,259.3482,0.0,199.208,0
GRID,5179,0,257.9195,0.0,198.1104,0
GRID,5180,0,256.4908,0.0,197.0127,0
GRID,5181,0,255.0622,0.0,195.915,0
GRID,5182,0,253.6335,0.0,194.8173,0
GRID,5183,0,252.2048,0.0,193.7197,0
GRID,5184,0,250.7761,0.0,192.622,0
GRID,5185,0,249.3475,0.0,191.5243,0
GRID,5186,0,247.9188,0.0,190.4267,0
GRID,5187,0,246.4901,0.0,189.329,0
GRID,5188,0,245.0614,0.0,188.2313,0
GRID,5189,0,243.6327,0.0,187.1336,0
GRID,5190,0,242.2041,0.0,186.036,0
GRID,5191,0,240.7754,0.0,184.9383,0
GRID,5192,0,239.3467,0.0,183.8406,0
GRID,5193,0,320.3589,0.0,249.897,0
GRID,5194,0,318.9384,0.0,248.7888,0
GRID,5195,0,317.5179,0.0,247.6805,0
GRID,5196,0,316.0975,0.0,246.5722,0
GRID,5197,0,314.677,0.0,245.4639,0
GRID,5198,0,313.2565,0.0,244.3557,0
GRID,5199,0,311.8361,0.0,243.2474,0
GRID,5200,0,310.4156,0.0,242.1391,0
GRID,5201,0,308.9951,0.0,241.0308,0
GRID,5202,0,307.5747,0.0,239.9226,0
GRID,5203,0,306.1542,0.0,238.8143,0
GRID,5204,0,304.7337,0.0,237.706,0
GRID,5205,0,303.3132,0.0,236.5977,0
GRID,5206,0,301.8928,0.0,235.4894,0
GRID,5207,0,300.4723,0.0,234.3812,0
GRID,5208,0,299.0518,0.0,233.2729,0
GRID,5209,0,297.6314,0.0,232.1646,0
GRID,5210,0,296.2109,0.0,231.0563,0
GRID,5211,0,294.7904,0.0,229.9481,0
GRID,5212,0,293.37,0.0,228.8398,0
GRID,5213,0,291.9495,0.0,227.7315,0
GRID,5214,0,290.529,0.0,226.6232,0
GRID,5215,0,289.1086,0.0,225.5149,0
GRID,5216,0,287.6881,0.0,224.4067,0
GRID,5217,0,286.2676,0.0,223.2984,0
GRID,5218,0,284.8472,0.0,222.1901,0
GRID,5219,0,283.4267,0.0,221.0818,0
GRID,5220,0,282.0062,0.0,219.9736,0
GRID,5221,0,280.5858,0.0,218.8653,0
GRID,5222,0,279.1653,0.0,217.757,0
GRID,5223,0,277.7448,0.0,216.6487,0
GRID,5224,0,276.3244,0.0,215.5404,0
GRID,5225,0,274.9039,0.0,214.4322,0
GRID,5226,0,273.4834,0.0,213.3239,0
GRID,5227,0,272.063,0.0,212.2156,0
GRID,5228,0,270.6425,0.0,211.1073,0
GRID,5229,0,269.222,0.0,209.9991,0
GRID,5230,0,267.8016,0.0,208.8908,0
GRID,5231,0,266.3811,0.0,207.7825,0
GRID,5232,0,264.9606,0.0,206.6742,0
GRID,5233,0,263.5402,0.0,205.566,0
GRID,5234,0,262.1197,0.0,204.4577,0
GRID,5235,0,260.6992,0.0,203.3494,0
GRID,5236,0,259.2788,0.0,202.2411,0
GRID,5237,0,257.8583,0.0,201.1328,0
GRID,5238,0,256.4378,0.0,200.0246,0
GRID,5239,0,255.0174,0.0,198.9163,0
GRID,5240,0,253.5969,0.0,197.808,0
GRID,5241,0,252.1764,0.0,196.6997,0
GRID,5242,0,250.756,0.0,195.5915,0
GRID,5243,0,249.3355,0.0,194.4832,0
GRID,5244,0,247.915,0.0,193.3749,0
GRID,5245,0,246.4946,0.0,192.2666,0
GRID,5246,0,245.0741,0.0,191.1583,0
GRID,5247,0,243.6536,0.0,190.0501,0
GRID,5248,0,242.2332,0.0,188.9418,0
GRID,5249,0,240.8127,0.0,187.8335,0
GRID,5250,0,239.3922,0.0,186.7252,0
GRID,5251,0,237.9718,0.0,185.617,0
GRID,5252,0,318.4899,0.0,252.2747,0
GRID,5253,0,317.0777,0.0,251.1558,0
GRID,5254,0,315.6656,0.0,250.037,0
GRID,5255,0,314.2534,0.0,248.9182,0
GRID,5256,0,312.8412,0.0,247.7994,0
GRID,5257,0,311.429,0.0,246.6805,0
GRID,5258,0,310.0169,0.0,245.5617,0
GRID,5259,0,308.6047,0.0,244.4429,0
GRID,5260,0,307.1925,0.0,243.3241,0
GRID,5261,0,305.7803,0.0,242.2053,0
GRID,5262,0,304.3682,0.0,241.0864,0
GRID,5263,0,302.956,0.0,239.9676,0
GRID,5264,0,301.5438,0.0,238.8488,0
GRID,5265,0,300.1316,0.0,237.73,0
GRID,5266,0,298.7194,0.0,236.6112,0
GRID,5267,0,297.3073,0.0,235.4923,0
GRID,5268,0,295.8951,0.0,234.3735,0
GRID,5269,0,294.4829,0.0,233.2547,0
GRID,5270,0,293.0707,0.0,232.1359,0
GRID,5271,0,291.6586,0.0,231.0171,0
GRID,5272,0,290.2464,0.0,229.8982,0
GRID,5273,0,288.8342,0.0,228.7794,0
GRID,5274,0,287.422,0.0,227.6606,0
GRID,5275,0,286.0099,0.0,226.5418,0
GRID,5276,0,284.5977,0.0,225.4229,0
GRID,5277,0,283.1855,0.0,224.3041,0
GRID,5278,0,281.7733,0.0,223.1853,0
GRID,5279,0,280.3611,0.0,222.0665,0
GRID,5280,0,278.949,0.0,220.9477,0
GRID,5281,0,277.5368,0.0,219.8288,0
GRID,5282,0,276.1246,0.0,218.71,0
GRID,5283,0,274.7124,0.0,217.5912,0
GRID,5284,0,273.3003,0.0,216.4724,0
GRID,5285,0,271.8881,0.0,215.3536,0
GRID,5286,0,270.4759,0.0,214.2347,0
GRID,5287,0,269.0637,0.0,213.1159,0
GRID,5288,0,267.6516,0.0,211.9971,0
GRID,5289,0,266.2394,0.0,210.8783,0
GRID,5290,0,264.8272,0.0,209.7594,0
GRID,5291,0,263.415,0.0,208.6406,0
GRID,5292,0,262.0028,0.0,207.5218,0
GRID,5293,0,260.5907,0.0,206.403,0
GRID,5294,0,259.1785,0.0,205.2842,0
GRID,5295,0,257.7663,0.0,204.1653,0
GRID,5296,0,256.3541,0.0,203.0465,0
GRID,5297,0,254.942,0.0,201.9277,0
GRID,5298,0,253.5298,0.0,200.8089,0
GRID,5299,0,252.1176,0.0,199.6901,0
GRID,5300,0,250.7054,0.0,198.5712,0
GRID,5301,0,249.2933,0.0,197.4524,0
GRID,5302,0,247.8811,0.0,196.3336,0
GRID,5303,0,246.4689,0.0,195.2148,0
GRID,5304,0,245.0567,0.0,194.096,0
GRID,5305,0,243.6445,0.0,192.9771,0
GRID,5306,0,242.2324,0.0,191.8583,0
GRID,5307,0,240.8202,0.0,190.7395,0
GRID,5308,0,239.408,0.0,189.6207,0
GRID,5309,0,237.9958,0.0,188.5018,0
GRID,5310,0,236.5837,0.0,187.383,0
GRID,5311,0,316.6033,0.0,254.6383,0
GRID,5312,0,315.1995,0.0,253.509,0
GRID,5313,0,313.7957,0.0,252.3797,0
GRID,5314,0,312.3919,0.0,251.2504,0
GRID,5315,0,310.9881,0.0,250.1211,0
GRID,5316,0,309.5843,0.0,248.9918,0
GRID,5317,0,308.1805,0.0,247.8625,0
GRID,5318,0,306.7767,0.0,246.7332,0
GRID,5319,0,305.3729,0.0,245.6039,0
GRID,5320,0,303.9691,0.0,244.4746,0
GRID,5321,0,302.5653,0.0,243.3453,0
GRID,5322,0,301.1615,0.0,242.2159,0
GRID,5323,0,299.7576,0.0,241.0866,0
GRID,5324,0,298.3538,0.0,239.9573,0
GRID,5325,0,296.95,0.0,238.828,0
GRID,5326,0,295.5462,0.0,237.6987,0
GRID,5327,0,294.1424,0.0,236.5694,0
GRID,5328,0,292.7386,0.0,235.4401,0
GRID,5329,0,291.3348,0.0,234.3108,0
GRID,5330,0,289.931,0.0,233.1815,0
GRID,5331,0,288.5272,0.0,232.0522,0
GRID,5332,0,287.1234,0.0,230.9229,0
GRID,5333,0,285.7196,0.0,229.7936,0
GRID,5334,0,284.3157,0.0,228.6643,0
GRID,5335,0,282.9119,0.0,227.535,0
GRID,5336,0,281.5081,0.0,226.4057,0
GRID,5337,0,280.1043,0.0,225.2764,0
GRID,5338,0,278.7005,0.0,224.1471,0
GRID,5339,0,277.2967,0.0,223.0178,0
GRID,5340,0,275.8929,0.0,221.8885,0
GRID,5341,0,274.4891,0.0,220.7592,0
GRID,5342,0,273.0853,0.0,219.6299,0
GRID,5343,0,271.6815,0.0,218.5006,0
GRID,5344,0,270.2777,0.0,217.3713,0
GRID,5345,0,268.8739,0.0,216.242,0
GRID,5346,0,267.47,0.0,215.1127,0
GRID,5347,0,266.0662,0.0,213.9834,0
GRID,5348,0,264.6624,0.0,212.8541,0
GRID,5349,0,263.2586,0.0,211.7248,0
GRID,5350,0,261.8548,0.0,210.5955,0
GRID,5351,0,260.451,0.0,209.4662,0
GRID,5352,0,259.0472,0.0,208.3369,0
GRID,5353,0,257.6434,0.0,207.2076,0
GRID,5354,0,256.2396,0.0,206.0783,0
GRID,5355,0,254.8358,0.0,204.9489,0
GRID,5356,0,253.432,0.0,203.8196,0
GRID,5357,0,252.0281,0.0,202.6903,0
GRID,5358,0,250.6243,0.0,201.561,0
GRID,5359,0,249.2205,0.0,200.4317,0
GRID,5360,0,247.8167,0.0,199.3024,0
GRID,5361,0,246.4129,0.0,198.1731,0
GRID,5362,0,245.0091,0.0,197.0438,0
GRID,5363,0,243.6053,0.0,195.9145,0
GRID,5364,0,242.2015,0.0,194.7852,0
GRID,5365,0,240.7977,0.0,193.6559,0
GRID,5366,0,239.3939,0.0,192.5266,0
GRID,5367,0,237.9901,0.0,191.3973,0
GRID,5368,0,236.5863,0.0,190.268,0
GRID,5369,0,235.1824,0.0,189.1387,0
GRID,5370,0,314.6992,0.0,256.9878,0
GRID,5371,0,313.3039,0.0,255.8481,0
GRID,5372,0,311.9085,0.0,254.7084,0
GRID,5373,0,310.5131,0.0,253.5686,0
GRID,5374,0,309.1178,0.0,252.4289,0
GRID,5375,0,307.7224,0.0,251.2892,0
GRID,5376,0,306.327,0.0,250.1495,0
GRID,5377,0,304.9317,0.0,249.0097,0
GRID,5378,0,303.5363,0.0,247.87,0
GRID,5379,0,302.141,0.0,246.7303,0
GRID,5380,0,300.7456,0.0,245.5906,0
GRID,5381,0,299.3502,0.0,244.4509,0
GRID,5382,0,297.9549,0.0,243.3111,0
GRID,5383,0,296.5595,0.0,242.1714,0
GRID,5384,0,295.1641,0.0,241.0317,0
GRID,5385,0,293.7688,0.0,239.892,0
GRID,5386,0,292.3734,0.0,238.7522,0
GRID,5387,0,290.9781,0.0,237.6125,0
GRID,5388,0,289.5827,0.0,236.4728,0
GRID,5389,0,288.1873,0.0,235.3331,0
GRID,5390,0,286.792,0.0,234.1934,0
GRID,5391,0,285.3966,0.0,233.0536,0
GRID,5392,0,284.0012,0.0,231.9139,0
GRID,5393,0,282.6059,0.0,230.7742,0
GRID,5394,0,281.2105,0.0,229.6345,0
GRID,5395,0,279.8152,0.0,228.4947,0
GRID,5396,0,278.4198,0.0,227.355,0
GRID,5397,0,277.0244,0.0,226.2153,0
GRID,5398,0,275.6291,0.0,225.0756,0
GRID,5399,0,274.2337,0.0,223.9359,0
GRID,5400,0,272.8383,0.0,222.7961,0
GRID,5401,0,271.443,0.0,221.6564,0
GRID,5402,0,270.0476,0.0,220.5167,0
GRID,5403,0,268.6523,0.0,219.377,0
GRID,5404,0,267.2569,0.0,218.2372,0
GRID,5405,0,265.8615,0.0,217.0975,0
GRID,5406,0,264.4662,0.0,215.9578,0
GRID,5407,0,263.0708,0.0,214.8181,0
GRID,5408,0,261.6754,0.0,213.6784,0
GRID,5409,0,260.2801,0.0,212.5386,0
GRID,5410,0,258.8847,0.0,211.3989,0
GRID,5411,0,257.4894,0.0,210.2592,0
GRID,5412,0,256.094,0.0,209.1195,0
GRID,5413,0,254.6986,0.0,207.9797,0
GRID,5414,0,253.3033,0.0,206.84,0
GRID,5415,0,251.9079,0.0,205.7003,0
GRID,5416,0,250.5125,0.0,204.5606,0
GRID,5417,0,249.1172,0.0,203.4209,0
GRID,5418,0,247.7218,0.0,202.2811,0
GRID,5419,0,246.3265,0.0,201.1414,0
GRID,5420,0,244.9311,0.0,200.0017,0
GRID,5421,0,243.5357,0.0,198.862,0
GRID,5422,0,242.1404,0.0,197.7222,0
GRID,5423,0,240.745,0.0,196.5825,0
GRID,5424,0,239.3497,0.0,195.4428,0
GRID,5425,0,237.9543,0.0,194.3031,0
GRID,5426,0,236.5589,0.0,193.1634,0
GRID,5427,0,235.1636,0.0,192.0236,0
GRID,5428,0,233.7682,0.0,190.8839,0
GRID,5429,0,312.7777,0.0,259.3231,0
GRID,5430,0,311.3908,0.0,258.173,0
GRID,5431,0,310.004,0.0,257.0229,0
GRID,5432,0,308.6171,0.0,255.8728,0
GRID,5433,0,307.2303,0.0,254.7228,0
GRID,5434,0,305.8435,0.0,253.5727,0
GRID,5435,0,304.4566,0.0,252.4226,0
GRID,5436,0,303.0698,0.0,251.2725,0
GRID,5437,0,301.6829,0.0,250.1224,0
GRID,5438,0,300.2961,0.0,248.9724,0
GRID,5439,0,298.9093,0.0,247.8223,0
GRID,5440,0,297.5224,0.0,246.6722,0
GRID,5441,0,296.1356,0.0,245.5221,0
GRID,5442,0,294.7488,0.0,244.3721,0
GRID,5443,0,293.3619,0.0,243.222,0
GRID,5444,0,291.9751,0.0,242.0719,0
GRID,5445,0,290.5882,0.0,240.9218,0
GRID,5446,0,289.2014,0.0,239.7717,0
GRID,5447,0,287.8146,0.0,238.6217,0
GRID,5448,0,286.4277,0.0,237.4716,0
GRID,5449,0,285.0409,0.0,236.3215,0
GRID,5450,0,283.654,0.0,235.1714,0
GRID,5451,0,282.2672,0.0,234.0214,0
GRID,5452,0,280.8804,0.0,232.8713,0
GRID,5453,0,279.4935,0.0,231.7212,0
GRID,5454,0,278.1067,0.0,230.5711,0
GRID,5455,0,276.7198,0.0,229.421,0
GRID,5456,0,275.333,0.0,228.271,0
GRID,5457,0,273.9462,0.0,227.1209,0
GRID,5458,0,272.5593,0.0,225.9708,0
GRID,5459,0,271.1725,0.0,224.8207,0
GRID,5460,0,269.7857,0.0,223.6706,0
GRID,5461,0,268.3988,0.0,222.5206,0
GRID,5462,0,267.012,0.0,221.3705,0
GRID,5463,0,265.6251,0.0,220.2204,0
GRID,5464,0,264.2383,0.0,219.0703,0
GRID,5465,0,262.8515,0.0,217.9203,0
GRID,5466,0,261.4646,0.0,216.7702,0
GRID,5467,0,260.0778,0.0,215.6201,0
GRID,5468,0,258.6909,0.0,214.47,0
GRID,5469,0,257.3041,0.0,213.3199,0
GRID,5470,0,255.9173,0.0,212.1699,0
GRID,5471,0,254.5304,0.0,211.0198,0
GRID,5472,0,253.1436,0.0,209.8697,0
GRID,5473,0,251.7567,0.0,208.7196,0
GRID,5474,0,250.3699,0.0,207.5696,0
GRID,5475,0,248.9831,0.0,206.4195,0
GRID,5476,0,247.5962,0.0,205.2694,0
GRID,5477,0,246.2094,0.0,204.1193,0
GRID,5478,0,244.8226,0.0,202.9692,0
GRID,5479,0,243.4357,0.0,201.8192,0
GRID,5480,0,242.0489,0.0,200.6691,0
GRID,5481,0,240.662,0.0,199.519,0
GRID,5482,0,239.2752,0.0,198.3689,0
GRID,5483,0,237.8884,0.0,197.2189,0
GRID,5484,0,236.5015,0.0,196.0688,0
GRID,5485,0,235.1147,0.0,194.9187,0
GRID,5486,0,233.7278,0.0,193.7686,0
GRID,5487,0,232.341,0.0,192.6185,0
GRID,5488,0,310.8388,0.0,261.644,0
GRID,5489,0,309.4605,0.0,260.4836,0
GRID,5490,0,308.0823,0.0,259.3232,0
GRID,5491,0,306.7041,0.0,258.1629,0
GRID,5492,0,305.3258,0.0,257.0025,0
GRID,5493,0,303.9476,0.0,255.8421,0
GRID,5494,0,302.5693,0.0,254.6818,0
GRID,5495,0,301.1911,0.0,253.5214,0
GRID,5496,0,299.8129,0.0,252.361,0
GRID,5497,0,298.4346,0.0,251.2006,0
GRID,5498,0,297.0564,0.0,250.0403,0
GRID,5499,0,295.6781,0.0,248.8799,0
GRID,5500,0,294.2999,0.0,247.7195,0
GRID,5501,0,292.9217,0.0,246.5592,0
GRID,5502,0,291.5434,0.0,245.3988,0
GRID,5503,0,290.1652,0.0,244.2384,0
GRID,5504,0,288.787,0.0,243.0781,0
GRID,5505,0,287.4087,0.0,241.9177,0
GRID,5506,0,286.0305,0.0,240.7573,0
GRID,5507,0,284.6522,0.0,239.5969,0
GRID,5508,0,283.274,0.0,238.4366,0
GRID,5509,0,281.8958,0.0,237.2762,0
GRID,5510,0,280.5175,0.0,236.1158,0
GRID,5511,0,279.1393,0.0,234.9555,0
GRID,5512,0,277.761,0.0,233.7951,0
GRID,5513,0,276.3828,0.0,232.6347,0
GRID,5514,0,275.0046,0.0,231.4743,0
GRID,5515,0,273.6263,0.0,230.314,0
GRID,5516,0,272.2481,0.0,229.1536,0
GRID,5517,0,270.8699,0.0,227.9932,0
GRID,5518,0,269.4916,0.0,226.8329,0
GRID,5519,0,268.1134,0.0,225.6725,0
GRID,5520,0,266.7351,0.0,224.5121,0
GRID,5521,0,265.3569,0.0,223.3518,0
GRID,5522,0,263.9787,0.0,222.1914,0
GRID,5523,0,262.6004,0.0,221.031,0
GRID,5524,0,261.2222,0.0,219.8706,0
GRID,5525,0,259.8439,0.0,218.7103,0
GRID,5526,0,258.4657,0.0,217.5499,0
GRID,5527,0,257.0875,0.0,216.3895,0
GRID,5528,0,255.7092,0.0,215.2292,0
GRID,5529,0,254.331,0.0,214.0688,0
GRID,5530,0,252.9527,0.0,212.9084,0
GRID,5531,0,251.5745,0.0,211.7481,0
GRID,5532,0,250.1963,0.0,210.5877,0
GRID,5533,0,248.818,0.0,209.4273,0
GRID,5534,0,247.4398,0.0,208.2669,0
GRID,5535,0,246.0616,0.0,207.1066,0
GRID,5536,0,244.6833,0.0,205.9462,0
GRID,5537,0,243.3051,0.0,204.7858,0
GRID,5538,0,241.9268,0.0,203.6255,0
GRID,5539,0,240.5486,0.0,202.4651,0
GRID,5540,0,239.1704,0.0,201.3047,0
GRID,5541,0,237.7921,0.0,200.1443,0
GRID,5542,0,236.4139,0.0,198.984,0
GRID,5543,0,235.0356,0.0,197.8236,0
GRID,5544,0,233.6574,0.0,196.6632,0
GRID,5545,0,232.2792,0.0,195.5029,0
GRID,5546,0,230.9009,0.0,194.3425,0
GRID,5547,0,308.8827,0.0,263.9504,0
GRID,5548,0,307.5131,0.0,262.7798,0
GRID,5549,0,306.1435,0.0,261.6092,0
GRID,5550,0,304.774,0.0,260.4386,0
GRID,5551,0,303.4044,0.0,259.268,0
GRID,5552,0,302.0349,0.0,258.0974,0
GRID,5553,0,300.6653,0.0,256.9268,0
GRID,5554,0,299.2957,0.0,255.7562,0
GRID,5555,0,297.9262,0.0,254.5856,0
GRID,5556,0,296.5566,0.0,253.415,0
GRID,5557,0,295.187,0.0,252.2444,0
GRID,5558,0,293.8175,0.0,251.0738,0
GRID,5559,0,292.4479,0.0,249.9032,0
GRID,5560,0,291.0784,0.0,248.7326,0
GRID,5561,0,289.7088,0.0,247.562,0
GRID,5562,0,288.3392,0.0,246.3914,0
GRID,5563,0,286.9697,0.0,245.2208,0
GRID,5564,0,285.6001,0.0,244.0502,0
GRID,5565,0,284.2305,0.0,242.8796,0
GRID,5566,0,282.861,0.0,241.709,0
GRID,5567,0,281.4914,0.0,240.5384,0
GRID,5568,0,280.1219,0.0,239.3678,0
GRID,5569,0,278.7523,0.0,238.1972,0
GRID,5570,0,277.3827,0.0,237.0266,0
GRID,5571,0,276.0132,0.0,235.856,0
GRID,5572,0,274.6436,0.0,234.6854,0
GRID,5573,0,273.274,0.0,233.5148,0
GRID,5574,0,271.9045,0.0,232.3442,0
GRID,5575,0,270.5349,0.0,231.1736,0
GRID,5576,0,269.1654,0.0,230.003,0
GRID,5577,0,267.7958,0.0,228.8324,0
GRID,5578,0,266.4262,0.0,227.6618,0
GRID,5579,0,265.0567,0.0,226.4912,0
GRID,5580,0,263.6871,0.0,225.3206,0
GRID,5581,0,262.3176,0.0,224.15,0
GRID,5582,0,260.948,0.0,222.9794,0
GRID,5583,0,259.5784,0.0,221.8088,0
GRID,5584,0,258.2089,0.0,220.6382,0
GRID,5585,0,256.8393,0.0,219.4677,0
GRID,5586,0,255.4697,0.0,218.2971,0
GRID,5587,0,254.1002,0.0,217.1265,0
GRID,5588,0,252.7306,0.0,215.9559,0
GRID,5589,0,251.3611,0.0,214.7853,0
GRID,5590,0,249.9915,0.0,213.6147,0
GRID,5591,0,248.6219,0.0,212.4441,0
GRID,5592,0,247.2524,0.0,211.2735,0
GRID,5593,0,245.8828,0.0,210.1029,0
GRID,5594,0,244.5132,0.0,208.9323,0
GRID,5595,0,243.1437,0.0,207.7617,0
GRID,5596,0,241.7741,0.0,206.5911,0
GRID,5597,0,240.4046,0.0,205.4205,0
GRID,5598,0,239.035,0.0,204.2499,0
GRID,5599,0,237.6654,0.0,203.0793,0
GRID,5600,0,236.2959,0.0,201.9087,0
GRID,5601,0,234.9263,0.0,200.7381,0
GRID,5602,0,233.5567,0.0,199.5675,0
GRID,5603,0,232.1872,0.0,198.3969,0
GRID,5604,0,230.8176,0.0,197.2263,0
GRID,5605,0,229.4481,0.0,196.0557,0
GRID,5606,0,306.9094,0.0,266.2422,0
GRID,5607,0,305.5486,0.0,265.0614,0
GRID,5608,0,304.1878,0.0,263.8807,0
GRID,5609,0,302.827,0.0,262.6999,0
GRID,5610,0,301.4662,0.0,261.5191,0
GRID,5611,0,300.1054,0.0,260.3384,0
GRID,5612,0,298.7446,0.0,259.1576,0
GRID,5613,0,297.3838,0.0,257.9769,0
GRID,5614,0,296.023,0.0,256.7961,0
GRID,5615,0,294.6622,0.0,255.6153,0
GRID,5616,0,293.3013,0.0,254.4346,0
GRID,5617,0,291.9405,0.0,253.2538,0
GRID,5618,0,290.5797,0.0,252.073,0
GRID,5619,0,289.2189,0.0,250.8923,0
GRID,5620,0,287.8581,0.0,249.7115,0
GRID,5621,0,286.4973,0.0,248.5308,0
GRID,5622,0,285.1365,0.0,247.35,0
GRID,5623,0,283.7757,0.0,246.1692,0
GRID,5624,0,282.4149,0.0,244.9885,0
GRID,5625,0,281.0541,0.0,243.8077,0
GRID,5626,0,279.6932,0.0,242.6269,0
GRID,5627,0,278.3324,0.0,241.4462,0
GRID,5628,0,276.9716,0.0,240.2654,0
GRID,5629,0,275.6108,0.0,239.0847,0
GRID,5630,0,274.25,0.0,237.9039,0
GRID,5631,0,272.8892,0.0,236.7231,0
GRID,5632,0,271.5284,0.0,235.5424,0
GRID,5633,0,270.1676,0.0,234.3616,0
GRID,5634,0,268.8068,0.0,233.1809,0
GRID,5635,0,267.446,0.0,232.0001,0
GRID,5636,0,266.0852,0.0,230.8193,0
GRID,5637,0,264.7243,0.0,229.6386,0
GRID,5638,0,263.3635,0.0,228.4578,0
GRID,5639,0,262.0027,0.0,227.277,0
GRID,5640,0,260.6419,0.0,226.0963,0
GRID,5641,0,259.2811,0.0,224.9155,0
GRID,5642,0,257.9203,0.0,223.7348,0
GRID,5643,0,256.5595,0.0,222.554,0
GRID,5644,0,255.1987,0.0,221.3732,0
GRID,5645,0,253.8379,0.0,220.1925,0
GRID,5646,0,252.4771,0.0,219.0117,0
GRID,5647,0,251.1162,0.0,217.831,0
GRID,5648,0,249.7554,0.0,216.6502,0
GRID,5649,0,248.3946,0.0,215.4694,0
GRID,5650,0,247.0338,0.0,214.2887,0
GRID,5651,0,245.673,0.0,213.1079,0
GRID,5652,0,244.3122,0.0,211.9271,0
GRID,5653,0,242.9514,0.0,210.7464,0
GRID,5654,0,241.5906,0.0,209.5656,0
GRID,5655,0,240.2298,0.0,208.3849,0
GRID,5656,0,238.869,0.0,207.2041,0
GRID,5657,0,237.5081,0.0,206.0233,0
GRID,5658,0,236.1473,0.0,204.8426,0
GRID,5659,0,234.7865,0.0,203.6618,0
GRID,5660,0,233.4257,0.0,202.481,0
GRID,5661,0,232.0649,0.0,201.3003,0
GRID,5662,0,230.7041,0.0,200.1195,0
GRID,5663,0,229.3433,0.0,198.9388,0
GRID,5664,0,227.9825,0.0,197.758,0
GRID,5665,0,304.9192,0.0,268.5192,0
GRID,5666,0,303.5672,0.0,267.3284,0
GRID,5667,0,302.2153,0.0,266.1375,0
GRID,5668,0,300.8633,0.0,264.9467,0
GRID,5669,0,299.5113,0.0,263.7558,0
GRID,5670,0,298.1593,0.0,262.5649,0
GRID,5671,0,296.8073,0.0,261.3741,0
GRID,5672,0,295.4554,0.0,260.1832,0
GRID,5673,0,294.1034,0.0,258.9924,0
GRID,5674,0,292.7514,0.0,257.8015,0
GRID,5675,0,291.3994,0.0,256.6106,0
GRID,5676,0,290.0474,0.0,255.4198,0
GRID,5677,0,288.6954,0.0,254.2289,0
GRID,5678,0,287.3435,0.0,253.0381,0
GRID,5679,0,285.9915,0.0,251.8472,0
GRID,5680,0,284.6395,0.0,250.6563,0
GRID,5681,0,283.2875,0.0,249.4655,0
GRID,5682,0,281.9355,0.0,248.2746,0
GRID,5683,0,280.5835,0.0,247.0838,0
GRID,5684,0,279.2316,0.0,245.8929,0
GRID,5685,0,277.8796,0.0,244.702,0
GRID,5686,0,276.5276,0.0,243.5112,0
GRID,5687,0,275.1756,0.0,242.3203,0
GRID,5688,0,273.8236,0.0,241.1295,0
GRID,5689,0,272.4717,0.0,239.9386,0
GRID,5690,0,271.1197,0.0,238.7477,0
GRID,5691,0,269.7677,0.0,237.5569,0
GRID,5692,0,268.4157,0.0,236.366,0
GRID,5693,0,267.0637,0.0,235.1752,0
GRID,5694,0,265.7117,0.0,233.9843,0
GRID,5695,0,264.3598,0.0,232.7934,0
GRID,5696,0,263.0078,0.0,231.6026,0
GRID,5697,0,261.6558,0.0,230.4117,0
GRID,5698,0,260.3038,0.0,229.2209,0
GRID,5699,0,258.9518,0.0,228.03,0
GRID,5700,0,257.5999,0.0,226.8391,0
GRID,5701,0,256.2479,0.0,225.6483,0
GRID,5702,0,254.8959,0.0,224.4574,0
GRID,5703,0,253.5439,0.0,223.2666,0
GRID,5704,0,252.1919,0.0,222.0757,0
GRID,5705,0,250.8399,0.0,220.8848,0
GRID,5706,0,249.488,0.0,219.694,0
GRID,5707,0,248.136,0.0,218.5031,0
GRID,5708,0,246.784,0.0,217.3123,0
GRID,5709,0,245.432,0.0,216.1214,0
GRID,5710,0,244.08,0.0,214.9305,0
GRID,5711,0,242.728,0.0,213.7397,0
GRID,5712,0,241.3761,0.0,212.5488,0
GRID,5713,0,240.0241,0.0,211.358,0
GRID,5714,0,238.6721,0.0,210.1671,0
GRID,5715,0,237.3201,0.0,208.9762,0
GRID,5716,0,235.9681,0.0,207.7854,0
GRID,5717,0,234.6162,0.0,206.5945,0
GRID,5718,0,233.2642,0.0,205.4037,0
GRID,5719,0,231.9122,0.0,204.2128,0
GRID,5720,0,230.5602,0.0,203.0219,0
GRID,5721,0,229.2082,0.0,201.8311,0
GRID,5722,0,227.8562,0.0,200.6402,0
GRID,5723,0,226.5043,0.0,199.4494,0
GRID,5724,0,302.9121,0.0,270.7814,0
GRID,5725,0,301.569,0.0,269.5805,0
GRID,5726,0,300.226,0.0,268.3796,0
GRID,5727,0,298.8829,0.0,267.1787,0
GRID,5728,0,297.5398,0.0,265.9778,0
GRID,5729,0,296.1967,0.0,264.7769,0
GRID,5730,0,294.8536,0.0,263.5761,0
GRID,5731,0,293.5106,0.0,262.3752,0
GRID,5732,0,292.1675,0.0,261.1743,0
GRID,5733,0,290.8244,0.0,259.9734,0
GRID,5734,0,289.4813,0.0,258.7725,0
GRID,5735,0,288.1382,0.0,257.5716,0
GRID,5736,0,286.7952,0.0,256.3707,0
GRID,5737,0,285.4521,0.0,255.1698,0
GRID,5738,0,284.109,0.0,253.9689,0
GRID,5739,0,282.7659,0.0,252.768,0
GRID,5740,0,281.4228,0.0,251.5671,0
GRID,5741,0,280.0798,0.0,250.3662,0
GRID,5742,0,278.7367,0.0,249.1654,0
GRID,5743,0,277.3936,0.0,247.9645,0
GRID,5744,0,276.0505,0.0,246.7636,0
GRID,5745,0,274.7074,0.0,245.5627,0
GRID,5746,0,273.3644,0.0,244.3618,0
GRID,5747,0,272.0213,0.0,243.1609,0
GRID,5748,0,270.6782,0.0,241.96,0
GRID,5749,0,269.3351,0.0,240.7591,0
GRID,5750,0,267.992,0.0,239.5582,0
GRID,5751,0,266.649,0.0,238.3573,0
GRID,5752,0,265.3059,0.0,237.1564,0
GRID,5753,0,263.9628,0.0,235.9555,0
GRID,5754,0,262.6197,0.0,234.7547,0
GRID,5755,0,261.2766,0.0,233.5538,0
GRID,5756,0,259.9336,0.0,232.3529,0
GRID,5757,0,258.5905,0.0,231.152,0
GRID,5758,0,257.2474,0.0,229.9511,0
GRID,5759,0,255.9043,0.0,228.7502,0
GRID,5760,0,254.5613,0.0,227.5493,0
GRID,5761,0,253.2182,0.0,226.3484,0
GRID,5762,0,251.8751,0.0,225.1475,0
GRID,5763,0,250.532,0.0,223.9466,0
GRID,5764,0,249.1889,0.0,222.7457,0
GRID,5765,0,247.8459,0.0,221.5448,0
GRID,5766,0,246.5028,0.0,220.344,0
GRID,5767,0,245.1597,0.0,219.1431,0
GRID,5768,0,243.8166,0.0,217.9422,0
GRID,5769,0,242.4735,0.0,216.7413,0
GRID,5770,0,241.1305,0.0,215.5404,0
GRID,5771,0,239.7874,0.0,214.3395,0
GRID,5772,0,238.4443,0.0,213.1386,0
GRID,5773,0,237.1012,0.0,211.9377,0
GRID,5774,0,235.7581,0.0,210.7368,0
GRID,5775,0,234.4151,0.0,209.5359,0
GRID,5776,0,233.072,0.0,208.335,0
GRID,5777,0,231.7289,0.0,207.1341,0
GRID,5778,0,230.3858,0.0,205.9332,0
GRID,5779,0,229.0427,0.0,204.7324,0
GRID,5780,0,227.6997,0.0,203.5315,0
GRID,5781,0,226.3566,0.0,202.3306,0
GRID,5782,0,225.0135,0.0,201.1297,0
GRID,5783,0,300.8882,0.0,273.0286,0
GRID,5784,0,299.5541,0.0,271.8177,0
GRID,5785,0,298.22,0.0,270.6069,0
GRID,5786,0,296.8859,0.0,269.396,0
GRID,5787,0,295.5518,0.0,268.1851,0
GRID,5788,0,294.2177,0.0,266.9743,0
GRID,5789,0,292.8836,0.0,265.7634,0
GRID,5790,0,291.5495,0.0,264.5526,0
GRID,5791,0,290.2154,0.0,263.3417,0
GRID,5792,0,288.8813,0.0,262.1309,0
GRID,5793,0,287.5472,0.0,260.92,0
GRID,5794,0,286.2131,0.0,259.7091,0
GRID,5795,0,284.879,0.0,258.4983,0
GRID,5796,0,283.5449,0.0,257.2874,0
GRID,5797,0,282.2108,0.0,256.0766,0
GRID,5798,0,280.8767,0.0,254.8657,0
GRID,5799,0,279.5426,0.0,253.6549,0
GRID,5800,0,278.2085,0.0,252.444,0
GRID,5801,0,276.8744,0.0,251.2331,0
GRID,5802,0,275.5403,0.0,250.0223,0
GRID,5803,0,274.2062,0.0,248.8114,0
GRID,5804,0,272.8721,0.0,247.6006,0
GRID,5805,0,271.538,0.0,246.3897,0
GRID,5806,0,270.2039,0.0,245.1789,0
GRID,5807,0,268.8698,0.0,243.968,0
GRID,5808,0,267.5357,0.0,242.7571,0
GRID,5809,0,266.2016,0.0,241.5463,0
GRID,5810,0,264.8675,0.0,240.3354,0
GRID,5811,0,263.5334,0.0,239.1246,0
GRID,5812,0,262.1993,0.0,237.9137,0
GRID,5813,0,260.8651,0.0,236.7029,0
GRID,5814,0,259.531,0.0,235.492,0
GRID,5815,0,258.1969,0.0,234.2811,0
GRID,5816,0,256.8628,0.0,233.0703,0
GRID,5817,0,255.5287,0.0,231.8594,0
GRID,5818,0,254.1946,0.0,230.6486,0
GRID,5819,0,252.8605,0.0,229.4377,0
GRID,5820,0,251.5264,0.0,228.2269,0
GRID,5821,0,250.1923,0.0,227.016,0
GRID,5822,0,248.8582,0.0,225.8051,0
GRID,5823,0,247.5241,0.0,224.5943,0
GRID,5824,0,246.19,0.0,223.3834,0
GRID,5825,0,244.8559,0.0,222.1726,0
GRID,5826,0,243.5218,0.0,220.9617,0
GRID,5827,0,242.1877,0.0,219.7509,0
GRID,5828,0,240.8536,0.0,218.54,0
GRID,5829,0,239.5195,0.0,217.3291,0
GRID,5830,0,238.1854,0.0,216.1183,0
GRID,5831,0,236.8513,0.0,214.9074,0
GRID,5832,0,235.5172,0.0,213.6966,0
GRID,5833,0,234.1831,0.0,212.4857,0
GRID,5834,0,232.849,0.0,211.2749,0
GRID,5835,0,231.5149,0.0,210.064,0
GRID,5836,0,230.1808,0.0,208.8531,0
GRID,5837,0,228.8467,0.0,207.6423,0
GRID,5838,0,227.5126,0.0,206.4314,0
GRID,5839,0,226.1785,0.0,205.2206,0
GRID,5840,0,224.8444,0.0,204.0097,0
GRID,5841,0,223.5103,0.0,202.7989,0
GRID,5842,0,298.8477,0.0,275.2606,0
GRID,5843,0,297.5226,0.0,274.0399,0
GRID,5844,0,296.1976,0.0,272.8191,0
GRID,5845,0,294.8725,0.0,271.5983,0
GRID,5846,0,293.5475,0.0,270.3776,0
GRID,5847,0,292.2224,0.0,269.1568,0
GRID,5848,0,290.8974,0.0,267.9361,0
GRID,5849,0,289.5723,0.0,266.7153,0
GRID,5850,0,288.2473,0.0,265.4946,0
GRID,5851,0,286.9222,0.0,264.2738,0
GRID,5852,0,285.5971,0.0,263.0531,0
GRID,5853,0,284.2721,0.0,261.8323,0
GRID,5854,0,282.947,0.0,260.6116,0
GRID,5855,0,281.622,0.0,259.3908,0
GRID,5856,0,280.2969,0.0,258.17,0
GRID,5857,0,278.9719,0.0,256.9493,0
GRID,5858,0,277.6468,0.0,255.7285,0
GRID,5859,0,276.3218,0.0,254.5078,0
GRID,5860,0,274.9967,0.0,253.287,0
GRID,5861,0,273.6717,0.0,252.0663,0
GRID,5862,0,272.3466,0.0,250.8455,0
GRID,5863,0,271.0216,0.0,249.6248,0
GRID,5864,0,269.6965,0.0,248.404,0
GRID,5865,0,268.3715,0.0,247.1832,0
GRID,5866,0,267.0464,0.0,245.9625,0
GRID,5867,0,265.7214,0.0,244.7417,0
GRID,5868,0,264.3963,0.0,243.521,0
GRID,5869,0,263.0713,0.0,242.3002,0
GRID,5870,0,261.7462,0.0,241.0795,0
GRID,5871,0,260.4212,0.0,239.8587,0
GRID,5872,0,259.0961,0.0,238.638,0
GRID,5873,0,257.7711,0.0,237.4172,0
GRID,5874,0,256.446,0.0,236.1964,0
GRID,5875,0,255.121,0.0,234.9757,0
GRID,5876,0,253.7959,0.0,233.7549,0
GRID,5877,0,252.4709,0.0,232.5342,0
GRID,5878,0,251.1458,0.0,231.3134,0
GRID,5879,0,249.8208,0.0,230.0927,0
GRID,5880,0,248.4957,0.0,228.8719,0
GRID,5881,0,247.1707,0.0,227.6512,0
GRID,5882,0,245.8456,0.0,226.4304,0
GRID,5883,0,244.5206,0.0,225.2096,0
GRID,5884,0,243.1955,0.0,223.9889,0
GRID,5885,0,241.8704,0.0,222.7681,0
GRID,5886,0,240.5454,0.0,221.5474,0
GRID,5887,0,239.2203,0.0,220.3266,0
GRID,5888,0,237.8953,0.0,219.1059,0
GRID,5889,0,236.5702,0.0,217.8851,0
GRID,5890,0,235.2452,0.0,216.6644,0
GRID,5891,0,233.9201,0.0,215.4436,0
GRID,5892,0,232.5951,0.0,214.2228,0
GRID,5893,0,231.27,0.0,213.0021,0
GRID,5894,0,229.945,0.0,211.7813,0
GRID,5895,0,228.6199,0.0,210.5606,0
GRID,5896,0,227.2949,0.0,209.3398,0
GRID,5897,0,225.9698,0.0,208.1191,0
GRID,5898,0,224.6448,0.0,206.8983,0
GRID,5899,0,223.3197,0.0,205.6776,0
GRID,5900,0,221.9947,0.0,204.4568,0
GRID,5901,0,296.7905,0.0,277.4774,0
GRID,5902,0,295.4746,0.0,276.2468,0
GRID,5903,0,294.1587,0.0,275.0162,0
GRID,5904,0,292.8428,0.0,273.7856,0
GRID,5905,0,291.5268,0.0,272.5551,0
GRID,5906,0,290.2109,0.0,271.3245,0
GRID,5907,0,288.895,0.0,270.0939,0
GRID,5908,0,287.579,0.0,268.8633,0
GRID,5909,0,286.2631,0.0,267.6327,0
GRID,5910,0,284.9472,0.0,266.4021,0
GRID,5911,0,283.6313,0.0,265.1715,0
GRID,5912,0,282.3153,0.0,263.941,0
GRID,5913,0,280.9994,0.0,262.7104,0
GRID,5914,0,279.6835,0.0,261.4798,0
GRID,5915,0,278.3676,0.0,260.2492,0
GRID,5916,0,277.0516,0.0,259.0186,0
GRID,5917,0,275.7357,0.0,257.788,0
GRID,5918,0,274.4198,0.0,256.5574,0
GRID,5919,0,273.1039,0.0,255.3269,0
GRID,5920,0,271.7879,0.0,254.0963,0
GRID,5921,0,270.472,0.0,252.8657,0
GRID,5922,0,269.1561,0.0,251.6351,0
GRID,5923,0,267.8401,0.0,250.4045,0
GRID,5924,0,266.5242,0.0,249.1739,0
GRID,5925,0,265.2083,0.0,247.9433,0
GRID,5926,0,263.8924,0.0,246.7128,0
GRID,5927,0,262.5764,0.0,245.4822,0
GRID,5928,0,261.2605,0.0,244.2516,0
GRID,5929,0,259.9446,0.0,243.021,0
GRID,5930,0,258.6287,0.0,241.7904,0
GRID,5931,0,257.3127,0.0,240.5598,0
GRID,5932,0,255.9968,0.0,239.3292,0
GRID,5933,0,254.6809,0.0,238.0987,0
GRID,5934,0,253.365,0.0,236.8681,0
GRID,5935,0,252.049,0.0,235.6375,0
GRID,5936,0,250.7331,0.0,234.4069,0
GRID,5937,0,249.4172,0.0,233.1763,0
GRID,5938,0,248.1012,0.0,231.9457,0
GRID,5939,0,246.7853,0.0,230.7151,0
GRID,5940,0,245.4694,0.0,229.4846,0
GRID,5941,0,244.1535,0.0,228.254,0
GRID,5942,0,242.8375,0.0,227.0234,0
GRID,5943,0,241.5216,0.0,225.7928,0
GRID,5944,0,240.2057,0.0,224.5622,0
GRID,5945,0,238.8898,0.0,223.3316,0
GRID,5946,0,237.5738,0.0,222.101,0
GRID,5947,0,236.2579,0.0,220.8705,0
GRID,5948,0,234.942,0.0,219.6399,0
GRID,5949,0,233.626,0.0,218.4093,0
GRID,5950,0,232.3101,0.0,217.1787,0
GRID,5951,0,230.9942,0.0,215.9481,0
GRID,5952,0,229.6783,0.0,214.7175,0
GRID,5953,0,228.3623,0.0,213.4869,0
GRID,5954,0,227.0464,0.0,212.2564,0
GRID,5955,0,225.7305,0.0,211.0258,0
GRID,5956,0,224.4146,0.0,209.7952,0
GRID,5957,0,223.0986,0.0,208.5646,0
GRID,5958,0,221.7827,0.0,207.334,0
GRID,5959,0,220.4668,0.0,206.1034,0
GRID,5960,0,294.717,0.0,279.6788,0
GRID,5961,0,293.4102,0.0,278.4385,0
GRID,5962,0,292.1035,0.0,277.1981,0
GRID,5963,0,290.7968,0.0,275.9578,0
GRID,5964,0,289.49,0.0,274.7174,0
GRID,5965,0,288.1833,0.0,273.4771,0
GRID,5966,0,286.8766,0.0,272.2367,0
GRID,5967,0,285.5699,0.0,270.9964,0
GRID,5968,0,284.2631,0.0,269.756,0
GRID,5969,0,282.9564,0.0,268.5157,0
GRID,5970,0,281.6497,0.0,267.2753,0
GRID,5971,0,280.3429,0.0,266.035,0
GRID,5972,0,279.0362,0.0,264.7946,0
GRID,5973,0,277.7295,0.0,263.5543,0
GRID,5974,0,276.4228,0.0,262.3139,0
GRID,5975,0,275.116,0.0,261.0736,0
GRID,5976,0,273.8093,0.0,259.8332,0
GRID,5977,0,272.5026,0.0,258.5929,0
GRID,5978,0,271.1958,0.0,257.3525,0
GRID,5979,0,269.8891,0.0,256.1122,0
GRID,5980,0,268.5824,0.0,254.8719,0
GRID,5981,0,267.2757,0.0,253.6315,0
GRID,5982,0,265.9689,0.0,252.3912,0
GRID,5983,0,264.6622,0.0,251.1508,0
GRID,5984,0,263.3555,0.0,249.9105,0
GRID,5985,0,262.0487,0.0,248.6701,0
GRID,5986,0,260.742,0.0,247.4298,0
GRID,5987,0,259.4353,0.0,246.1894,0
GRID,5988,0,258.1285,0.0,244.9491,0
GRID,5989,0,256.8218,0.0,243.7087,0
GRID,5990,0,255.5151,0.0,242.4684,0
GRID,5991,0,254.2084,0.0,241.228,0
GRID,5992,0,252.9016,0.0,239.9877,0
GRID,5993,0,251.5949,0.0,238.7473,0
GRID,5994,0,250.2882,0.0,237.507,0
GRID,5995,0,248.9814,0.0,236.2666,0
GRID,5996,0,247.6747,0.0,235.0263,0
GRID,5997,0,246.368,0.0,233.7859,0
GRID,5998,0,245.0613,0.0,232.5456,0
GRID,5999,0,243.7545,0.0,231.3052,0
GRID,6000,0,242.4478,0.0,230.0649,0
GRID,6001,0,241.1411,0.0,228.8245,0
GRID,6002,0,239.8343,0.0,227.5842,0
GRID,6003,0,238.5276,0.0,226.3439,0
GRID,6004,0,237.2209,0.0,225.1035,0
GRID,6005,0,235.9142,0.0,223.8632,0
GRID,6006,0,234.6074,0.0,222.6228,0
GRID,6007,0,233.3007,0.0,221.3825,0
GRID,6008,0,231.994,0.0,220.1421,0
GRID,6009,0,230.6872,0.0,218.9018,0
GRID,6010,0,229.3805,0.0,217.6614,0
GRID,6011,0,228.0738,0.0,216.4211,0
GRID,6012,0,226.767,0.0,215.1807,0
GRID,6013,0,225.4603,0.0,213.9404,0
GRID,6014,0,224.1536,0.0,212.7,0
GRID,6015,0,222.8469,0.0,211.4597,0
GRID,6016,0,221.5401,0.0,210.2193,0
GRID,6017,0,220.2334,0.0,208.979,0
GRID,6018,0,218.9267,0.0,207.7386,0
GRID,6019,0,292.6271,0.0,281.8647,0
GRID,6020,0,291.3296,0.0,280.6147,0
GRID,6021,0,290.0321,0.0,279.3646,0
GRID,6022,0,288.7347,0.0,278.1146,0
GRID,6023,0,287.4372,0.0,276.8646,0
GRID,6024,0,286.1398,0.0,275.6145,0
GRID,6025,0,284.8423,0.0,274.3645,0
GRID,6026,0,283.5448,0.0,273.1144,0
GRID,6027,0,282.2474,0.0,271.8644,0
GRID,6028,0,280.9499,0.0,270.6144,0
GRID,6029,0,279.6525,0.0,269.3643,0
GRID,6030,0,278.355,0.0,268.1143,0
GRID,6031,0,277.0576,0.0,266.8642,0
GRID,6032,0,275.7601,0.0,265.6142,0
GRID,6033,0,274.4626,0.0,264.3641,0
GRID,6034,0,273.1652,0.0,263.1141,0
GRID,6035,0,271.8677,0.0,261.8641,0
GRID,6036,0,270.5703,0.0,260.614,0
GRID,6037,0,269.2728,0.0,259.364,0
GRID,6038,0,267.9753,0.0,258.1139,0
GRID,6039,0,266.6779,0.0,256.8639,0
GRID,6040,0,265.3804,0.0,255.6139,0
GRID,6041,0,264.083,0.0,254.3638,0
GRID,6042,0,262.7855,0.0,253.1138,0
GRID,6043,0,261.488,0.0,251.8637,0
GRID,6044,0,260.1906,0.0,250.6137,0
GRID,6045,0,258.8931,0.0,249.3637,0
GRID,6046,0,257.5957,0.0,248.1136,0
GRID,6047,0,256.2982,0.0,246.8636,0
GRID,6048,0,255.0008,0.0,245.6135,0
GRID,6049,0,253.7033,0.0,244.3635,0
GRID,6050,0,252.4058,0.0,243.1134,0
GRID,6051,0,251.1084,0.0,241.8634,0
GRID,6052,0,249.8109,0.0,240.6134,0
GRID,6053,0,248.5135,0.0,239.3633,0
GRID,6054,0,247.216,0.0,238.1133,0
GRID,6055,0,245.9185,0.0,236.8632,0
GRID,6056,0,244.6211,0.0,235.6132,0
GRID,6057,0,243.3236,0.0,234.3632,0
GRID,6058,0,242.0262,0.0,233.1131,0
GRID,6059,0,240.7287,0.0,231.8631,0
GRID,6060,0,239.4312,0.0,230.613,0
GRID,6061,0,238.1338,0.0,229.363,0
GRID,6062,0,236.8363,0.0,228.113,0
GRID,6063,0,235.5389,0.0,226.8629,0
GRID,6064,0,234.2414,0.0,225.6129,0
GRID,6065,0,232.9439,0.0,224.3628,0
GRID,6066,0,231.6465,0.0,223.1128,0
GRID,6067,0,230.349,0.0,221.8627,0
GRID,6068,0,229.0516,0.0,220.6127,0
GRID,6069,0,227.7541,0.0,219.3627,0
GRID,6070,0,226.4567,0.0,218.1126,0
GRID,6071,0,225.1592,0.0,216.8626,0
GRID,6072,0,223.8617,0.0,215.6125,0
GRID,6073,0,222.5643,0.0,214.3625,0
GRID,6074,0,221.2668,0.0,213.1125,0
GRID,6075,0,219.9694,0.0,211.8624,0
GRID,6076,0,218.6719,0.0,210.6124,0
GRID,6077,0,217.3744,0.0,209.3623,0
GRID,6078,0,290.5209,0.0,284.035,0
GRID,6079,0,289.2328,0.0,282.7754,0
GRID,6080,0,287.9447,0.0,281.5157,0
GRID,6081,0,286.6566,0.0,280.256,0
GRID,6082,0,285.3685,0.0,278.9964,0
GRID,6083,0,284.0804,0.0,277.7367,0
GRID,6084,0,282.7922,0.0,276.477,0
GRID,6085,0,281.5041,0.0,275.2174,0
GRID,6086,0,280.216,0.0,273.9577,0
GRID,6087,0,278.9279,0.0,272.698,0
GRID,6088,0,277.6398,0.0,271.4384,0
GRID,6089,0,276.3517,0.0,270.1787,0
GRID,6090,0,275.0635,0.0,268.919,0
GRID,6091,0,273.7754,0.0,267.6594,0
GRID,6092,0,272.4873,0.0,266.3997,0
GRID,6093,0,271.1992,0.0,265.14,0
GRID,6094,0,269.9111,0.0,263.8804,0
GRID,6095,0,268.623,0.0,262.6207,0
GRID,6096,0,267.3348,0.0,261.361,0
GRID,6097,0,266.0467,0.0,260.1014,0
GRID,6098,0,264.7586,0.0,258.8417,0
GRID,6099,0,263.4705,0.0,257.582,0
GRID,6100,0,262.1824,0.0,256.3224,0
GRID,6101,0,260.8943,0.0,255.0627,0
GRID,6102,0,259.6061,0.0,253.8031,0
GRID,6103,0,258.318,0.0,252.5434,0
GRID,6104,0,257.0299,0.0,251.2837,0
GRID,6105,0,255.7418,0.0,250.0241,0
GRID,6106,0,254.4537,0.0,248.7644,0
GRID,6107,0,253.1656,0.0,247.5047,0
GRID,6108,0,251.8774,0.0,246.2451,0
GRID,6109,0,250.5893,0.0,244.9854,0
GRID,6110,0,249.3012,0.0,243.7257,0
GRID,6111,0,248.0131,0.0,242.4661,0
GRID,6112,0,246.725,0.0,241.2064,0
GRID,6113,0,245.4369,0.0,239.9467,0
GRID,6114,0,244.1487,0.0,238.6871,0
GRID,6115,0,242.8606,0.0,237.4274,0
GRID,6116,0,241.5725,0.0,236.1677,0
GRID,6117,0,240.2844,0.0,234.9081,0
GRID,6118,0,238.9963,0.0,233.6484,0
GRID,6119,0,237.7082,0.0,232.3887,0
GRID,6120,0,236.42,0.0,231.1291,0
GRID,6121,0,235.1319,0.0,229.8694,0
GRID,6122,0,233.8438,0.0,228.6098,0
GRID,6123,0,232.5557,0.0,227.3501,0
GRID,6124,0,231.2676,0.0,226.0904,0
GRID,6125,0,229.9795,0.0,224.8308,0
GRID,6126,0,228.6913,0.0,223.5711,0
GRID,6127,0,227.4032,0.0,222.3114,0
GRID,6128,0,226.1151,0.0,221.0518,0
GRID,6129,0,224.827,0.0,219.7921,0
GRID,6130,0,223.5389,0.0,218.5324,0
GRID,6131,0,222.2508,0.0,217.2728,0
GRID,6132,0,220.9626,0.0,216.0131,0
GRID,6133,0,219.6745,0.0,214.7534,0
GRID,6134,0,218.3864,0.0,213.4938,0
GRID,6135,0,217.0983,0.0,212.2341,0
GRID,6136,0,215.8102,0.0,210.9744,0
GRID,6137,0,288.3987,0.0,286.1896,0
GRID,6138,0,287.12,0.0,284.9204,0
GRID,6139,0,285.8413,0.0,283.6511,0
GRID,6140,0,284.5626,0.0,282.3819,0
GRID,6141,0,283.2839,0.0,281.1127,0
GRID,6142,0,282.0052,0.0,279.8435,0
GRID,6143,0,280.7265,0.0,278.5743,0
GRID,6144,0,279.4478,0.0,277.305,0
GRID,6145,0,278.1691,0.0,276.0358,0
GRID,6146,0,276.8904,0.0,274.7666,0
GRID,6147,0,275.6117,0.0,273.4974,0
GRID,6148,0,274.333,0.0,272.2282,0
GRID,6149,0,273.0543,0.0,270.9589,0
GRID,6150,0,271.7756,0.0,269.6897,0
GRID,6151,0,270.4969,0.0,268.4205,0
GRID,6152,0,269.2182,0.0,267.1513,0
GRID,6153,0,267.9395,0.0,265.8821,0
GRID,6154,0,266.6608,0.0,264.6128,0
GRID,6155,0,265.3821,0.0,263.3436,0
GRID,6156,0,264.1034,0.0,262.0744,0
GRID,6157,0,262.8247,0.0,260.8052,0
GRID,6158,0,261.546,0.0,259.536,0
GRID,6159,0,260.2673,0.0,258.2668,0
GRID,6160,0,258.9886,0.0,256.9975,0
GRID,6161,0,257.7099,0.0,255.7283,0
GRID,6162,0,256.4311,0.0,254.4591,0
GRID,6163,0,255.1524,0.0,253.1899,0
GRID,6164,0,253.8737,0.0,251.9207,0
GRID,6165,0,252.595,0.0,250.6514,0
GRID,6166,0,251.3163,0.0,249.3822,0
GRID,6167,0,250.0376,0.0,248.113,0
GRID,6168,0,248.7589,0.0,246.8438,0
GRID,6169,0,247.4802,0.0,245.5746,0
GRID,6170,0,246.2015,0.0,244.3053,0
GRID,6171,0,244.9228,0.0,243.0361,0
GRID,6172,0,243.6441,0.0,241.7669,0
GRID,6173,0,242.3654,0.0,240.4977,0
GRID,6174,0,241.0867,0.0,239.2285,0
GRID,6175,0,239.808,0.0,237.9592,0
GRID,6176,0,238.5293,0.0,236.69,0
GRID,6177,0,237.2506,0.0,235.4208,0
GRID,6178,0,235.9719,0.0,234.1516,0
GRID,6179,0,234.6932,0.0,232.8824,0
GRID,6180,0,233.4145,0.0,231.6131,0
GRID,6181,0,232.1358,0.0,230.3439,0
GRID,6182,0,230.8571,0.0,229.0747,0
GRID,6183,0,229.5784,0.0,227.8055,0
GRID,6184,0,228.2997,0.0,226.5363,0
GRID,6185,0,227.021,0.0,225.267,0
GRID,6186,0,225.7423,0.0,223.9978,0
GRID,6187,0,224.4636,0.0,222.7286,0
GRID,6188,0,223.1849,0.0,221.4594,0
GRID,6189,0,221.9062,0.0,220.1902,0
GRID,6190,0,220.6275,0.0,218.921,0
GRID,6191,0,219.3487,0.0,217.6517,0
GRID,6192,0,218.07,0.0,216.3825,0
GRID,6193,0,216.7913,0.0,215.1133,0
GRID,6194,0,215.5126,0.0,213.8441,0
GRID,6195,0,214.2339,0.0,212.5749,0
GRID,6196,0,286.2606,0.0,288.3283,0
GRID,6197,0,284.9913,0.0,287.0496,0
GRID,6198,0,283.7221,0.0,285.7709,0
GRID,6199,0,282.4529,0.0,284.4922,0
GRID,6200,0,281.1837,0.0,283.2135,0
GRID,6201,0,279.9145,0.0,281.9348,0
GRID,6202,0,278.6452,0.0,280.6561,0
GRID,6203,0,277.376,0.0,279.3774,0
GRID,6204,0,276.1068,0.0,278.0987,0
GRID,6205,0,274.8376,0.0,276.82,0
GRID,6206,0,273.5684,0.0,275.5413,0
GRID,6207,0,272.2991,0.0,274.2625,0
GRID,6208,0,271.0299,0.0,272.9838,0
GRID,6209,0,269.7607,0.0,271.7051,0
GRID,6210,0,268.4915,0.0,270.4264,0
GRID,6211,0,267.2223,0.0,269.1477,0
GRID,6212,0,265.953,0.0,267.869,0
GRID,6213,0,264.6838,0.0,266.5903,0
GRID,6214,0,263.4146,0.0,265.3116,0
GRID,6215,0,262.1454,0.0,264.0329,0
GRID,6216,0,260.8762,0.0,262.7542,0
GRID,6217,0,259.6069,0.0,261.4755,0
GRID,6218,0,258.3377,0.0,260.1968,0
GRID,6219,0,257.0685,0.0,258.9181,0
GRID,6220,0,255.7993,0.0,257.6394,0
GRID,6221,0,254.5301,0.0,256.3607,0
GRID,6222,0,253.2608,0.0,255.082,0
GRID,6223,0,251.9916,0.0,253.8033,0
GRID,6224,0,250.7224,0.0,252.5246,0
GRID,6225,0,249.4532,0.0,251.2459,0
GRID,6226,0,248.184,0.0,249.9672,0
GRID,6227,0,246.9148,0.0,248.6885,0
GRID,6228,0,245.6455,0.0,247.4098,0
GRID,6229,0,244.3763,0.0,246.1311,0
GRID,6230,0,243.1071,0.0,244.8524,0
GRID,6231,0,241.8379,0.0,243.5737,0
GRID,6232,0,240.5687,0.0,242.295,0
GRID,6233,0,239.2994,0.0,241.0163,0
GRID,6234,0,238.0302,0.0,239.7376,0
GRID,6235,0,236.761,0.0,238.4589,0
GRID,6236,0,235.4918,0.0,237.1801,0
GRID,6237,0,234.2226,0.0,235.9014,0
GRID,6238,0,232.9533,0.0,234.6227,0
GRID,6239,0,231.6841,0.0,233.344,0
GRID,6240,0,230.4149,0.0,232.0653,0
GRID,6241,0,229.1457,0.0,230.7866,0
GRID,6242,0,227.8765,0.0,229.5079,0
GRID,6243,0,226.6072,0.0,228.2292,0
GRID,6244,0,225.338,0.0,226.9505,0
GRID,6245,0,224.0688,0.0,225.6718,0
GRID,6246,0,222.7996,0.0,224.3931,0
GRID,6247,0,221.5304,0.0,223.1144,0
GRID,6248,0,220.2611,0.0,221.8357,0
GRID,6249,0,218.9919,0.0,220.557,0
GRID,6250,0,217.7227,0.0,219.2783,0
GRID,6251,0,216.4535,0.0,217.9996,0
GRID,6252,0,215.1843,0.0,216.7209,0
GRID,6253,0,213.915,0.0,215.4422,0
GRID,6254,0,212.6458,0.0,214.1635,0
GRID,6255,0,284.1065,0.0,290.451,0
GRID,6256,0,282.8468,0.0,289.1629,0
GRID,6257,0,281.5872,0.0,287.8748,0
GRID,6258,0,280.3275,0.0,286.5867,0
GRID,6259,0,279.0679,0.0,285.2986,0
GRID,6260,0,277.8082,0.0,284.0104,0
GRID,6261,0,276.5485,0.0,282.7223,0
GRID,6262,0,275.2889,0.0,281.4342,0
GRID,6263,0,274.0292,0.0,280.1461,0
GRID,6264,0,272.7695,0.0,278.858,0
GRID,6265,0,271.5099,0.0,277.5699,0
GRID,6266,0,270.2502,0.0,276.2817,0
GRID,6267,0,268.9905,0.0,274.9936,0
GRID,6268,0,267.7309,0.0,273.7055,0
GRID,6269,0,266.4712,0.0,272.4174,0
GRID,6270,0,265.2115,0.0,271.1293,0
GRID,6271,0,263.9519,0.0,269.8412,0
GRID,6272,0,262.6922,0.0,268.553,0
GRID,6273,0,261.4325,0.0,267.2649,0
GRID,6274,0,260.1729,0.0,265.9768,0
GRID,6275,0,258.9132,0.0,264.6887,0
GRID,6276,0,257.6535,0.0,263.4006,0
GRID,6277,0,256.3939,0.0,262.1125,0
GRID,6278,0,255.1342,0.0,260.8243,0
GRID,6279,0,253.8745,0.0,259.5362,0
GRID,6280,0,252.6149,0.0,258.2481,0
GRID,6281,0,251.3552,0.0,256.96,0
GRID,6282,0,250.0956,0.0,255.6719,0
GRID,6283,0,248.8359,0.0,254.3838,0
GRID,6284,0,247.5762,0.0,253.0956,0
GRID,6285,0,246.3166,0.0,251.8075,0
GRID,6286,0,245.0569,0.0,250.5194,0
GRID,6287,0,243.7972,0.0,249.2313,0
GRID,6288,0,242.5376,0.0,247.9432,0
GRID,6289,0,241.2779,0.0,246.6551,0
GRID,6290,0,240.0182,0.0,245.3669,0
GRID,6291,0,238.7586,0.0,244.0788,0
GRID,6292,0,237.4989,0.0,242.7907,0
GRID,6293,0,236.2392,0.0,241.5026,0
GRID,6294,0,234.9796,0.0,240.2145,0
GRID,6295,0,233.7199,0.0,238.9264,0
GRID,6296,0,232.4602,0.0,237.6382,0
GRID,6297,0,231.2006,0.0,236.3501,0
GRID,6298,0,229.9409,0.0,235.062,0
GRID,6299,0,228.6812,0.0,233.7739,0
GRID,6300,0,227.4216,0.0,232.4858,0
GRID,6301,0,226.1619,0.0,231.1977,0
GRID,6302,0,224.9023,0.0,229.9095,0
GRID,6303,0,223.6426,0.0,228.6214,0
GRID,6304,0,222.3829,0.0,227.3333,0
GRID,6305,0,221.1233,0.0,226.0452,0
GRID,6306,0,219.8636,0.0,224.7571,0
GRID,6307,0,218.6039,0.0,223.469,0
GRID,6308,0,217.3443,0.0,222.1808,0
GRID,6309,0,216.0846,0.0,220.8927,0
GRID,6310,0,214.8249,0.0,219.6046,0
GRID,6311,0,213.5653,0.0,218.3165,0
GRID,6312,0,212.3056,0.0,217.0284,0
GRID,6313,0,211.0459,0.0,215.7402,0
GRID,6314,0,281.9367,0.0,292.5577,0
GRID,6315,0,280.6867,0.0,291.2602,0
GRID,6316,0,279.4367,0.0,289.9628,0
GRID,6317,0,278.1866,0.0,288.6653,0
GRID,6318,0,276.9366,0.0,287.3678,0
GRID,6319,0,275.6865,0.0,286.0704,0
GRID,6320,0,274.4365,0.0,284.7729,0
GRID,6321,0,273.1864,0.0,283.4755,0
GRID,6322,0,271.9364,0.0,282.178,0
GRID,6323,0,270.6864,0.0,280.8805,0
GRID,6324,0,269.4363,0.0,279.5831,0
GRID,6325,0,268.1863,0.0,278.2856,0
GRID,6326,0,266.9362,0.0,276.9882,0
GRID,6327,0,265.6862,0.0,275.6907,0
GRID,6328,0,264.4362,0.0,274.3932,0
GRID,6329,0,263.1861,0.0,273.0958,0
GRID,6330,0,261.9361,0.0,271.7983,0
GRID,6331,0,260.686,0.0,270.5009,0
GRID,6332,0,259.436,0.0,269.2034,0
GRID,6333,0,258.186,0.0,267.906,0
GRID,6334,0,256.9359,0.0,266.6085,0
GRID,6335,0,255.6859,0.0,265.311,0
GRID,6336,0,254.4358,0.0,264.0136,0
GRID,6337,0,253.1858,0.0,262.7161,0
GRID,6338,0,251.9357,0.0,261.4187,0
GRID,6339,0,250.6857,0.0,260.1212,0
GRID,6340,0,249.4357,0.0,258.8237,0
GRID,6341,0,248.1856,0.0,257.5263,0
GRID,6342,0,246.9356,0.0,256.2288,0
GRID,6343,0,245.6855,0.0,254.9314,0
GRID,6344,0,244.4355,0.0,253.6339,0
GRID,6345,0,243.1855,0.0,252.3364,0
GRID,6346,0,241.9354,0.0,251.039,0
GRID,6347,0,240.6854,0.0,249.7415,0
GRID,6348,0,239.4353,0.0,248.4441,0
GRID,6349,0,238.1853,0.0,247.1466,0
GRID,6350,0,236.9353,0.0,245.8492,0
GRID,6351,0,235.6852,0.0,244.5517,0
GRID,6352,0,234.4352,0.0,243.2542,0
GRID,6353,0,233.1851,0.0,241.9568,0
GRID,6354,0,231.9351,0.0,240.6593,0
GRID,6355,0,230.6851,0.0,239.3619,0
GRID,6356,0,229.435,0.0,238.0644,0
GRID,6357,0,228.185,0.0,236.7669,0
GRID,6358,0,226.9349,0.0,235.4695,0
GRID,6359,0,225.6849,0.0,234.172,0
GRID,6360,0,224.4348,0.0,232.8746,0
GRID,6361,0,223.1848,0.0,231.5771,0
GRID,6362,0,221.9348,0.0,230.2796,0
GRID,6363,0,220.6847,0.0,228.9822,0
GRID,6364,0,219.4347,0.0,227.6847,0
GRID,6365,0,218.1846,0.0,226.3873,0
GRID,6366,0,216.9346,0.0,225.0898,0
GRID,6367,0,215.6846,0.0,223.7924,0
GRID,6368,0,214.4345,0.0,222.4949,0
GRID,6369,0,213.1845,0.0,221.1974,0
GRID,6370,0,211.9344,0.0,219.9,0
GRID,6371,0,210.6844,0.0,218.6025,0
GRID,6372,0,209.4344,0.0,217.3051,0
GRID,6373,0,279.7513,0.0,294.6481,0
GRID,6374,0,278.511,0.0,293.3414,0
GRID,6375,0,277.2706,0.0,292.0347,0
GRID,6376,0,276.0303,0.0,290.7279,0
GRID,6377,0,274.7899,0.0,289.4212,0
GRID,6378,0,273.5496,0.0,288.1145,0
GRID,6379,0,272.3092,0.0,286.8077,0
GRID,6380,0,271.0689,0.0,285.501,0
GRID,6381,0,269.8286,0.0,284.1943,0
GRID,6382,0,268.5882,0.0,282.8876,0
GRID,6383,0,267.3479,0.0,281.5808,0
GRID,6384,0,266.1075,0.0,280.2741,0
GRID,6385,0,264.8672,0.0,278.9674,0
GRID,6386,0,263.6268,0.0,277.6606,0
GRID,6387,0,262.3865,0.0,276.3539,0
GRID,6388,0,261.1461,0.0,275.0472,0
GRID,6389,0,259.9058,0.0,273.7404,0
GRID,6390,0,258.6654,0.0,272.4337,0
GRID,6391,0,257.4251,0.0,271.127,0
GRID,6392,0,256.1847,0.0,269.8203,0
GRID,6393,0,254.9444,0.0,268.5135,0
GRID,6394,0,253.704,0.0,267.2068,0
GRID,6395,0,252.4637,0.0,265.9001,0
GRID,6396,0,251.2233,0.0,264.5933,0
GRID,6397,0,249.983,0.0,263.2866,0
GRID,6398,0,248.7426,0.0,261.9799,0
GRID,6399,0,247.5023,0.0,260.6732,0
GRID,6400,0,246.2619,0.0,259.3664,0
GRID,6401,0,245.0216,0.0,258.0597,0
GRID,6402,0,243.7813,0.0,256.753,0
GRID,6403,0,242.5409,0.0,255.4462,0
GRID,6404,0,241.3006,0.0,254.1395,0
GRID,6405,0,240.0602,0.0,252.8328,0
GRID,6406,0,238.8199,0.0,251.5261,0
GRID,6407,0,237.5795,0.0,250.2193,0
GRID,6408,0,236.3392,0.0,248.9126,0
GRID,6409,0,235.0988,0.0,247.6059,0
GRID,6410,0,233.8585,0.0,246.2991,0
GRID,6411,0,232.6181,0.0,244.9924,0
GRID,6412,0,231.3778,0.0,243.6857,0
GRID,6413,0,230.1374,0.0,242.379,0
GRID,6414,0,228.8971,0.0,241.0722,0
GRID,6415,0,227.6567,0.0,239.7655,0
GRID,6416,0,226.4164,0.0,238.4588,0
GRID,6417,0,225.176,0.0,237.152,0
GRID,6418,0,223.9357,0.0,235.8453,0
GRID,6419,0,222.6953,0.0,234.5386,0
GRID,6420,0,221.455,0.0,233.2318,0
GRID,6421,0,220.2146,0.0,231.9251,0
GRID,6422,0,218.9743,0.0,230.6184,0
GRID,6423,0,217.7339,0.0,229.3117,0
GRID,6424,0,216.4936,0.0,228.0049,0
GRID,6425,0,215.2533,0.0,226.6982,0
GRID,6426,0,214.0129,0.0,225.3915,0
GRID,6427,0,212.7726,0.0,224.0847,0
GRID,6428,0,211.5322,0.0,222.778,0
GRID,6429,0,210.2919,0.0,221.4713,0
GRID,6430,0,209.0515,0.0,220.1646,0
GRID,6431,0,207.8112,0.0,218.8578,0
GRID,6432,0,277.5504,0.0,296.7222,0
GRID,6433,0,276.3199,0.0,295.4063,0
GRID,6434,0,275.0893,0.0,294.0904,0
GRID,6435,0,273.8587,0.0,292.7744,0
GRID,6436,0,272.6281,0.0,291.4585,0
GRID,6437,0,271.3975,0.0,290.1426,0
GRID,6438,0,270.1669,0.0,288.8267,0
GRID,6439,0,268.9363,0.0,287.5107,0
GRID,6440,0,267.7058,0.0,286.1948,0
GRID,6441,0,266.4752,0.0,284.8789,0
GRID,6442,0,265.2446,0.0,283.563,0
GRID,6443,0,264.014,0.0,282.247,0
GRID,6444,0,262.7834,0.0,280.9311,0
GRID,6445,0,261.5528,0.0,279.6152,0
GRID,6446,0,260.3222,0.0,278.2993,0
GRID,6447,0,259.0917,0.0,276.9833,0
GRID,6448,0,257.8611,0.0,275.6674,0
GRID,6449,0,256.6305,0.0,274.3515,0
GRID,6450,0,255.3999,0.0,273.0355,0
GRID,6451,0,254.1693,0.0,271.7196,0
GRID,6452,0,252.9387,0.0,270.4037,0
GRID,6453,0,251.7081,0.0,269.0878,0
GRID,6454,0,250.4776,0.0,267.7718,0
GRID,6455,0,249.247,0.0,266.4559,0
GRID,6456,0,248.0164,0.0,265.14,0
GRID,6457,0,246.7858,0.0,263.8241,0
GRID,6458,0,245.5552,0.0,262.5081,0
GRID,6459,0,244.3246,0.0,261.1922,0
GRID,6460,0,243.094,0.0,259.8763,0
GRID,6461,0,241.8635,0.0,258.5604,0
GRID,6462,0,240.6329,0.0,257.2444,0
GRID,6463,0,239.4023,0.0,255.9285,0
GRID,6464,0,238.1717,0.0,254.6126,0
GRID,6465,0,236.9411,0.0,253.2966,0
GRID,6466,0,235.7105,0.0,251.9807,0
GRID,6467,0,234.4799,0.0,250.6648,0
GRID,6468,0,233.2494,0.0,249.3489,0
GRID,6469,0,232.0188,0.0,248.0329,0
GRID,6470,0,230.7882,0.0,246.717,0
GRID,6471,0,229.5576,0.0,245.4011,0
GRID,6472,0,228.327,0.0,244.0852,0
GRID,6473,0,227.0964,0.0,242.7692,0
GRID,6474,0,225.8658,0.0,241.4533,0
GRID,6475,0,224.6353,0.0,240.1374,0
GRID,6476,0,223.4047,0.0,238.8215,0
GRID,6477,0,222.1741,0.0,237.5055,0
GRID,6478,0,220.9435,0.0,236.1896,0
GRID,6479,0,219.7129,0.0,234.8737,0
GRID,6480,0,218.4823,0.0,233.5577,0
GRID,6481,0,217.2517,0.0,232.2418,0
GRID,6482,0,216.0212,0.0,230.9259,0
GRID,6483,0,214.7906,0.0,229.61,0
GRID,6484,0,213.56,0.0,228.294,0
GRID,6485,0,212.3294,0.0,226.9781,0
GRID,6486,0,211.0988,0.0,225.6622,0
GRID,6487,0,209.8682,0.0,224.3463,0
GRID,6488,0,208.6376,0.0,223.0303,0
GRID,6489,0,207.4071,0.0,221.7144,0
GRID,6490,0,206.1765,0.0,220.3985,0
GRID,6491,0,275.3342,0.0,298.7799,0
GRID,6492,0,274.1134,0.0,297.4548,0
GRID,6493,0,272.8926,0.0,296.1298,0
GRID,6494,0,271.6719,0.0,294.8047,0
GRID,6495,0,270.4511,0.0,293.4797,0
GRID,6496,0,269.2304,0.0,292.1546,0
GRID,6497,0,268.0096,0.0,290.8296,0
GRID,6498,0,266.7889,0.0,289.5045,0
GRID,6499,0,265.5681,0.0,288.1795,0
GRID,6500,0,264.3474,0.0,286.8544,0
GRID,6501,0,263.1266,0.0,285.5294,0
GRID,6502,0,261.9058,0.0,284.2043,0
GRID,6503,0,260.6851,0.0,282.8793,0
GRID,6504,0,259.4643,0.0,281.5542,0
GRID,6505,0,258.2436,0.0,280.2292,0
GRID,6506,0,257.0228,0.0,278.9041,0
GRID,6507,0,255.8021,0.0,277.5791,0
GRID,6508,0,254.5813,0.0,276.254,0
GRID,6509,0,253.3606,0.0,274.929,0
GRID,6510,0,252.1398,0.0,273.6039,0
GRID,6511,0,250.9191,0.0,272.2789,0
GRID,6512,0,249.6983,0.0,270.9538,0
GRID,6513,0,248.4775,0.0,269.6288,0
GRID,6514,0,247.2568,0.0,268.3037,0
GRID,6515,0,246.036,0.0,266.9787,0
GRID,6516,0,244.8153,0.0,265.6536,0
GRID,6517,0,243.5945,0.0,264.3286,0
GRID,6518,0,242.3738,0.0,263.0035,0
GRID,6519,0,241.153,0.0,261.6785,0
GRID,6520,0,239.9323,0.0,260.3534,0
GRID,6521,0,238.7115,0.0,259.0284,0
GRID,6522,0,237.4907,0.0,257.7033,0
GRID,6523,0,236.27,0.0,256.3783,0
GRID,6524,0,235.0492,0.0,255.0532,0
GRID,6525,0,233.8285,0.0,253.7282,0
GRID,6526,0,232.6077,0.0,252.4031,0
GRID,6527,0,231.387,0.0,251.078,0
GRID,6528,0,230.1662,0.0,249.753,0
GRID,6529,0,228.9455,0.0,248.4279,0
GRID,6530,0,227.7247,0.0,247.1029,0
GRID,6531,0,226.5039,0.0,245.7778,0
GRID,6532,0,225.2832,0.0,244.4528,0
GRID,6533,0,224.0624,0.0,243.1277,0
GRID,6534,0,222.8417,0.0,241.8027,0
GRID,6535,0,221.6209,0.0,240.4776,0
GRID,6536,0,220.4002,0.0,239.1526,0
GRID,6537,0,219.1794,0.0,237.8275,0
GRID,6538,0,217.9587,0.0,236.5025,0
GRID,6539,0,216.7379,0.0,235.1774,0
GRID,6540,0,215.5171,0.0,233.8524,0
GRID,6541,0,214.2964,0.0,232.5273,0
GRID,6542,0,213.0756,0.0,231.2023,0
GRID,6543,0,211.8549,0.0,229.8772,0
GRID,6544,0,210.6341,0.0,228.5522,0
GRID,6545,0,209.4134,0.0,227.2271,0
GRID,6546,0,208.1926,0.0,225.9021,0
GRID,6547,0,206.9719,0.0,224.577,0
GRID,6548,0,205.7511,0.0,223.252,0
GRID,6549,0,204.5304,0.0,221.9269,0
GRID,6550,0,273.1026,0.0,300.821,0
GRID,6551,0,271.8918,0.0,299.4869,0
GRID,6552,0,270.6809,0.0,298.1528,0
GRID,6553,0,269.47,0.0,296.8187,0
GRID,6554,0,268.2592,0.0,295.4846,0
GRID,6555,0,267.0483,0.0,294.1505,0
GRID,6556,0,265.8375,0.0,292.8164,0
GRID,6557,0,264.6266,0.0,291.4823,0
GRID,6558,0,263.4158,0.0,290.1482,0
GRID,6559,0,262.2049,0.0,288.8141,0
GRID,6560,0,260.994,0.0,287.48,0
GRID,6561,0,259.7832,0.0,286.1459,0
GRID,6562,0,258.5723,0.0,284.8118,0
GRID,6563,0,257.3615,0.0,283.4777,0
GRID,6564,0,256.1506,0.0,282.1436,0
GRID,6565,0,254.9398,0.0,280.8095,0
GRID,6566,0,253.7289,0.0,279.4754,0
GRID,6567,0,252.518,0.0,278.1413,0
GRID,6568,0,251.3072,0.0,276.8072,0
GRID,6569,0,250.0963,0.0,275.4731,0
GRID,6570,0,248.8855,0.0,274.139,0
GRID,6571,0,247.6746,0.0,272.8049,0
GRID,6572,0,246.4638,0.0,271.4708,0
GRID,6573,0,245.2529,0.0,270.1367,0
GRID,6574,0,244.042,0.0,268.8026,0
GRID,6575,0,242.8312,0.0,267.4685,0
GRID,6576,0,241.6203,0.0,266.1343,0
GRID,6577,0,240.4095,0.0,264.8002,0
GRID,6578,0,239.1986,0.0,263.4661,0
GRID,6579,0,237.9878,0.0,262.132,0
GRID,6580,0,236.7769,0.0,260.7979,0
GRID,6581,0,235.566,0.0,259.4638,0
GRID,6582,0,234.3552,0.0,258.1297,0
GRID,6583,0,233.1443,0.0,256.7956,0
GRID,6584,0,231.9335,0.0,255.4615,0
GRID,6585,0,230.7226,0.0,254.1274,0
GRID,6586,0,229.5118,0.0,252.7933,0
GRID,6587,0,228.3009,0.0,251.4592,0
GRID,6588,0,227.0901,0.0,250.1251,0
GRID,6589,0,225.8792,0.0,248.791,0
GRID,6590,0,224.6683,0.0,247.4569,0
GRID,6591,0,223.4575,0.0,246.1228,0
GRID,6592,0,222.2466,0.0,244.7887,0
GRID,6593,0,221.0358,0.0,243.4546,0
GRID,6594,0,219.8249,0.0,242.1205,0
GRID,6595,0,218.6141,0.0,240.7864,0
GRID,6596,0,217.4032,0.0,239.4523,0
GRID,6597,0,216.1923,0.0,238.1182,0
GRID,6598,0,214.9815,0.0,236.7841,0
GRID,6599,0,213.7706,0.0,235.45,0
GRID,6600,0,212.5598,0.0,234.1159,0
GRID,6601,0,211.3489,0.0,232.7818,0
GRID,6602,0,210.1381,0.0,231.4477,0
GRID,6603,0,208.9272,0.0,230.1136,0
GRID,6604,0,207.7163,0.0,228.7795,0
GRID,6605,0,206.5055,0.0,227.4454,0
GRID,6606,0,205.2946,0.0,226.1113,0
GRID,6607,0,204.0838,0.0,224.7772,0
GRID,6608,0,202.8729,0.0,223.4431,0
GRID,6609,0,270.8559,0.0,302.8455,0
GRID,6610,0,269.6551,0.0,301.5024,0
GRID,6611,0,268.4542,0.0,300.1593,0
GRID,6612,0,267.2533,0.0,298.8162,0
GRID,6613,0,266.0524,0.0,297.4731,0
GRID,6614,0,264.8515,0.0,296.1301,0
GRID,6615,0,263.6506,0.0,294.787,0
GRID,6616,0,262.4497,0.0,293.4439,0
GRID,6617,0,261.2488,0.0,292.1008,0
GRID,6618,0,260.0479,0.0,290.7577,0
GRID,6619,0,258.847,0.0,289.4147,0
GRID,6620,0,257.6461,0.0,288.0716,0
GRID,6621,0,256.4452,0.0,286.7285,0
GRID,6622,0,255.2444,0.0,285.3854,0
GRID,6623,0,254.0435,0.0,284.0423,0
GRID,6624,0,252.8426,0.0,282.6993,0
GRID,6625,0,251.6417,0.0,281.3562,0
GRID,6626,0,250.4408,0.0,280.0131,0
GRID,6627,0,249.2399,0.0,278.67,0
GRID,6628,0,248.039,0.0,277.3269,0
GRID,6629,0,246.8381,0.0,275.9839,0
GRID,6630,0,245.6372,0.0,274.6408,0
GRID,6631,0,244.4363,0.0,273.2977,0
GRID,6632,0,243.2354,0.0,271.9546,0
GRID,6633,0,242.0345,0.0,270.6115,0
GRID,6634,0,240.8337,0.0,269.2685,0
GRID,6635,0,239.6328,0.0,267.9254,0
GRID,6636,0,238.4319,0.0,266.5823,0
GRID,6637,0,237.231,0.0,265.2392,0
GRID,6638,0,236.0301,0.0,263.8962,0
GRID,6639,0,234.8292,0.0,262.5531,0
GRID,6640,0,233.6283,0.0,261.21,0
GRID,6641,0,232.4274,0.0,259.8669,0
GRID,6642,0,231.2265,0.0,258.5238,0
GRID,6643,0,230.0256,0.0,257.1808,0
GRID,6644,0,228.8247,0.0,255.8377,0
GRID,6645,0,227.6238,0.0,254.4946,0
GRID,6646,0,226.423,0.0,253.1515,0
GRID,6647,0,225.2221,0.0,251.8084,0
GRID,6648,0,224.0212,0.0,250.4654,0
GRID,6649,0,222.8203,0.0,249.1223,0
GRID,6650,0,221.6194,0.0,247.7792,0
GRID,6651,0,220.4185,0.0,246.4361,0
GRID,6652,0,219.2176,0.0,245.093,0
GRID,6653,0,218.0167,0.0,243.75,0
GRID,6654,0,216.8158,0.0,242.4069,0
GRID,6655,0,215.6149,0.0,241.0638,0
GRID,6656,0,214.414,0.0,239.7207,0
GRID,6657,0,213.2131,0.0,238.3776,0
GRID,6658,0,212.0123,0.0,237.0346,0
GRID,6659,0,210.8114,0.0,235.6915,0
GRID,6660,0,209.6105,0.0,234.3484,0
GRID,6661,0,208.4096,0.0,233.0053,0
GRID,6662,0,207.2087,0.0,231.6622,0
GRID,6663,0,206.0078,0.0,230.3192,0
GRID,6664,0,204.8069,0.0,228.9761,0
GRID,6665,0,203.606,0.0,227.633,0
GRID,6666,0,202.4051,0.0,226.2899,0
GRID,6667,0,201.2042,0.0,224.9468,0
GRID,6668,0,268.5943,0.0,304.8531,0
GRID,6669,0,267.4034,0.0,303.5011,0
GRID,6670,0,266.2126,0.0,302.1492,0
GRID,6671,0,265.0217,0.0,300.7972,0
GRID,6672,0,263.8308,0.0,299.4452,0
GRID,6673,0,262.64,0.0,298.0932,0
GRID,6674,0,261.4491,0.0,296.7412,0
GRID,6675,0,260.2583,0.0,295.3892,0
GRID,6676,0,259.0674,0.0,294.0373,0
GRID,6677,0,257.8765,0.0,292.6853,0
GRID,6678,0,256.6857,0.0,291.3333,0
GRID,6679,0,255.4948,0.0,289.9813,0
GRID,6680,0,254.304,0.0,288.6293,0
GRID,6681,0,253.1131,0.0,287.2774,0
GRID,6682,0,251.9222,0.0,285.9254,0
GRID,6683,0,250.7314,0.0,284.5734,0
GRID,6684,0,249.5405,0.0,283.2214,0
GRID,6685,0,248.3497,0.0,281.8694,0
GRID,6686,0,247.1588,0.0,280.5174,0
GRID,6687,0,245.9679,0.0,279.1655,0
GRID,6688,0,244.7771,0.0,277.8135,0
GRID,6689,0,243.5862,0.0,276.4615,0
GRID,6690,0,242.3954,0.0,275.1095,0
GRID,6691,0,241.2045,0.0,273.7575,0
GRID,6692,0,240.0136,0.0,272.4056,0
GRID,6693,0,238.8228,0.0,271.0536,0
GRID,6694,0,237.6319,0.0,269.7016,0
GRID,6695,0,236.4411,0.0,268.3496,0
GRID,6696,0,235.2502,0.0,266.9976,0
GRID,6697,0,234.0593,0.0,265.6456,0
GRID,6698,0,232.8685,0.0,264.2937,0
GRID,6699,0,231.6776,0.0,262.9417,0
GRID,6700,0,230.4868,0.0,261.5897,0
GRID,6701,0,229.2959,0.0,260.2377,0
GRID,6702,0,228.105,0.0,258.8857,0
GRID,6703,0,226.9142,0.0,257.5338,0
GRID,6704,0,225.7233,0.0,256.1818,0
GRID,6705,0,224.5325,0.0,254.8298,0
GRID,6706,0,223.3416,0.0,253.4778,0
GRID,6707,0,222.1507,0.0,252.1258,0
GRID,6708,0,220.9599,0.0,250.7738,0
GRID,6709,0,219.769,0.0,249.4219,0
GRID,6710,0,218.5782,0.0,248.0699,0
GRID,6711,0,217.3873,0.0,246.7179,0
GRID,6712,0,216.1964,0.0,245.3659,0
GRID,6713,0,215.0056,0.0,244.0139,0
GRID,6714,0,213.8147,0.0,242.6619,0
GRID,6715,0,212.6239,0.0,241.31,0
GRID,6716,0,211.433,0.0,239.958,0
GRID,6717,0,210.2421,0.0,238.606,0
GRID,6718,0,209.0513,0.0,237.254,0
GRID,6719,0,207.8604,0.0,235.902,0
GRID,6720,0,206.6696,0.0,234.5501,0
GRID,6721,0,205.4787,0.0,233.1981,0
GRID,6722,0,204.2878,0.0,231.8461,0
GRID,6723,0,203.097,0.0,230.4941,0
GRID,6724,0,201.9061,0.0,229.1421,0
GRID,6725,0,200.7153,0.0,227.7901,0
GRID,6726,0,199.5244,0.0,226.4382,0
GRID,6727,0,266.3177,0.0,306.8439,0
GRID,6728,0,265.137,0.0,305.4831,0
GRID,6729,0,263.9562,0.0,304.1223,0
GRID,6730,0,262.7754,0.0,302.7615,0
GRID,6731,0,261.5947,0.0,301.4007,0
GRID,6732,0,260.4139,0.0,300.0399,0
GRID,6733,0,259.2331,0.0,298.679,0
GRID,6734,0,258.0524,0.0,297.3182,0
GRID,6735,0,256.8716,0.0,295.9574,0
GRID,6736,0,255.6909,0.0,294.5966,0
GRID,6737,0,254.5101,0.0,293.2358,0
GRID,6738,0,253.3293,0.0,291.875,0
GRID,6739,0,252.1486,0.0,290.5142,0
GRID,6740,0,250.9678,0.0,289.1534,0
GRID,6741,0,249.7871,0.0,287.7926,0
GRID,6742,0,248.6063,0.0,286.4318,0
GRID,6743,0,247.4255,0.0,285.0709,0
GRID,6744,0,246.2448,0.0,283.7101,0
GRID,6745,0,245.064,0.0,282.3493,0
GRID,6746,0,243.8832,0.0,280.9885,0
GRID,6747,0,242.7025,0.0,279.6277,0
GRID,6748,0,241.5217,0.0,278.2669,0
GRID,6749,0,240.341,0.0,276.9061,0
GRID,6750,0,239.1602,0.0,275.5453,0
GRID,6751,0,237.9794,0.0,274.1845,0
GRID,6752,0,236.7987,0.0,272.8237,0
GRID,6753,0,235.6179,0.0,271.4629,0
GRID,6754,0,234.4371,0.0,270.102,0
GRID,6755,0,233.2564,0.0,268.7412,0
GRID,6756,0,232.0756,0.0,267.3804,0
GRID,6757,0,230.8949,0.0,266.0196,0
GRID,6758,0,229.7141,0.0,264.6588,0
GRID,6759,0,228.5333,0.0,263.298,0
GRID,6760,0,227.3526,0.0,261.9372,0
GRID,6761,0,226.1718,0.0,260.5764,0
GRID,6762,0,224.9911,0.0,259.2156,0
GRID,6763,0,223.8103,0.0,257.8548,0
GRID,6764,0,222.6295,0.0,256.4939,0
GRID,6765,0,221.4488,0.0,255.1331,0
GRID,6766,0,220.268,0.0,253.7723,0
GRID,6767,0,219.0872,0.0,252.4115,0
GRID,6768,0,217.9065,0.0,251.0507,0
GRID,6769,0,216.7257,0.0,249.6899,0
GRID,6770,0,215.545,0.0,248.3291,0
GRID,6771,0,214.3642,0.0,246.9683,0
GRID,6772,0,213.1834,0.0,245.6075,0
GRID,6773,0,212.0027,0.0,244.2467,0
GRID,6774,0,210.8219,0.0,242.8858,0
GRID,6775,0,209.6412,0.0,241.525,0
GRID,6776,0,208.4604,0.0,240.1642,0
GRID,6777,0,207.2796,0.0,238.8034,0
GRID,6778,0,206.0989,0.0,237.4426,0
GRID,6779,0,204.9181,0.0,236.0818,0
GRID,6780,0,203.7373,0.0,234.721,0
GRID,6781,0,202.5566,0.0,233.3602,0
GRID,6782,0,201.3758,0.0,231.9994,0
GRID,6783,0,200.1951,0.0,230.6386,0
GRID,6784,0,199.0143,0.0,229.2777,0
GRID,6785,0,197.8335,0.0,227.9169,0
GRID,6786,0,264.0264,0.0,308.8177,0
GRID,6787,0,262.8558,0.0,307.4481,0
GRID,6788,0,261.6852,0.0,306.0786,0
GRID,6789,0,260.5146,0.0,304.709,0
GRID,6790,0,259.344,0.0,303.3394,0
GRID,6791,0,258.1734,0.0,301.9699,0
GRID,6792,0,257.0028,0.0,300.6003,0
GRID,6793,0,255.8322,0.0,299.2308,0
GRID,6794,0,254.6616,0.0,297.8612,0
GRID,6795,0,253.491,0.0,296.4916,0
GRID,6796,0,252.3204,0.0,295.1221,0
GRID,6797,0,251.1498,0.0,293.7525,0
GRID,6798,0,249.9792,0.0,292.3829,0
GRID,6799,0,248.8086,0.0,291.0134,0
GRID,6800,0,247.638,0.0,289.6438,0
GRID,6801,0,246.4674,0.0,288.2743,0
GRID,6802,0,245.2968,0.0,286.9047,0
GRID,6803,0,244.1262,0.0,285.5351,0
GRID,6804,0,242.9556,0.0,284.1656,0
GRID,6805,0,241.785,0.0,282.796,0
GRID,6806,0,240.6144,0.0,281.4264,0
GRID,6807,0,239.4438,0.0,280.0569,0
GRID,6808,0,238.2732,0.0,278.6873,0
GRID,6809,0,237.1026,0.0,277.3178,0
GRID,6810,0,235.932,0.0,275.9482,0
GRID,6811,0,234.7614,0.0,274.5786,0
GRID,6812,0,233.5908,0.0,273.2091,0
GRID,6813,0,232.4203,0.0,271.8395,0
GRID,6814,0,231.2497,0.0,270.4699,0
GRID,6815,0,230.0791,0.0,269.1004,0
GRID,6816,0,228.9085,0.0,267.7308,0
GRID,6817,0,227.7379,0.0,266.3613,0
GRID,6818,0,226.5673,0.0,264.9917,0
GRID,6819,0,225.3967,0.0,263.6221,0
GRID,6820,0,224.2261,0.0,262.2526,0
GRID,6821,0,223.0555,0.0,260.883,0
GRID,6822,0,221.8849,0.0,259.5135,0
GRID,6823,0,220.7143,0.0,258.1439,0
GRID,6824,0,219.5437,0.0,256.7743,0
GRID,6825,0,218.3731,0.0,255.4048,0
GRID,6826,0,217.2025,0.0,254.0352,0
GRID,6827,0,216.0319,0.0,252.6656,0
GRID,6828,0,214.8613,0.0,251.2961,0
GRID,6829,0,213.6907,0.0,249.9265,0
GRID,6830,0,212.5201,0.0,248.557,0
GRID,6831,0,211.3495,0.0,247.1874,0
GRID,6832,0,210.1789,0.0,245.8178,0
GRID,6833,0,209.0083,0.0,244.4483,0
GRID,6834,0,207.8377,0.0,243.0787,0
GRID,6835,0,206.6671,0.0,241.7091,0
GRID,6836,0,205.4965,0.0,240.3396,0
GRID,6837,0,204.3259,0.0,238.97,0
GRID,6838,0,203.1553,0.0,237.6005,0
GRID,6839,0,201.9847,0.0,236.2309,0
GRID,6840,0,200.8141,0.0,234.8613,0
GRID,6841,0,199.6435,0.0,233.4918,0
GRID,6842,0,198.4729,0.0,232.1222,0
GRID,6843,0,197.3023,0.0,230.7527,0
GRID,6844,0,196.1317,0.0,229.3831,0
GRID,6845,0,261.7205,0.0,310.7744,0
GRID,6846,0,260.5601,0.0,309.3961,0
GRID,6847,0,259.3997,0.0,308.0179,0
GRID,6848,0,258.2394,0.0,306.6396,0
GRID,6849,0,257.079,0.0,305.2614,0
GRID,6850,0,255.9186,0.0,303.8832,0
GRID,6851,0,254.7583,0.0,302.5049,0
GRID,6852,0,253.5979,0.0,301.1267,0
GRID,6853,0,252.4375,0.0,299.7485,0
GRID,6854,0,251.2771,0.0,298.3702,0
GRID,6855,0,250.1168,0.0,296.992,0
GRID,6856,0,248.9564,0.0,295.6137,0
GRID,6857,0,247.796,0.0,294.2355,0
GRID,6858,0,246.6357,0.0,292.8573,0
GRID,6859,0,245.4753,0.0,291.479,0
GRID,6860,0,244.3149,0.0,290.1008,0
GRID,6861,0,243.1546,0.0,288.7225,0
GRID,6862,0,241.9942,0.0,287.3443,0
GRID,6863,0,240.8338,0.0,285.9661,0
GRID,6864,0,239.6734,0.0,284.5878,0
GRID,6865,0,238.5131,0.0,283.2096,0
GRID,6866,0,237.3527,0.0,281.8314,0
GRID,6867,0,236.1923,0.0,280.4531,0
GRID,6868,0,235.032,0.0,279.0749,0
GRID,6869,0,233.8716,0.0,277.6966,0
GRID,6870,0,232.7112,0.0,276.3184,0
GRID,6871,0,231.5508,0.0,274.9402,0
GRID,6872,0,230.3905,0.0,273.5619,0
GRID,6873,0,229.2301,0.0,272.1837,0
GRID,6874,0,228.0697,0.0,270.8054,0
GRID,6875,0,226.9094,0.0,269.4272,0
GRID,6876,0,225.749,0.0,268.049,0
GRID,6877,0,224.5886,0.0,266.6707,0
GRID,6878,0,223.4283,0.0,265.2925,0
GRID,6879,0,222.2679,0.0,263.9143,0
GRID,6880,0,221.1075,0.0,262.536,0
GRID,6881,0,219.9471,0.0,261.1578,0
GRID,6882,0,218.7868,0.0,259.7795,0
GRID,6883,0,217.6264,0.0,258.4013,0
GRID,6884,0,216.466,0.0,257.0231,0
GRID,6885,0,215.3057,0.0,255.6448,0
GRID,6886,0,214.1453,0.0,254.2666,0
GRID,6887,0,212.9849,0.0,252.8883,0
GRID,6888,0,211.8246,0.0,251.5101,0
GRID,6889,0,210.6642,0.0,250.1319,0
GRID,6890,0,209.5038,0.0,248.7536,0
GRID,6891,0,208.3434,0.0,247.3754,0
GRID,6892,0,207.1831,0.0,245.9972,0
GRID,6893,0,206.0227,0.0,244.6189,0
GRID,6894,0,204.8623,0.0,243.2407,0
GRID,6895,0,203.702,0.0,241.8624,0
GRID,6896,0,202.5416,0.0,240.4842,0
GRID,6897,0,201.3812,0.0,239.106,0
GRID,6898,0,200.2208,0.0,237.7277,0
GRID,6899,0,199.0605,0.0,236.3495,0
GRID,6900,0,197.9001,0.0,234.9712,0
GRID,6901,0,196.7397,0.0,233.593,0
GRID,6902,0,195.5794,0.0,232.2148,0
GRID,6903,0,194.419,0.0,230.8365,0
GRID,6904,0,259.4,0.0,312.7138,0
GRID,6905,0,258.25,0.0,311.327,0
GRID,6906,0,257.0999,0.0,309.9401,0
GRID,6907,0,255.9498,0.0,308.5533,0
GRID,6908,0,254.7997,0.0,307.1665,0
GRID,6909,0,253.6497,0.0,305.7796,0
GRID,6910,0,252.4996,0.0,304.3928,0
GRID,6911,0,251.3495,0.0,303.006,0
GRID,6912,0,250.1994,0.0,301.6191,0
GRID,6913,0,249.0493,0.0,300.2323,0
GRID,6914,0,247.8993,0.0,298.8454,0
GRID,6915,0,246.7492,0.0,297.4586,0
GRID,6916,0,245.5991,0.0,296.0718,0
GRID,6917,0,244.449,0.0,294.6849,0
GRID,6918,0,243.299,0.0,293.2981,0
GRID,6919,0,242.1489,0.0,291.9112,0
GRID,6920,0,240.9988,0.0,290.5244,0
GRID,6921,0,239.8487,0.0,289.1376,0
GRID,6922,0,238.6986,0.0,287.7507,0
GRID,6923,0,237.5486,0.0,286.3639,0
GRID,6924,0,236.3985,0.0,284.977,0
GRID,6925,0,235.2484,0.0,283.5902,0
GRID,6926,0,234.0983,0.0,282.2034,0
GRID,6927,0,232.9483,0.0,280.8165,0
GRID,6928,0,231.7982,0.0,279.4297,0
GRID,6929,0,230.6481,0.0,278.0429,0
GRID,6930,0,229.498,0.0,276.656,0
GRID,6931,0,228.3479,0.0,275.2692,0
GRID,6932,0,227.1979,0.0,273.8823,0
GRID,6933,0,226.0478,0.0,272.4955,0
GRID,6934,0,224.8977,0.0,271.1087,0
GRID,6935,0,223.7476,0.0,269.7218,0
GRID,6936,0,222.5975,0.0,268.335,0
GRID,6937,0,221.4475,0.0,266.9481,0
GRID,6938,0,220.2974,0.0,265.5613,0
GRID,6939,0,219.1473,0.0,264.1745,0
GRID,6940,0,217.9972,0.0,262.7876,0
GRID,6941,0,216.8472,0.0,261.4008,0
GRID,6942,0,215.6971,0.0,260.0139,0
GRID,6943,0,214.547,0.0,258.6271,0
GRID,6944,0,213.3969,0.0,257.2403,0
GRID,6945,0,212.2468,0.0,255.8534,0
GRID,6946,0,211.0968,0.0,254.4666,0
GRID,6947,0,209.9467,0.0,253.0798,0
GRID,6948,0,208.7966,0.0,251.6929,0
GRID,6949,0,207.6465,0.0,250.3061,0
GRID,6950,0,206.4965,0.0,248.9192,0
GRID,6951,0,205.3464,0.0,247.5324,0
GRID,6952,0,204.1963,0.0,246.1456,0
GRID,6953,0,203.0462,0.0,244.7587,0
GRID,6954,0,201.8961,0.0,243.3719,0
GRID,6955,0,200.7461,0.0,241.985,0
GRID,6956,0,199.596,0.0,240.5982,0
GRID,6957,0,198.4459,0.0,239.2114,0
GRID,6958,0,197.2958,0.0,237.8245,0
GRID,6959,0,196.1458,0.0,236.4377,0
GRID,6960,0,194.9957,0.0,235.0508,0
GRID,6961,0,193.8456,0.0,233.664,0
GRID,6962,0,192.6955,0.0,232.2772,0
GRID,6963,0,257.0652,0.0,314.636,0
GRID,6964,0,255.9255,0.0,313.2406,0
GRID,6965,0,254.7858,0.0,311.8452,0
GRID,6966,0,253.6461,0.0,310.4499,0
GRID,6967,0,252.5064,0.0,309.0545,0
GRID,6968,0,251.3666,0.0,307.6592,0
GRID,6969,0,250.2269,0.0,306.2638,0
GRID,6970,0,249.0872,0.0,304.8684,0
GRID,6971,0,247.9475,0.0,303.4731,0
GRID,6972,0,246.8077,0.0,302.0777,0
GRID,6973,0,245.668,0.0,300.6823,0
GRID,6974,0,244.5283,0.0,299.287,0
GRID,6975,0,243.3886,0.0,297.8916,0
GRID,6976,0,242.2489,0.0,296.4963,0
GRID,6977,0,241.1091,0.0,295.1009,0
GRID,6978,0,239.9694,0.0,293.7055,0
GRID,6979,0,238.8297,0.0,292.3102,0
GRID,6980,0,237.69,0.0,290.9148,0
GRID,6981,0,236.5502,0.0,289.5194,0
GRID,6982,0,235.4105,0.0,288.1241,0
GRID,6983,0,234.2708,0.0,286.7287,0
GRID,6984,0,233.1311,0.0,285.3334,0
GRID,6985,0,231.9914,0.0,283.938,0
GRID,6986,0,230.8516,0.0,282.5426,0
GRID,6987,0,229.7119,0.0,281.1473,0
GRID,6988,0,228.5722,0.0,279.7519,0
GRID,6989,0,227.4325,0.0,278.3565,0
GRID,6990,0,226.2927,0.0,276.9612,0
GRID,6991,0,225.153,0.0,275.5658,0
GRID,6992,0,224.0133,0.0,274.1705,0
GRID,6993,0,222.8736,0.0,272.7751,0
GRID,6994,0,221.7339,0.0,271.3797,0
GRID,6995,0,220.5941,0.0,269.9844,0
GRID,6996,0,219.4544,0.0,268.589,0
GRID,6997,0,218.3147,0.0,267.1936,0
GRID,6998,0,217.175,0.0,265.7983,0
GRID,6999,0,216.0352,0.0,264.4029,0
GRID,7000,0,214.8955,0.0,263.0076,0
GRID,7001,0,213.7558,0.0,261.6122,0
GRID,7002,0,212.6161,0.0,260.2168,0
GRID,7003,0,211.4764,0.0,258.8215,0
GRID,7004,0,210.3366,0.0,257.4261,0
GRID,7005,0,209.1969,0.0,256.0307,0
GRID,7006,0,208.0572,0.0,254.6354,0
GRID,7007,0,206.9175,0.0,253.24,0
GRID,7008,0,205.7777,0.0,251.8447,0
GRID,7009,0,204.638,0.0,250.4493,0
GRID,7010,0,203.4983,0.0,249.0539,0
GRID,7011,0,202.3586,0.0,247.6586,0
GRID,7012,0,201.2189,0.0,246.2632,0
GRID,7013,0,200.0791,0.0,244.8678,0
GRID,7014,0,198.9394,0.0,243.4725,0
GRID,7015,0,197.7997,0.0,242.0771,0
GRID,7016,0,196.66,0.0,240.6818,0
GRID,7017,0,195.5203,0.0,239.2864,0
GRID,7018,0,194.3805,0.0,237.891,0
GRID,7019,0,193.2408,0.0,236.4957,0
GRID,7020,0,192.1011,0.0,235.1003,0
GRID,7021,0,190.9614,0.0,233.7049,0
GRID,7022,0,254.7162,0.0,316.5407,0
GRID,7023,0,253.5869,0.0,315.1369,0
GRID,7024,0,252.4576,0.0,313.733,0
GRID,7025,0,251.3283,0.0,312.3292,0
GRID,7026,0,250.199,0.0,310.9254,0
GRID,7027,0,249.0697,0.0,309.5216,0
GRID,7028,0,247.9404,0.0,308.1178,0
GRID,7029,0,246.8111,0.0,306.714,0
GRID,7030,0,245.6818,0.0,305.3102,0
GRID,7031,0,244.5525,0.0,303.9064,0
GRID,7032,0,243.4232,0.0,302.5026,0
GRID,7033,0,242.2939,0.0,301.0988,0
GRID,7034,0,241.1646,0.0,299.695,0
GRID,7035,0,240.0353,0.0,298.2912,0
GRID,7036,0,238.906,0.0,296.8873,0
GRID,7037,0,237.7767,0.0,295.4835,0
GRID,7038,0,236.6474,0.0,294.0797,0
GRID,7039,0,235.518,0.0,292.6759,0
GRID,7040,0,234.3887,0.0,291.2721,0
GRID,7041,0,233.2594,0.0,289.8683,0
GRID,7042,0,232.1301,0.0,288.4645,0
GRID,7043,0,231.0008,0.0,287.0607,0
GRID,7044,0,229.8715,0.0,285.6569,0
GRID,7045,0,228.7422,0.0,284.2531,0
GRID,7046,0,227.6129,0.0,282.8493,0
GRID,7047,0,226.4836,0.0,281.4455,0
GRID,7048,0,225.3543,0.0,280.0416,0
GRID,7049,0,224.225,0.0,278.6378,0
GRID,7050,0,223.0957,0.0,277.234,0
GRID,7051,0,221.9664,0.0,275.8302,0
GRID,7052,0,220.8371,0.0,274.4264,0
GRID,7053,0,219.7078,0.0,273.0226,0
GRID,7054,0,218.5785,0.0,271.6188,0
GRID,7055,0,217.4492,0.0,270.215,0
GRID,7056,0,216.3199,0.0,268.8112,0
GRID,7057,0,215.1906,0.0,267.4074,0
GRID,7058,0,214.0613,0.0,266.0036,0
GRID,7059,0,212.932,0.0,264.5997,0
GRID,7060,0,211.8027,0.0,263.1959,0
GRID,7061,0,210.6734,0.0,261.7921,0
GRID,7062,0,209.5441,0.0,260.3883,0
GRID,7063,0,208.4148,0.0,258.9845,0
GRID,7064,0,207.2855,0.0,257.5807,0
GRID,7065,0,206.1562,0.0,256.1769,0
GRID,7066,0,205.0269,0.0,254.7731,0
GRID,7067,0,203.8976,0.0,253.3693,0
GRID,7068,0,202.7683,0.0,251.9655,0
GRID,7069,0,201.639,0.0,250.5617,0
GRID,7070,0,200.5097,0.0,249.1579,0
GRID,7071,0,199.3804,0.0,247.754,0
GRID,7072,0,198.251,0.0,246.3502,0
GRID,7073,0,197.1217,0.0,244.9464,0
GRID,7074,0,195.9924,0.0,243.5426,0
GRID,7075,0,194.8631,0.0,242.1388,0
GRID,7076,0,193.7338,0.0,240.735,0
GRID,7077,0,192.6045,0.0,239.3312,0
GRID,7078,0,191.4752,0.0,237.9274,0
GRID,7079,0,190.3459,0.0,236.5236,0
GRID,7080,0,189.2166,0.0,235.1198,0
GRID,7081,0,252.353,0.0,318.4278,0
GRID,7082,0,251.2342,0.0,317.0157,0
GRID,7083,0,250.1154,0.0,315.6035,0
GRID,7084,0,248.9966,0.0,314.1913,0
GRID,7085,0,247.8778,0.0,312.7791,0
GRID,7086,0,246.7589,0.0,311.3669,0
GRID,7087,0,245.6401,0.0,309.9548,0
GRID,7088,0,244.5213,0.0,308.5426,0
GRID,7089,0,243.4025,0.0,307.1304,0
GRID,7090,0,242.2836,0.0,305.7182,0
GRID,7091,0,241.1648,0.0,304.3061,0
GRID,7092,0,240.046,0.0,302.8939,0
GRID,7093,0,238.9272,0.0,301.4817,0
GRID,7094,0,237.8084,0.0,300.0695,0
GRID,7095,0,236.6895,0.0,298.6573,0
GRID,7096,0,235.5707,0.0,297.2452,0
GRID,7097,0,234.4519,0.0,295.833,0
GRID,7098,0,233.3331,0.0,294.4208,0
GRID,7099,0,232.2143,0.0,293.0086,0
GRID,7100,0,231.0954,0.0,291.5965,0
GRID,7101,0,229.9766,0.0,290.1843,0
GRID,7102,0,228.8578,0.0,288.7721,0
GRID,7103,0,227.739,0.0,287.3599,0
GRID,7104,0,226.6202,0.0,285.9478,0
GRID,7105,0,225.5013,0.0,284.5356,0
GRID,7106,0,224.3825,0.0,283.1234,0
GRID,7107,0,223.2637,0.0,281.7112,0
GRID,7108,0,222.1449,0.0,280.299,0
GRID,7109,0,221.026,0.0,278.8869,0
GRID,7110,0,219.9072,0.0,277.4747,0
GRID,7111,0,218.7884,0.0,276.0625,0
GRID,7112,0,217.6696,0.0,274.6503,0
GRID,7113,0,216.5508,0.0,273.2382,0
GRID,7114,0,215.4319,0.0,271.826,0
GRID,7115,0,214.3131,0.0,270.4138,0
GRID,7116,0,213.1943,0.0,269.0016,0
GRID,7117,0,212.0755,0.0,267.5895,0
GRID,7118,0,210.9567,0.0,266.1773,0
GRID,7119,0,209.8378,0.0,264.7651,0
GRID,7120,0,208.719,0.0,263.3529,0
GRID,7121,0,207.6002,0.0,261.9407,0
GRID,7122,0,206.4814,0.0,260.5286,0
GRID,7123,0,205.3625,0.0,259.1164,0
GRID,7124,0,204.2437,0.0,257.7042,0
GRID,7125,0,203.1249,0.0,256.292,0
GRID,7126,0,202.0061,0.0,254.8799,0
GRID,7127,0,200.8873,0.0,253.4677,0
GRID,7128,0,199.7684,0.0,252.0555,0
GRID,7129,0,198.6496,0.0,250.6433,0
GRID,7130,0,197.5308,0.0,249.2312,0
GRID,7131,0,196.412,0.0,247.819,0
GRID,7132,0,195.2932,0.0,246.4068,0
GRID,7133,0,194.1743,0.0,244.9946,0
GRID,7134,0,193.0555,0.0,243.5824,0
GRID,7135,0,191.9367,0.0,242.1703,0
GRID,7136,0,190.8179,0.0,240.7581,0
GRID,7137,0,189.699,0.0,239.3459,0
GRID,7138,0,188.5802,0.0,237.9337,0
GRID,7139,0,187.4614,0.0,236.5216,0
GRID,7140,0,249.9759,0.0,320.2973,0
GRID,7141,0,248.8676,0.0,318.8769,0
GRID,7142,0,247.7593,0.0,317.4564,0
GRID,7143,0,246.6511,0.0,316.0359,0
GRID,7144,0,245.5428,0.0,314.6155,0
GRID,7145,0,244.4345,0.0,313.195,0
GRID,7146,0,243.3262,0.0,311.7745,0
GRID,7147,0,242.218,0.0,310.3541,0
GRID,7148,0,241.1097,0.0,308.9336,0
GRID,7149,0,240.0014,0.0,307.5131,0
GRID,7150,0,238.8931,0.0,306.0927,0
GRID,7151,0,237.7848,0.0,304.6722,0
GRID,7152,0,236.6766,0.0,303.2517,0
GRID,7153,0,235.5683,0.0,301.8313,0
GRID,7154,0,234.46,0.0,300.4108,0
GRID,7155,0,233.3517,0.0,298.9903,0
GRID,7156,0,232.2435,0.0,297.5699,0
GRID,7157,0,231.1352,0.0,296.1494,0
GRID,7158,0,230.0269,0.0,294.7289,0
GRID,7159,0,228.9186,0.0,293.3085,0
GRID,7160,0,227.8103,0.0,291.888,0
GRID,7161,0,226.7021,0.0,290.4675,0
GRID,7162,0,225.5938,0.0,289.0471,0
GRID,7163,0,224.4855,0.0,287.6266,0
GRID,7164,0,223.3772,0.0,286.2061,0
GRID,7165,0,222.269,0.0,284.7857,0
GRID,7166,0,221.1607,0.0,283.3652,0
GRID,7167,0,220.0524,0.0,281.9447,0
GRID,7168,0,218.9441,0.0,280.5243,0
GRID,7169,0,217.8358,0.0,279.1038,0
GRID,7170,0,216.7276,0.0,277.6833,0
GRID,7171,0,215.6193,0.0,276.2629,0
GRID,7172,0,214.511,0.0,274.8424,0
GRID,7173,0,213.4027,0.0,273.4219,0
GRID,7174,0,212.2945,0.0,272.0015,0
GRID,7175,0,211.1862,0.0,270.581,0
GRID,7176,0,210.0779,0.0,269.1605,0
GRID,7177,0,208.9696,0.0,267.7401,0
GRID,7178,0,207.8614,0.0,266.3196,0
GRID,7179,0,206.7531,0.0,264.8991,0
GRID,7180,0,205.6448,0.0,263.4787,0
GRID,7181,0,204.5365,0.0,262.0582,0
GRID,7182,0,203.4282,0.0,260.6377,0
GRID,7183,0,202.32,0.0,259.2173,0
GRID,7184,0,201.2117,0.0,257.7968,0
GRID,7185,0,200.1034,0.0,256.3763,0
GRID,7186,0,198.9951,0.0,254.9559,0
GRID,7187,0,197.8869,0.0,253.5354,0
GRID,7188,0,196.7786,0.0,252.1149,0
GRID,7189,0,195.6703,0.0,250.6945,0
GRID,7190,0,194.562,0.0,249.274,0
GRID,7191,0,193.4537,0.0,247.8535,0
GRID,7192,0,192.3455,0.0,246.4331,0
GRID,7193,0,191.2372,0.0,245.0126,0
GRID,7194,0,190.1289,0.0,243.5921,0
GRID,7195,0,189.0206,0.0,242.1717,0
GRID,7196,0,187.9124,0.0,240.7512,0
GRID,7197,0,186.8041,0.0,239.3307,0
GRID,7198,0,185.6958,0.0,237.9103,0
GRID,7199,0,247.5849,0.0,322.1491,0
GRID,7200,0,246.4872,0.0,320.7204,0
GRID,7201,0,245.3895,0.0,319.2917,0
GRID,7202,0,244.2919,0.0,317.8631,0
GRID,7203,0,243.1942,0.0,316.4344,0
GRID,7204,0,242.0965,0.0,315.0057,0
GRID,7205,0,240.9989,0.0,313.577,0
GRID,7206,0,239.9012,0.0,312.1484,0
GRID,7207,0,238.8035,0.0,310.7197,0
GRID,7208,0,237.7058,0.0,309.291,0
GRID,7209,0,236.6082,0.0,307.8623,0
GRID,7210,0,235.5105,0.0,306.4336,0
GRID,7211,0,234.4128,0.0,305.005,0
GRID,7212,0,233.3152,0.0,303.5763,0
GRID,7213,0,232.2175,0.0,302.1476,0
GRID,7214,0,231.1198,0.0,300.7189,0
GRID,7215,0,230.0221,0.0,299.2903,0
GRID,7216,0,228.9245,0.0,297.8616,0
GRID,7217,0,227.8268,0.0,296.4329,0
GRID,7218,0,226.7291,0.0,295.0042,0
GRID,7219,0,225.6315,0.0,293.5755,0
GRID,7220,0,224.5338,0.0,292.1469,0
GRID,7221,0,223.4361,0.0,290.7182,0
GRID,7222,0,222.3384,0.0,289.2895,0
GRID,7223,0,221.2408,0.0,287.8608,0
GRID,7224,0,220.1431,0.0,286.4322,0
GRID,7225,0,219.0454,0.0,285.0035,0
GRID,7226,0,217.9477,0.0,283.5748,0
GRID,7227,0,216.8501,0.0,282.1461,0
GRID,7228,0,215.7524,0.0,280.7174,0
GRID,7229,0,214.6547,0.0,279.2888,0
GRID,7230,0,213.5571,0.0,277.8601,0
GRID,7231,0,212.4594,0.0,276.4314,0
GRID,7232,0,211.3617,0.0,275.0027,0
GRID,7233,0,210.264,0.0,273.5741,0
GRID,7234,0,209.1664,0.0,272.1454,0
GRID,7235,0,208.0687,0.0,270.7167,0
GRID,7236,0,206.971,0.0,269.288,0
GRID,7237,0,205.8734,0.0,267.8593,0
GRID,7238,0,204.7757,0.0,266.4307,0
GRID,7239,0,203.678,0.0,265.002,0
GRID,7240,0,202.5803,0.0,263.5733,0
GRID,7241,0,201.4827,0.0,262.1446,0
GRID,7242,0,200.385,0.0,260.716,0
GRID,7243,0,199.2873,0.0,259.2873,0
GRID,7244,0,198.1897,0.0,257.8586,0
GRID,7245,0,197.092,0.0,256.4299,0
GRID,7246,0,195.9943,0.0,255.0012,0
GRID,7247,0,194.8966,0.0,253.5726,0
GRID,7248,0,193.799,0.0,252.1439,0
GRID,7249,0,192.7013,0.0,250.7152,0
GRID,7250,0,191.6036,0.0,249.2865,0
GRID,7251,0,190.5059,0.0,247.8578,0
GRID,7252,0,189.4083,0.0,246.4292,0
GRID,7253,0,188.3106,0.0,245.0005,0
GRID,7254,0,187.2129,0.0,243.5718,0
GRID,7255,0,186.1153,0.0,242.1431,0
GRID,7256,0,185.0176,0.0,240.7145,0
GRID,7257,0,183.9199,0.0,239.2858,0
GRID,7258,0,245.1802,0.0,323.983,0
GRID,7259,0,244.0932,0.0,322.5462,0
GRID,7260,0,243.0062,0.0,321.1094,0
GRID,7261,0,241.9192,0.0,319.6726,0
GRID,7262,0,240.8322,0.0,318.2358,0
GRID,7263,0,239.7451,0.0,316.799,0
GRID,7264,0,238.6581,0.0,315.3622,0
GRID,7265,0,237.5711,0.0,313.9253,0
GRID,7266,0,236.4841,0.0,312.4885,0
GRID,7267,0,235.3971,0.0,311.0517,0
GRID,7268,0,234.3101,0.0,309.6149,0
GRID,7269,0,233.2231,0.0,308.1781,0
GRID,7270,0,232.1361,0.0,306.7413,0
GRID,7271,0,231.0491,0.0,305.3045,0
GRID,7272,0,229.9621,0.0,303.8677,0
GRID,7273,0,228.8751,0.0,302.4309,0
GRID,7274,0,227.7881,0.0,300.9941,0
GRID,7275,0,226.7011,0.0,299.5573,0
GRID,7276,0,225.6141,0.0,298.1204,0
GRID,7277,0,224.5271,0.0,296.6836,0
GRID,7278,0,223.4401,0.0,295.2468,0
GRID,7279,0,222.3531,0.0,293.81,0
GRID,7280,0,221.2661,0.0,292.3732,0
GRID,7281,0,220.179,0.0,290.9364,0
GRID,7282,0,219.092,0.0,289.4996,0
GRID,7283,0,218.005,0.0,288.0628,0
GRID,7284,0,216.918,0.0,286.626,0
GRID,7285,0,215.831,0.0,285.1892,0
GRID,7286,0,214.744,0.0,283.7523,0
GRID,7287,0,213.657,0.0,282.3155,0
GRID,7288,0,212.57,0.0,280.8787,0
GRID,7289,0,211.483,0.0,279.4419,0
GRID,7290,0,210.396,0.0,278.0051,0
GRID,7291,0,209.309,0.0,276.5683,0
GRID,7292,0,208.222,0.0,275.1315,0
GRID,7293,0,207.135,0.0,273.6947,0
GRID,7294,0,206.048,0.0,272.2579,0
GRID,7295,0,204.961,0.0,270.8211,0
GRID,7296,0,203.874,0.0,269.3842,0
GRID,7297,0,202.787,0.0,267.9474,0
GRID,7298,0,201.6999,0.0,266.5106,0
GRID,7299,0,200.6129,0.0,265.0738,0
GRID,7300,0,199.5259,0.0,263.637,0
GRID,7301,0,198.4389,0.0,262.2002,0
GRID,7302,0,197.3519,0.0,260.7634,0
GRID,7303,0,196.2649,0.0,259.3266,0
GRID,7304,0,195.1779,0.0,257.8898,0
GRID,7305,0,194.0909,0.0,256.453,0
GRID,7306,0,193.0039,0.0,255.0161,0
GRID,7307,0,191.9169,0.0,253.5793,0
GRID,7308,0,190.8299,0.0,252.1425,0
GRID,7309,0,189.7429,0.0,250.7057,0
GRID,7310,0,188.6559,0.0,249.2689,0
GRID,7311,0,187.5689,0.0,247.8321,0
GRID,7312,0,186.4819,0.0,246.3953,0
GRID,7313,0,185.3949,0.0,244.9585,0
GRID,7314,0,184.3079,0.0,243.5217,0
GRID,7315,0,183.2209,0.0,242.0849,0
GRID,7316,0,182.1338,0.0,240.6481,0
GRID,7317,0,242.7619,0.0,325.799,0
GRID,7318,0,241.6856,0.0,324.3541,0
GRID,7319,0,240.6093,0.0,322.9093,0
GRID,7320,0,239.533,0.0,321.4644,0
GRID,7321,0,238.4568,0.0,320.0195,0
GRID,7322,0,237.3805,0.0,318.5747,0
GRID,7323,0,236.3042,0.0,317.1298,0
GRID,7324,0,235.2279,0.0,315.685,0
GRID,7325,0,234.1516,0.0,314.2401,0
GRID,7326,0,233.0754,0.0,312.7952,0
GRID,7327,0,231.9991,0.0,311.3504,0
GRID,7328,0,230.9228,0.0,309.9055,0
GRID,7329,0,229.8465,0.0,308.4606,0
GRID,7330,0,228.7702,0.0,307.0158,0
GRID,7331,0,227.694,0.0,305.5709,0
GRID,7332,0,226.6177,0.0,304.1261,0
GRID,7333,0,225.5414,0.0,302.6812,0
GRID,7334,0,224.4651,0.0,301.2363,0
GRID,7335,0,223.3889,0.0,299.7915,0
GRID,7336,0,222.3126,0.0,298.3466,0
GRID,7337,0,221.2363,0.0,296.9017,0
GRID,7338,0,220.16,0.0,295.4569,0
GRID,7339,0,219.0837,0.0,294.012,0
GRID,7340,0,218.0075,0.0,292.5672,0
GRID,7341,0,216.9312,0.0,291.1223,0
GRID,7342,0,215.8549,0.0,289.6774,0
GRID,7343,0,214.7786,0.0,288.2326,0
GRID,7344,0,213.7023,0.0,286.7877,0
GRID,7345,0,212.6261,0.0,285.3429,0
GRID,7346,0,211.5498,0.0,283.898,0
GRID,7347,0,210.4735,0.0,282.4531,0
GRID,7348,0,209.3972,0.0,281.0083,0
GRID,7349,0,208.3209,0.0,279.5634,0
GRID,7350,0,207.2447,0.0,278.1185,0
GRID,7351,0,206.1684,0.0,276.6737,0
GRID,7352,0,205.0921,0.0,275.2288,0
GRID,7353,0,204.0158,0.0,273.784,0
GRID,7354,0,202.9395,0.0,272.3391,0
GRID,7355,0,201.8633,0.0,270.8942,0
GRID,7356,0,200.787,0.0,269.4494,0
GRID,7357,0,199.7107,0.0,268.0045,0
GRID,7358,0,198.6344,0.0,266.5596,0
GRID,7359,0,197.5582,0.0,265.1148,0
GRID,7360,0,196.4819,0.0,263.6699,0
GRID,7361,0,195.4056,0.0,262.2251,0
GRID,7362,0,194.3293,0.0,260.7802,0
GRID,7363,0,193.253,0.0,259.3353,0
GRID,7364,0,192.1768,0.0,257.8905,0
GRID,7365,0,191.1005,0.0,256.4456,0
GRID,7366,0,190.0242,0.0,255.0008,0
GRID,7367,0,188.9479,0.0,253.5559,0
GRID,7368,0,187.8716,0.0,252.111,0
GRID,7369,0,186.7954,0.0,250.6662,0
GRID,7370,0,185.7191,0.0,249.2213,0
GRID,7371,0,184.6428,0.0,247.7764,0
GRID,7372,0,183.5665,0.0,246.3316,0
GRID,7373,0,182.4902,0.0,244.8867,0
GRID,7374,0,181.414,0.0,243.4419,0
GRID,7375,0,180.3377,0.0,241.997,0
GRID,7376,0,240.3301,0.0,327.5969,0
GRID,7377,0,239.2646,0.0,326.1441,0
GRID,7378,0,238.1991,0.0,324.6912,0
GRID,7379,0,237.1337,0.0,323.2384,0
GRID,7380,0,236.0682,0.0,321.7856,0
GRID,7381,0,235.0027,0.0,320.3327,0
GRID,7382,0,233.9372,0.0,318.8799,0
GRID,7383,0,232.8717,0.0,317.4271,0
GRID,7384,0,231.8062,0.0,315.9742,0
GRID,7385,0,230.7407,0.0,314.5214,0
GRID,7386,0,229.6752,0.0,313.0686,0
GRID,7387,0,228.6097,0.0,311.6157,0
GRID,7388,0,227.5442,0.0,310.1629,0
GRID,7389,0,226.4787,0.0,308.7101,0
GRID,7390,0,225.4132,0.0,307.2572,0
GRID,7391,0,224.3477,0.0,305.8044,0
GRID,7392,0,223.2822,0.0,304.3516,0
GRID,7393,0,222.2168,0.0,302.8987,0
GRID,7394,0,221.1513,0.0,301.4459,0
GRID,7395,0,220.0858,0.0,299.9931,0
GRID,7396,0,219.0203,0.0,298.5402,0
GRID,7397,0,217.9548,0.0,297.0874,0
GRID,7398,0,216.8893,0.0,295.6346,0
GRID,7399,0,215.8238,0.0,294.1817,0
GRID,7400,0,214.7583,0.0,292.7289,0
GRID,7401,0,213.6928,0.0,291.2761,0
GRID,7402,0,212.6273,0.0,289.8232,0
GRID,7403,0,211.5618,0.0,288.3704,0
GRID,7404,0,210.4963,0.0,286.9176,0
GRID,7405,0,209.4308,0.0,285.4647,0
GRID,7406,0,208.3653,0.0,284.0119,0
GRID,7407,0,207.2998,0.0,282.5591,0
GRID,7408,0,206.2344,0.0,281.1062,0
GRID,7409,0,205.1689,0.0,279.6534,0
GRID,7410,0,204.1034,0.0,278.2005,0
GRID,7411,0,203.0379,0.0,276.7477,0
GRID,7412,0,201.9724,0.0,275.2949,0
GRID,7413,0,200.9069,0.0,273.842,0
GRID,7414,0,199.8414,0.0,272.3892,0
GRID,7415,0,198.7759,0.0,270.9364,0
GRID,7416,0,197.7104,0.0,269.4835,0
GRID,7417,0,196.6449,0.0,268.0307,0
GRID,7418,0,195.5794,0.0,266.5779,0
GRID,7419,0,194.5139,0.0,265.125,0
GRID,7420,0,193.4484,0.0,263.6722,0
GRID,7421,0,192.3829,0.0,262.2194,0
GRID,7422,0,191.3175,0.0,260.7665,0
GRID,7423,0,190.252,0.0,259.3137,0
GRID,7424,0,189.1865,0.0,257.8609,0
GRID,7425,0,188.121,0.0,256.408,0
GRID,7426,0,187.0555,0.0,254.9552,0
GRID,7427,0,185.99,0.0,253.5024,0
GRID,7428,0,184.9245,0.0,252.0495,0
GRID,7429,0,183.859,0.0,250.5967,0
GRID,7430,0,182.7935,0.0,249.1439,0
GRID,7431,0,181.728,0.0,247.691,0
GRID,7432,0,180.6625,0.0,246.2382,0
GRID,7433,0,179.597,0.0,244.7854,0
GRID,7434,0,178.5315,0.0,243.3325,0
GRID,7435,0,237.8851,0.0,329.3767,0
GRID,7436,0,236.8304,0.0,327.916,0
GRID,7437,0,235.7758,0.0,326.4552,0
GRID,7438,0,234.7211,0.0,324.9945,0
GRID,7439,0,233.6665,0.0,323.5338,0
GRID,7440,0,232.6118,0.0,322.0731,0
GRID,7441,0,231.5572,0.0,320.6123,0
GRID,7442,0,230.5025,0.0,319.1516,0
GRID,7443,0,229.4479,0.0,317.6909,0
GRID,7444,0,228.3932,0.0,316.2302,0
GRID,7445,0,227.3386,0.0,314.7694,0
GRID,7446,0,226.2839,0.0,313.3087,0
GRID,7447,0,225.2293,0.0,311.848,0
GRID,7448,0,224.1747,0.0,310.3872,0
GRID,7449,0,223.12,0.0,308.9265,0
GRID,7450,0,222.0654,0.0,307.4658,0
GRID,7451,0,221.0107,0.0,306.0051,0
GRID,7452,0,219.9561,0.0,304.5443,0
GRID,7453,0,218.9014,0.0,303.0836,0
GRID,7454,0,217.8468,0.0,301.6229,0
GRID,7455,0,216.7921,0.0,300.1622,0
GRID,7456,0,215.7375,0.0,298.7014,0
GRID,7457,0,214.6828,0.0,297.2407,0
GRID,7458,0,213.6282,0.0,295.78,0
GRID,7459,0,212.5735,0.0,294.3193,0
GRID,7460,0,211.5189,0.0,292.8585,0
GRID,7461,0,210.4642,0.0,291.3978,0
GRID,7462,0,209.4096,0.0,289.9371,0
GRID,7463,0,208.3549,0.0,288.4764,0
GRID,7464,0,207.3003,0.0,287.0156,0
GRID,7465,0,206.2456,0.0,285.5549,0
GRID,7466,0,205.191,0.0,284.0942,0
GRID,7467,0,204.1363,0.0,282.6335,0
GRID,7468,0,203.0817,0.0,281.1727,0
GRID,7469,0,202.027,0.0,279.712,0
GRID,7470,0,200.9724,0.0,278.2513,0
GRID,7471,0,199.9178,0.0,276.7906,0
GRID,7472,0,198.8631,0.0,275.3298,0
GRID,7473,0,197.8085,0.0,273.8691,0
GRID,7474,0,196.7538,0.0,272.4084,0
GRID,7475,0,195.6992,0.0,270.9477,0
GRID,7476,0,194.6445,0.0,269.4869,0
GRID,7477,0,193.5899,0.0,268.0262,0
GRID,7478,0,192.5352,0.0,266.5655,0
GRID,7479,0,191.4806,0.0,265.1048,0
GRID,7480,0,190.4259,0.0,263.644,0
GRID,7481,0,189.3713,0.0,262.1833,0
GRID,7482,0,188.3166,0.0,260.7226,0
GRID,7483,0,187.262,0.0,259.2618,0
GRID,7484,0,186.2073,0.0,257.8011,0
GRID,7485,0,185.1527,0.0,256.3404,0
GRID,7486,0,184.098,0.0,254.8797,0
GRID,7487,0,183.0434,0.0,253.4189,0
GRID,7488,0,181.9887,0.0,251.9582,0
GRID,7489,0,180.9341,0.0,250.4975,0
GRID,7490,0,179.8794,0.0,249.0368,0
GRID,7491,0,178.8248,0.0,247.576,0
GRID,7492,0,177.7701,0.0,246.1153,0
GRID,7493,0,176.7155,0.0,244.6546,0
GRID,7494,0,235.4268,0.0,331.1382,0
GRID,7495,0,234.3831,0.0,329.6697,0
GRID,7496,0,233.3394,0.0,328.2011,0
GRID,7497,0,232.2956,0.0,326.7326,0
GRID,7498,0,231.2519,0.0,325.2641,0
GRID,7499,0,230.2081,0.0,323.7955,0
GRID,7500,0,229.1644,0.0,322.327,0
GRID,7501,0,228.1206,0.0,320.8585,0
GRID,7502,0,227.0769,0.0,319.3899,0
GRID,7503,0,226.0331,0.0,317.9214,0
GRID,7504,0,224.9894,0.0,316.4529,0
GRID,7505,0,223.9457,0.0,314.9843,0
GRID,7506,0,222.9019,0.0,313.5158,0
GRID,7507,0,221.8582,0.0,312.0472,0
GRID,7508,0,220.8144,0.0,310.5787,0
GRID,7509,0,219.7707,0.0,309.1102,0
GRID,7510,0,218.7269,0.0,307.6416,0
GRID,7511,0,217.6832,0.0,306.1731,0
GRID,7512,0,216.6394,0.0,304.7046,0
GRID,7513,0,215.5957,0.0,303.236,0
GRID,7514,0,214.552,0.0,301.7675,0
GRID,7515,0,213.5082,0.0,300.2989,0
GRID,7516,0,212.4645,0.0,298.8304,0
GRID,7517,0,211.4207,0.0,297.3619,0
GRID,7518,0,210.377,0.0,295.8933,0
GRID,7519,0,209.3332,0.0,294.4248,0
GRID,7520,0,208.2895,0.0,292.9563,0
GRID,7521,0,207.2457,0.0,291.4877,0
GRID,7522,0,206.202,0.0,290.0192,0
GRID,7523,0,205.1583,0.0,288.5507,0
GRID,7524,0,204.1145,0.0,287.0821,0
GRID,7525,0,203.0708,0.0,285.6136,0
GRID,7526,0,202.027,0.0,284.145,0
GRID,7527,0,200.9833,0.0,282.6765,0
GRID,7528,0,199.9395,0.0,281.208,0
GRID,7529,0,198.8958,0.0,279.7394,0
GRID,7530,0,197.852,0.0,278.2709,0
GRID,7531,0,196.8083,0.0,276.8024,0
GRID,7532,0,195.7646,0.0,275.3338,0
GRID,7533,0,194.7208,0.0,273.8653,0
GRID,7534,0,193.6771,0.0,272.3968,0
GRID,7535,0,192.6333,0.0,270.9282,0
GRID,7536,0,191.5896,0.0,269.4597,0
GRID,7537,0,190.5458,0.0,267.9911,0
GRID,7538,0,189.5021,0.0,266.5226,0
GRID,7539,0,188.4583,0.0,265.0541,0
GRID,7540,0,187.4146,0.0,263.5855,0
GRID,7541,0,186.3709,0.0,262.117,0
GRID,7542,0,185.3271,0.0,260.6485,0
GRID,7543,0,184.2834,0.0,259.1799,0
GRID,7544,0,183.2396,0.0,257.7114,0
GRID,7545,0,182.1959,0.0,256.2429,0
GRID,7546,0,181.1521,0.0,254.7743,0
GRID,7547,0,180.1084,0.0,253.3058,0
GRID,7548,0,179.0647,0.0,251.8372,0
GRID,7549,0,178.0209,0.0,250.3687,0
GRID,7550,0,176.9772,0.0,248.9002,0
GRID,7551,0,175.9334,0.0,247.4316,0
GRID,7552,0,174.8897,0.0,245.9631,0
GRID,7553,0,232.9556,0.0,332.8814,0
GRID,7554,0,231.9228,0.0,331.4051,0
GRID,7555,0,230.89,0.0,329.9289,0
GRID,7556,0,229.8572,0.0,328.4526,0
GRID,7557,0,228.8244,0.0,326.9763,0
GRID,7558,0,227.7917,0.0,325.5001,0
GRID,7559,0,226.7589,0.0,324.0238,0
GRID,7560,0,225.7261,0.0,322.5475,0
GRID,7561,0,224.6933,0.0,321.0713,0
GRID,7562,0,223.6605,0.0,319.595,0
GRID,7563,0,222.6277,0.0,318.1187,0
GRID,7564,0,221.595,0.0,316.6425,0
GRID,7565,0,220.5622,0.0,315.1662,0
GRID,7566,0,219.5294,0.0,313.6899,0
GRID,7567,0,218.4966,0.0,312.2137,0
GRID,7568,0,217.4638,0.0,310.7374,0
GRID,7569,0,216.431,0.0,309.2611,0
GRID,7570,0,215.3983,0.0,307.7849,0
GRID,7571,0,214.3655,0.0,306.3086,0
GRID,7572,0,213.3327,0.0,304.8323,0
GRID,7573,0,212.2999,0.0,303.3561,0
GRID,7574,0,211.2671,0.0,301.8798,0
GRID,7575,0,210.2343,0.0,300.4035,0
GRID,7576,0,209.2016,0.0,298.9273,0
GRID,7577,0,208.1688,0.0,297.451,0
GRID,7578,0,207.136,0.0,295.9748,0
GRID,7579,0,206.1032,0.0,294.4985,0
GRID,7580,0,205.0704,0.0,293.0222,0
GRID,7581,0,204.0376,0.0,291.546,0
GRID,7582,0,203.0049,0.0,290.0697,0
GRID,7583,0,201.9721,0.0,288.5934,0
GRID,7584,0,200.9393,0.0,287.1172,0
GRID,7585,0,199.9065,0.0,285.6409,0
GRID,7586,0,198.8737,0.0,284.1646,0
GRID,7587,0,197.8409,0.0,282.6884,0
GRID,7588,0,196.8082,0.0,281.2121,0
GRID,7589,0,195.7754,0.0,279.7358,0
GRID,7590,0,194.7426,0.0,278.2596,0
GRID,7591,0,193.7098,0.0,276.7833,0
GRID,7592,0,192.677,0.0,275.307,0
GRID,7593,0,191.6442,0.0,273.8308,0
GRID,7594,0,190.6115,0.0,272.3545,0
GRID,7595,0,189.5787,0.0,270.8782,0
GRID,7596,0,188.5459,0.0,269.402,0
GRID,7597,0,187.5131,0.0,267.9257,0
GRID,7598,0,186.4803,0.0,266.4494,0
GRID,7599,0,185.4476,0.0,264.9732,0
GRID,7600,0,184.4148,0.0,263.4969,0
GRID,7601,0,183.382,0.0,262.0206,0
GRID,7602,0,182.3492,0.0,260.5444,0
GRID,7603,0,181.3164,0.0,259.0681,0
GRID,7604,0,180.2836,0.0,257.5918,0
GRID,7605,0,179.2509,0.0,256.1156,0
GRID,7606,0,178.2181,0.0,254.6393,0
GRID,7607,0,177.1853,0.0,253.163,0
GRID,7608,0,176.1525,0.0,251.6868,0
GRID,7609,0,175.1197,0.0,250.2105,0
GRID,7610,0,174.0869,0.0,248.7342,0
GRID,7611,0,173.0542,0.0,247.258,0
GRID,7612,0,230.4714,0.0,334.6061,0
GRID,7613,0,229.4496,0.0,333.1222,0
GRID,7614,0,228.4279,0.0,331.6383,0
GRID,7615,0,227.4061,0.0,330.1544,0
GRID,7616,0,226.3843,0.0,328.6705,0
GRID,7617,0,225.3626,0.0,327.1866,0
GRID,7618,0,224.3408,0.0,325.7027,0
GRID,7619,0,223.319,0.0,324.2187,0
GRID,7620,0,222.2973,0.0,322.7348,0
GRID,7621,0,221.2755,0.0,321.2509,0
GRID,7622,0,220.2537,0.0,319.767,0
GRID,7623,0,219.232,0.0,318.2831,0
GRID,7624,0,218.2102,0.0,316.7992,0
GRID,7625,0,217.1884,0.0,315.3153,0
GRID,7626,0,216.1667,0.0,313.8313,0
GRID,7627,0,215.1449,0.0,312.3474,0
GRID,7628,0,214.1231,0.0,310.8635,0
GRID,7629,0,213.1014,0.0,309.3796,0
GRID,7630,0,212.0796,0.0,307.8957,0
GRID,7631,0,211.0579,0.0,306.4118,0
GRID,7632,0,210.0361,0.0,304.9279,0
GRID,7633,0,209.0143,0.0,303.444,0
GRID,7634,0,207.9926,0.0,301.96,0
GRID,7635,0,206.9708,0.0,300.4761,0
GRID,7636,0,205.949,0.0,298.9922,0
GRID,7637,0,204.9273,0.0,297.5083,0
GRID,7638,0,203.9055,0.0,296.0244,0
GRID,7639,0,202.8837,0.0,294.5405,0
GRID,7640,0,201.862,0.0,293.0566,0
GRID,7641,0,200.8402,0.0,291.5726,0
GRID,7642,0,199.8184,0.0,290.0887,0
GRID,7643,0,198.7967,0.0,288.6048,0
GRID,7644,0,197.7749,0.0,287.1209,0
GRID,7645,0,196.7532,0.0,285.637,0
GRID,7646,0,195.7314,0.0,284.1531,0
GRID,7647,0,194.7096,0.0,282.6692,0
GRID,7648,0,193.6879,0.0,281.1852,0
GRID,7649,0,192.6661,0.0,279.7013,0
GRID,7650,0,191.6443,0.0,278.2174,0
GRID,7651,0,190.6226,0.0,276.7335,0
GRID,7652,0,189.6008,0.0,275.2496,0
GRID,7653,0,188.579,0.0,273.7657,0
GRID,7654,0,187.5573,0.0,272.2818,0
GRID,7655,0,186.5355,0.0,270.7978,0
GRID,7656,0,185.5137,0.0,269.3139,0
GRID,7657,0,184.492,0.0,267.83,0
GRID,7658,0,183.4702,0.0,266.3461,0
GRID,7659,0,182.4485,0.0,264.8622,0
GRID,7660,0,181.4267,0.0,263.3783,0
GRID,7661,0,180.4049,0.0,261.8944,0
GRID,7662,0,179.3832,0.0,260.4105,0
GRID,7663,0,178.3614,0.0,258.9265,0
GRID,7664,0,177.3396,0.0,257.4426,0
GRID,7665,0,176.3179,0.0,255.9587,0
GRID,7666,0,175.2961,0.0,254.4748,0
GRID,7667,0,174.2743,0.0,252.9909,0
GRID,7668,0,173.2526,0.0,251.507,0
GRID,7669,0,172.2308,0.0,250.0231,0
GRID,7670,0,171.209,0.0,248.5391,0
GRID,7671,0,227.9744,0.0,336.3123,0
GRID,7672,0,226.9637,0.0,334.8209,0
GRID,7673,0,225.953,0.0,333.3294,0
GRID,7674,0,224.9424,0.0,331.8379,0
GRID,7675,0,223.9317,0.0,330.3464,0
GRID,7676,0,222.921,0.0,328.8549,0
GRID,7677,0,221.9103,0.0,327.3635,0
GRID,7678,0,220.8996,0.0,325.872,0
GRID,7679,0,219.8889,0.0,324.3805,0
GRID,7680,0,218.8782,0.0,322.889,0
GRID,7681,0,217.8675,0.0,321.3975,0
GRID,7682,0,216.8568,0.0,319.9061,0
GRID,7683,0,215.8462,0.0,318.4146,0
GRID,7684,0,214.8355,0.0,316.9231,0
GRID,7685,0,213.8248,0.0,315.4316,0
GRID,7686,0,212.8141,0.0,313.9402,0
GRID,7687,0,211.8034,0.0,312.4487,0
GRID,7688,0,210.7927,0.0,310.9572,0
GRID,7689,0,209.782,0.0,309.4657,0
GRID,7690,0,208.7713,0.0,307.9742,0
GRID,7691,0,207.7606,0.0,306.4828,0
GRID,7692,0,206.7499,0.0,304.9913,0
GRID,7693,0,205.7393,0.0,303.4998,0
GRID,7694,0,204.7286,0.0,302.0083,0
GRID,7695,0,203.7179,0.0,300.5168,0
GRID,7696,0,202.7072,0.0,299.0254,0
GRID,7697,0,201.6965,0.0,297.5339,0
GRID,7698,0,200.6858,0.0,296.0424,0
GRID,7699,0,199.6751,0.0,294.5509,0
GRID,7700,0,198.6644,0.0,293.0594,0
GRID,7701,0,197.6537,0.0,291.568,0
GRID,7702,0,196.6431,0.0,290.0765,0
GRID,7703,0,195.6324,0.0,288.585,0
GRID,7704,0,194.6217,0.0,287.0935,0
GRID,7705,0,193.611,0.0,285.602,0
GRID,7706,0,192.6003,0.0,284.1106,0
GRID,7707,0,191.5896,0.0,282.6191,0
GRID,7708,0,190.5789,0.0,281.1276,0
GRID,7709,0,189.5682,0.0,279.6361,0
GRID,7710,0,188.5575,0.0,278.1446,0
GRID,7711,0,187.5469,0.0,276.6532,0
GRID,7712,0,186.5362,0.0,275.1617,0
GRID,7713,0,185.5255,0.0,273.6702,0
GRID,7714,0,184.5148,0.0,272.1787,0
GRID,7715,0,183.5041,0.0,270.6873,0
GRID,7716,0,182.4934,0.0,269.1958,0
GRID,7717,0,181.4827,0.0,267.7043,0
GRID,7718,0,180.472,0.0,266.2128,0
GRID,7719,0,179.4613,0.0,264.7213,0
GRID,7720,0,178.4506,0.0,263.2299,0
GRID,7721,0,177.44,0.0,261.7384,0
GRID,7722,0,176.4293,0.0,260.2469,0
GRID,7723,0,175.4186,0.0,258.7554,0
GRID,7724,0,174.4079,0.0,257.2639,0
GRID,7725,0,173.3972,0.0,255.7725,0
GRID,7726,0,172.3865,0.0,254.281,0
GRID,7727,0,171.3758,0.0,252.7895,0
GRID,7728,0,170.3651,0.0,251.298,0
GRID,7729,0,169.3544,0.0,249.8065,0
GRID,7730,0,225.4648,0.0,337.9999,0
GRID,7731,0,224.4653,0.0,336.5009,0
GRID,7732,0,223.4657,0.0,335.002,0
GRID,7733,0,222.4662,0.0,333.503,0
GRID,7734,0,221.4666,0.0,332.0041,0
GRID,7735,0,220.467,0.0,330.5051,0
GRID,7736,0,219.4675,0.0,329.0061,0
GRID,7737,0,218.4679,0.0,327.5072,0
GRID,7738,0,217.4684,0.0,326.0082,0
GRID,7739,0,216.4688,0.0,324.5092,0
GRID,7740,0,215.4693,0.0,323.0103,0
GRID,7741,0,214.4697,0.0,321.5113,0
GRID,7742,0,213.4701,0.0,320.0124,0
GRID,7743,0,212.4706,0.0,318.5134,0
GRID,7744,0,211.471,0.0,317.0144,0
GRID,7745,0,210.4715,0.0,315.5155,0
GRID,7746,0,209.4719,0.0,314.0165,0
GRID,7747,0,208.4723,0.0,312.5175,0
GRID,7748,0,207.4728,0.0,311.0186,0
GRID,7749,0,206.4732,0.0,309.5196,0
GRID,7750,0,205.4737,0.0,308.0207,0
GRID,7751,0,204.4741,0.0,306.5217,0
GRID,7752,0,203.4746,0.0,305.0227,0
GRID,7753,0,202.475,0.0,303.5238,0
GRID,7754,0,201.4754,0.0,302.0248,0
GRID,7755,0,200.4759,0.0,300.5258,0
GRID,7756,0,199.4763,0.0,299.0269,0
GRID,7757,0,198.4768,0.0,297.5279,0
GRID,7758,0,197.4772,0.0,296.029,0
GRID,7759,0,196.4776,0.0,294.53,0
GRID,7760,0,195.4781,0.0,293.031,0
GRID,7761,0,194.4785,0.0,291.5321,0
GRID,7762,0,193.479,0.0,290.0331,0
GRID,7763,0,192.4794,0.0,288.5341,0
GRID,7764,0,191.4799,0.0,287.0352,0
GRID,7765,0,190.4803,0.0,285.5362,0
GRID,7766,0,189.4807,0.0,284.0373,0
GRID,7767,0,188.4812,0.0,282.5383,0
GRID,7768,0,187.4816,0.0,281.0393,0
GRID,7769,0,186.4821,0.0,279.5404,0
GRID,7770,0,185.4825,0.0,278.0414,0
GRID,7771,0,184.483,0.0,276.5425,0
GRID,7772,0,183.4834,0.0,275.0435,0
GRID,7773,0,182.4838,0.0,273.5445,0
GRID,7774,0,181.4843,0.0,272.0456,0
GRID,7775,0,180.4847,0.0,270.5466,0
GRID,7776,0,179.4852,0.0,269.0476,0
GRID,7777,0,178.4856,0.0,267.5487,0
GRID,7778,0,177.486,0.0,266.0497,0
GRID,7779,0,176.4865,0.0,264.5508,0
GRID,7780,0,175.4869,0.0,263.0518,0
GRID,7781,0,174.4874,0.0,261.5528,0
GRID,7782,0,173.4878,0.0,260.0539,0
GRID,7783,0,172.4883,0.0,258.5549,0
GRID,7784,0,171.4887,0.0,257.0559,0
GRID,7785,0,170.4891,0.0,255.557,0
GRID,7786,0,169.4896,0.0,254.058,0
GRID,7787,0,168.49,0.0,252.5591,0
GRID,7788,0,167.4905,0.0,251.0601,0
GRID,7789,0,222.9427,0.0,339.6687,0
GRID,7790,0,221.9544,0.0,338.1624,0
GRID,7791,0,220.966,0.0,336.656,0
GRID,7792,0,219.9776,0.0,335.1496,0
GRID,7793,0,218.9893,0.0,333.6433,0
GRID,7794,0,218.0009,0.0,332.1369,0
GRID,7795,0,217.0125,0.0,330.6306,0
GRID,7796,0,216.0241,0.0,329.1242,0
GRID,7797,0,215.0358,0.0,327.6178,0
GRID,7798,0,214.0474,0.0,326.1115,0
GRID,7799,0,213.059,0.0,324.6051,0
GRID,7800,0,212.0707,0.0,323.0988,0
GRID,7801,0,211.0823,0.0,321.5924,0
GRID,7802,0,210.0939,0.0,320.086,0
GRID,7803,0,209.1055,0.0,318.5797,0
GRID,7804,0,208.1172,0.0,317.0733,0
GRID,7805,0,207.1288,0.0,315.5669,0
GRID,7806,0,206.1404,0.0,314.0606,0
GRID,7807,0,205.1521,0.0,312.5542,0
GRID,7808,0,204.1637,0.0,311.0479,0
GRID,7809,0,203.1753,0.0,309.5415,0
GRID,7810,0,202.1869,0.0,308.0351,0
GRID,7811,0,201.1986,0.0,306.5288,0
GRID,7812,0,200.2102,0.0,305.0224,0
GRID,7813,0,199.2218,0.0,303.516,0
GRID,7814,0,198.2335,0.0,302.0097,0
GRID,7815,0,197.2451,0.0,300.5033,0
GRID,7816,0,196.2567,0.0,298.997,0
GRID,7817,0,195.2683,0.0,297.4906,0
GRID,7818,0,194.28,0.0,295.9842,0
GRID,7819,0,193.2916,0.0,294.4779,0
GRID,7820,0,192.3032,0.0,292.9715,0
GRID,7821,0,191.3149,0.0,291.4652,0
GRID,7822,0,190.3265,0.0,289.9588,0
GRID,7823,0,189.3381,0.0,288.4524,0
GRID,7824,0,188.3497,0.0,286.9461,0
GRID,7825,0,187.3614,0.0,285.4397,0
GRID,7826,0,186.373,0.0,283.9333,0
GRID,7827,0,185.3846,0.0,282.427,0
GRID,7828,0,184.3963,0.0,280.9206,0
GRID,7829,0,183.4079,0.0,279.4143,0
GRID,7830,0,182.4195,0.0,277.9079,0
GRID,7831,0,181.4311,0.0,276.4015,0
GRID,7832,0,180.4428,0.0,274.8952,0
GRID,7833,0,179.4544,0.0,273.3888,0
GRID,7834,0,178.466,0.0,271.8824,0
GRID,7835,0,177.4777,0.0,270.3761,0
GRID,7836,0,176.4893,0.0,268.8697,0
GRID,7837,0,175.5009,0.0,267.3634,0
GRID,7838,0,174.5125,0.0,265.857,0
GRID,7839,0,173.5242,0.0,264.3506,0
GRID,7840,0,172.5358,0.0,262.8443,0
GRID,7841,0,171.5474,0.0,261.3379,0
GRID,7842,0,170.5591,0.0,259.8316,0
GRID,7843,0,169.5707,0.0,258.3252,0
GRID,7844,0,168.5823,0.0,256.8188,0
GRID,7845,0,167.5939,0.0,255.3125,0
GRID,7846,0,166.6056,0.0,253.8061,0
GRID,7847,0,165.6172,0.0,252.2997,0
GRID,7848,0,220.4083,0.0,341.3187,0
GRID,7849,0,219.4312,0.0,339.8051,0
GRID,7850,0,218.4541,0.0,338.2914,0
GRID,7851,0,217.4769,0.0,336.7777,0
GRID,7852,0,216.4998,0.0,335.264,0
GRID,7853,0,215.5227,0.0,333.7504,0
GRID,7854,0,214.5455,0.0,332.2367,0
GRID,7855,0,213.5684,0.0,330.723,0
GRID,7856,0,212.5913,0.0,329.2093,0
GRID,7857,0,211.6141,0.0,327.6956,0
GRID,7858,0,210.637,0.0,326.182,0
GRID,7859,0,209.6599,0.0,324.6683,0
GRID,7860,0,208.6828,0.0,323.1546,0
GRID,7861,0,207.7056,0.0,321.6409,0
GRID,7862,0,206.7285,0.0,320.1273,0
GRID,7863,0,205.7514,0.0,318.6136,0
GRID,7864,0,204.7742,0.0,317.0999,0
GRID,7865,0,203.7971,0.0,315.5862,0
GRID,7866,0,202.82,0.0,314.0725,0
GRID,7867,0,201.8428,0.0,312.5589,0
GRID,7868,0,200.8657,0.0,311.0452,0
GRID,7869,0,199.8886,0.0,309.5315,0
GRID,7870,0,198.9115,0.0,308.0178,0
GRID,7871,0,197.9343,0.0,306.5042,0
GRID,7872,0,196.9572,0.0,304.9905,0
GRID,7873,0,195.9801,0.0,303.4768,0
GRID,7874,0,195.0029,0.0,301.9631,0
GRID,7875,0,194.0258,0.0,300.4494,0
GRID,7876,0,193.0487,0.0,298.9358,0
GRID,7877,0,192.0715,0.0,297.4221,0
GRID,7878,0,191.0944,0.0,295.9084,0
GRID,7879,0,190.1173,0.0,294.3947,0
GRID,7880,0,189.1402,0.0,292.881,0
GRID,7881,0,188.163,0.0,291.3674,0
GRID,7882,0,187.1859,0.0,289.8537,0
GRID,7883,0,186.2088,0.0,288.34,0
GRID,7884,0,185.2316,0.0,286.8263,0
GRID,7885,0,184.2545,0.0,285.3127,0
GRID,7886,0,183.2774,0.0,283.799,0
GRID,7887,0,182.3002,0.0,282.2853,0
GRID,7888,0,181.3231,0.0,280.7716,0
GRID,7889,0,180.346,0.0,279.2579,0
GRID,7890,0,179.3689,0.0,277.7443,0
GRID,7891,0,178.3917,0.0,276.2306,0
GRID,7892,0,177.4146,0.0,274.7169,0
GRID,7893,0,176.4375,0.0,273.2032,0
GRID,7894,0,175.4603,0.0,271.6896,0
GRID,7895,0,174.4832,0.0,270.1759,0
GRID,7896,0,173.5061,0.0,268.6622,0
GRID,7897,0,172.5289,0.0,267.1485,0
GRID,7898,0,171.5518,0.0,265.6348,0
GRID,7899,0,170.5747,0.0,264.1212,0
GRID,7900,0,169.5976,0.0,262.6075,0
GRID,7901,0,168.6204,0.0,261.0938,0
GRID,7902,0,167.6433,0.0,259.5801,0
GRID,7903,0,166.6662,0.0,258.0665,0
GRID,7904,0,165.689,0.0,256.5528,0
GRID,7905,0,164.7119,0.0,255.0391,0
GRID,7906,0,163.7348,0.0,253.5254,0
GRID,7907,0,217.8617,0.0,342.9498,0
GRID,7908,0,216.8958,0.0,341.4289,0
GRID,7909,0,215.93,0.0,339.908,0
GRID,7910,0,214.9642,0.0,338.3871,0
GRID,7911,0,213.9983,0.0,336.8662,0
GRID,7912,0,213.0325,0.0,335.3453,0
GRID,7913,0,212.0667,0.0,333.8244,0
GRID,7914,0,211.1008,0.0,332.3035,0
GRID,7915,0,210.135,0.0,330.7826,0
GRID,7916,0,209.1692,0.0,329.2617,0
GRID,7917,0,208.2033,0.0,327.7407,0
GRID,7918,0,207.2375,0.0,326.2198,0
GRID,7919,0,206.2717,0.0,324.6989,0
GRID,7920,0,205.3058,0.0,323.178,0
GRID,7921,0,204.34,0.0,321.6571,0
GRID,7922,0,203.3742,0.0,320.1362,0
GRID,7923,0,202.4083,0.0,318.6153,0
GRID,7924,0,201.4425,0.0,317.0944,0
GRID,7925,0,200.4766,0.0,315.5735,0
GRID,7926,0,199.5108,0.0,314.0526,0
GRID,7927,0,198.545,0.0,312.5316,0
GRID,7928,0,197.5791,0.0,311.0107,0
GRID,7929,0,196.6133,0.0,309.4898,0
GRID,7930,0,195.6475,0.0,307.9689,0
GRID,7931,0,194.6816,0.0,306.448,0
GRID,7932,0,193.7158,0.0,304.9271,0
GRID,7933,0,192.75,0.0,303.4062,0
GRID,7934,0,191.7841,0.0,301.8853,0
GRID,7935,0,190.8183,0.0,300.3644,0
GRID,7936,0,189.8525,0.0,298.8435,0
GRID,7937,0,188.8866,0.0,297.3225,0
GRID,7938,0,187.9208,0.0,295.8016,0
GRID,7939,0,186.955,0.0,294.2807,0
GRID,7940,0,185.9891,0.0,292.7598,0
GRID,7941,0,185.0233,0.0,291.2389,0
GRID,7942,0,184.0575,0.0,289.718,0
GRID,7943,0,183.0916,0.0,288.1971,0
GRID,7944,0,182.1258,0.0,286.6762,0
GRID,7945,0,181.16,0.0,285.1553,0
GRID,7946,0,180.1941,0.0,283.6344,0
GRID,7947,0,179.2283,0.0,282.1134,0
GRID,7948,0,178.2625,0.0,280.5925,0
GRID,7949,0,177.2966,0.0,279.0716,0
GRID,7950,0,176.3308,0.0,277.5507,0
GRID,7951,0,175.365,0.0,276.0298,0
GRID,7952,0,174.3991,0.0,274.5089,0
GRID,7953,0,173.4333,0.0,272.988,0
GRID,7954,0,172.4675,0.0,271.4671,0
GRID,7955,0,171.5016,0.0,269.9462,0
GRID,7956,0,170.5358,0.0,268.4252,0
GRID,7957,0,169.5699,0.0,266.9043,0
GRID,7958,0,168.6041,0.0,265.3834,0
GRID,7959,0,167.6383,0.0,263.8625,0
GRID,7960,0,166.6724,0.0,262.3416,0
GRID,7961,0,165.7066,0.0,260.8207,0
GRID,7962,0,164.7408,0.0,259.2998,0
GRID,7963,0,163.7749,0.0,257.7789,0
GRID,7964,0,162.8091,0.0,256.258,0
GRID,7965,0,161.8433,0.0,254.7371,0
GRID,7966,0,215.303,0.0,344.562,0
GRID,7967,0,214.3485,0.0,343.0339,0
GRID,7968,0,213.394,0.0,341.5058,0
GRID,7969,0,212.4395,0.0,339.9778,0
GRID,7970,0,211.485,0.0,338.4497,0
GRID,7971,0,210.5305,0.0,336.9217,0
GRID,7972,0,209.576,0.0,335.3936,0
GRID,7973,0,208.6216,0.0,333.8656,0
GRID,7974,0,207.6671,0.0,332.3375,0
GRID,7975,0,206.7126,0.0,330.8094,0
GRID,7976,0,205.7581,0.0,329.2814,0
GRID,7977,0,204.8036,0.0,327.7533,0
GRID,7978,0,203.8491,0.0,326.2253,0
GRID,7979,0,202.8946,0.0,324.6972,0
GRID,7980,0,201.9402,0.0,323.1691,0
GRID,7981,0,200.9857,0.0,321.6411,0
GRID,7982,0,200.0312,0.0,320.113,0
GRID,7983,0,199.0767,0.0,318.585,0
GRID,7984,0,198.1222,0.0,317.0569,0
GRID,7985,0,197.1677,0.0,315.5289,0
GRID,7986,0,196.2132,0.0,314.0008,0
GRID,7987,0,195.2588,0.0,312.4727,0
GRID,7988,0,194.3043,0.0,310.9447,0
GRID,7989,0,193.3498,0.0,309.4166,0
GRID,7990,0,192.3953,0.0,307.8886,0
GRID,7991,0,191.4408,0.0,306.3605,0
GRID,7992,0,190.4863,0.0,304.8324,0
GRID,7993,0,189.5319,0.0,303.3044,0
GRID,7994,0,188.5774,0.0,301.7763,0
GRID,7995,0,187.6229,0.0,300.2483,0
GRID,7996,0,186.6684,0.0,298.7202,0
GRID,7997,0,185.7139,0.0,297.1922,0
GRID,7998,0,184.7594,0.0,295.6641,0
GRID,7999,0,183.8049,0.0,294.136,0
GRID,8000,0,182.8505,0.0,292.608,0
GRID,8001,0,181.896,0.0,291.0799,0
GRID,8002,0,180.9415,0.0,289.5519,0
GRID,8003,0,179.987,0.0,288.0238,0
GRID,8004,0,179.0325,0.0,286.4957,0
GRID,8005,0,178.078,0.0,284.9677,0
GRID,8006,0,177.1235,0.0,283.4396,0
GRID,8007,0,176.1691,0.0,281.9116,0
GRID,8008,0,175.2146,0.0,280.3835,0
GRID,8009,0,174.2601,0.0,278.8555,0
GRID,8010,0,173.3056,0.0,277.3274,0
GRID,8011,0,172.3511,0.0,275.7993,0
GRID,8012,0,171.3966,0.0,274.2713,0
GRID,8013,0,170.4421,0.0,272.7432,0
GRID,8014,0,169.4877,0.0,271.2152,0
GRID,8015,0,168.5332,0.0,269.6871,0
GRID,8016,0,167.5787,0.0,268.1591,0
GRID,8017,0,166.6242,0.0,266.631,0
GRID,8018,0,165.6697,0.0,265.1029,0
GRID,8019,0,164.7152,0.0,263.5749,0
GRID,8020,0,163.7608,0.0,262.0468,0
GRID,8021,0,162.8063,0.0,260.5188,0
GRID,8022,0,161.8518,0.0,258.9907,0
GRID,8023,0,160.8973,0.0,257.4626,0
GRID,8024,0,159.9428,0.0,255.9346,0
GRID,8025,0,212.7323,0.0,346.155,0
GRID,8026,0,211.7892,0.0,344.6199,0
GRID,8027,0,210.8461,0.0,343.0847,0
GRID,8028,0,209.9031,0.0,341.5496,0
GRID,8029,0,208.96,0.0,340.0145,0
GRID,8030,0,208.0169,0.0,338.4794,0
GRID,8031,0,207.0738,0.0,336.9443,0
GRID,8032,0,206.1307,0.0,335.4091,0
GRID,8033,0,205.1876,0.0,333.874,0
GRID,8034,0,204.2446,0.0,332.3389,0
GRID,8035,0,203.3015,0.0,330.8038,0
GRID,8036,0,202.3584,0.0,329.2686,0
GRID,8037,0,201.4153,0.0,327.7335,0
GRID,8038,0,200.4722,0.0,326.1984,0
GRID,8039,0,199.5292,0.0,324.6633,0
GRID,8040,0,198.5861,0.0,323.1282,0
GRID,8041,0,197.643,0.0,321.593,0
GRID,8042,0,196.6999,0.0,320.0579,0
GRID,8043,0,195.7568,0.0,318.5228,0
GRID,8044,0,194.8137,0.0,316.9877,0
GRID,8045,0,193.8707,0.0,315.4526,0
GRID,8046,0,192.9276,0.0,313.9174,0
GRID,8047,0,191.9845,0.0,312.3823,0
GRID,8048,0,191.0414,0.0,310.8472,0
GRID,8049,0,190.0983,0.0,309.3121,0
GRID,8050,0,189.1552,0.0,307.7769,0
GRID,8051,0,188.2122,0.0,306.2418,0
GRID,8052,0,187.2691,0.0,304.7067,0
GRID,8053,0,186.326,0.0,303.1716,0
GRID,8054,0,185.3829,0.0,301.6365,0
GRID,8055,0,184.4398,0.0,300.1013,0
GRID,8056,0,183.4967,0.0,298.5662,0
GRID,8057,0,182.5537,0.0,297.0311,0
GRID,8058,0,181.6106,0.0,295.496,0
GRID,8059,0,180.6675,0.0,293.9609,0
GRID,8060,0,179.7244,0.0,292.4257,0
GRID,8061,0,178.7813,0.0,290.8906,0
GRID,8062,0,177.8382,0.0,289.3555,0
GRID,8063,0,176.8952,0.0,287.8204,0
GRID,8064,0,175.9521,0.0,286.2852,0
GRID,8065,0,175.009,0.0,284.7501,0
GRID,8066,0,174.0659,0.0,283.215,0
GRID,8067,0,173.1228,0.0,281.6799,0
GRID,8068,0,172.1797,0.0,280.1448,0
GRID,8069,0,171.2367,0.0,278.6096,0
GRID,8070,0,170.2936,0.0,277.0745,0
GRID,8071,0,169.3505,0.0,275.5394,0
GRID,8072,0,168.4074,0.0,274.0043,0
GRID,8073,0,167.4643,0.0,272.4692,0
GRID,8074,0,166.5212,0.0,270.934,0
GRID,8075,0,165.5782,0.0,269.3989,0
GRID,8076,0,164.6351,0.0,267.8638,0
GRID,8077,0,163.692,0.0,266.3287,0
GRID,8078,0,162.7489,0.0,264.7935,0
GRID,8079,0,161.8058,0.0,263.2584,0
GRID,8080,0,160.8627,0.0,261.7233,0
GRID,8081,0,159.9197,0.0,260.1882,0
GRID,8082,0,158.9766,0.0,258.6531,0
GRID,8083,0,158.0335,0.0,257.1179,0
GRID,8084,0,210.1499,0.0,347.7288,0
GRID,8085,0,209.2183,0.0,346.1867,0
GRID,8086,0,208.2866,0.0,344.6446,0
GRID,8087,0,207.355,0.0,343.1025,0
GRID,8088,0,206.4234,0.0,341.5604,0
GRID,8089,0,205.4917,0.0,340.0183,0
GRID,8090,0,204.5601,0.0,338.4762,0
GRID,8091,0,203.6285,0.0,336.9341,0
GRID,8092,0,202.6969,0.0,335.392,0
GRID,8093,0,201.7652,0.0,333.8499,0
GRID,8094,0,200.8336,0.0,332.3078,0
GRID,8095,0,199.902,0.0,330.7657,0
GRID,8096,0,198.9703,0.0,329.2236,0
GRID,8097,0,198.0387,0.0,327.6815,0
GRID,8098,0,197.1071,0.0,326.1394,0
GRID,8099,0,196.1755,0.0,324.5973,0
GRID,8100,0,195.2438,0.0,323.0552,0
GRID,8101,0,194.3122,0.0,321.5131,0
GRID,8102,0,193.3806,0.0,319.971,0
GRID,8103,0,192.4489,0.0,318.4289,0
GRID,8104,0,191.5173,0.0,316.8868,0
GRID,8105,0,190.5857,0.0,315.3447,0
GRID,8106,0,189.6541,0.0,313.8026,0
GRID,8107,0,188.7224,0.0,312.2605,0
GRID,8108,0,187.7908,0.0,310.7184,0
GRID,8109,0,186.8592,0.0,309.1763,0
GRID,8110,0,185.9275,0.0,307.6342,0
GRID,8111,0,184.9959,0.0,306.0921,0
GRID,8112,0,184.0643,0.0,304.55,0
GRID,8113,0,183.1327,0.0,303.0079,0
GRID,8114,0,182.201,0.0,301.4658,0
GRID,8115,0,181.2694,0.0,299.9237,0
GRID,8116,0,180.3378,0.0,298.3816,0
GRID,8117,0,179.4061,0.0,296.8395,0
GRID,8118,0,178.4745,0.0,295.2974,0
GRID,8119,0,177.5429,0.0,293.7553,0
GRID,8120,0,176.6113,0.0,292.2132,0
GRID,8121,0,175.6796,0.0,290.6711,0
GRID,8122,0,174.748,0.0,289.129,0
GRID,8123,0,173.8164,0.0,287.5869,0
GRID,8124,0,172.8847,0.0,286.0448,0
GRID,8125,0,171.9531,0.0,284.5027,0
GRID,8126,0,171.0215,0.0,282.9606,0
GRID,8127,0,170.0898,0.0,281.4185,0
GRID,8128,0,169.1582,0.0,279.8764,0
GRID,8129,0,168.2266,0.0,278.3343,0
GRID,8130,0,167.295,0.0,276.7922,0
GRID,8131,0,166.3633,0.0,275.2501,0
GRID,8132,0,165.4317,0.0,273.708,0
GRID,8133,0,164.5001,0.0,272.1659,0
GRID,8134,0,163.5684,0.0,270.6239,0
GRID,8135,0,162.6368,0.0,269.0818,0
GRID,8136,0,161.7052,0.0,267.5397,0
GRID,8137,0,160.7736,0.0,265.9976,0
GRID,8138,0,159.8419,0.0,264.4555,0
GRID,8139,0,158.9103,0.0,262.9134,0
GRID,8140,0,157.9787,0.0,261.3713,0
GRID,8141,0,157.047,0.0,259.8292,0
GRID,8142,0,156.1154,0.0,258.2871,0
GRID,8143,0,207.5558,0.0,349.2834,0
GRID,8144,0,206.6357,0.0,347.7344,0
GRID,8145,0,205.7156,0.0,346.1854,0
GRID,8146,0,204.7955,0.0,344.6364,0
GRID,8147,0,203.8753,0.0,343.0874,0
GRID,8148,0,202.9552,0.0,341.5385,0
GRID,8149,0,202.0351,0.0,339.9895,0
GRID,8150,0,201.115,0.0,338.4405,0
GRID,8151,0,200.1948,0.0,336.8915,0
GRID,8152,0,199.2747,0.0,335.3425,0
GRID,8153,0,198.3546,0.0,333.7935,0
GRID,8154,0,197.4345,0.0,332.2445,0
GRID,8155,0,196.5144,0.0,330.6955,0
GRID,8156,0,195.5942,0.0,329.1465,0
GRID,8157,0,194.6741,0.0,327.5975,0
GRID,8158,0,193.754,0.0,326.0485,0
GRID,8159,0,192.8339,0.0,324.4995,0
GRID,8160,0,191.9137,0.0,322.9505,0
GRID,8161,0,190.9936,0.0,321.4016,0
GRID,8162,0,190.0735,0.0,319.8526,0
GRID,8163,0,189.1534,0.0,318.3036,0
GRID,8164,0,188.2332,0.0,316.7546,0
GRID,8165,0,187.3131,0.0,315.2056,0
GRID,8166,0,186.393,0.0,313.6566,0
GRID,8167,0,185.4729,0.0,312.1076,0
GRID,8168,0,184.5528,0.0,310.5586,0
GRID,8169,0,183.6326,0.0,309.0096,0
GRID,8170,0,182.7125,0.0,307.4606,0
GRID,8171,0,181.7924,0.0,305.9116,0
GRID,8172,0,180.8723,0.0,304.3626,0
GRID,8173,0,179.9521,0.0,302.8136,0
GRID,8174,0,179.032,0.0,301.2647,0
GRID,8175,0,178.1119,0.0,299.7157,0
GRID,8176,0,177.1918,0.0,298.1667,0
GRID,8177,0,176.2716,0.0,296.6177,0
GRID,8178,0,175.3515,0.0,295.0687,0
GRID,8179,0,174.4314,0.0,293.5197,0
GRID,8180,0,173.5113,0.0,291.9707,0
GRID,8181,0,172.5912,0.0,290.4217,0
GRID,8182,0,171.671,0.0,288.8727,0
GRID,8183,0,170.7509,0.0,287.3237,0
GRID,8184,0,169.8308,0.0,285.7747,0
GRID,8185,0,168.9107,0.0,284.2257,0
GRID,8186,0,167.9905,0.0,282.6767,0
GRID,8187,0,167.0704,0.0,281.1278,0
GRID,8188,0,166.1503,0.0,279.5788,0
GRID,8189,0,165.2302,0.0,278.0298,0
GRID,8190,0,164.31,0.0,276.4808,0
GRID,8191,0,163.3899,0.0,274.9318,0
GRID,8192,0,162.4698,0.0,273.3828,0
GRID,8193,0,161.5497,0.0,271.8338,0
GRID,8194,0,160.6296,0.0,270.2848,0
GRID,8195,0,159.7094,0.0,268.7358,0
GRID,8196,0,158.7893,0.0,267.1868,0
GRID,8197,0,157.8692,0.0,265.6378,0
GRID,8198,0,156.9491,0.0,264.0888,0
GRID,8199,0,156.0289,0.0,262.5398,0
GRID,8200,0,155.1088,0.0,260.9909,0
GRID,8201,0,154.1887,0.0,259.4419,0
GRID,8202,0,204.9503,0.0,350.8186,0
GRID,8203,0,204.0417,0.0,349.2628,0
GRID,8204,0,203.1331,0.0,347.707,0
GRID,8205,0,202.2246,0.0,346.1512,0
GRID,8206,0,201.316,0.0,344.5955,0
GRID,8207,0,200.4074,0.0,343.0397,0
GRID,8208,0,199.4989,0.0,341.4839,0
GRID,8209,0,198.5903,0.0,339.9281,0
GRID,8210,0,197.6817,0.0,338.3723,0
GRID,8211,0,196.7732,0.0,336.8165,0
GRID,8212,0,195.8646,0.0,335.2607,0
GRID,8213,0,194.956,0.0,333.7049,0
GRID,8214,0,194.0475,0.0,332.1491,0
GRID,8215,0,193.1389,0.0,330.5933,0
GRID,8216,0,192.2303,0.0,329.0375,0
GRID,8217,0,191.3218,0.0,327.4817,0
GRID,8218,0,190.4132,0.0,325.9259,0
GRID,8219,0,189.5046,0.0,324.3701,0
GRID,8220,0,188.5961,0.0,322.8143,0
GRID,8221,0,187.6875,0.0,321.2585,0
GRID,8222,0,186.7789,0.0,319.7027,0
GRID,8223,0,185.8704,0.0,318.1469,0
GRID,8224,0,184.9618,0.0,316.5911,0
GRID,8225,0,184.0532,0.0,315.0353,0
GRID,8226,0,183.1447,0.0,313.4795,0
GRID,8227,0,182.2361,0.0,311.9237,0
GRID,8228,0,181.3275,0.0,310.3679,0
GRID,8229,0,180.419,0.0,308.8121,0
GRID,8230,0,179.5104,0.0,307.2563,0
GRID,8231,0,178.6018,0.0,305.7005,0
GRID,8232,0,177.6933,0.0,304.1447,0
GRID,8233,0,176.7847,0.0,302.5889,0
GRID,8234,0,175.8761,0.0,301.0331,0
GRID,8235,0,174.9676,0.0,299.4773,0
GRID,8236,0,174.059,0.0,297.9215,0
GRID,8237,0,173.1504,0.0,296.3657,0
GRID,8238,0,172.2419,0.0,294.8099,0
GRID,8239,0,171.3333,0.0,293.2541,0
GRID,8240,0,170.4248,0.0,291.6983,0
GRID,8241,0,169.5162,0.0,290.1425,0
GRID,8242,0,168.6076,0.0,288.5867,0
GRID,8243,0,167.6991,0.0,287.0309,0
GRID,8244,0,166.7905,0.0,285.4751,0
GRID,8245,0,165.8819,0.0,283.9193,0
GRID,8246,0,164.9734,0.0,282.3635,0
GRID,8247,0,164.0648,0.0,280.8077,0
GRID,8248,0,163.1562,0.0,279.2519,0
GRID,8249,0,162.2477,0.0,277.6961,0
GRID,8250,0,161.3391,0.0,276.1403,0
GRID,8251,0,160.4305,0.0,274.5845,0
GRID,8252,0,159.522,0.0,273.0287,0
GRID,8253,0,158.6134,0.0,271.4729,0
GRID,8254,0,157.7048,0.0,269.9171,0
GRID,8255,0,156.7963,0.0,268.3613,0
GRID,8256,0,155.8877,0.0,266.8055,0
GRID,8257,0,154.9791,0.0,265.2497,0
GRID,8258,0,154.0706,0.0,263.6939,0
GRID,8259,0,153.162,0.0,262.1381,0
GRID,8260,0,152.2534,0.0,260.5823,0
GRID,8261,0,202.3333,0.0,352.3344,0
GRID,8262,0,201.4364,0.0,350.7719,0
GRID,8263,0,200.5394,0.0,349.2094,0
GRID,8264,0,199.6425,0.0,347.6469,0
GRID,8265,0,198.7455,0.0,346.0844,0
GRID,8266,0,197.8485,0.0,344.5218,0
GRID,8267,0,196.9516,0.0,342.9593,0
GRID,8268,0,196.0546,0.0,341.3968,0
GRID,8269,0,195.1577,0.0,339.8343,0
GRID,8270,0,194.2607,0.0,338.2718,0
GRID,8271,0,193.3638,0.0,336.7092,0
GRID,8272,0,192.4668,0.0,335.1467,0
GRID,8273,0,191.5698,0.0,333.5842,0
GRID,8274,0,190.6729,0.0,332.0217,0
GRID,8275,0,189.7759,0.0,330.4592,0
GRID,8276,0,188.879,0.0,328.8966,0
GRID,8277,0,187.982,0.0,327.3341,0
GRID,8278,0,187.085,0.0,325.7716,0
GRID,8279,0,186.1881,0.0,324.2091,0
GRID,8280,0,185.2911,0.0,322.6466,0
GRID,8281,0,184.3942,0.0,321.084,0
GRID,8282,0,183.4972,0.0,319.5215,0
GRID,8283,0,182.6002,0.0,317.959,0
GRID,8284,0,181.7033,0.0,316.3965,0
GRID,8285,0,180.8063,0.0,314.834,0
GRID,8286,0,179.9094,0.0,313.2714,0
GRID,8287,0,179.0124,0.0,311.7089,0
GRID,8288,0,178.1155,0.0,310.1464,0
GRID,8289,0,177.2185,0.0,308.5839,0
GRID,8290,0,176.3215,0.0,307.0214,0
GRID,8291,0,175.4246,0.0,305.4588,0
GRID,8292,0,174.5276,0.0,303.8963,0
GRID,8293,0,173.6307,0.0,302.3338,0
GRID,8294,0,172.7337,0.0,300.7713,0
GRID,8295,0,171.8367,0.0,299.2088,0
GRID,8296,0,170.9398,0.0,297.6462,0
GRID,8297,0,170.0428,0.0,296.0837,0
GRID,8298,0,169.1459,0.0,294.5212,0
GRID,8299,0,168.2489,0.0,292.9587,0
GRID,8300,0,167.3519,0.0,291.3962,0
GRID,8301,0,166.455,0.0,289.8336,0
GRID,8302,0,165.558,0.0,288.2711,0
GRID,8303,0,164.6611,0.0,286.7086,0
GRID,8304,0,163.7641,0.0,285.1461,0
GRID,8305,0,162.8672,0.0,283.5836,0
GRID,8306,0,161.9702,0.0,282.021,0
GRID,8307,0,161.0732,0.0,280.4585,0
GRID,8308,0,160.1763,0.0,278.896,0
GRID,8309,0,159.2793,0.0,277.3335,0
GRID,8310,0,158.3824,0.0,275.771,0
GRID,8311,0,157.4854,0.0,274.2084,0
GRID,8312,0,156.5884,0.0,272.6459,0
GRID,8313,0,155.6915,0.0,271.0834,0
GRID,8314,0,154.7945,0.0,269.5209,0
GRID,8315,0,153.8976,0.0,267.9584,0
GRID,8316,0,153.0006,0.0,266.3958,0
GRID,8317,0,152.1036,0.0,264.8333,0
GRID,8318,0,151.2067,0.0,263.2708,0
GRID,8319,0,150.3097,0.0,261.7083,0
GRID,8320,0,199.7052,0.0,353.8307,0
GRID,8321,0,198.8199,0.0,352.2615,0
GRID,8322,0,197.9346,0.0,350.6924,0
GRID,8323,0,197.0493,0.0,349.1232,0
GRID,8324,0,196.164,0.0,347.5541,0
GRID,8325,0,195.2787,0.0,345.9849,0
GRID,8326,0,194.3934,0.0,344.4158,0
GRID,8327,0,193.5081,0.0,342.8466,0
GRID,8328,0,192.6228,0.0,341.2775,0
GRID,8329,0,191.7375,0.0,339.7083,0
GRID,8330,0,190.8522,0.0,338.1392,0
GRID,8331,0,189.9669,0.0,336.57,0
GRID,8332,0,189.0816,0.0,335.0008,0
GRID,8333,0,188.1963,0.0,333.4317,0
GRID,8334,0,187.311,0.0,331.8625,0
GRID,8335,0,186.4257,0.0,330.2934,0
GRID,8336,0,185.5404,0.0,328.7242,0
GRID,8337,0,184.6551,0.0,327.1551,0
GRID,8338,0,183.7698,0.0,325.5859,0
GRID,8339,0,182.8845,0.0,324.0168,0
GRID,8340,0,181.9992,0.0,322.4476,0
GRID,8341,0,181.1139,0.0,320.8785,0
GRID,8342,0,180.2286,0.0,319.3093,0
GRID,8343,0,179.3433,0.0,317.7402,0
GRID,8344,0,178.458,0.0,316.171,0
GRID,8345,0,177.5727,0.0,314.6018,0
GRID,8346,0,176.6874,0.0,313.0327,0
GRID,8347,0,175.8021,0.0,311.4635,0
GRID,8348,0,174.9167,0.0,309.8944,0
GRID,8349,0,174.0314,0.0,308.3252,0
GRID,8350,0,173.1461,0.0,306.7561,0
GRID,8351,0,172.2608,0.0,305.1869,0
GRID,8352,0,171.3755,0.0,303.6178,0
GRID,8353,0,170.4902,0.0,302.0486,0
GRID,8354,0,169.6049,0.0,300.4795,0
GRID,8355,0,168.7196,0.0,298.9103,0
GRID,8356,0,167.8343,0.0,297.3412,0
GRID,8357,0,166.949,0.0,295.772,0
GRID,8358,0,166.0637,0.0,294.2028,0
GRID,8359,0,165.1784,0.0,292.6337,0
GRID,8360,0,164.2931,0.0,291.0645,0
GRID,8361,0,163.4078,0.0,289.4954,0
GRID,8362,0,162.5225,0.0,287.9262,0
GRID,8363,0,161.6372,0.0,286.3571,0
GRID,8364,0,160.7519,0.0,284.7879,0
GRID,8365,0,159.8666,0.0,283.2188,0
GRID,8366,0,158.9813,0.0,281.6496,0
GRID,8367,0,158.096,0.0,280.0805,0
GRID,8368,0,157.2107,0.0,278.5113,0
GRID,8369,0,156.3254,0.0,276.9422,0
GRID,8370,0,155.4401,0.0,275.373,0
GRID,8371,0,154.5548,0.0,273.8038,0
GRID,8372,0,153.6695,0.0,272.2347,0
GRID,8373,0,152.7842,0.0,270.6655,0
GRID,8374,0,151.8989,0.0,269.0964,0
GRID,8375,0,151.0136,0.0,267.5272,0
GRID,8376,0,150.1283,0.0,265.9581,0
GRID,8377,0,149.243,0.0,264.3889,0
GRID,8378,0,148.3577,0.0,262.8198,0
GRID,8379,0,197.066,0.0,355.3074,0
GRID,8380,0,196.1924,0.0,353.7317,0
GRID,8381,0,195.3188,0.0,352.1559,0
GRID,8382,0,194.4452,0.0,350.5802,0
GRID,8383,0,193.5716,0.0,349.0045,0
GRID,8384,0,192.698,0.0,347.4288,0
GRID,8385,0,191.8244,0.0,345.8531,0
GRID,8386,0,190.9508,0.0,344.2774,0
GRID,8387,0,190.0772,0.0,342.7017,0
GRID,8388,0,189.2036,0.0,341.126,0
GRID,8389,0,188.33,0.0,339.5503,0
GRID,8390,0,187.4564,0.0,337.9746,0
GRID,8391,0,186.5828,0.0,336.3989,0
GRID,8392,0,185.7093,0.0,334.8232,0
GRID,8393,0,184.8357,0.0,333.2475,0
GRID,8394,0,183.9621,0.0,331.6718,0
GRID,8395,0,183.0885,0.0,330.0961,0
GRID,8396,0,182.2149,0.0,328.5204,0
GRID,8397,0,181.3413,0.0,326.9447,0
GRID,8398,0,180.4677,0.0,325.369,0
GRID,8399,0,179.5941,0.0,323.7933,0
GRID,8400,0,178.7205,0.0,322.2176,0
GRID,8401,0,177.8469,0.0,320.6419,0
GRID,8402,0,176.9733,0.0,319.0662,0
GRID,8403,0,176.0997,0.0,317.4905,0
GRID,8404,0,175.2261,0.0,315.9148,0
GRID,8405,0,174.3525,0.0,314.3391,0
GRID,8406,0,173.4789,0.0,312.7634,0
GRID,8407,0,172.6053,0.0,311.1877,0
GRID,8408,0,171.7317,0.0,309.612,0
GRID,8409,0,170.8581,0.0,308.0363,0
GRID,8410,0,169.9845,0.0,306.4606,0
GRID,8411,0,169.1109,0.0,304.8849,0
GRID,8412,0,168.2373,0.0,303.3092,0
GRID,8413,0,167.3637,0.0,301.7335,0
GRID,8414,0,166.4901,0.0,300.1578,0
GRID,8415,0,165.6165,0.0,298.5821,0
GRID,8416,0,164.743,0.0,297.0064,0
GRID,8417,0,163.8694,0.0,295.4307,0
GRID,8418,0,162.9958,0.0,293.855,0
GRID,8419,0,162.1222,0.0,292.2793,0
GRID,8420,0,161.2486,0.0,290.7036,0
GRID,8421,0,160.375,0.0,289.1279,0
GRID,8422,0,159.5014,0.0,287.5522,0
GRID,8423,0,158.6278,0.0,285.9765,0
GRID,8424,0,157.7542,0.0,284.4008,0
GRID,8425,0,156.8806,0.0,282.8251,0
GRID,8426,0,156.007,0.0,281.2494,0
GRID,8427,0,155.1334,0.0,279.6737,0
GRID,8428,0,154.2598,0.0,278.098,0
GRID,8429,0,153.3862,0.0,276.5223,0
GRID,8430,0,152.5126,0.0,274.9466,0
GRID,8431,0,151.639,0.0,273.3709,0
GRID,8432,0,150.7654,0.0,271.7952,0
GRID,8433,0,149.8918,0.0,270.2195,0
GRID,8434,0,149.0182,0.0,268.6438,0
GRID,8435,0,148.1446,0.0,267.0681,0
GRID,8436,0,147.271,0.0,265.4924,0
GRID,8437,0,146.3974,0.0,263.9167,0
GRID,8438,0,194.4159,0.0,356.7643,0
GRID,8439,0,193.554,0.0,355.1822,0
GRID,8440,0,192.6922,0.0,353.6,0
GRID,8441,0,191.8304,0.0,352.0178,0
GRID,8442,0,190.9685,0.0,350.4357,0
GRID,8443,0,190.1067,0.0,348.8535,0
GRID,8444,0,189.2448,0.0,347.2714,0
GRID,8445,0,188.383,0.0,345.6892,0
GRID,8446,0,187.5211,0.0,344.107,0
GRID,8447,0,186.6593,0.0,342.5249,0
GRID,8448,0,185.7975,0.0,340.9427,0
GRID,8449,0,184.9356,0.0,339.3606,0
GRID,8450,0,184.0738,0.0,337.7784,0
GRID,8451,0,183.2119,0.0,336.1962,0
GRID,8452,0,182.3501,0.0,334.6141,0
GRID,8453,0,181.4883,0.0,333.0319,0
GRID,8454,0,180.6264,0.0,331.4497,0
GRID,8455,0,179.7646,0.0,329.8676,0
GRID,8456,0,178.9027,0.0,328.2854,0
GRID,8457,0,178.0409,0.0,326.7033,0
GRID,8458,0,177.179,0.0,325.1211,0
GRID,8459,0,176.3172,0.0,323.5389,0
GRID,8460,0,175.4554,0.0,321.9568,0
GRID,8461,0,174.5935,0.0,320.3746,0
GRID,8462,0,173.7317,0.0,318.7925,0
GRID,8463,0,172.8698,0.0,317.2103,0
GRID,8464,0,172.008,0.0,315.6281,0
GRID,8465,0,171.1462,0.0,314.046,0
GRID,8466,0,170.2843,0.0,312.4638,0
GRID,8467,0,169.4225,0.0,310.8817,0
GRID,8468,0,168.5606,0.0,309.2995,0
GRID,8469,0,167.6988,0.0,307.7173,0
GRID,8470,0,166.837,0.0,306.1352,0
GRID,8471,0,165.9751,0.0,304.553,0
GRID,8472,0,165.1133,0.0,302.9709,0
GRID,8473,0,164.2514,0.0,301.3887,0
GRID,8474,0,163.3896,0.0,299.8065,0
GRID,8475,0,162.5277,0.0,298.2244,0
GRID,8476,0,161.6659,0.0,296.6422,0
GRID,8477,0,160.8041,0.0,295.06,0
GRID,8478,0,159.9422,0.0,293.4779,0
GRID,8479,0,159.0804,0.0,291.8957,0
GRID,8480,0,158.2185,0.0,290.3136,0
GRID,8481,0,157.3567,0.0,288.7314,0
GRID,8482,0,156.4949,0.0,287.1492,0
GRID,8483,0,155.633,0.0,285.5671,0
GRID,8484,0,154.7712,0.0,283.9849,0
GRID,8485,0,153.9093,0.0,282.4028,0
GRID,8486,0,153.0475,0.0,280.8206,0
GRID,8487,0,152.1856,0.0,279.2384,0
GRID,8488,0,151.3238,0.0,277.6563,0
GRID,8489,0,150.462,0.0,276.0741,0
GRID,8490,0,149.6001,0.0,274.492,0
GRID,8491,0,148.7383,0.0,272.9098,0
GRID,8492,0,147.8764,0.0,271.3276,0
GRID,8493,0,147.0146,0.0,269.7455,0
GRID,8494,0,146.1528,0.0,268.1633,0
GRID,8495,0,145.2909,0.0,266.5812,0
GRID,8496,0,144.4291,0.0,264.999,0
GRID,8497,0,191.755,0.0,358.2015,0
GRID,8498,0,190.9049,0.0,356.613,0
GRID,8499,0,190.0549,0.0,355.0245,0
GRID,8500,0,189.2049,0.0,353.4359,0
GRID,8501,0,188.3548,0.0,351.8474,0
GRID,8502,0,187.5048,0.0,350.2589,0
GRID,8503,0,186.6547,0.0,348.6703,0
GRID,8504,0,185.8047,0.0,347.0818,0
GRID,8505,0,184.9547,0.0,345.4933,0
GRID,8506,0,184.1046,0.0,343.9047,0
GRID,8507,0,183.2546,0.0,342.3162,0
GRID,8508,0,182.4046,0.0,340.7277,0
GRID,8509,0,181.5545,0.0,339.1391,0
GRID,8510,0,180.7045,0.0,337.5506,0
GRID,8511,0,179.8544,0.0,335.9621,0
GRID,8512,0,179.0044,0.0,334.3735,0
GRID,8513,0,178.1544,0.0,332.785,0
GRID,8514,0,177.3043,0.0,331.1965,0
GRID,8515,0,176.4543,0.0,329.6079,0
GRID,8516,0,175.6042,0.0,328.0194,0
GRID,8517,0,174.7542,0.0,326.4309,0
GRID,8518,0,173.9042,0.0,324.8423,0
GRID,8519,0,173.0541,0.0,323.2538,0
GRID,8520,0,172.2041,0.0,321.6653,0
GRID,8521,0,171.354,0.0,320.0767,0
GRID,8522,0,170.504,0.0,318.4882,0
GRID,8523,0,169.654,0.0,316.8997,0
GRID,8524,0,168.8039,0.0,315.3111,0
GRID,8525,0,167.9539,0.0,313.7226,0
GRID,8526,0,167.1038,0.0,312.1341,0
GRID,8527,0,166.2538,0.0,310.5455,0
GRID,8528,0,165.4038,0.0,308.957,0
GRID,8529,0,164.5537,0.0,307.3685,0
GRID,8530,0,163.7037,0.0,305.7799,0
GRID,8531,0,162.8537,0.0,304.1914,0
GRID,8532,0,162.0036,0.0,302.6029,0
GRID,8533,0,161.1536,0.0,301.0143,0
GRID,8534,0,160.3035,0.0,299.4258,0
GRID,8535,0,159.4535,0.0,297.8373,0
GRID,8536,0,158.6035,0.0,296.2487,0
GRID,8537,0,157.7534,0.0,294.6602,0
GRID,8538,0,156.9034,0.0,293.0717,0
GRID,8539,0,156.0533,0.0,291.4831,0
GRID,8540,0,155.2033,0.0,289.8946,0
GRID,8541,0,154.3533,0.0,288.3061,0
GRID,8542,0,153.5032,0.0,286.7175,0
GRID,8543,0,152.6532,0.0,285.129,0
GRID,8544,0,151.8031,0.0,283.5405,0
GRID,8545,0,150.9531,0.0,281.9519,0
GRID,8546,0,150.1031,0.0,280.3634,0
GRID,8547,0,149.253,0.0,278.7749,0
GRID,8548,0,148.403,0.0,277.1863,0
GRID,8549,0,147.5529,0.0,275.5978,0
GRID,8550,0,146.7029,0.0,274.0093,0
GRID,8551,0,145.8529,0.0,272.4207,0
GRID,8552,0,145.0028,0.0,270.8322,0
GRID,8553,0,144.1528,0.0,269.2437,0
GRID,8554,0,143.3028,0.0,267.6551,0
GRID,8555,0,142.4527,0.0,266.0666,0
GRID,8556,0,189.0835,0.0,359.6189,0
GRID,8557,0,188.2453,0.0,358.0241,0
GRID,8558,0,187.4071,0.0,356.4293,0
GRID,8559,0,186.5689,0.0,354.8344,0
GRID,8560,0,185.7307,0.0,353.2396,0
GRID,8561,0,184.8925,0.0,351.6448,0
GRID,8562,0,184.0543,0.0,350.05,0
GRID,8563,0,183.2161,0.0,348.4552,0
GRID,8564,0,182.378,0.0,346.8604,0
GRID,8565,0,181.5398,0.0,345.2655,0
GRID,8566,0,180.7016,0.0,343.6707,0
GRID,8567,0,179.8634,0.0,342.0759,0
GRID,8568,0,179.0252,0.0,340.4811,0
GRID,8569,0,178.187,0.0,338.8863,0
GRID,8570,0,177.3488,0.0,337.2915,0
GRID,8571,0,176.5106,0.0,335.6966,0
GRID,8572,0,175.6724,0.0,334.1018,0
GRID,8573,0,174.8342,0.0,332.507,0
GRID,8574,0,173.9961,0.0,330.9122,0
GRID,8575,0,173.1579,0.0,329.3174,0
GRID,8576,0,172.3197,0.0,327.7226,0
GRID,8577,0,171.4815,0.0,326.1277,0
GRID,8578,0,170.6433,0.0,324.5329,0
GRID,8579,0,169.8051,0.0,322.9381,0
GRID,8580,0,168.9669,0.0,321.3433,0
GRID,8581,0,168.1287,0.0,319.7485,0
GRID,8582,0,167.2905,0.0,318.1536,0
GRID,8583,0,166.4523,0.0,316.5588,0
GRID,8584,0,165.6142,0.0,314.964,0
GRID,8585,0,164.776,0.0,313.3692,0
GRID,8586,0,163.9378,0.0,311.7744,0
GRID,8587,0,163.0996,0.0,310.1796,0
GRID,8588,0,162.2614,0.0,308.5847,0
GRID,8589,0,161.4232,0.0,306.9899,0
GRID,8590,0,160.585,0.0,305.3951,0
GRID,8591,0,159.7468,0.0,303.8003,0
GRID,8592,0,158.9086,0.0,302.2055,0
GRID,8593,0,158.0704,0.0,300.6107,0
GRID,8594,0,157.2323,0.0,299.0158,0
GRID,8595,0,156.3941,0.0,297.421,0
GRID,8596,0,155.5559,0.0,295.8262,0
GRID,8597,0,154.7177,0.0,294.2314,0
GRID,8598,0,153.8795,0.0,292.6366,0
GRID,8599,0,153.0413,0.0,291.0418,0
GRID,8600,0,152.2031,0.0,289.4469,0
GRID,8601,0,151.3649,0.0,287.8521,0
GRID,8602,0,150.5267,0.0,286.2573,0
GRID,8603,0,149.6886,0.0,284.6625,0
GRID,8604,0,148.8504,0.0,283.0677,0
GRID,8605,0,148.0122,0.0,281.4729,0
GRID,8606,0,147.174,0.0,279.878,0
GRID,8607,0,146.3358,0.0,278.2832,0
GRID,8608,0,145.4976,0.0,276.6884,0
GRID,8609,0,144.6594,0.0,275.0936,0
GRID,8610,0,143.8212,0.0,273.4988,0
GRID,8611,0,142.983,0.0,271.904,0
GRID,8612,0,142.1448,0.0,270.3091,0
GRID,8613,0,141.3067,0.0,268.7143,0
GRID,8614,0,140.4685,0.0,267.1195,0
GRID,8615,0,186.4015,0.0,361.0163,0
GRID,8616,0,185.5752,0.0,359.4153,0
GRID,8617,0,184.7489,0.0,357.8143,0
GRID,8618,0,183.9226,0.0,356.2133,0
GRID,8619,0,183.0963,0.0,354.6123,0
GRID,8620,0,182.27,0.0,353.0113,0
GRID,8621,0,181.4437,0.0,351.4103,0
GRID,8622,0,180.6174,0.0,349.8092,0
GRID,8623,0,179.7911,0.0,348.2082,0
GRID,8624,0,178.9648,0.0,346.6072,0
GRID,8625,0,178.1385,0.0,345.0062,0
GRID,8626,0,177.3122,0.0,343.4052,0
GRID,8627,0,176.486,0.0,341.8042,0
GRID,8628,0,175.6597,0.0,340.2032,0
GRID,8629,0,174.8334,0.0,338.6022,0
GRID,8630,0,174.0071,0.0,337.0011,0
GRID,8631,0,173.1808,0.0,335.4001,0
GRID,8632,0,172.3545,0.0,333.7991,0
GRID,8633,0,171.5282,0.0,332.1981,0
GRID,8634,0,170.7019,0.0,330.5971,0
GRID,8635,0,169.8756,0.0,328.9961,0
GRID,8636,0,169.0493,0.0,327.3951,0
GRID,8637,0,168.223,0.0,325.7941,0
GRID,8638,0,167.3967,0.0,324.193,0
GRID,8639,0,166.5704,0.0,322.592,0
GRID,8640,0,165.7441,0.0,320.991,0
GRID,8641,0,164.9178,0.0,319.39,0
GRID,8642,0,164.0915,0.0,317.789,0
GRID,8643,0,163.2653,0.0,316.188,0
GRID,8644,0,162.439,0.0,314.587,0
GRID,8645,0,161.6127,0.0,312.986,0
GRID,8646,0,160.7864,0.0,311.3849,0
GRID,8647,0,159.9601,0.0,309.7839,0
GRID,8648,0,159.1338,0.0,308.1829,0
GRID,8649,0,158.3075,0.0,306.5819,0
GRID,8650,0,157.4812,0.0,304.9809,0
GRID,8651,0,156.6549,0.0,303.3799,0
GRID,8652,0,155.8286,0.0,301.7789,0
GRID,8653,0,155.0023,0.0,300.1779,0
GRID,8654,0,154.176,0.0,298.5768,0
GRID,8655,0,153.3497,0.0,296.9758,0
GRID,8656,0,152.5234,0.0,295.3748,0
GRID,8657,0,151.6971,0.0,293.7738,0
GRID,8658,0,150.8708,0.0,292.1728,0
GRID,8659,0,150.0445,0.0,290.5718,0
GRID,8660,0,149.2183,0.0,288.9708,0
GRID,8661,0,148.392,0.0,287.3698,0
GRID,8662,0,147.5657,0.0,285.7687,0
GRID,8663,0,146.7394,0.0,284.1677,0
GRID,8664,0,145.9131,0.0,282.5667,0
GRID,8665,0,145.0868,0.0,280.9657,0
GRID,8666,0,144.2605,0.0,279.3647,0
GRID,8667,0,143.4342,0.0,277.7637,0
GRID,8668,0,142.6079,0.0,276.1627,0
GRID,8669,0,141.7816,0.0,274.5617,0
GRID,8670,0,140.9553,0.0,272.9606,0
GRID,8671,0,140.129,0.0,271.3596,0
GRID,8672,0,139.3027,0.0,269.7586,0
GRID,8673,0,138.4764,0.0,268.1576,0
GRID,8674,0,183.7092,0.0,362.3938,0
GRID,8675,0,182.8948,0.0,360.7867,0
GRID,8676,0,182.0805,0.0,359.1795,0
GRID,8677,0,181.2661,0.0,357.5724,0
GRID,8678,0,180.4518,0.0,355.9653,0
GRID,8679,0,179.6374,0.0,354.3582,0
GRID,8680,0,178.8231,0.0,352.7511,0
GRID,8681,0,178.0087,0.0,351.1439,0
GRID,8682,0,177.1944,0.0,349.5368,0
GRID,8683,0,176.38,0.0,347.9297,0
GRID,8684,0,175.5656,0.0,346.3226,0
GRID,8685,0,174.7513,0.0,344.7155,0
GRID,8686,0,173.9369,0.0,343.1083,0
GRID,8687,0,173.1226,0.0,341.5012,0
GRID,8688,0,172.3082,0.0,339.8941,0
GRID,8689,0,171.4939,0.0,338.287,0
GRID,8690,0,170.6795,0.0,336.6799,0
GRID,8691,0,169.8652,0.0,335.0728,0
GRID,8692,0,169.0508,0.0,333.4656,0
GRID,8693,0,168.2365,0.0,331.8585,0
GRID,8694,0,167.4221,0.0,330.2514,0
GRID,8695,0,166.6078,0.0,328.6443,0
GRID,8696,0,165.7934,0.0,327.0372,0
GRID,8697,0,164.9791,0.0,325.43,0
GRID,8698,0,164.1647,0.0,323.8229,0
GRID,8699,0,163.3504,0.0,322.2158,0
GRID,8700,0,162.536,0.0,320.6087,0
GRID,8701,0,161.7217,0.0,319.0016,0
GRID,8702,0,160.9073,0.0,317.3944,0
GRID,8703,0,160.093,0.0,315.7873,0
GRID,8704,0,159.2786,0.0,314.1802,0
GRID,8705,0,158.4642,0.0,312.5731,0
GRID,8706,0,157.6499,0.0,310.966,0
GRID,8707,0,156.8355,0.0,309.3588,0
GRID,8708,0,156.0212,0.0,307.7517,0
GRID,8709,0,155.2068,0.0,306.1446,0
GRID,8710,0,154.3925,0.0,304.5375,0
GRID,8711,0,153.5781,0.0,302.9304,0
GRID,8712,0,152.7638,0.0,301.3232,0
GRID,8713,0,151.9494,0.0,299.7161,0
GRID,8714,0,151.1351,0.0,298.109,0
GRID,8715,0,150.3207,0.0,296.5019,0
GRID,8716,0,149.5064,0.0,294.8948,0
GRID,8717,0,148.692,0.0,293.2876,0
GRID,8718,0,147.8777,0.0,291.6805,0
GRID,8719,0,147.0633,0.0,290.0734,0
GRID,8720,0,146.249,0.0,288.4663,0
GRID,8721,0,145.4346,0.0,286.8592,0
GRID,8722,0,144.6203,0.0,285.252,0
GRID,8723,0,143.8059,0.0,283.6449,0
GRID,8724,0,142.9915,0.0,282.0378,0
GRID,8725,0,142.1772,0.0,280.4307,0
GRID,8726,0,141.3628,0.0,278.8236,0
GRID,8727,0,140.5485,0.0,277.2164,0
GRID,8728,0,139.7341,0.0,275.6093,0
GRID,8729,0,138.9198,0.0,274.0022,0
GRID,8730,0,138.1054,0.0,272.3951,0
GRID,8731,0,137.2911,0.0,270.788,0
GRID,8732,0,136.4767,0.0,269.1808,0
GRID,8733,0,181.0067,0.0,363.7512,0
GRID,8734,0,180.2043,0.0,362.138,0
GRID,8735,0,179.4019,0.0,360.5249,0
GRID,8736,0,178.5996,0.0,358.9117,0
GRID,8737,0,177.7972,0.0,357.2986,0
GRID,8738,0,176.9949,0.0,355.6855,0
GRID,8739,0,176.1925,0.0,354.0723,0
GRID,8740,0,175.3901,0.0,352.4592,0
GRID,8741,0,174.5878,0.0,350.8461,0
GRID,8742,0,173.7854,0.0,349.2329,0
GRID,8743,0,172.983,0.0,347.6198,0
GRID,8744,0,172.1807,0.0,346.0066,0
GRID,8745,0,171.3783,0.0,344.3935,0
GRID,8746,0,170.5759,0.0,342.7804,0
GRID,8747,0,169.7736,0.0,341.1672,0
GRID,8748,0,168.9712,0.0,339.5541,0
GRID,8749,0,168.1688,0.0,337.941,0
GRID,8750,0,167.3665,0.0,336.3278,0
GRID,8751,0,166.5641,0.0,334.7147,0
GRID,8752,0,165.7617,0.0,333.1015,0
GRID,8753,0,164.9594,0.0,331.4884,0
GRID,8754,0,164.157,0.0,329.8753,0
GRID,8755,0,163.3546,0.0,328.2621,0
GRID,8756,0,162.5523,0.0,326.649,0
GRID,8757,0,161.7499,0.0,325.0359,0
GRID,8758,0,160.9475,0.0,323.4227,0
GRID,8759,0,160.1452,0.0,321.8096,0
GRID,8760,0,159.3428,0.0,320.1964,0
GRID,8761,0,158.5404,0.0,318.5833,0
GRID,8762,0,157.7381,0.0,316.9702,0
GRID,8763,0,156.9357,0.0,315.357,0
GRID,8764,0,156.1333,0.0,313.7439,0
GRID,8765,0,155.331,0.0,312.1308,0
GRID,8766,0,154.5286,0.0,310.5176,0
GRID,8767,0,153.7262,0.0,308.9045,0
GRID,8768,0,152.9239,0.0,307.2913,0
GRID,8769,0,152.1215,0.0,305.6782,0
GRID,8770,0,151.3192,0.0,304.0651,0
GRID,8771,0,150.5168,0.0,302.4519,0
GRID,8772,0,149.7144,0.0,300.8388,0
GRID,8773,0,148.9121,0.0,299.2257,0
GRID,8774,0,148.1097,0.0,297.6125,0
GRID,8775,0,147.3073,0.0,295.9994,0
GRID,8776,0,146.505,0.0,294.3862,0
GRID,8777,0,145.7026,0.0,292.7731,0
GRID,8778,0,144.9002,0.0,291.16,0
GRID,8779,0,144.0979,0.0,289.5468,0
GRID,8780,0,143.2955,0.0,287.9337,0
GRID,8781,0,142.4931,0.0,286.3206,0
GRID,8782,0,141.6908,0.0,284.7074,0
GRID,8783,0,140.8884,0.0,283.0943,0
GRID,8784,0,140.086,0.0,281.4811,0
GRID,8785,0,139.2837,0.0,279.868,0
GRID,8786,0,138.4813,0.0,278.2549,0
GRID,8787,0,137.6789,0.0,276.6417,0
GRID,8788,0,136.8766,0.0,275.0286,0
GRID,8789,0,136.0742,0.0,273.4155,0
GRID,8790,0,135.2718,0.0,271.8023,0
GRID,8791,0,134.4695,0.0,270.1892,0
GRID,8792,0,178.2942,0.0,365.0884,0
GRID,8793,0,177.5038,0.0,363.4693,0
GRID,8794,0,176.7135,0.0,361.8502,0
GRID,8795,0,175.9232,0.0,360.2312,0
GRID,8796,0,175.1328,0.0,358.6121,0
GRID,8797,0,174.3425,0.0,356.993,0
GRID,8798,0,173.5522,0.0,355.374,0
GRID,8799,0,172.7618,0.0,353.7549,0
GRID,8800,0,171.9715,0.0,352.1358,0
GRID,8801,0,171.1812,0.0,350.5168,0
GRID,8802,0,170.3908,0.0,348.8977,0
GRID,8803,0,169.6005,0.0,347.2786,0
GRID,8804,0,168.8101,0.0,345.6596,0
GRID,8805,0,168.0198,0.0,344.0405,0
GRID,8806,0,167.2295,0.0,342.4215,0
GRID,8807,0,166.4391,0.0,340.8024,0
GRID,8808,0,165.6488,0.0,339.1833,0
GRID,8809,0,164.8585,0.0,337.5643,0
GRID,8810,0,164.0681,0.0,335.9452,0
GRID,8811,0,163.2778,0.0,334.3261,0
GRID,8812,0,162.4875,0.0,332.7071,0
GRID,8813,0,161.6971,0.0,331.088,0
GRID,8814,0,160.9068,0.0,329.4689,0
GRID,8815,0,160.1165,0.0,327.8499,0
GRID,8816,0,159.3261,0.0,326.2308,0
GRID,8817,0,158.5358,0.0,324.6117,0
GRID,8818,0,157.7455,0.0,322.9927,0
GRID,8819,0,156.9551,0.0,321.3736,0
GRID,8820,0,156.1648,0.0,319.7545,0
GRID,8821,0,155.3745,0.0,318.1355,0
GRID,8822,0,154.5841,0.0,316.5164,0
GRID,8823,0,153.7938,0.0,314.8973,0
GRID,8824,0,153.0035,0.0,313.2783,0
GRID,8825,0,152.2131,0.0,311.6592,0
GRID,8826,0,151.4228,0.0,310.0401,0
GRID,8827,0,150.6325,0.0,308.4211,0
GRID,8828,0,149.8421,0.0,306.802,0
GRID,8829,0,149.0518,0.0,305.1829,0
GRID,8830,0,148.2615,0.0,303.5639,0
GRID,8831,0,147.4711,0.0,301.9448,0
GRID,8832,0,146.6808,0.0,300.3257,0
GRID,8833,0,145.8904,0.0,298.7067,0
GRID,8834,0,145.1001,0.0,297.0876,0
GRID,8835,0,144.3098,0.0,295.4685,0
GRID,8836,0,143.5194,0.0,293.8495,0
GRID,8837,0,142.7291,0.0,292.2304,0
GRID,8838,0,141.9388,0.0,290.6113,0
GRID,8839,0,141.1484,0.0,288.9923,0
GRID,8840,0,140.3581,0.0,287.3732,0
GRID,8841,0,139.5678,0.0,285.7541,0
GRID,8842,0,138.7774,0.0,284.1351,0
GRID,8843,0,137.9871,0.0,282.516,0
GRID,8844,0,137.1968,0.0,280.8969,0
GRID,8845,0,136.4064,0.0,279.2779,0
GRID,8846,0,135.6161,0.0,277.6588,0
GRID,8847,0,134.8258,0.0,276.0397,0
GRID,8848,0,134.0354,0.0,274.4207,0
GRID,8849,0,133.2451,0.0,272.8016,0
GRID,8850,0,132.4548,0.0,271.1826,0
GRID,8851,0,175.5718,0.0,366.4054,0
GRID,8852,0,174.7935,0.0,364.7805,0
GRID,8853,0,174.0152,0.0,363.1555,0
GRID,8854,0,173.237,0.0,361.5306,0
GRID,8855,0,172.4587,0.0,359.9057,0
GRID,8856,0,171.6805,0.0,358.2808,0
GRID,8857,0,170.9022,0.0,356.6559,0
GRID,8858,0,170.1239,0.0,355.031,0
GRID,8859,0,169.3457,0.0,353.4061,0
GRID,8860,0,168.5674,0.0,351.7812,0
GRID,8861,0,167.7892,0.0,350.1563,0
GRID,8862,0,167.0109,0.0,348.5314,0
GRID,8863,0,166.2326,0.0,346.9065,0
GRID,8864,0,165.4544,0.0,345.2816,0
GRID,8865,0,164.6761,0.0,343.6567,0
GRID,8866,0,163.8979,0.0,342.0318,0
GRID,8867,0,163.1196,0.0,340.4069,0
GRID,8868,0,162.3414,0.0,338.782,0
GRID,8869,0,161.5631,0.0,337.1571,0
GRID,8870,0,160.7848,0.0,335.5322,0
GRID,8871,0,160.0066,0.0,333.9073,0
GRID,8872,0,159.2283,0.0,332.2824,0
GRID,8873,0,158.4501,0.0,330.6575,0
GRID,8874,0,157.6718,0.0,329.0326,0
GRID,8875,0,156.8935,0.0,327.4076,0
GRID,8876,0,156.1153,0.0,325.7827,0
GRID,8877,0,155.337,0.0,324.1578,0
GRID,8878,0,154.5588,0.0,322.5329,0
GRID,8879,0,153.7805,0.0,320.908,0
GRID,8880,0,153.0022,0.0,319.2831,0
GRID,8881,0,152.224,0.0,317.6582,0
GRID,8882,0,151.4457,0.0,316.0333,0
GRID,8883,0,150.6675,0.0,314.4084,0
GRID,8884,0,149.8892,0.0,312.7835,0
GRID,8885,0,149.1109,0.0,311.1586,0
GRID,8886,0,148.3327,0.0,309.5337,0
GRID,8887,0,147.5544,0.0,307.9088,0
GRID,8888,0,146.7762,0.0,306.2839,0
GRID,8889,0,145.9979,0.0,304.659,0
GRID,8890,0,145.2196,0.0,303.0341,0
GRID,8891,0,144.4414,0.0,301.4092,0
GRID,8892,0,143.6631,0.0,299.7843,0
GRID,8893,0,142.8849,0.0,298.1594,0
GRID,8894,0,142.1066,0.0,296.5345,0
GRID,8895,0,141.3283,0.0,294.9096,0
GRID,8896,0,140.5501,0.0,293.2847,0
GRID,8897,0,139.7718,0.0,291.6598,0
GRID,8898,0,138.9936,0.0,290.0348,0
GRID,8899,0,138.2153,0.0,288.4099,0
GRID,8900,0,137.4371,0.0,286.785,0
GRID,8901,0,136.6588,0.0,285.1601,0
GRID,8902,0,135.8805,0.0,283.5352,0
GRID,8903,0,135.1023,0.0,281.9103,0
GRID,8904,0,134.324,0.0,280.2854,0
GRID,8905,0,133.5458,0.0,278.6605,0
GRID,8906,0,132.7675,0.0,277.0356,0
GRID,8907,0,131.9892,0.0,275.4107,0
GRID,8908,0,131.211,0.0,273.7858,0
GRID,8909,0,130.4327,0.0,272.1609,0
GRID,8910,0,172.8396,0.0,367.702,0
GRID,8911,0,172.0735,0.0,366.0714,0
GRID,8912,0,171.3073,0.0,364.4407,0
GRID,8913,0,170.5412,0.0,362.8101,0
GRID,8914,0,169.7751,0.0,361.1794,0
GRID,8915,0,169.0089,0.0,359.5488,0
GRID,8916,0,168.2428,0.0,357.9181,0
GRID,8917,0,167.4766,0.0,356.2875,0
GRID,8918,0,166.7105,0.0,354.6568,0
GRID,8919,0,165.9444,0.0,353.0262,0
GRID,8920,0,165.1782,0.0,351.3955,0
GRID,8921,0,164.4121,0.0,349.7649,0
GRID,8922,0,163.6459,0.0,348.1342,0
GRID,8923,0,162.8798,0.0,346.5035,0
GRID,8924,0,162.1137,0.0,344.8729,0
GRID,8925,0,161.3475,0.0,343.2422,0
GRID,8926,0,160.5814,0.0,341.6116,0
GRID,8927,0,159.8152,0.0,339.9809,0
GRID,8928,0,159.0491,0.0,338.3503,0
GRID,8929,0,158.2829,0.0,336.7196,0
GRID,8930,0,157.5168,0.0,335.089,0
GRID,8931,0,156.7507,0.0,333.4583,0
GRID,8932,0,155.9845,0.0,331.8277,0
GRID,8933,0,155.2184,0.0,330.197,0
GRID,8934,0,154.4522,0.0,328.5664,0
GRID,8935,0,153.6861,0.0,326.9357,0
GRID,8936,0,152.92,0.0,325.3051,0
GRID,8937,0,152.1538,0.0,323.6744,0
GRID,8938,0,151.3877,0.0,322.0438,0
GRID,8939,0,150.6215,0.0,320.4131,0
GRID,8940,0,149.8554,0.0,318.7824,0
GRID,8941,0,149.0893,0.0,317.1518,0
GRID,8942,0,148.3231,0.0,315.5211,0
GRID,8943,0,147.557,0.0,313.8905,0
GRID,8944,0,146.7908,0.0,312.2598,0
GRID,8945,0,146.0247,0.0,310.6292,0
GRID,8946,0,145.2585,0.0,308.9985,0
GRID,8947,0,144.4924,0.0,307.3679,0
GRID,8948,0,143.7263,0.0,305.7372,0
GRID,8949,0,142.9601,0.0,304.1066,0
GRID,8950,0,142.194,0.0,302.4759,0
GRID,8951,0,141.4278,0.0,300.8453,0
GRID,8952,0,140.6617,0.0,299.2146,0
GRID,8953,0,139.8956,0.0,297.584,0
GRID,8954,0,139.1294,0.0,295.9533,0
GRID,8955,0,138.3633,0.0,294.3227,0
GRID,8956,0,137.5971,0.0,292.692,0
GRID,8957,0,136.831,0.0,291.0613,0
GRID,8958,0,136.0649,0.0,289.4307,0
GRID,8959,0,135.2987,0.0,287.8,0
GRID,8960,0,134.5326,0.0,286.1694,0
GRID,8961,0,133.7664,0.0,284.5387,0
GRID,8962,0,133.0003,0.0,282.9081,0
GRID,8963,0,132.2341,0.0,281.2774,0
GRID,8964,0,131.468,0.0,279.6468,0
GRID,8965,0,130.7019,0.0,278.0161,0
GRID,8966,0,129.9357,0.0,276.3855,0
GRID,8967,0,129.1696,0.0,274.7548,0
GRID,8968,0,128.4034,0.0,273.1242,0
GRID,8969,0,170.0979,0.0,368.9783,0
GRID,8970,0,169.3439,0.0,367.342,0
GRID,8971,0,168.59,0.0,365.7057,0
GRID,8972,0,167.836,0.0,364.0694,0
GRID,8973,0,167.082,0.0,362.4331,0
GRID,8974,0,166.328,0.0,360.7968,0
GRID,8975,0,165.574,0.0,359.1605,0
GRID,8976,0,164.8201,0.0,357.5242,0
GRID,8977,0,164.0661,0.0,355.8878,0
GRID,8978,0,163.3121,0.0,354.2515,0
GRID,8979,0,162.5581,0.0,352.6152,0
GRID,8980,0,161.8041,0.0,350.9789,0
GRID,8981,0,161.0502,0.0,349.3426,0
GRID,8982,0,160.2962,0.0,347.7063,0
GRID,8983,0,159.5422,0.0,346.07,0
GRID,8984,0,158.7882,0.0,344.4337,0
GRID,8985,0,158.0342,0.0,342.7974,0
GRID,8986,0,157.2803,0.0,341.161,0
GRID,8987,0,156.5263,0.0,339.5247,0
GRID,8988,0,155.7723,0.0,337.8884,0
GRID,8989,0,155.0183,0.0,336.2521,0
GRID,8990,0,154.2643,0.0,334.6158,0
GRID,8991,0,153.5104,0.0,332.9795,0
GRID,8992,0,152.7564,0.0,331.3432,0
GRID,8993,0,152.0024,0.0,329.7069,0
GRID,8994,0,151.2484,0.0,328.0706,0
GRID,8995,0,150.4944,0.0,326.4342,0
GRID,8996,0,149.7404,0.0,324.7979,0
GRID,8997,0,148.9865,0.0,323.1616,0
GRID,8998,0,148.2325,0.0,321.5253,0
GRID,8999,0,147.4785,0.0,319.889,0
GRID,9000,0,146.7245,0.0,318.2527,0
GRID,9001,0,145.9705,0.0,316.6164,0
GRID,9002,0,145.2166,0.0,314.9801,0
GRID,9003,0,144.4626,0.0,313.3438,0
GRID,9004,0,143.7086,0.0,311.7074,0
GRID,9005,0,142.9546,0.0,310.0711,0
GRID,9006,0,142.2006,0.0,308.4348,0
GRID,9007,0,141.4467,0.0,306.7985,0
GRID,9008,0,140.6927,0.0,305.1622,0
GRID,9009,0,139.9387,0.0,303.5259,0
GRID,9010,0,139.1847,0.0,301.8896,0
GRID,9011,0,138.4307,0.0,300.2533,0
GRID,9012,0,137.6768,0.0,298.617,0
GRID,9013,0,136.9228,0.0,296.9806,0
GRID,9014,0,136.1688,0.0,295.3443,0
GRID,9015,0,135.4148,0.0,293.708,0
GRID,9016,0,134.6608,0.0,292.0717,0
GRID,9017,0,133.9069,0.0,290.4354,0
GRID,9018,0,133.1529,0.0,288.7991,0
GRID,9019,0,132.3989,0.0,287.1628,0
GRID,9020,0,131.6449,0.0,285.5265,0
GRID,9021,0,130.8909,0.0,283.8902,0
GRID,9022,0,130.137,0.0,282.2538,0
GRID,9023,0,129.383,0.0,280.6175,0
GRID,9024,0,128.629,0.0,278.9812,0
GRID,9025,0,127.875,0.0,277.3449,0
GRID,9026,0,127.121,0.0,275.7086,0
GRID,9027,0,126.3671,0.0,274.0723,0
GRID,9028,0,167.3468,0.0,370.2342,0
GRID,9029,0,166.605,0.0,368.5923,0
GRID,9030,0,165.8632,0.0,366.9504,0
GRID,9031,0,165.1215,0.0,365.3086,0
GRID,9032,0,164.3797,0.0,363.6667,0
GRID,9033,0,163.6379,0.0,362.0248,0
GRID,9034,0,162.8961,0.0,360.3829,0
GRID,9035,0,162.1543,0.0,358.741,0
GRID,9036,0,161.4126,0.0,357.0992,0
GRID,9037,0,160.6708,0.0,355.4573,0
GRID,9038,0,159.929,0.0,353.8154,0
GRID,9039,0,159.1872,0.0,352.1735,0
GRID,9040,0,158.4455,0.0,350.5316,0
GRID,9041,0,157.7037,0.0,348.8898,0
GRID,9042,0,156.9619,0.0,347.2479,0
GRID,9043,0,156.2201,0.0,345.606,0
GRID,9044,0,155.4783,0.0,343.9641,0
GRID,9045,0,154.7366,0.0,342.3223,0
GRID,9046,0,153.9948,0.0,340.6804,0
GRID,9047,0,153.253,0.0,339.0385,0
GRID,9048,0,152.5112,0.0,337.3966,0
GRID,9049,0,151.7695,0.0,335.7547,0
GRID,9050,0,151.0277,0.0,334.1129,0
GRID,9051,0,150.2859,0.0,332.471,0
GRID,9052,0,149.5441,0.0,330.8291,0
GRID,9053,0,148.8023,0.0,329.1872,0
GRID,9054,0,148.0606,0.0,327.5453,0
GRID,9055,0,147.3188,0.0,325.9035,0
GRID,9056,0,146.577,0.0,324.2616,0
GRID,9057,0,145.8352,0.0,322.6197,0
GRID,9058,0,145.0934,0.0,320.9778,0
GRID,9059,0,144.3517,0.0,319.336,0
GRID,9060,0,143.6099,0.0,317.6941,0
GRID,9061,0,142.8681,0.0,316.0522,0
GRID,9062,0,142.1263,0.0,314.4103,0
GRID,9063,0,141.3846,0.0,312.7684,0
GRID,9064,0,140.6428,0.0,311.1266,0
GRID,9065,0,139.901,0.0,309.4847,0
GRID,9066,0,139.1592,0.0,307.8428,0
GRID,9067,0,138.4174,0.0,306.2009,0
GRID,9068,0,137.6757,0.0,304.559,0
GRID,9069,0,136.9339,0.0,302.9172,0
GRID,9070,0,136.1921,0.0,301.2753,0
GRID,9071,0,135.4503,0.0,299.6334,0
GRID,9072,0,134.7086,0.0,297.9915,0
GRID,9073,0,133.9668,0.0,296.3496,0
GRID,9074,0,133.225,0.0,294.7078,0
GRID,9075,0,132.4832,0.0,293.0659,0
GRID,9076,0,131.7414,0.0,291.424,0
GRID,9077,0,130.9997,0.0,289.7821,0
GRID,9078,0,130.2579,0.0,288.1403,0
GRID,9079,0,129.5161,0.0,286.4984,0
GRID,9080,0,128.7743,0.0,284.8565,0
GRID,9081,0,128.0325,0.0,283.2146,0
GRID,9082,0,127.2908,0.0,281.5727,0
GRID,9083,0,126.549,0.0,279.9309,0
GRID,9084,0,125.8072,0.0,278.289,0
GRID,9085,0,125.0654,0.0,276.6471,0
GRID,9086,0,124.3237,0.0,275.0052,0
GRID,9087,0,164.5864,0.0,371.4695,0
GRID,9088,0,163.8569,0.0,369.8222,0
GRID,9089,0,163.1273,0.0,368.1748,0
GRID,9090,0,162.3978,0.0,366.5275,0
GRID,9091,0,161.6683,0.0,364.8801,0
GRID,9092,0,160.9387,0.0,363.2328,0
GRID,9093,0,160.2092,0.0,361.5854,0
GRID,9094,0,159.4796,0.0,359.9381,0
GRID,9095,0,158.7501,0.0,358.2907,0
GRID,9096,0,158.0206,0.0,356.6433,0
GRID,9097,0,157.291,0.0,354.996,0
GRID,9098,0,156.5615,0.0,353.3486,0
GRID,9099,0,155.832,0.0,351.7013,0
GRID,9100,0,155.1024,0.0,350.0539,0
GRID,9101,0,154.3729,0.0,348.4066,0
GRID,9102,0,153.6434,0.0,346.7592,0
GRID,9103,0,152.9138,0.0,345.1119,0
GRID,9104,0,152.1843,0.0,343.4645,0
GRID,9105,0,151.4548,0.0,341.8171,0
GRID,9106,0,150.7252,0.0,340.1698,0
GRID,9107,0,149.9957,0.0,338.5224,0
GRID,9108,0,149.2662,0.0,336.8751,0
GRID,9109,0,148.5366,0.0,335.2277,0
GRID,9110,0,147.8071,0.0,333.5804,0
GRID,9111,0,147.0776,0.0,331.933,0
GRID,9112,0,146.348,0.0,330.2857,0
GRID,9113,0,145.6185,0.0,328.6383,0
GRID,9114,0,144.889,0.0,326.9909,0
GRID,9115,0,144.1594,0.0,325.3436,0
GRID,9116,0,143.4299,0.0,323.6962,0
GRID,9117,0,142.7003,0.0,322.0489,0
GRID,9118,0,141.9708,0.0,320.4015,0
GRID,9119,0,141.2413,0.0,318.7542,0
GRID,9120,0,140.5117,0.0,317.1068,0
GRID,9121,0,139.7822,0.0,315.4595,0
GRID,9122,0,139.0527,0.0,313.8121,0
GRID,9123,0,138.3231,0.0,312.1647,0
GRID,9124,0,137.5936,0.0,310.5174,0
GRID,9125,0,136.8641,0.0,308.87,0
GRID,9126,0,136.1345,0.0,307.2227,0
GRID,9127,0,135.405,0.0,305.5753,0
GRID,9128,0,134.6755,0.0,303.928,0
GRID,9129,0,133.9459,0.0,302.2806,0
GRID,9130,0,133.2164,0.0,300.6333,0
GRID,9131,0,132.4869,0.0,298.9859,0
GRID,9132,0,131.7573,0.0,297.3385,0
GRID,9133,0,131.0278,0.0,295.6912,0
GRID,9134,0,130.2983,0.0,294.0438,0
GRID,9135,0,129.5687,0.0,292.3965,0
GRID,9136,0,128.8392,0.0,290.7491,0
GRID,9137,0,128.1097,0.0,289.1018,0
GRID,9138,0,127.3801,0.0,287.4544,0
GRID,9139,0,126.6506,0.0,285.8071,0
GRID,9140,0,125.921,0.0,284.1597,0
GRID,9141,0,125.1915,0.0,282.5123,0
GRID,9142,0,124.462,0.0,280.865,0
GRID,9143,0,123.7324,0.0,279.2176,0
GRID,9144,0,123.0029,0.0,277.5703,0
GRID,9145,0,122.2734,0.0,275.9229,0
GRID,9146,0,161.8169,0.0,372.6843,0
GRID,9147,0,161.0996,0.0,371.0316,0
GRID,9148,0,160.3824,0.0,369.3788,0
GRID,9149,0,159.6651,0.0,367.7261,0
GRID,9150,0,158.9479,0.0,366.0734,0
GRID,9151,0,158.2306,0.0,364.4206,0
GRID,9152,0,157.5134,0.0,362.7679,0
GRID,9153,0,156.7961,0.0,361.1151,0
GRID,9154,0,156.0789,0.0,359.4624,0
GRID,9155,0,155.3616,0.0,357.8096,0
GRID,9156,0,154.6444,0.0,356.1569,0
GRID,9157,0,153.9271,0.0,354.5042,0
GRID,9158,0,153.2099,0.0,352.8514,0
GRID,9159,0,152.4926,0.0,351.1987,0
GRID,9160,0,151.7754,0.0,349.5459,0
GRID,9161,0,151.0581,0.0,347.8932,0
GRID,9162,0,150.3409,0.0,346.2405,0
GRID,9163,0,149.6236,0.0,344.5877,0
GRID,9164,0,148.9064,0.0,342.935,0
GRID,9165,0,148.1891,0.0,341.2822,0
GRID,9166,0,147.4719,0.0,339.6295,0
GRID,9167,0,146.7546,0.0,337.9768,0
GRID,9168,0,146.0374,0.0,336.324,0
GRID,9169,0,145.3201,0.0,334.6713,0
GRID,9170,0,144.6028,0.0,333.0185,0
GRID,9171,0,143.8856,0.0,331.3658,0
GRID,9172,0,143.1683,0.0,329.713,0
GRID,9173,0,142.4511,0.0,328.0603,0
GRID,9174,0,141.7338,0.0,326.4076,0
GRID,9175,0,141.0166,0.0,324.7548,0
GRID,9176,0,140.2993,0.0,323.1021,0
GRID,9177,0,139.5821,0.0,321.4493,0
GRID,9178,0,138.8648,0.0,319.7966,0
GRID,9179,0,138.1476,0.0,318.1439,0
GRID,9180,0,137.4303,0.0,316.4911,0
GRID,9181,0,136.7131,0.0,314.8384,0
GRID,9182,0,135.9958,0.0,313.1856,0
GRID,9183,0,135.2786,0.0,311.5329,0
GRID,9184,0,134.5613,0.0,309.8802,0
GRID,9185,0,133.8441,0.0,308.2274,0
GRID,9186,0,133.1268,0.0,306.5747,0
GRID,9187,0,132.4096,0.0,304.9219,0
GRID,9188,0,131.6923,0.0,303.2692,0
GRID,9189,0,130.9751,0.0,301.6165,0
GRID,9190,0,130.2578,0.0,299.9637,0
GRID,9191,0,129.5406,0.0,298.311,0
GRID,9192,0,128.8233,0.0,296.6582,0
GRID,9193,0,128.1061,0.0,295.0055,0
GRID,9194,0,127.3888,0.0,293.3527,0
GRID,9195,0,126.6716,0.0,291.7,0
GRID,9196,0,125.9543,0.0,290.0473,0
GRID,9197,0,125.2371,0.0,288.3945,0
GRID,9198,0,124.5198,0.0,286.7418,0
GRID,9199,0,123.8026,0.0,285.089,0
GRID,9200,0,123.0853,0.0,283.4363,0
GRID,9201,0,122.3681,0.0,281.7836,0
GRID,9202,0,121.6508,0.0,280.1308,0
GRID,9203,0,120.9336,0.0,278.4781,0
GRID,9204,0,120.2163,0.0,276.8253,0
GRID,9205,0,159.0384,0.0,373.8784,0
GRID,9206,0,158.3335,0.0,372.2204,0
GRID,9207,0,157.6285,0.0,370.5624,0
GRID,9208,0,156.9236,0.0,368.9043,0
GRID,9209,0,156.2187,0.0,367.2463,0
GRID,9210,0,155.5138,0.0,365.5883,0
GRID,9211,0,154.8088,0.0,363.9302,0
GRID,9212,0,154.1039,0.0,362.2722,0
GRID,9213,0,153.399,0.0,360.6142,0
GRID,9214,0,152.694,0.0,358.9561,0
GRID,9215,0,151.9891,0.0,357.2981,0
GRID,9216,0,151.2842,0.0,355.6401,0
GRID,9217,0,150.5793,0.0,353.982,0
GRID,9218,0,149.8743,0.0,352.324,0
GRID,9219,0,149.1694,0.0,350.666,0
GRID,9220,0,148.4645,0.0,349.0079,0
GRID,9221,0,147.7596,0.0,347.3499,0
GRID,9222,0,147.0546,0.0,345.6919,0
GRID,9223,0,146.3497,0.0,344.0338,0
GRID,9224,0,145.6448,0.0,342.3758,0
GRID,9225,0,144.9398,0.0,340.7177,0
GRID,9226,0,144.2349,0.0,339.0597,0
GRID,9227,0,143.53,0.0,337.4017,0
GRID,9228,0,142.8251,0.0,335.7436,0
GRID,9229,0,142.1201,0.0,334.0856,0
GRID,9230,0,141.4152,0.0,332.4276,0
GRID,9231,0,140.7103,0.0,330.7695,0
GRID,9232,0,140.0054,0.0,329.1115,0
GRID,9233,0,139.3004,0.0,327.4535,0
GRID,9234,0,138.5955,0.0,325.7954,0
GRID,9235,0,137.8906,0.0,324.1374,0
GRID,9236,0,137.1856,0.0,322.4794,0
GRID,9237,0,136.4807,0.0,320.8213,0
GRID,9238,0,135.7758,0.0,319.1633,0
GRID,9239,0,135.0709,0.0,317.5053,0
GRID,9240,0,134.3659,0.0,315.8472,0
GRID,9241,0,133.661,0.0,314.1892,0
GRID,9242,0,132.9561,0.0,312.5312,0
GRID,9243,0,132.2512,0.0,310.8731,0
GRID,9244,0,131.5462,0.0,309.2151,0
GRID,9245,0,130.8413,0.0,307.557,0
GRID,9246,0,130.1364,0.0,305.899,0
GRID,9247,0,129.4314,0.0,304.241,0
GRID,9248,0,128.7265,0.0,302.5829,0
GRID,9249,0,128.0216,0.0,300.9249,0
GRID,9250,0,127.3167,0.0,299.2669,0
GRID,9251,0,126.6117,0.0,297.6088,0
GRID,9252,0,125.9068,0.0,295.9508,0
GRID,9253,0,125.2019,0.0,294.2928,0
GRID,9254,0,124.4969,0.0,292.6347,0
GRID,9255,0,123.792,0.0,290.9767,0
GRID,9256,0,123.0871,0.0,289.3187,0
GRID,9257,0,122.3822,0.0,287.6606,0
GRID,9258,0,121.6772,0.0,286.0026,0
GRID,9259,0,120.9723,0.0,284.3446,0
GRID,9260,0,120.2674,0.0,282.6865,0
GRID,9261,0,119.5625,0.0,281.0285,0
GRID,9262,0,118.8575,0.0,279.3705,0
GRID,9263,0,118.1526,0.0,277.7124,0
GRID,9264,0,156.2511,0.0,375.0519,0
GRID,9265,0,155.5585,0.0,373.3886,0
GRID,9266,0,154.866,0.0,371.7254,0
GRID,9267,0,154.1734,0.0,370.0622,0
GRID,9268,0,153.4808,0.0,368.3989,0
GRID,9269,0,152.7883,0.0,366.7357,0
GRID,9270,0,152.0957,0.0,365.0724,0
GRID,9271,0,151.4031,0.0,363.4092,0
GRID,9272,0,150.7106,0.0,361.746,0
GRID,9273,0,150.018,0.0,360.0827,0
GRID,9274,0,149.3255,0.0,358.4195,0
GRID,9275,0,148.6329,0.0,356.7563,0
GRID,9276,0,147.9403,0.0,355.093,0
GRID,9277,0,147.2478,0.0,353.4298,0
GRID,9278,0,146.5552,0.0,351.7665,0
GRID,9279,0,145.8626,0.0,350.1033,0
GRID,9280,0,145.1701,0.0,348.4401,0
GRID,9281,0,144.4775,0.0,346.7768,0
GRID,9282,0,143.7849,0.0,345.1136,0
GRID,9283,0,143.0924,0.0,343.4504,0
GRID,9284,0,142.3998,0.0,341.7871,0
GRID,9285,0,141.7072,0.0,340.1239,0
GRID,9286,0,141.0147,0.0,338.4607,0
GRID,9287,0,140.3221,0.0,336.7974,0
GRID,9288,0,139.6295,0.0,335.1342,0
GRID,9289,0,138.937,0.0,333.4709,0
GRID,9290,0,138.2444,0.0,331.8077,0
GRID,9291,0,137.5519,0.0,330.1445,0
GRID,9292,0,136.8593,0.0,328.4812,0
GRID,9293,0,136.1667,0.0,326.818,0
GRID,9294,0,135.4742,0.0,325.1548,0
GRID,9295,0,134.7816,0.0,323.4915,0
GRID,9296,0,134.089,0.0,321.8283,0
GRID,9297,0,133.3965,0.0,320.165,0
GRID,9298,0,132.7039,0.0,318.5018,0
GRID,9299,0,132.0113,0.0,316.8386,0
GRID,9300,0,131.3188,0.0,315.1753,0
GRID,9301,0,130.6262,0.0,313.5121,0
GRID,9302,0,129.9336,0.0,311.8489,0
GRID,9303,0,129.2411,0.0,310.1856,0
GRID,9304,0,128.5485,0.0,308.5224,0
GRID,9305,0,127.8559,0.0,306.8591,0
GRID,9306,0,127.1634,0.0,305.1959,0
GRID,9307,0,126.4708,0.0,303.5327,0
GRID,9308,0,125.7782,0.0,301.8694,0
GRID,9309,0,125.0857,0.0,300.2062,0
GRID,9310,0,124.3931,0.0,298.543,0
GRID,9311,0,123.7006,0.0,296.8797,0
GRID,9312,0,123.008,0.0,295.2165,0
GRID,9313,0,122.3154,0.0,293.5532,0
GRID,9314,0,121.6229,0.0,291.89,0
GRID,9315,0,120.9303,0.0,290.2268,0
GRID,9316,0,120.2377,0.0,288.5635,0
GRID,9317,0,119.5452,0.0,286.9003,0
GRID,9318,0,118.8526,0.0,285.2371,0
GRID,9319,0,118.16,0.0,283.5738,0
GRID,9320,0,117.4675,0.0,281.9106,0
GRID,9321,0,116.7749,0.0,280.2474,0
GRID,9322,0,116.0823,0.0,278.5841,0
GRID,9323,0,153.4552,0.0,376.2045,0
GRID,9324,0,152.775,0.0,374.5362,0
GRID,9325,0,152.0948,0.0,372.8678,0
GRID,9326,0,151.4147,0.0,371.1995,0
GRID,9327,0,150.7345,0.0,369.5311,0
GRID,9328,0,150.0543,0.0,367.8628,0
GRID,9329,0,149.3742,0.0,366.1944,0
GRID,9330,0,148.694,0.0,364.5261,0
GRID,9331,0,148.0138,0.0,362.8577,0
GRID,9332,0,147.3337,0.0,361.1894,0
GRID,9333,0,146.6535,0.0,359.521,0
GRID,9334,0,145.9734,0.0,357.8527,0
GRID,9335,0,145.2932,0.0,356.1843,0
GRID,9336,0,144.613,0.0,354.516,0
GRID,9337,0,143.9329,0.0,352.8477,0
GRID,9338,0,143.2527,0.0,351.1793,0
GRID,9339,0,142.5725,0.0,349.511,0
GRID,9340,0,141.8924,0.0,347.8426,0
GRID,9341,0,141.2122,0.0,346.1743,0
GRID,9342,0,140.532,0.0,344.5059,0
GRID,9343,0,139.8519,0.0,342.8376,0
GRID,9344,0,139.1717,0.0,341.1692,0
GRID,9345,0,138.4915,0.0,339.5009,0
GRID,9346,0,137.8114,0.0,337.8325,0
GRID,9347,0,137.1312,0.0,336.1642,0
GRID,9348,0,136.4511,0.0,334.4958,0
GRID,9349,0,135.7709,0.0,332.8275,0
GRID,9350,0,135.0907,0.0,331.1591,0
GRID,9351,0,134.4106,0.0,329.4908,0
GRID,9352,0,133.7304,0.0,327.8224,0
GRID,9353,0,133.0502,0.0,326.1541,0
GRID,9354,0,132.3701,0.0,324.4858,0
GRID,9355,0,131.6899,0.0,322.8174,0
GRID,9356,0,131.0097,0.0,321.1491,0
GRID,9357,0,130.3296,0.0,319.4807,0
GRID,9358,0,129.6494,0.0,317.8124,0
GRID,9359,0,128.9693,0.0,316.144,0
GRID,9360,0,128.2891,0.0,314.4757,0
GRID,9361,0,127.6089,0.0,312.8073,0
GRID,9362,0,126.9288,0.0,311.139,0
GRID,9363,0,126.2486,0.0,309.4706,0
GRID,9364,0,125.5684,0.0,307.8023,0
GRID,9365,0,124.8883,0.0,306.1339,0
GRID,9366,0,124.2081,0.0,304.4656,0
GRID,9367,0,123.5279,0.0,302.7972,0
GRID,9368,0,122.8478,0.0,301.1289,0
GRID,9369,0,122.1676,0.0,299.4605,0
GRID,9370,0,121.4875,0.0,297.7922,0
GRID,9371,0,120.8073,0.0,296.1239,0
GRID,9372,0,120.1271,0.0,294.4555,0
GRID,9373,0,119.447,0.0,292.7872,0
GRID,9374,0,118.7668,0.0,291.1188,0
GRID,9375,0,118.0866,0.0,289.4505,0
GRID,9376,0,117.4065,0.0,287.7821,0
GRID,9377,0,116.7263,0.0,286.1138,0
GRID,9378,0,116.0461,0.0,284.4454,0
GRID,9379,0,115.366,0.0,282.7771,0
GRID,9380,0,114.6858,0.0,281.1087,0
GRID,9381,0,114.0057,0.0,279.4404,0
GRID,9382,0,150.6507,0.0,377.3363,0
GRID,9383,0,149.983,0.0,375.6629,0
GRID,9384,0,149.3153,0.0,373.9896,0
GRID,9385,0,148.6475,0.0,372.3162,0
GRID,9386,0,147.9798,0.0,370.6428,0
GRID,9387,0,147.3121,0.0,368.9695,0
GRID,9388,0,146.6444,0.0,367.2961,0
GRID,9389,0,145.9766,0.0,365.6228,0
GRID,9390,0,145.3089,0.0,363.9494,0
GRID,9391,0,144.6412,0.0,362.276,0
GRID,9392,0,143.9735,0.0,360.6027,0
GRID,9393,0,143.3057,0.0,358.9293,0
GRID,9394,0,142.638,0.0,357.2559,0
GRID,9395,0,141.9703,0.0,355.5826,0
GRID,9396,0,141.3026,0.0,353.9092,0
GRID,9397,0,140.6348,0.0,352.2358,0
GRID,9398,0,139.9671,0.0,350.5625,0
GRID,9399,0,139.2994,0.0,348.8891,0
GRID,9400,0,138.6317,0.0,347.2158,0
GRID,9401,0,137.9639,0.0,345.5424,0
GRID,9402,0,137.2962,0.0,343.869,0
GRID,9403,0,136.6285,0.0,342.1957,0
GRID,9404,0,135.9608,0.0,340.5223,0
GRID,9405,0,135.293,0.0,338.8489,0
GRID,9406,0,134.6253,0.0,337.1756,0
GRID,9407,0,133.9576,0.0,335.5022,0
GRID,9408,0,133.2899,0.0,333.8288,0
GRID,9409,0,132.6221,0.0,332.1555,0
GRID,9410,0,131.9544,0.0,330.4821,0
GRID,9411,0,131.2867,0.0,328.8087,0
GRID,9412,0,130.619,0.0,327.1354,0
GRID,9413,0,129.9512,0.0,325.462,0
GRID,9414,0,129.2835,0.0,323.7887,0
GRID,9415,0,128.6158,0.0,322.1153,0
GRID,9416,0,127.9481,0.0,320.4419,0
GRID,9417,0,127.2803,0.0,318.7686,0
GRID,9418,0,126.6126,0.0,317.0952,0
GRID,9419,0,125.9449,0.0,315.4218,0
GRID,9420,0,125.2772,0.0,313.7485,0
GRID,9421,0,124.6094,0.0,312.0751,0
GRID,9422,0,123.9417,0.0,310.4017,0
GRID,9423,0,123.274,0.0,308.7284,0
GRID,9424,0,122.6063,0.0,307.055,0
GRID,9425,0,121.9385,0.0,305.3816,0
GRID,9426,0,121.2708,0.0,303.7083,0
GRID,9427,0,120.6031,0.0,302.0349,0
GRID,9428,0,119.9354,0.0,300.3616,0
GRID,9429,0,119.2676,0.0,298.6882,0
GRID,9430,0,118.5999,0.0,297.0148,0
GRID,9431,0,117.9322,0.0,295.3415,0
GRID,9432,0,117.2645,0.0,293.6681,0
GRID,9433,0,116.5967,0.0,291.9947,0
GRID,9434,0,115.929,0.0,290.3214,0
GRID,9435,0,115.2613,0.0,288.648,0
GRID,9436,0,114.5936,0.0,286.9746,0
GRID,9437,0,113.9258,0.0,285.3013,0
GRID,9438,0,113.2581,0.0,283.6279,0
GRID,9439,0,112.5904,0.0,281.9545,0
GRID,9440,0,111.9227,0.0,280.2812,0
GRID,9441,0,147.8379,0.0,378.4472,0
GRID,9442,0,147.1827,0.0,376.7689,0
GRID,9443,0,146.5274,0.0,375.0906,0
GRID,9444,0,145.8722,0.0,373.4123,0
GRID,9445,0,145.2169,0.0,371.734,0
GRID,9446,0,144.5617,0.0,370.0558,0
GRID,9447,0,143.9064,0.0,368.3775,0
GRID,9448,0,143.2512,0.0,366.6992,0
GRID,9449,0,142.5959,0.0,365.0209,0
GRID,9450,0,141.9407,0.0,363.3426,0
GRID,9451,0,141.2854,0.0,361.6643,0
GRID,9452,0,140.6302,0.0,359.986,0
GRID,9453,0,139.9749,0.0,358.3077,0
GRID,9454,0,139.3197,0.0,356.6294,0
GRID,9455,0,138.6644,0.0,354.9512,0
GRID,9456,0,138.0092,0.0,353.2729,0
GRID,9457,0,137.3539,0.0,351.5946,0
GRID,9458,0,136.6987,0.0,349.9163,0
GRID,9459,0,136.0434,0.0,348.238,0
GRID,9460,0,135.3882,0.0,346.5597,0
GRID,9461,0,134.7329,0.0,344.8814,0
GRID,9462,0,134.0777,0.0,343.2031,0
GRID,9463,0,133.4224,0.0,341.5248,0
GRID,9464,0,132.7672,0.0,339.8466,0
GRID,9465,0,132.1119,0.0,338.1683,0
GRID,9466,0,131.4567,0.0,336.49,0
GRID,9467,0,130.8014,0.0,334.8117,0
GRID,9468,0,130.1462,0.0,333.1334,0
GRID,9469,0,129.4909,0.0,331.4551,0
GRID,9470,0,128.8357,0.0,329.7768,0
GRID,9471,0,128.1804,0.0,328.0985,0
GRID,9472,0,127.5252,0.0,326.4202,0
GRID,9473,0,126.8699,0.0,324.742,0
GRID,9474,0,126.2147,0.0,323.0637,0
GRID,9475,0,125.5594,0.0,321.3854,0
GRID,9476,0,124.9042,0.0,319.7071,0
GRID,9477,0,124.2489,0.0,318.0288,0
GRID,9478,0,123.5937,0.0,316.3505,0
GRID,9479,0,122.9384,0.0,314.6722,0
GRID,9480,0,122.2832,0.0,312.9939,0
GRID,9481,0,121.6279,0.0,311.3156,0
GRID,9482,0,120.9727,0.0,309.6374,0
GRID,9483,0,120.3174,0.0,307.9591,0
GRID,9484,0,119.6622,0.0,306.2808,0
GRID,9485,0,119.0069,0.0,304.6025,0
GRID,9486,0,118.3517,0.0,302.9242,0
GRID,9487,0,117.6964,0.0,301.2459,0
GRID,9488,0,117.0412,0.0,299.5676,0
GRID,9489,0,116.3859,0.0,297.8893,0
GRID,9490,0,115.7307,0.0,296.211,0
GRID,9491,0,115.0754,0.0,294.5328,0
GRID,9492,0,114.4202,0.0,292.8545,0
GRID,9493,0,113.7649,0.0,291.1762,0
GRID,9494,0,113.1097,0.0,289.4979,0
GRID,9495,0,112.4544,0.0,287.8196,0
GRID,9496,0,111.7992,0.0,286.1413,0
GRID,9497,0,111.144,0.0,284.463,0
GRID,9498,0,110.4887,0.0,282.7847,0
GRID,9499,0,109.8335,0.0,281.1065,0
GRID,9500,0,145.0169,0.0,379.5371,0
GRID,9501,0,144.3742,0.0,377.854,0
GRID,9502,0,143.7314,0.0,376.1709,0
GRID,9503,0,143.0887,0.0,374.4877,0
GRID,9504,0,142.446,0.0,372.8046,0
GRID,9505,0,141.8032,0.0,371.1215,0
GRID,9506,0,141.1605,0.0,369.4384,0
GRID,9507,0,140.5178,0.0,367.7553,0
GRID,9508,0,139.875,0.0,366.0721,0
GRID,9509,0,139.2323,0.0,364.389,0
GRID,9510,0,138.5895,0.0,362.7059,0
GRID,9511,0,137.9468,0.0,361.0228,0
GRID,9512,0,137.3041,0.0,359.3397,0
GRID,9513,0,136.6613,0.0,357.6565,0
GRID,9514,0,136.0186,0.0,355.9734,0
GRID,9515,0,135.3759,0.0,354.2903,0
GRID,9516,0,134.7331,0.0,352.6072,0
GRID,9517,0,134.0904,0.0,350.9241,0
GRID,9518,0,133.4476,0.0,349.2409,0
GRID,9519,0,132.8049,0.0,347.5578,0
GRID,9520,0,132.1622,0.0,345.8747,0
GRID,9521,0,131.5194,0.0,344.1916,0
GRID,9522,0,130.8767,0.0,342.5085,0
GRID,9523,0,130.234,0.0,340.8253,0
GRID,9524,0,129.5912,0.0,339.1422,0
GRID,9525,0,128.9485,0.0,337.4591,0
GRID,9526,0,128.3058,0.0,335.776,0
GRID,9527,0,127.663,0.0,334.0929,0
GRID,9528,0,127.0203,0.0,332.4097,0
GRID,9529,0,126.3775,0.0,330.7266,0
GRID,9530,0,125.7348,0.0,329.0435,0
GRID,9531,0,125.0921,0.0,327.3604,0
GRID,9532,0,124.4493,0.0,325.6773,0
GRID,9533,0,123.8066,0.0,323.9941,0
GRID,9534,0,123.1639,0.0,322.311,0
GRID,9535,0,122.5211,0.0,320.6279,0
GRID,9536,0,121.8784,0.0,318.9448,0
GRID,9537,0,121.2356,0.0,317.2617,0
GRID,9538,0,120.5929,0.0,315.5786,0
GRID,9539,0,119.9502,0.0,313.8954,0
GRID,9540,0,119.3074,0.0,312.2123,0
GRID,9541,0,118.6647,0.0,310.5292,0
GRID,9542,0,118.022,0.0,308.8461,0
GRID,9543,0,117.3792,0.0,307.163,0
GRID,9544,0,116.7365,0.0,305.4798,0
GRID,9545,0,116.0937,0.0,303.7967,0
GRID,9546,0,115.451,0.0,302.1136,0
GRID,9547,0,114.8083,0.0,300.4305,0
GRID,9548,0,114.1655,0.0,298.7474,0
GRID,9549,0,113.5228,0.0,297.0642,0
GRID,9550,0,112.8801,0.0,295.3811,0
GRID,9551,0,112.2373,0.0,293.698,0
GRID,9552,0,111.5946,0.0,292.0149,0
GRID,9553,0,110.9519,0.0,290.3318,0
GRID,9554,0,110.3091,0.0,288.6486,0
GRID,9555,0,109.6664,0.0,286.9655,0
GRID,9556,0,109.0236,0.0,285.2824,0
GRID,9557,0,108.3809,0.0,283.5993,0
GRID,9558,0,107.7382,0.0,281.9162,0
GRID,9559,0,142.1879,0.0,380.606,0
GRID,9560,0,141.5577,0.0,378.9181,0
GRID,9561,0,140.9275,0.0,377.2303,0
GRID,9562,0,140.2973,0.0,375.5424,0
GRID,9563,0,139.6671,0.0,373.8546,0
GRID,9564,0,139.0369,0.0,372.1667,0
GRID,9565,0,138.4067,0.0,370.4788,0
GRID,9566,0,137.7766,0.0,368.791,0
GRID,9567,0,137.1464,0.0,367.1031,0
GRID,9568,0,136.5162,0.0,365.4153,0
GRID,9569,0,135.886,0.0,363.7274,0
GRID,9570,0,135.2558,0.0,362.0396,0
GRID,9571,0,134.6256,0.0,360.3517,0
GRID,9572,0,133.9954,0.0,358.6638,0
GRID,9573,0,133.3652,0.0,356.976,0
GRID,9574,0,132.735,0.0,355.2881,0
GRID,9575,0,132.1049,0.0,353.6003,0
GRID,9576,0,131.4747,0.0,351.9124,0
GRID,9577,0,130.8445,0.0,350.2245,0
GRID,9578,0,130.2143,0.0,348.5367,0
GRID,9579,0,129.5841,0.0,346.8488,0
GRID,9580,0,128.9539,0.0,345.161,0
GRID,9581,0,128.3237,0.0,343.4731,0
GRID,9582,0,127.6935,0.0,341.7853,0
GRID,9583,0,127.0633,0.0,340.0974,0
GRID,9584,0,126.4332,0.0,338.4095,0
GRID,9585,0,125.803,0.0,336.7217,0
GRID,9586,0,125.1728,0.0,335.0338,0
GRID,9587,0,124.5426,0.0,333.346,0
GRID,9588,0,123.9124,0.0,331.6581,0
GRID,9589,0,123.2822,0.0,329.9703,0
GRID,9590,0,122.652,0.0,328.2824,0
GRID,9591,0,122.0218,0.0,326.5945,0
GRID,9592,0,121.3916,0.0,324.9067,0
GRID,9593,0,120.7615,0.0,323.2188,0
GRID,9594,0,120.1313,0.0,321.531,0
GRID,9595,0,119.5011,0.0,319.8431,0
GRID,9596,0,118.8709,0.0,318.1552,0
GRID,9597,0,118.2407,0.0,316.4674,0
GRID,9598,0,117.6105,0.0,314.7795,0
GRID,9599,0,116.9803,0.0,313.0917,0
GRID,9600,0,116.3501,0.0,311.4038,0
GRID,9601,0,115.7199,0.0,309.716,0
GRID,9602,0,115.0898,0.0,308.0281,0
GRID,9603,0,114.4596,0.0,306.3402,0
GRID,9604,0,113.8294,0.0,304.6524,0
GRID,9605,0,113.1992,0.0,302.9645,0
GRID,9606,0,112.569,0.0,301.2767,0
GRID,9607,0,111.9388,0.0,299.5888,0
GRID,9608,0,111.3086,0.0,297.901,0
GRID,9609,0,110.6784,0.0,296.2131,0
GRID,9610,0,110.0482,0.0,294.5252,0
GRID,9611,0,109.418,0.0,292.8374,0
GRID,9612,0,108.7879,0.0,291.1495,0
GRID,9613,0,108.1577,0.0,289.4617,0
GRID,9614,0,107.5275,0.0,287.7738,0
GRID,9615,0,106.8973,0.0,286.086,0
GRID,9616,0,106.2671,0.0,284.3981,0
GRID,9617,0,105.6369,0.0,282.7102,0
GRID,9618,0,139.351,0.0,381.6538,0
GRID,9619,0,138.7334,0.0,379.9613,0
GRID,9620,0,138.1158,0.0,378.2688,0
GRID,9621,0,137.4982,0.0,376.5763,0
GRID,9622,0,136.8806,0.0,374.8838,0
GRID,9623,0,136.2629,0.0,373.1913,0
GRID,9624,0,135.6453,0.0,371.4988,0
GRID,9625,0,135.0277,0.0,369.8063,0
GRID,9626,0,134.4101,0.0,368.1138,0
GRID,9627,0,133.7925,0.0,366.4213,0
GRID,9628,0,133.1749,0.0,364.7288,0
GRID,9629,0,132.5573,0.0,363.0363,0
GRID,9630,0,131.9397,0.0,361.3438,0
GRID,9631,0,131.3221,0.0,359.6513,0
GRID,9632,0,130.7045,0.0,357.9587,0
GRID,9633,0,130.0869,0.0,356.2662,0
GRID,9634,0,129.4693,0.0,354.5737,0
GRID,9635,0,128.8517,0.0,352.8812,0
GRID,9636,0,128.2341,0.0,351.1887,0
GRID,9637,0,127.6165,0.0,349.4962,0
GRID,9638,0,126.9988,0.0,347.8037,0
GRID,9639,0,126.3812,0.0,346.1112,0
GRID,9640,0,125.7636,0.0,344.4187,0
GRID,9641,0,125.146,0.0,342.7262,0
GRID,9642,0,124.5284,0.0,341.0337,0
GRID,9643,0,123.9108,0.0,339.3412,0
GRID,9644,0,123.2932,0.0,337.6487,0
GRID,9645,0,122.6756,0.0,335.9562,0
GRID,9646,0,122.058,0.0,334.2637,0
GRID,9647,0,121.4404,0.0,332.5712,0
GRID,9648,0,120.8228,0.0,330.8787,0
GRID,9649,0,120.2052,0.0,329.1862,0
GRID,9650,0,119.5876,0.0,327.4937,0
GRID,9651,0,118.97,0.0,325.8012,0
GRID,9652,0,118.3524,0.0,324.1087,0
GRID,9653,0,117.7348,0.0,322.4162,0
GRID,9654,0,117.1171,0.0,320.7237,0
GRID,9655,0,116.4995,0.0,319.0312,0
GRID,9656,0,115.8819,0.0,317.3387,0
GRID,9657,0,115.2643,0.0,315.6462,0
GRID,9658,0,114.6467,0.0,313.9537,0
GRID,9659,0,114.0291,0.0,312.2612,0
GRID,9660,0,113.4115,0.0,310.5687,0
GRID,9661,0,112.7939,0.0,308.8762,0
GRID,9662,0,112.1763,0.0,307.1837,0
GRID,9663,0,111.5587,0.0,305.4912,0
GRID,9664,0,110.9411,0.0,303.7987,0
GRID,9665,0,110.3235,0.0,302.1062,0
GRID,9666,0,109.7059,0.0,300.4137,0
GRID,9667,0,109.0883,0.0,298.7212,0
GRID,9668,0,108.4707,0.0,297.0287,0
GRID,9669,0,107.8531,0.0,295.3362,0
GRID,9670,0,107.2354,0.0,293.6437,0
GRID,9671,0,106.6178,0.0,291.9512,0
GRID,9672,0,106.0002,0.0,290.2587,0
GRID,9673,0,105.3826,0.0,288.5662,0
GRID,9674,0,104.765,0.0,286.8737,0
GRID,9675,0,104.1474,0.0,285.1812,0
GRID,9676,0,103.5298,0.0,283.4887,0
GRID,9677,0,136.5064,0.0,382.6804,0
GRID,9678,0,135.9014,0.0,380.9834,0
GRID,9679,0,135.2964,0.0,379.2863,0
GRID,9680,0,134.6914,0.0,377.5893,0
GRID,9681,0,134.0864,0.0,375.8922,0
GRID,9682,0,133.4814,0.0,374.1952,0
GRID,9683,0,132.8764,0.0,372.4981,0
GRID,9684,0,132.2714,0.0,370.8011,0
GRID,9685,0,131.6664,0.0,369.104,0
GRID,9686,0,131.0614,0.0,367.407,0
GRID,9687,0,130.4565,0.0,365.7099,0
GRID,9688,0,129.8515,0.0,364.0128,0
GRID,9689,0,129.2465,0.0,362.3158,0
GRID,9690,0,128.6415,0.0,360.6187,0
GRID,9691,0,128.0365,0.0,358.9217,0
GRID,9692,0,127.4315,0.0,357.2246,0
GRID,9693,0,126.8265,0.0,355.5276,0
GRID,9694,0,126.2215,0.0,353.8305,0
GRID,9695,0,125.6165,0.0,352.1335,0
GRID,9696,0,125.0116,0.0,350.4364,0
GRID,9697,0,124.4066,0.0,348.7394,0
GRID,9698,0,123.8016,0.0,347.0423,0
GRID,9699,0,123.1966,0.0,345.3453,0
GRID,9700,0,122.5916,0.0,343.6482,0
GRID,9701,0,121.9866,0.0,341.9512,0
GRID,9702,0,121.3816,0.0,340.2541,0
GRID,9703,0,120.7766,0.0,338.5571,0
GRID,9704,0,120.1716,0.0,336.86,0
GRID,9705,0,119.5666,0.0,335.1629,0
GRID,9706,0,118.9617,0.0,333.4659,0
GRID,9707,0,118.3567,0.0,331.7688,0
GRID,9708,0,117.7517,0.0,330.0718,0
GRID,9709,0,117.1467,0.0,328.3747,0
GRID,9710,0,116.5417,0.0,326.6777,0
GRID,9711,0,115.9367,0.0,324.9806,0
GRID,9712,0,115.3317,0.0,323.2836,0
GRID,9713,0,114.7267,0.0,321.5865,0
GRID,9714,0,114.1217,0.0,319.8895,0
GRID,9715,0,113.5168,0.0,318.1924,0
GRID,9716,0,112.9118,0.0,316.4954,0
GRID,9717,0,112.3068,0.0,314.7983,0
GRID,9718,0,111.7018,0.0,313.1013,0
GRID,9719,0,111.0968,0.0,311.4042,0
GRID,9720,0,110.4918,0.0,309.7072,0
GRID,9721,0,109.8868,0.0,308.0101,0
GRID,9722,0,109.2818,0.0,306.313,0
GRID,9723,0,108.6768,0.0,304.616,0
GRID,9724,0,108.0718,0.0,302.9189,0
GRID,9725,0,107.4669,0.0,301.2219,0
GRID,9726,0,106.8619,0.0,299.5248,0
GRID,9727,0,106.2569,0.0,297.8278,0
GRID,9728,0,105.6519,0.0,296.1307,0
GRID,9729,0,105.0469,0.0,294.4337,0
GRID,9730,0,104.4419,0.0,292.7366,0
GRID,9731,0,103.8369,0.0,291.0396,0
GRID,9732,0,103.2319,0.0,289.3425,0
GRID,9733,0,102.6269,0.0,287.6455,0
GRID,9734,0,102.022,0.0,285.9484,0
GRID,9735,0,101.417,0.0,284.2514,0
GRID,9736,0,133.6542,0.0,383.6859,0
GRID,9737,0,133.0618,0.0,381.9844,0
GRID,9738,0,132.4695,0.0,380.2829,0
GRID,9739,0,131.8771,0.0,378.5814,0
GRID,9740,0,131.2848,0.0,376.8798,0
GRID,9741,0,130.6925,0.0,375.1783,0
GRID,9742,0,130.1001,0.0,373.4768,0
GRID,9743,0,129.5078,0.0,371.7753,0
GRID,9744,0,128.9155,0.0,370.0738,0
GRID,9745,0,128.3231,0.0,368.3723,0
GRID,9746,0,127.7308,0.0,366.6708,0
GRID,9747,0,127.1384,0.0,364.9693,0
GRID,9748,0,126.5461,0.0,363.2678,0
GRID,9749,0,125.9538,0.0,361.5663,0
GRID,9750,0,125.3614,0.0,359.8647,0
GRID,9751,0,124.7691,0.0,358.1632,0
GRID,9752,0,124.1767,0.0,356.4617,0
GRID,9753,0,123.5844,0.0,354.7602,0
GRID,9754,0,122.9921,0.0,353.0587,0
GRID,9755,0,122.3997,0.0,351.3572,0
GRID,9756,0,121.8074,0.0,349.6557,0
GRID,9757,0,121.215,0.0,347.9542,0
GRID,9758,0,120.6227,0.0,346.2527,0
GRID,9759,0,120.0304,0.0,344.5512,0
GRID,9760,0,119.438,0.0,342.8496,0
GRID,9761,0,118.8457,0.0,341.1481,0
GRID,9762,0,118.2533,0.0,339.4466,0
GRID,9763,0,117.661,0.0,337.7451,0
GRID,9764,0,117.0687,0.0,336.0436,0
GRID,9765,0,116.4763,0.0,334.3421,0
GRID,9766,0,115.884,0.0,332.6406,0
GRID,9767,0,115.2917,0.0,330.9391,0
GRID,9768,0,114.6993,0.0,329.2376,0
GRID,9769,0,114.107,0.0,327.5361,0
GRID,9770,0,113.5146,0.0,325.8345,0
GRID,9771,0,112.9223,0.0,324.133,0
GRID,9772,0,112.33,0.0,322.4315,0
GRID,9773,0,111.7376,0.0,320.73,0
GRID,9774,0,111.1453,0.0,319.0285,0
GRID,9775,0,110.5529,0.0,317.327,0
GRID,9776,0,109.9606,0.0,315.6255,0
GRID,9777,0,109.3683,0.0,313.924,0
GRID,9778,0,108.7759,0.0,312.2225,0
GRID,9779,0,108.1836,0.0,310.521,0
GRID,9780,0,107.5912,0.0,308.8194,0
GRID,9781,0,106.9989,0.0,307.1179,0
GRID,9782,0,106.4066,0.0,305.4164,0
GRID,9783,0,105.8142,0.0,303.7149,0
GRID,9784,0,105.2219,0.0,302.0134,0
GRID,9785,0,104.6296,0.0,300.3119,0
GRID,9786,0,104.0372,0.0,298.6104,0
GRID,9787,0,103.4449,0.0,296.9089,0
GRID,9788,0,102.8525,0.0,295.2074,0
GRID,9789,0,102.2602,0.0,293.5059,0
GRID,9790,0,101.6679,0.0,291.8044,0
GRID,9791,0,101.0755,0.0,290.1028,0
GRID,9792,0,100.4832,0.0,288.4013,0
GRID,9793,0,99.89084,0.0,286.6998,0
GRID,9794,0,99.2985,0.0,284.9983,0
GRID,9795,0,130.7946,0.0,384.6701,0
GRID,9796,0,130.2149,0.0,382.9642,0
GRID,9797,0,129.6353,0.0,381.2583,0
GRID,9798,0,129.0556,0.0,379.5525,0
GRID,9799,0,128.476,0.0,377.8466,0
GRID,9800,0,127.8963,0.0,376.1407,0
GRID,9801,0,127.3166,0.0,374.4349,0
GRID,9802,0,126.737,0.0,372.729,0
GRID,9803,0,126.1573,0.0,371.0231,0
GRID,9804,0,125.5777,0.0,369.3172,0
GRID,9805,0,124.998,0.0,367.6114,0
GRID,9806,0,124.4184,0.0,365.9055,0
GRID,9807,0,123.8387,0.0,364.1996,0
GRID,9808,0,123.259,0.0,362.4937,0
GRID,9809,0,122.6794,0.0,360.7879,0
GRID,9810,0,122.0997,0.0,359.082,0
GRID,9811,0,121.5201,0.0,357.3761,0
GRID,9812,0,120.9404,0.0,355.6703,0
GRID,9813,0,120.3608,0.0,353.9644,0
GRID,9814,0,119.7811,0.0,352.2585,0
GRID,9815,0,119.2015,0.0,350.5526,0
GRID,9816,0,118.6218,0.0,348.8468,0
GRID,9817,0,118.0421,0.0,347.1409,0
GRID,9818,0,117.4625,0.0,345.435,0
GRID,9819,0,116.8828,0.0,343.7291,0
GRID,9820,0,116.3032,0.0,342.0233,0
GRID,9821,0,115.7235,0.0,340.3174,0
GRID,9822,0,115.1439,0.0,338.6115,0
GRID,9823,0,114.5642,0.0,336.9057,0
GRID,9824,0,113.9846,0.0,335.1998,0
GRID,9825,0,113.4049,0.0,333.4939,0
GRID,9826,0,112.8252,0.0,331.788,0
GRID,9827,0,112.2456,0.0,330.0822,0
GRID,9828,0,111.6659,0.0,328.3763,0
GRID,9829,0,111.0863,0.0,326.6704,0
GRID,9830,0,110.5066,0.0,324.9645,0
GRID,9831,0,109.927,0.0,323.2587,0
GRID,9832,0,109.3473,0.0,321.5528,0
GRID,9833,0,108.7677,0.0,319.8469,0
GRID,9834,0,108.188,0.0,318.1411,0
GRID,9835,0,107.6083,0.0,316.4352,0
GRID,9836,0,107.0287,0.0,314.7293,0
GRID,9837,0,106.449,0.0,313.0234,0
GRID,9838,0,105.8694,0.0,311.3176,0
GRID,9839,0,105.2897,0.0,309.6117,0
GRID,9840,0,104.7101,0.0,307.9058,0
GRID,9841,0,104.1304,0.0,306.1999,0
GRID,9842,0,103.5507,0.0,304.4941,0
GRID,9843,0,102.9711,0.0,302.7882,0
GRID,9844,0,102.3914,0.0,301.0823,0
GRID,9845,0,101.8118,0.0,299.3765,0
GRID,9846,0,101.2321,0.0,297.6706,0
GRID,9847,0,100.6525,0.0,295.9647,0
GRID,9848,0,100.0728,0.0,294.2588,0
GRID,9849,0,99.49316,0.0,292.553,0
GRID,9850,0,98.9135,0.0,290.8471,0
GRID,9851,0,98.33384,0.0,289.1412,0
GRID,9852,0,97.75419,0.0,287.4353,0
GRID,9853,0,97.17453,0.0,285.7295,0
GRID,9854,0,127.9277,0.0,385.633,0
GRID,9855,0,127.3608,0.0,383.9228,0
GRID,9856,0,126.7939,0.0,382.2127,0
GRID,9857,0,126.2269,0.0,380.5026,0
GRID,9858,0,125.66,0.0,378.7924,0
GRID,9859,0,125.093,0.0,377.0823,0
GRID,9860,0,124.5261,0.0,375.3721,0
GRID,9861,0,123.9592,0.0,373.662,0
GRID,9862,0,123.3922,0.0,371.9519,0
GRID,9863,0,122.8253,0.0,370.2417,0
GRID,9864,0,122.2583,0.0,368.5316,0
GRID,9865,0,121.6914,0.0,366.8214,0
GRID,9866,0,121.1245,0.0,365.1113,0
GRID,9867,0,120.5575,0.0,363.4012,0
GRID,9868,0,119.9906,0.0,361.691,0
GRID,9869,0,119.4236,0.0,359.9809,0
GRID,9870,0,118.8567,0.0,358.2707,0
GRID,9871,0,118.2897,0.0,356.5606,0
GRID,9872,0,117.7228,0.0,354.8504,0
GRID,9873,0,117.1559,0.0,353.1403,0
GRID,9874,0,116.5889,0.0,351.4302,0
GRID,9875,0,116.022,0.0,349.72,0
GRID,9876,0,115.455,0.0,348.0099,0
GRID,9877,0,114.8881,0.0,346.2997,0
GRID,9878,0,114.3212,0.0,344.5896,0
GRID,9879,0,113.7542,0.0,342.8795,0
GRID,9880,0,113.1873,0.0,341.1693,0
GRID,9881,0,112.6203,0.0,339.4592,0
GRID,9882,0,112.0534,0.0,337.749,0
GRID,9883,0,111.4865,0.0,336.0389,0
GRID,9884,0,110.9195,0.0,334.3288,0
GRID,9885,0,110.3526,0.0,332.6186,0
GRID,9886,0,109.7856,0.0,330.9085,0
GRID,9887,0,109.2187,0.0,329.1983,0
GRID,9888,0,108.6518,0.0,327.4882,0
GRID,9889,0,108.0848,0.0,325.7781,0
GRID,9890,0,107.5179,0.0,324.0679,0
GRID,9891,0,106.9509,0.0,322.3578,0
GRID,9892,0,106.384,0.0,320.6476,0
GRID,9893,0,105.8171,0.0,318.9375,0
GRID,9894,0,105.2501,0.0,317.2273,0
GRID,9895,0,104.6832,0.0,315.5172,0
GRID,9896,0,104.1162,0.0,313.8071,0
GRID,9897,0,103.5493,0.0,312.0969,0
GRID,9898,0,102.9824,0.0,310.3868,0
GRID,9899,0,102.4154,0.0,308.6766,0
GRID,9900,0,101.8485,0.0,306.9665,0
GRID,9901,0,101.2815,0.0,305.2564,0
GRID,9902,0,100.7146,0.0,303.5462,0
GRID,9903,0,100.1476,0.0,301.8361,0
GRID,9904,0,99.58071,0.0,300.1259,0
GRID,9905,0,99.01377,0.0,298.4158,0
GRID,9906,0,98.44683,0.0,296.7057,0
GRID,9907,0,97.87989,0.0,294.9955,0
GRID,9908,0,97.31295,0.0,293.2854,0
GRID,9909,0,96.74601,0.0,291.5752,0
GRID,9910,0,96.17907,0.0,289.8651,0
GRID,9911,0,95.61212,0.0,288.155,0
GRID,9912,0,95.04518,0.0,286.4448,0
GRID,9913,0,125.0538,0.0,386.5745,0
GRID,9914,0,124.4996,0.0,384.8602,0
GRID,9915,0,123.9454,0.0,383.1459,0
GRID,9916,0,123.3912,0.0,381.4316,0
GRID,9917,0,122.837,0.0,379.7173,0
GRID,9918,0,122.2828,0.0,378.0029,0
GRID,9919,0,121.7287,0.0,376.2886,0
GRID,9920,0,121.1745,0.0,374.5743,0
GRID,9921,0,120.6203,0.0,372.86,0
GRID,9922,0,120.0661,0.0,371.1457,0
GRID,9923,0,119.5119,0.0,369.4314,0
GRID,9924,0,118.9577,0.0,367.7171,0
GRID,9925,0,118.4035,0.0,366.0027,0
GRID,9926,0,117.8493,0.0,364.2884,0
GRID,9927,0,117.2951,0.0,362.5741,0
GRID,9928,0,116.7409,0.0,360.8598,0
GRID,9929,0,116.1867,0.0,359.1455,0
GRID,9930,0,115.6325,0.0,357.4312,0
GRID,9931,0,115.0783,0.0,355.7169,0
GRID,9932,0,114.5241,0.0,354.0025,0
GRID,9933,0,113.9699,0.0,352.2882,0
GRID,9934,0,113.4157,0.0,350.5739,0
GRID,9935,0,112.8616,0.0,348.8596,0
GRID,9936,0,112.3074,0.0,347.1453,0
GRID,9937,0,111.7532,0.0,345.431,0
GRID,9938,0,111.199,0.0,343.7167,0
GRID,9939,0,110.6448,0.0,342.0023,0
GRID,9940,0,110.0906,0.0,340.288,0
GRID,9941,0,109.5364,0.0,338.5737,0
GRID,9942,0,108.9822,0.0,336.8594,0
GRID,9943,0,108.428,0.0,335.1451,0
GRID,9944,0,107.8738,0.0,333.4308,0
GRID,9945,0,107.3196,0.0,331.7165,0
GRID,9946,0,106.7654,0.0,330.0021,0
GRID,9947,0,106.2112,0.0,328.2878,0
GRID,9948,0,105.657,0.0,326.5735,0
GRID,9949,0,105.1028,0.0,324.8592,0
GRID,9950,0,104.5486,0.0,323.1449,0
GRID,9951,0,103.9944,0.0,321.4306,0
GRID,9952,0,103.4403,0.0,319.7163,0
GRID,9953,0,102.8861,0.0,318.0019,0
GRID,9954,0,102.3319,0.0,316.2876,0
GRID,9955,0,101.7777,0.0,314.5733,0
GRID,9956,0,101.2235,0.0,312.859,0
GRID,9957,0,100.6693,0.0,311.1447,0
GRID,9958,0,100.1151,0.0,309.4304,0
GRID,9959,0,99.5609,0.0,307.7161,0
GRID,9960,0,99.0067,0.0,306.0017,0
GRID,9961,0,98.45251,0.0,304.2874,0
GRID,9962,0,97.89832,0.0,302.5731,0
GRID,9963,0,97.34412,0.0,300.8588,0
GRID,9964,0,96.78993,0.0,299.1445,0
GRID,9965,0,96.23573,0.0,297.4302,0
GRID,9966,0,95.68154,0.0,295.7159,0
GRID,9967,0,95.12735,0.0,294.0015,0
GRID,9968,0,94.57315,0.0,292.2872,0
GRID,9969,0,94.01896,0.0,290.5729,0
GRID,9970,0,93.46477,0.0,288.8586,0
GRID,9971,0,92.91057,0.0,287.1443,0
GRID,9972,0,122.173,0.0,387.4946,0
GRID,9973,0,121.6316,0.0,385.7762,0
GRID,9974,0,121.0901,0.0,384.0578,0
GRID,9975,0,120.5487,0.0,382.3394,0
GRID,9976,0,120.0073,0.0,380.6211,0
GRID,9977,0,119.4659,0.0,378.9027,0
GRID,9978,0,118.9245,0.0,377.1843,0
GRID,9979,0,118.3831,0.0,375.4659,0
GRID,9980,0,117.8416,0.0,373.7475,0
GRID,9981,0,117.3002,0.0,372.0291,0
GRID,9982,0,116.7588,0.0,370.3107,0
GRID,9983,0,116.2174,0.0,368.5923,0
GRID,9984,0,115.676,0.0,366.8739,0
GRID,9985,0,115.1346,0.0,365.1555,0
GRID,9986,0,114.5931,0.0,363.4371,0
GRID,9987,0,114.0517,0.0,361.7187,0
GRID,9988,0,113.5103,0.0,360.0003,0
GRID,9989,0,112.9689,0.0,358.2819,0
GRID,9990,0,112.4275,0.0,356.5636,0
GRID,9991,0,111.8861,0.0,354.8452,0
GRID,9992,0,111.3446,0.0,353.1268,0
GRID,9993,0,110.8032,0.0,351.4084,0
GRID,9994,0,110.2618,0.0,349.69,0
GRID,9995,0,109.7204,0.0,347.9716,0
GRID,9996,0,109.179,0.0,346.2532,0
GRID,9997,0,108.6376,0.0,344.5348,0
GRID,9998,0,108.0961,0.0,342.8164,0
GRID,9999,0,107.5547,0.0,341.098,0
GRID,10000,0,107.0133,0.0,339.3796,0
GRID,10001,0,106.4719,0.0,337.6612,0
GRID,10002,0,105.9305,0.0,335.9428,0
GRID,10003,0,105.3891,0.0,334.2245,0
GRID,10004,0,104.8476,0.0,332.5061,0
GRID,10005,0,104.3062,0.0,330.7877,0
GRID,10006,0,103.7648,0.0,329.0693,0
GRID,10007,0,103.2234,0.0,327.3509,0
GRID,10008,0,102.682,0.0,325.6325,0
GRID,10009,0,102.1406,0.0,323.9141,0
GRID,10010,0,101.5991,0.0,322.1957,0
GRID,10011,0,101.0577,0.0,320.4773,0
GRID,10012,0,100.5163,0.0,318.7589,0
GRID,10013,0,99.97489,0.0,317.0405,0
GRID,10014,0,99.43348,0.0,315.3221,0
GRID,10015,0,98.89206,0.0,313.6037,0
GRID,10016,0,98.35064,0.0,311.8853,0
GRID,10017,0,97.80923,0.0,310.167,0
GRID,10018,0,97.26781,0.0,308.4486,0
GRID,10019,0,96.72639,0.0,306.7302,0
GRID,10020,0,96.18498,0.0,305.0118,0
GRID,10021,0,95.64356,0.0,303.2934,0
GRID,10022,0,95.10214,0.0,301.575,0
GRID,10023,0,94.56073,0.0,299.8566,0
GRID,10024,0,94.01931,0.0,298.1382,0
GRID,10025,0,93.4779,0.0,296.4198,0
GRID,10026,0,92.93648,0.0,294.7014,0
GRID,10027,0,92.39506,0.0,292.983,0
GRID,10028,0,91.85365,0.0,291.2646,0
GRID,10029,0,91.31223,0.0,289.5462,0
GRID,10030,0,90.77081,0.0,287.8279,0
GRID,10031,0,119.2853,0.0,388.3933,0
GRID,10032,0,118.7567,0.0,386.6709,0
GRID,10033,0,118.2281,0.0,384.9485,0
GRID,10034,0,117.6995,0.0,383.2261,0
GRID,10035,0,117.1709,0.0,381.5038,0
GRID,10036,0,116.6423,0.0,379.7814,0
GRID,10037,0,116.1137,0.0,378.059,0
GRID,10038,0,115.5851,0.0,376.3366,0
GRID,10039,0,115.0565,0.0,374.6143,0
GRID,10040,0,114.5279,0.0,372.8919,0
GRID,10041,0,113.9993,0.0,371.1695,0
GRID,10042,0,113.4706,0.0,369.4471,0
GRID,10043,0,112.942,0.0,367.7248,0
GRID,10044,0,112.4134,0.0,366.0024,0
GRID,10045,0,111.8848,0.0,364.28,0
GRID,10046,0,111.3562,0.0,362.5576,0
GRID,10047,0,110.8276,0.0,360.8353,0
GRID,10048,0,110.299,0.0,359.1129,0
GRID,10049,0,109.7704,0.0,357.3905,0
GRID,10050,0,109.2418,0.0,355.6681,0
GRID,10051,0,108.7132,0.0,353.9458,0
GRID,10052,0,108.1846,0.0,352.2234,0
GRID,10053,0,107.6559,0.0,350.501,0
GRID,10054,0,107.1273,0.0,348.7786,0
GRID,10055,0,106.5987,0.0,347.0562,0
GRID,10056,0,106.0701,0.0,345.3339,0
GRID,10057,0,105.5415,0.0,343.6115,0
GRID,10058,0,105.0129,0.0,341.8891,0
GRID,10059,0,104.4843,0.0,340.1667,0
GRID,10060,0,103.9557,0.0,338.4444,0
GRID,10061,0,103.4271,0.0,336.722,0
GRID,10062,0,102.8985,0.0,334.9996,0
GRID,10063,0,102.3699,0.0,333.2772,0
GRID,10064,0,101.8413,0.0,331.5549,0
GRID,10065,0,101.3126,0.0,329.8325,0
GRID,10066,0,100.784,0.0,328.1101,0
GRID,10067,0,100.2554,0.0,326.3877,0
GRID,10068,0,99.72682,0.0,324.6654,0
GRID,10069,0,99.19821,0.0,322.943,0
GRID,10070,0,98.6696,0.0,321.2206,0
GRID,10071,0,98.14099,0.0,319.4982,0
GRID,10072,0,97.61238,0.0,317.7759,0
GRID,10073,0,97.08377,0.0,316.0535,0
GRID,10074,0,96.55516,0.0,314.3311,0
GRID,10075,0,96.02655,0.0,312.6087,0
GRID,10076,0,95.49794,0.0,310.8864,0
GRID,10077,0,94.96934,0.0,309.164,0
GRID,10078,0,94.44073,0.0,307.4416,0
GRID,10079,0,93.91212,0.0,305.7192,0
GRID,10080,0,93.38351,0.0,303.9969,0
GRID,10081,0,92.8549,0.0,302.2745,0
GRID,10082,0,92.32629,0.0,300.5521,0
GRID,10083,0,91.79768,0.0,298.8297,0
GRID,10084,0,91.26907,0.0,297.1074,0
GRID,10085,0,90.74046,0.0,295.385,0
GRID,10086,0,90.21185,0.0,293.6626,0
GRID,10087,0,89.68325,0.0,291.9402,0
GRID,10088,0,89.15464,0.0,290.2179,0
GRID,10089,0,88.62603,0.0,288.4955,0
GRID,10090,0,116.3911,0.0,389.2704,0
GRID,10091,0,115.8753,0.0,387.5441,0
GRID,10092,0,115.3596,0.0,385.8179,0
GRID,10093,0,114.8438,0.0,384.0916,0
GRID,10094,0,114.328,0.0,382.3653,0
GRID,10095,0,113.8123,0.0,380.6391,0
GRID,10096,0,113.2965,0.0,378.9128,0
GRID,10097,0,112.7807,0.0,377.1865,0
GRID,10098,0,112.2649,0.0,375.4603,0
GRID,10099,0,111.7492,0.0,373.734,0
GRID,10100,0,111.2334,0.0,372.0077,0
GRID,10101,0,110.7176,0.0,370.2815,0
GRID,10102,0,110.2018,0.0,368.5552,0
GRID,10103,0,109.6861,0.0,366.829,0
GRID,10104,0,109.1703,0.0,365.1027,0
GRID,10105,0,108.6545,0.0,363.3764,0
GRID,10106,0,108.1388,0.0,361.6502,0
GRID,10107,0,107.623,0.0,359.9239,0
GRID,10108,0,107.1072,0.0,358.1976,0
GRID,10109,0,106.5914,0.0,356.4714,0
GRID,10110,0,106.0757,0.0,354.7451,0
GRID,10111,0,105.5599,0.0,353.0189,0
GRID,10112,0,105.0441,0.0,351.2926,0
GRID,10113,0,104.5284,0.0,349.5663,0
GRID,10114,0,104.0126,0.0,347.8401,0
GRID,10115,0,103.4968,0.0,346.1138,0
GRID,10116,0,102.981,0.0,344.3875,0
GRID,10117,0,102.4653,0.0,342.6613,0
GRID,10118,0,101.9495,0.0,340.935,0
GRID,10119,0,101.4337,0.0,339.2088,0
GRID,10120,0,100.918,0.0,337.4825,0
GRID,10121,0,100.4022,0.0,335.7562,0
GRID,10122,0,99.88641,0.0,334.03,0
GRID,10123,0,99.37064,0.0,332.3037,0
GRID,10124,0,98.85486,0.0,330.5774,0
GRID,10125,0,98.33909,0.0,328.8512,0
GRID,10126,0,97.82332,0.0,327.1249,0
GRID,10127,0,97.30755,0.0,325.3987,0
GRID,10128,0,96.79178,0.0,323.6724,0
GRID,10129,0,96.276,0.0,321.9461,0
GRID,10130,0,95.76023,0.0,320.2199,0
GRID,10131,0,95.24446,0.0,318.4936,0
GRID,10132,0,94.72869,0.0,316.7673,0
GRID,10133,0,94.21292,0.0,315.0411,0
GRID,10134,0,93.69714,0.0,313.3148,0
GRID,10135,0,93.18137,0.0,311.5885,0
GRID,10136,0,92.6656,0.0,309.8623,0
GRID,10137,0,92.14983,0.0,308.136,0
GRID,10138,0,91.63405,0.0,306.4098,0
GRID,10139,0,91.11828,0.0,304.6835,0
GRID,10140,0,90.60251,0.0,302.9572,0
GRID,10141,0,90.08674,0.0,301.231,0
GRID,10142,0,89.57097,0.0,299.5047,0
GRID,10143,0,89.05519,0.0,297.7784,0
GRID,10144,0,88.53942,0.0,296.0522,0
GRID,10145,0,88.02365,0.0,294.3259,0
GRID,10146,0,87.50788,0.0,292.5997,0
GRID,10147,0,86.99211,0.0,290.8734,0
GRID,10148,0,86.47633,0.0,289.1471,0
GRID,10149,0,113.4904,0.0,390.1259,0
GRID,10150,0,112.9875,0.0,388.3959,0
GRID,10151,0,112.4846,0.0,386.6658,0
GRID,10152,0,111.9817,0.0,384.9358,0
GRID,10153,0,111.4788,0.0,383.2057,0
GRID,10154,0,110.9759,0.0,381.4756,0
GRID,10155,0,110.473,0.0,379.7456,0
GRID,10156,0,109.9701,0.0,378.0155,0
GRID,10157,0,109.4672,0.0,376.2855,0
GRID,10158,0,108.9643,0.0,374.5554,0
GRID,10159,0,108.4614,0.0,372.8254,0
GRID,10160,0,107.9585,0.0,371.0953,0
GRID,10161,0,107.4556,0.0,369.3653,0
GRID,10162,0,106.9526,0.0,367.6352,0
GRID,10163,0,106.4497,0.0,365.9052,0
GRID,10164,0,105.9468,0.0,364.1751,0
GRID,10165,0,105.4439,0.0,362.445,0
GRID,10166,0,104.941,0.0,360.715,0
GRID,10167,0,104.4381,0.0,358.9849,0
GRID,10168,0,103.9352,0.0,357.2549,0
GRID,10169,0,103.4323,0.0,355.5248,0
GRID,10170,0,102.9294,0.0,353.7948,0
GRID,10171,0,102.4265,0.0,352.0647,0
GRID,10172,0,101.9236,0.0,350.3347,0
GRID,10173,0,101.4207,0.0,348.6046,0
GRID,10174,0,100.9178,0.0,346.8746,0
GRID,10175,0,100.4149,0.0,345.1445,0
GRID,10176,0,99.91196,0.0,343.4145,0
GRID,10177,0,99.40905,0.0,341.6844,0
GRID,10178,0,98.90614,0.0,339.9543,0
GRID,10179,0,98.40324,0.0,338.2243,0
GRID,10180,0,97.90033,0.0,336.4942,0
GRID,10181,0,97.39742,0.0,334.7642,0
GRID,10182,0,96.89452,0.0,333.0341,0
GRID,10183,0,96.39161,0.0,331.3041,0
GRID,10184,0,95.8887,0.0,329.574,0
GRID,10185,0,95.3858,0.0,327.844,0
GRID,10186,0,94.88289,0.0,326.1139,0
GRID,10187,0,94.37998,0.0,324.3839,0
GRID,10188,0,93.87708,0.0,322.6538,0
GRID,10189,0,93.37417,0.0,320.9237,0
GRID,10190,0,92.87126,0.0,319.1937,0
GRID,10191,0,92.36836,0.0,317.4636,0
GRID,10192,0,91.86545,0.0,315.7336,0
GRID,10193,0,91.36254,0.0,314.0035,0
GRID,10194,0,90.85964,0.0,312.2735,0
GRID,10195,0,90.35673,0.0,310.5434,0
GRID,10196,0,89.85382,0.0,308.8134,0
GRID,10197,0,89.35092,0.0,307.0833,0
GRID,10198,0,88.84801,0.0,305.3533,0
GRID,10199,0,88.3451,0.0,303.6232,0
GRID,10200,0,87.8422,0.0,301.8931,0
GRID,10201,0,87.33929,0.0,300.1631,0
GRID,10202,0,86.83638,0.0,298.433,0
GRID,10203,0,86.33348,0.0,296.703,0
GRID,10204,0,85.83057,0.0,294.9729,0
GRID,10205,0,85.32766,0.0,293.2429,0
GRID,10206,0,84.82476,0.0,291.5128,0
GRID,10207,0,84.32185,0.0,289.7828,0
GRID,10208,0,110.5835,0.0,390.9598,0
GRID,10209,0,110.0935,0.0,389.2261,0
GRID,10210,0,109.6034,0.0,387.4923,0
GRID,10211,0,109.1134,0.0,385.7586,0
GRID,10212,0,108.6234,0.0,384.0248,0
GRID,10213,0,108.1334,0.0,382.2911,0
GRID,10214,0,107.6434,0.0,380.5573,0
GRID,10215,0,107.1534,0.0,378.8236,0
GRID,10216,0,106.6634,0.0,377.0898,0
GRID,10217,0,106.1733,0.0,375.3561,0
GRID,10218,0,105.6833,0.0,373.6223,0
GRID,10219,0,105.1933,0.0,371.8886,0
GRID,10220,0,104.7033,0.0,370.1548,0
GRID,10221,0,104.2133,0.0,368.4211,0
GRID,10222,0,103.7233,0.0,366.6873,0
GRID,10223,0,103.2333,0.0,364.9536,0
GRID,10224,0,102.7433,0.0,363.2198,0
GRID,10225,0,102.2532,0.0,361.4861,0
GRID,10226,0,101.7632,0.0,359.7523,0
GRID,10227,0,101.2732,0.0,358.0186,0
GRID,10228,0,100.7832,0.0,356.2848,0
GRID,10229,0,100.2932,0.0,354.5511,0
GRID,10230,0,99.80317,0.0,352.8173,0
GRID,10231,0,99.31316,0.0,351.0836,0
GRID,10232,0,98.82315,0.0,349.3498,0
GRID,10233,0,98.33313,0.0,347.6161,0
GRID,10234,0,97.84312,0.0,345.8823,0
GRID,10235,0,97.35311,0.0,344.1486,0
GRID,10236,0,96.86309,0.0,342.4148,0
GRID,10237,0,96.37308,0.0,340.6811,0
GRID,10238,0,95.88307,0.0,338.9474,0
GRID,10239,0,95.39305,0.0,337.2136,0
GRID,10240,0,94.90304,0.0,335.4799,0
GRID,10241,0,94.41303,0.0,333.7461,0
GRID,10242,0,93.92301,0.0,332.0124,0
GRID,10243,0,93.433,0.0,330.2786,0
GRID,10244,0,92.94299,0.0,328.5449,0
GRID,10245,0,92.45297,0.0,326.8111,0
GRID,10246,0,91.96296,0.0,325.0774,0
GRID,10247,0,91.47295,0.0,323.3436,0
GRID,10248,0,90.98293,0.0,321.6099,0
GRID,10249,0,90.49292,0.0,319.8761,0
GRID,10250,0,90.00291,0.0,318.1424,0
GRID,10251,0,89.5129,0.0,316.4086,0
GRID,10252,0,89.02288,0.0,314.6749,0
GRID,10253,0,88.53287,0.0,312.9411,0
GRID,10254,0,88.04286,0.0,311.2074,0
GRID,10255,0,87.55284,0.0,309.4736,0
GRID,10256,0,87.06283,0.0,307.7399,0
GRID,10257,0,86.57282,0.0,306.0061,0
GRID,10258,0,86.0828,0.0,304.2724,0
GRID,10259,0,85.59279,0.0,302.5386,0
GRID,10260,0,85.10278,0.0,300.8049,0
GRID,10261,0,84.61276,0.0,299.0711,0
GRID,10262,0,84.12275,0.0,297.3374,0
GRID,10263,0,83.63274,0.0,295.6036,0
GRID,10264,0,83.14272,0.0,293.8699,0
GRID,10265,0,82.65271,0.0,292.1361,0
GRID,10266,0,82.1627,0.0,290.4024,0
GRID,10267,0,107.6704,0.0,391.7721,0
GRID,10268,0,107.1933,0.0,390.0348,0
GRID,10269,0,106.7162,0.0,388.2974,0
GRID,10270,0,106.2391,0.0,386.5601,0
GRID,10271,0,105.762,0.0,384.8227,0
GRID,10272,0,105.2849,0.0,383.0854,0
GRID,10273,0,104.8078,0.0,381.348,0
GRID,10274,0,104.3307,0.0,379.6107,0
GRID,10275,0,103.8536,0.0,377.8733,0
GRID,10276,0,103.3765,0.0,376.136,0
GRID,10277,0,102.8994,0.0,374.3986,0
GRID,10278,0,102.4223,0.0,372.6613,0
GRID,10279,0,101.9453,0.0,370.9239,0
GRID,10280,0,101.4682,0.0,369.1866,0
GRID,10281,0,100.9911,0.0,367.4492,0
GRID,10282,0,100.514,0.0,365.7119,0
GRID,10283,0,100.0369,0.0,363.9745,0
GRID,10284,0,99.55979,0.0,362.2372,0
GRID,10285,0,99.0827,0.0,360.4998,0
GRID,10286,0,98.60561,0.0,358.7625,0
GRID,10287,0,98.12851,0.0,357.0251,0
GRID,10288,0,97.65142,0.0,355.2878,0
GRID,10289,0,97.17433,0.0,353.5504,0
GRID,10290,0,96.69724,0.0,351.8131,0
GRID,10291,0,96.22014,0.0,350.0757,0
GRID,10292,0,95.74305,0.0,348.3384,0
GRID,10293,0,95.26596,0.0,346.601,0
GRID,10294,0,94.78887,0.0,344.8637,0
GRID,10295,0,94.31177,0.0,343.1263,0
GRID,10296,0,93.83468,0.0,341.389,0
GRID,10297,0,93.35759,0.0,339.6516,0
GRID,10298,0,92.88049,0.0,337.9143,0
GRID,10299,0,92.4034,0.0,336.1769,0
GRID,10300,0,91.92631,0.0,334.4396,0
GRID,10301,0,91.44922,0.0,332.7022,0
GRID,10302,0,90.97212,0.0,330.9649,0
GRID,10303,0,90.49503,0.0,329.2275,0
GRID,10304,0,90.01794,0.0,327.4902,0
GRID,10305,0,89.54084,0.0,325.7528,0
GRID,10306,0,89.06375,0.0,324.0155,0
GRID,10307,0,88.58666,0.0,322.2781,0
GRID,10308,0,88.10957,0.0,320.5408,0
GRID,10309,0,87.63247,0.0,318.8034,0
GRID,10310,0,87.15538,0.0,317.0661,0
GRID,10311,0,86.67829,0.0,315.3287,0
GRID,10312,0,86.2012,0.0,313.5914,0
GRID,10313,0,85.7241,0.0,311.854,0
GRID,10314,0,85.24701,0.0,310.1167,0
GRID,10315,0,84.76992,0.0,308.3793,0
GRID,10316,0,84.29282,0.0,306.642,0
GRID,10317,0,83.81573,0.0,304.9046,0
GRID,10318,0,83.33864,0.0,303.1673,0
GRID,10319,0,82.86155,0.0,301.4299,0
GRID,10320,0,82.38445,0.0,299.6926,0
GRID,10321,0,81.90736,0.0,297.9552,0
GRID,10322,0,81.43027,0.0,296.2179,0
GRID,10323,0,80.95318,0.0,294.4805,0
GRID,10324,0,80.47608,0.0,292.7432,0
GRID,10325,0,79.99899,0.0,291.0058,0
GRID,10326,0,104.7513,0.0,392.5627,0
GRID,10327,0,104.2872,0.0,390.8218,0
GRID,10328,0,103.823,0.0,389.081,0
GRID,10329,0,103.3589,0.0,387.3401,0
GRID,10330,0,102.8947,0.0,385.5993,0
GRID,10331,0,102.4306,0.0,383.8584,0
GRID,10332,0,101.9664,0.0,382.1176,0
GRID,10333,0,101.5023,0.0,380.3767,0
GRID,10334,0,101.0381,0.0,378.6359,0
GRID,10335,0,100.574,0.0,376.895,0
GRID,10336,0,100.1099,0.0,375.1542,0
GRID,10337,0,99.64571,0.0,373.4133,0
GRID,10338,0,99.18156,0.0,371.6725,0
GRID,10339,0,98.71741,0.0,369.9316,0
GRID,10340,0,98.25327,0.0,368.1907,0
GRID,10341,0,97.78912,0.0,366.4499,0
GRID,10342,0,97.32498,0.0,364.709,0
GRID,10343,0,96.86083,0.0,362.9682,0
GRID,10344,0,96.39668,0.0,361.2273,0
GRID,10345,0,95.93254,0.0,359.4865,0
GRID,10346,0,95.46839,0.0,357.7456,0
GRID,10347,0,95.00425,0.0,356.0048,0
GRID,10348,0,94.5401,0.0,354.2639,0
GRID,10349,0,94.07596,0.0,352.5231,0
GRID,10350,0,93.61181,0.0,350.7822,0
GRID,10351,0,93.14766,0.0,349.0414,0
GRID,10352,0,92.68352,0.0,347.3005,0
GRID,10353,0,92.21937,0.0,345.5597,0
GRID,10354,0,91.75523,0.0,343.8188,0
GRID,10355,0,91.29108,0.0,342.078,0
GRID,10356,0,90.82693,0.0,340.3371,0
GRID,10357,0,90.36279,0.0,338.5962,0
GRID,10358,0,89.89864,0.0,336.8554,0
GRID,10359,0,89.4345,0.0,335.1145,0
GRID,10360,0,88.97035,0.0,333.3737,0
GRID,10361,0,88.5062,0.0,331.6328,0
GRID,10362,0,88.04206,0.0,329.892,0
GRID,10363,0,87.57791,0.0,328.1511,0
GRID,10364,0,87.11377,0.0,326.4103,0
GRID,10365,0,86.64962,0.0,324.6694,0
GRID,10366,0,86.18548,0.0,322.9286,0
GRID,10367,0,85.72133,0.0,321.1877,0
GRID,10368,0,85.25718,0.0,319.4469,0
GRID,10369,0,84.79304,0.0,317.706,0
GRID,10370,0,84.32889,0.0,315.9652,0
GRID,10371,0,83.86475,0.0,314.2243,0
GRID,10372,0,83.4006,0.0,312.4834,0
GRID,10373,0,82.93645,0.0,310.7426,0
GRID,10374,0,82.47231,0.0,309.0017,0
GRID,10375,0,82.00816,0.0,307.2609,0
GRID,10376,0,81.54402,0.0,305.52,0
GRID,10377,0,81.07987,0.0,303.7792,0
GRID,10378,0,80.61572,0.0,302.0383,0
GRID,10379,0,80.15158,0.0,300.2975,0
GRID,10380,0,79.68743,0.0,298.5566,0
GRID,10381,0,79.22329,0.0,296.8158,0
GRID,10382,0,78.75914,0.0,295.0749,0
GRID,10383,0,78.295,0.0,293.3341,0
GRID,10384,0,77.83085,0.0,291.5932,0
GRID,10385,0,101.8264,0.0,393.3315,0
GRID,10386,0,101.3753,0.0,391.5873,0
GRID,10387,0,100.9241,0.0,389.843,0
GRID,10388,0,100.4729,0.0,388.0987,0
GRID,10389,0,100.0218,0.0,386.3545,0
GRID,10390,0,99.57058,0.0,384.6102,0
GRID,10391,0,99.11941,0.0,382.866,0
GRID,10392,0,98.66824,0.0,381.1217,0
GRID,10393,0,98.21706,0.0,379.3774,0
GRID,10394,0,97.76589,0.0,377.6332,0
GRID,10395,0,97.31472,0.0,375.8889,0
GRID,10396,0,96.86354,0.0,374.1447,0
GRID,10397,0,96.41237,0.0,372.4004,0
GRID,10398,0,95.9612,0.0,370.6561,0
GRID,10399,0,95.51002,0.0,368.9119,0
GRID,10400,0,95.05885,0.0,367.1676,0
GRID,10401,0,94.60768,0.0,365.4234,0
GRID,10402,0,94.1565,0.0,363.6791,0
GRID,10403,0,93.70533,0.0,361.9348,0
GRID,10404,0,93.25416,0.0,360.1906,0
GRID,10405,0,92.80298,0.0,358.4463,0
GRID,10406,0,92.35181,0.0,356.702,0
GRID,10407,0,91.90064,0.0,354.9578,0
GRID,10408,0,91.44946,0.0,353.2135,0
GRID,10409,0,90.99829,0.0,351.4693,0
GRID,10410,0,90.54712,0.0,349.725,0
GRID,10411,0,90.09594,0.0,347.9807,0
GRID,10412,0,89.64477,0.0,346.2365,0
GRID,10413,0,89.1936,0.0,344.4922,0
GRID,10414,0,88.74242,0.0,342.748,0
GRID,10415,0,88.29125,0.0,341.0037,0
GRID,10416,0,87.84008,0.0,339.2594,0
GRID,10417,0,87.3889,0.0,337.5152,0
GRID,10418,0,86.93773,0.0,335.7709,0
GRID,10419,0,86.48656,0.0,334.0267,0
GRID,10420,0,86.03538,0.0,332.2824,0
GRID,10421,0,85.58421,0.0,330.5381,0
GRID,10422,0,85.13304,0.0,328.7939,0
GRID,10423,0,84.68186,0.0,327.0496,0
GRID,10424,0,84.23069,0.0,325.3054,0
GRID,10425,0,83.77952,0.0,323.5611,0
GRID,10426,0,83.32834,0.0,321.8168,0
GRID,10427,0,82.87717,0.0,320.0726,0
GRID,10428,0,82.426,0.0,318.3283,0
GRID,10429,0,81.97482,0.0,316.5841,0
GRID,10430,0,81.52365,0.0,314.8398,0
GRID,10431,0,81.07248,0.0,313.0955,0
GRID,10432,0,80.6213,0.0,311.3513,0
GRID,10433,0,80.17013,0.0,309.607,0
GRID,10434,0,79.71896,0.0,307.8628,0
GRID,10435,0,79.26778,0.0,306.1185,0
GRID,10436,0,78.81661,0.0,304.3742,0
GRID,10437,0,78.36544,0.0,302.63,0
GRID,10438,0,77.91426,0.0,300.8857,0
GRID,10439,0,77.46309,0.0,299.1415,0
GRID,10440,0,77.01192,0.0,297.3972,0
GRID,10441,0,76.56074,0.0,295.6529,0
GRID,10442,0,76.10957,0.0,293.9087,0
GRID,10443,0,75.6584,0.0,292.1644,0
GRID,10444,0,98.89595,0.0,394.0786,0
GRID,10445,0,98.45777,0.0,392.331,0
GRID,10446,0,98.0196,0.0,390.5834,0
GRID,10447,0,97.58142,0.0,388.8358,0
GRID,10448,0,97.14324,0.0,387.0883,0
GRID,10449,0,96.70507,0.0,385.3407,0
GRID,10450,0,96.26689,0.0,383.5931,0
GRID,10451,0,95.82872,0.0,381.8456,0
GRID,10452,0,95.39054,0.0,380.098,0
GRID,10453,0,94.95236,0.0,378.3504,0
GRID,10454,0,94.51419,0.0,376.6028,0
GRID,10455,0,94.07601,0.0,374.8553,0
GRID,10456,0,93.63784,0.0,373.1077,0
GRID,10457,0,93.19966,0.0,371.3601,0
GRID,10458,0,92.76149,0.0,369.6126,0
GRID,10459,0,92.32331,0.0,367.865,0
GRID,10460,0,91.88513,0.0,366.1174,0
GRID,10461,0,91.44696,0.0,364.3698,0
GRID,10462,0,91.00878,0.0,362.6223,0
GRID,10463,0,90.57061,0.0,360.8747,0
GRID,10464,0,90.13243,0.0,359.1271,0
GRID,10465,0,89.69425,0.0,357.3796,0
GRID,10466,0,89.25608,0.0,355.632,0
GRID,10467,0,88.8179,0.0,353.8844,0
GRID,10468,0,88.37973,0.0,352.1368,0
GRID,10469,0,87.94155,0.0,350.3893,0
GRID,10470,0,87.50338,0.0,348.6417,0
GRID,10471,0,87.0652,0.0,346.8941,0
GRID,10472,0,86.62702,0.0,345.1466,0
GRID,10473,0,86.18885,0.0,343.399,0
GRID,10474,0,85.75067,0.0,341.6514,0
GRID,10475,0,85.3125,0.0,339.9039,0
GRID,10476,0,84.87432,0.0,338.1563,0
GRID,10477,0,84.43614,0.0,336.4087,0
GRID,10478,0,83.99797,0.0,334.6611,0
GRID,10479,0,83.55979,0.0,332.9136,0
GRID,10480,0,83.12162,0.0,331.166,0
GRID,10481,0,82.68344,0.0,329.4184,0
GRID,10482,0,82.24527,0.0,327.6709,0
GRID,10483,0,81.80709,0.0,325.9233,0
GRID,10484,0,81.36891,0.0,324.1757,0
GRID,10485,0,80.93074,0.0,322.4281,0
GRID,10486,0,80.49256,0.0,320.6806,0
GRID,10487,0,80.05439,0.0,318.933,0
GRID,10488,0,79.61621,0.0,317.1854,0
GRID,10489,0,79.17804,0.0,315.4379,0
GRID,10490,0,78.73986,0.0,313.6903,0
GRID,10491,0,78.30168,0.0,311.9427,0
GRID,10492,0,77.86351,0.0,310.1951,0
GRID,10493,0,77.42533,0.0,308.4476,0
GRID,10494,0,76.98716,0.0,306.7,0
GRID,10495,0,76.54898,0.0,304.9524,0
GRID,10496,0,76.1108,0.0,303.2049,0
GRID,10497,0,75.67263,0.0,301.4573,0
GRID,10498,0,75.23445,0.0,299.7097,0
GRID,10499,0,74.79628,0.0,297.9621,0
GRID,10500,0,74.3581,0.0,296.2146,0
GRID,10501,0,73.91993,0.0,294.467,0
GRID,10502,0,73.48175,0.0,292.7194,0
GRID,10503,0,95.95997,0.0,394.8038,0
GRID,10504,0,95.53481,0.0,393.053,0
GRID,10505,0,95.10966,0.0,391.3022,0
GRID,10506,0,94.6845,0.0,389.5514,0
GRID,10507,0,94.25935,0.0,387.8006,0
GRID,10508,0,93.8342,0.0,386.0498,0
GRID,10509,0,93.40904,0.0,384.2991,0
GRID,10510,0,92.98389,0.0,382.5483,0
GRID,10511,0,92.55873,0.0,380.7975,0
GRID,10512,0,92.13358,0.0,379.0467,0
GRID,10513,0,91.70843,0.0,377.2959,0
GRID,10514,0,91.28327,0.0,375.5451,0
GRID,10515,0,90.85812,0.0,373.7943,0
GRID,10516,0,90.43296,0.0,372.0436,0
GRID,10517,0,90.00781,0.0,370.2928,0
GRID,10518,0,89.58266,0.0,368.542,0
GRID,10519,0,89.1575,0.0,366.7912,0
GRID,10520,0,88.73235,0.0,365.0404,0
GRID,10521,0,88.30719,0.0,363.2896,0
GRID,10522,0,87.88204,0.0,361.5388,0
GRID,10523,0,87.45689,0.0,359.7881,0
GRID,10524,0,87.03173,0.0,358.0373,0
GRID,10525,0,86.60658,0.0,356.2865,0
GRID,10526,0,86.18142,0.0,354.5357,0
GRID,10527,0,85.75627,0.0,352.7849,0
GRID,10528,0,85.33112,0.0,351.0341,0
GRID,10529,0,84.90596,0.0,349.2834,0
GRID,10530,0,84.48081,0.0,347.5326,0
GRID,10531,0,84.05565,0.0,345.7818,0
GRID,10532,0,83.6305,0.0,344.031,0
GRID,10533,0,83.20535,0.0,342.2802,0
GRID,10534,0,82.78019,0.0,340.5294,0
GRID,10535,0,82.35504,0.0,338.7786,0
GRID,10536,0,81.92988,0.0,337.0279,0
GRID,10537,0,81.50473,0.0,335.2771,0
GRID,10538,0,81.07957,0.0,333.5263,0
GRID,10539,0,80.65442,0.0,331.7755,0
GRID,10540,0,80.22927,0.0,330.0247,0
GRID,10541,0,79.80411,0.0,328.2739,0
GRID,10542,0,79.37896,0.0,326.5231,0
GRID,10543,0,78.9538,0.0,324.7724,0
GRID,10544,0,78.52865,0.0,323.0216,0
GRID,10545,0,78.1035,0.0,321.2708,0
GRID,10546,0,77.67834,0.0,319.52,0
GRID,10547,0,77.25319,0.0,317.7692,0
GRID,10548,0,76.82803,0.0,316.0184,0
GRID,10549,0,76.40288,0.0,314.2677,0
GRID,10550,0,75.97773,0.0,312.5169,0
GRID,10551,0,75.55257,0.0,310.7661,0
GRID,10552,0,75.12742,0.0,309.0153,0
GRID,10553,0,74.70226,0.0,307.2645,0
GRID,10554,0,74.27711,0.0,305.5137,0
GRID,10555,0,73.85196,0.0,303.7629,0
GRID,10556,0,73.4268,0.0,302.0122,0
GRID,10557,0,73.00165,0.0,300.2614,0
GRID,10558,0,72.57649,0.0,298.5106,0
GRID,10559,0,72.15134,0.0,296.7598,0
GRID,10560,0,71.72619,0.0,295.009,0
GRID,10561,0,71.30103,0.0,293.2582,0
GRID,10562,0,93.01867,0.0,395.5071,0
GRID,10563,0,92.60656,0.0,393.7532,0
GRID,10564,0,92.19445,0.0,391.9993,0
GRID,10565,0,91.78234,0.0,390.2454,0
GRID,10566,0,91.37023,0.0,388.4915,0
GRID,10567,0,90.95813,0.0,386.7376,0
GRID,10568,0,90.54602,0.0,384.9837,0
GRID,10569,0,90.13391,0.0,383.2298,0
GRID,10570,0,89.7218,0.0,381.4759,0
GRID,10571,0,89.30969,0.0,379.722,0
GRID,10572,0,88.89758,0.0,377.9681,0
GRID,10573,0,88.48547,0.0,376.2142,0
GRID,10574,0,88.07336,0.0,374.4603,0
GRID,10575,0,87.66126,0.0,372.7064,0
GRID,10576,0,87.24915,0.0,370.9525,0
GRID,10577,0,86.83704,0.0,369.1986,0
GRID,10578,0,86.42493,0.0,367.4447,0
GRID,10579,0,86.01282,0.0,365.6908,0
GRID,10580,0,85.60071,0.0,363.9369,0
GRID,10581,0,85.1886,0.0,362.183,0
GRID,10582,0,84.7765,0.0,360.4291,0
GRID,10583,0,84.36439,0.0,358.6752,0
GRID,10584,0,83.95228,0.0,356.9213,0
GRID,10585,0,83.54017,0.0,355.1674,0
GRID,10586,0,83.12806,0.0,353.4134,0
GRID,10587,0,82.71595,0.0,351.6595,0
GRID,10588,0,82.30384,0.0,349.9056,0
GRID,10589,0,81.89173,0.0,348.1517,0
GRID,10590,0,81.47963,0.0,346.3978,0
GRID,10591,0,81.06752,0.0,344.6439,0
GRID,10592,0,80.65541,0.0,342.89,0
GRID,10593,0,80.2433,0.0,341.1361,0
GRID,10594,0,79.83119,0.0,339.3822,0
GRID,10595,0,79.41908,0.0,337.6283,0
GRID,10596,0,79.00697,0.0,335.8744,0
GRID,10597,0,78.59486,0.0,334.1205,0
GRID,10598,0,78.18276,0.0,332.3666,0
GRID,10599,0,77.77065,0.0,330.6127,0
GRID,10600,0,77.35854,0.0,328.8588,0
GRID,10601,0,76.94643,0.0,327.1049,0
GRID,10602,0,76.53432,0.0,325.351,0
GRID,10603,0,76.12221,0.0,323.5971,0
GRID,10604,0,75.7101,0.0,321.8432,0
GRID,10605,0,75.298,0.0,320.0893,0
GRID,10606,0,74.88589,0.0,318.3354,0
GRID,10607,0,74.47378,0.0,316.5815,0
GRID,10608,0,74.06167,0.0,314.8276,0
GRID,10609,0,73.64956,0.0,313.0737,0
GRID,10610,0,73.23745,0.0,311.3198,0
GRID,10611,0,72.82534,0.0,309.5659,0
GRID,10612,0,72.41323,0.0,307.812,0
GRID,10613,0,72.00113,0.0,306.0581,0
GRID,10614,0,71.58902,0.0,304.3042,0
GRID,10615,0,71.17691,0.0,302.5503,0
GRID,10616,0,70.7648,0.0,300.7964,0
GRID,10617,0,70.35269,0.0,299.0425,0
GRID,10618,0,69.94058,0.0,297.2886,0
GRID,10619,0,69.52847,0.0,295.5347,0
GRID,10620,0,69.11637,0.0,293.7808,0
GRID,10621,0,90.07222,0.0,396.1885,0
GRID,10622,0,89.67318,0.0,394.4316,0
GRID,10623,0,89.27414,0.0,392.6747,0
GRID,10624,0,88.87509,0.0,390.9177,0
GRID,10625,0,88.47605,0.0,389.1608,0
GRID,10626,0,88.07701,0.0,387.4039,0
GRID,10627,0,87.67797,0.0,385.647,0
GRID,10628,0,87.27893,0.0,383.8901,0
GRID,10629,0,86.87989,0.0,382.1331,0
GRID,10630,0,86.48085,0.0,380.3762,0
GRID,10631,0,86.08181,0.0,378.6193,0
GRID,10632,0,85.68277,0.0,376.8624,0
GRID,10633,0,85.28373,0.0,375.1054,0
GRID,10634,0,84.88469,0.0,373.3485,0
GRID,10635,0,84.48565,0.0,371.5916,0
GRID,10636,0,84.08661,0.0,369.8347,0
GRID,10637,0,83.68757,0.0,368.0778,0
GRID,10638,0,83.28853,0.0,366.3208,0
GRID,10639,0,82.88949,0.0,364.5639,0
GRID,10640,0,82.49045,0.0,362.807,0
GRID,10641,0,82.09141,0.0,361.0501,0
GRID,10642,0,81.69237,0.0,359.2932,0
GRID,10643,0,81.29333,0.0,357.5362,0
GRID,10644,0,80.89429,0.0,355.7793,0
GRID,10645,0,80.49525,0.0,354.0224,0
GRID,10646,0,80.09621,0.0,352.2655,0
GRID,10647,0,79.69716,0.0,350.5086,0
GRID,10648,0,79.29812,0.0,348.7516,0
GRID,10649,0,78.89908,0.0,346.9947,0
GRID,10650,0,78.50004,0.0,345.2378,0
GRID,10651,0,78.101,0.0,343.4809,0
GRID,10652,0,77.70196,0.0,341.7239,0
GRID,10653,0,77.30292,0.0,339.967,0
GRID,10654,0,76.90388,0.0,338.2101,0
GRID,10655,0,76.50484,0.0,336.4532,0
GRID,10656,0,76.1058,0.0,334.6963,0
GRID,10657,0,75.70676,0.0,332.9393,0
GRID,10658,0,75.30772,0.0,331.1824,0
GRID,10659,0,74.90868,0.0,329.4255,0
GRID,10660,0,74.50964,0.0,327.6686,0
GRID,10661,0,74.1106,0.0,325.9117,0
GRID,10662,0,73.71156,0.0,324.1547,0
GRID,10663,0,73.31252,0.0,322.3978,0
GRID,10664,0,72.91348,0.0,320.6409,0
GRID,10665,0,72.51444,0.0,318.884,0
GRID,10666,0,72.1154,0.0,317.127,0
GRID,10667,0,71.71636,0.0,315.3701,0
GRID,10668,0,71.31732,0.0,313.6132,0
GRID,10669,0,70.91827,0.0,311.8563,0
GRID,10670,0,70.51923,0.0,310.0994,0
GRID,10671,0,70.12019,0.0,308.3424,0
GRID,10672,0,69.72115,0.0,306.5855,0
GRID,10673,0,69.32211,0.0,304.8286,0
GRID,10674,0,68.92307,0.0,303.0717,0
GRID,10675,0,68.52403,0.0,301.3148,0
GRID,10676,0,68.12499,0.0,299.5578,0
GRID,10677,0,67.72595,0.0,297.8009,0
GRID,10678,0,67.32691,0.0,296.044,0
GRID,10679,0,66.92787,0.0,294.2871,0
GRID,10680,0,87.12077,0.0,396.848,0
GRID,10681,0,86.73482,0.0,395.0881,0
GRID,10682,0,86.34887,0.0,393.3283,0
GRID,10683,0,85.96292,0.0,391.5684,0
GRID,10684,0,85.57697,0.0,389.8086,0
GRID,10685,0,85.19102,0.0,388.0487,0
GRID,10686,0,84.80507,0.0,386.2889,0
GRID,10687,0,84.41912,0.0,384.5291,0
GRID,10688,0,84.03317,0.0,382.7692,0
GRID,10689,0,83.64722,0.0,381.0094,0
GRID,10690,0,83.26127,0.0,379.2495,0
GRID,10691,0,82.87532,0.0,377.4897,0
GRID,10692,0,82.48937,0.0,375.7298,0
GRID,10693,0,82.10342,0.0,373.97,0
GRID,10694,0,81.71747,0.0,372.2102,0
GRID,10695,0,81.33152,0.0,370.4503,0
GRID,10696,0,80.94557,0.0,368.6905,0
GRID,10697,0,80.55962,0.0,366.9306,0
GRID,10698,0,80.17367,0.0,365.1708,0
GRID,10699,0,79.78772,0.0,363.4109,0
GRID,10700,0,79.40177,0.0,361.6511,0
GRID,10701,0,79.01582,0.0,359.8913,0
GRID,10702,0,78.62987,0.0,358.1314,0
GRID,10703,0,78.24392,0.0,356.3716,0
GRID,10704,0,77.85797,0.0,354.6117,0
GRID,10705,0,77.47202,0.0,352.8519,0
GRID,10706,0,77.08607,0.0,351.092,0
GRID,10707,0,76.70012,0.0,349.3322,0
GRID,10708,0,76.31417,0.0,347.5723,0
GRID,10709,0,75.92822,0.0,345.8125,0
GRID,10710,0,75.54227,0.0,344.0527,0
GRID,10711,0,75.15632,0.0,342.2928,0
GRID,10712,0,74.77037,0.0,340.533,0
GRID,10713,0,74.38442,0.0,338.7731,0
GRID,10714,0,73.99847,0.0,337.0133,0
GRID,10715,0,73.61252,0.0,335.2534,0
GRID,10716,0,73.22657,0.0,333.4936,0
GRID,10717,0,72.84062,0.0,331.7338,0
GRID,10718,0,72.45467,0.0,329.9739,0
GRID,10719,0,72.06872,0.0,328.2141,0
GRID,10720,0,71.68277,0.0,326.4542,0
GRID,10721,0,71.29682,0.0,324.6944,0
GRID,10722,0,70.91087,0.0,322.9345,0
GRID,10723,0,70.52492,0.0,321.1747,0
GRID,10724,0,70.13897,0.0,319.4149,0
GRID,10725,0,69.75302,0.0,317.655,0
GRID,10726,0,69.36707,0.0,315.8952,0
GRID,10727,0,68.98112,0.0,314.1353,0
GRID,10728,0,68.59517,0.0,312.3755,0
GRID,10729,0,68.20922,0.0,310.6156,0
GRID,10730,0,67.82327,0.0,308.8558,0
GRID,10731,0,67.43732,0.0,307.096,0
GRID,10732,0,67.05137,0.0,305.3361,0
GRID,10733,0,66.66542,0.0,303.5763,0
GRID,10734,0,66.27947,0.0,301.8164,0
GRID,10735,0,65.89352,0.0,300.0566,0
GRID,10736,0,65.50757,0.0,298.2967,0
GRID,10737,0,65.12162,0.0,296.5369,0
GRID,10738,0,64.73567,0.0,294.7771,0
GRID,10739,0,84.1645,0.0,397.4854,0
GRID,10740,0,83.79166,0.0,395.7228,0
GRID,10741,0,83.41882,0.0,393.9601,0
GRID,10742,0,83.04598,0.0,392.1974,0
GRID,10743,0,82.67315,0.0,390.4348,0
GRID,10744,0,82.30031,0.0,388.6721,0
GRID,10745,0,81.92747,0.0,386.9094,0
GRID,10746,0,81.55463,0.0,385.1467,0
GRID,10747,0,81.18179,0.0,383.3841,0
GRID,10748,0,80.80895,0.0,381.6214,0
GRID,10749,0,80.43612,0.0,379.8587,0
GRID,10750,0,80.06328,0.0,378.0961,0
GRID,10751,0,79.69044,0.0,376.3334,0
GRID,10752,0,79.3176,0.0,374.5707,0
GRID,10753,0,78.94476,0.0,372.8081,0
GRID,10754,0,78.57193,0.0,371.0454,0
GRID,10755,0,78.19909,0.0,369.2827,0
GRID,10756,0,77.82625,0.0,367.5201,0
GRID,10757,0,77.45341,0.0,365.7574,0
GRID,10758,0,77.08057,0.0,363.9947,0
GRID,10759,0,76.70773,0.0,362.2321,0
GRID,10760,0,76.3349,0.0,360.4694,0
GRID,10761,0,75.96206,0.0,358.7067,0
GRID,10762,0,75.58922,0.0,356.9441,0
GRID,10763,0,75.21638,0.0,355.1814,0
GRID,10764,0,74.84354,0.0,353.4187,0
GRID,10765,0,74.47071,0.0,351.6561,0
GRID,10766,0,74.09787,0.0,349.8934,0
GRID,10767,0,73.72503,0.0,348.1307,0
GRID,10768,0,73.35219,0.0,346.3681,0
GRID,10769,0,72.97935,0.0,344.6054,0
GRID,10770,0,72.60651,0.0,342.8427,0
GRID,10771,0,72.23368,0.0,341.0801,0
GRID,10772,0,71.86084,0.0,339.3174,0
GRID,10773,0,71.488,0.0,337.5547,0
GRID,10774,0,71.11516,0.0,335.7921,0
GRID,10775,0,70.74232,0.0,334.0294,0
GRID,10776,0,70.36948,0.0,332.2667,0
GRID,10777,0,69.99665,0.0,330.5041,0
GRID,10778,0,69.62381,0.0,328.7414,0
GRID,10779,0,69.25097,0.0,326.9787,0
GRID,10780,0,68.87813,0.0,325.2161,0
GRID,10781,0,68.50529,0.0,323.4534,0
GRID,10782,0,68.13246,0.0,321.6907,0
GRID,10783,0,67.75962,0.0,319.9281,0
GRID,10784,0,67.38678,0.0,318.1654,0
GRID,10785,0,67.01394,0.0,316.4027,0
GRID,10786,0,66.6411,0.0,314.6401,0
GRID,10787,0,66.26826,0.0,312.8774,0
GRID,10788,0,65.89543,0.0,311.1147,0
GRID,10789,0,65.52259,0.0,309.3521,0
GRID,10790,0,65.14975,0.0,307.5894,0
GRID,10791,0,64.77691,0.0,305.8267,0
GRID,10792,0,64.40407,0.0,304.0641,0
GRID,10793,0,64.03124,0.0,302.3014,0
GRID,10794,0,63.6584,0.0,300.5387,0
GRID,10795,0,63.28556,0.0,298.7761,0
GRID,10796,0,62.91272,0.0,297.0134,0
GRID,10797,0,62.53988,0.0,295.2507,0
GRID,10798,0,81.20356,0.0,398.1009,0
GRID,10799,0,80.84386,0.0,396.3355,0
GRID,10800,0,80.48415,0.0,394.5701,0
GRID,10801,0,80.12445,0.0,392.8047,0
GRID,10802,0,79.76474,0.0,391.0393,0
GRID,10803,0,79.40503,0.0,389.2739,0
GRID,10804,0,79.04533,0.0,387.5085,0
GRID,10805,0,78.68562,0.0,385.7431,0
GRID,10806,0,78.32592,0.0,383.9777,0
GRID,10807,0,77.96621,0.0,382.2123,0
GRID,10808,0,77.60651,0.0,380.4469,0
GRID,10809,0,77.2468,0.0,378.6815,0
GRID,10810,0,76.88709,0.0,376.9161,0
GRID,10811,0,76.52739,0.0,375.1507,0
GRID,10812,0,76.16768,0.0,373.3853,0
GRID,10813,0,75.80798,0.0,371.62,0
GRID,10814,0,75.44827,0.0,369.8546,0
GRID,10815,0,75.08857,0.0,368.0892,0
GRID,10816,0,74.72886,0.0,366.3238,0
GRID,10817,0,74.36915,0.0,364.5584,0
GRID,10818,0,74.00945,0.0,362.793,0
GRID,10819,0,73.64974,0.0,361.0276,0
GRID,10820,0,73.29004,0.0,359.2622,0
GRID,10821,0,72.93033,0.0,357.4968,0
GRID,10822,0,72.57063,0.0,355.7314,0
GRID,10823,0,72.21092,0.0,353.966,0
GRID,10824,0,71.85121,0.0,352.2006,0
GRID,10825,0,71.49151,0.0,350.4352,0
GRID,10826,0,71.1318,0.0,348.6698,0
GRID,10827,0,70.7721,0.0,346.9044,0
GRID,10828,0,70.41239,0.0,345.139,0
GRID,10829,0,70.05269,0.0,343.3737,0
GRID,10830,0,69.69298,0.0,341.6083,0
GRID,10831,0,69.33327,0.0,339.8429,0
GRID,10832,0,68.97357,0.0,338.0775,0
GRID,10833,0,68.61386,0.0,336.3121,0
GRID,10834,0,68.25416,0.0,334.5467,0
GRID,10835,0,67.89445,0.0,332.7813,0
GRID,10836,0,67.53475,0.0,331.0159,0
GRID,10837,0,67.17504,0.0,329.2505,0
GRID,10838,0,66.81533,0.0,327.4851,0
GRID,10839,0,66.45563,0.0,325.7197,0
GRID,10840,0,66.09592,0.0,323.9543,0
GRID,10841,0,65.73622,0.0,322.1889,0
GRID,10842,0,65.37651,0.0,320.4235,0
GRID,10843,0,65.01681,0.0,318.6581,0
GRID,10844,0,64.6571,0.0,316.8927,0
GRID,10845,0,64.29739,0.0,315.1274,0
GRID,10846,0,63.93769,0.0,313.362,0
GRID,10847,0,63.57798,0.0,311.5966,0
GRID,10848,0,63.21828,0.0,309.8312,0
GRID,10849,0,62.85857,0.0,308.0658,0
GRID,10850,0,62.49887,0.0,306.3004,0
GRID,10851,0,62.13916,0.0,304.535,0
GRID,10852,0,61.77945,0.0,302.7696,0
GRID,10853,0,61.41975,0.0,301.0042,0
GRID,10854,0,61.06004,0.0,299.2388,0
GRID,10855,0,60.70034,0.0,297.4734,0
GRID,10856,0,60.34063,0.0,295.708,0
GRID,10857,0,78.23813,0.0,398.6942,0
GRID,10858,0,77.89158,0.0,396.9262,0
GRID,10859,0,77.54502,0.0,395.1582,0
GRID,10860,0,77.19847,0.0,393.3902,0
GRID,10861,0,76.85192,0.0,391.6222,0
GRID,10862,0,76.50536,0.0,389.8541,0
GRID,10863,0,76.15881,0.0,388.0861,0
GRID,10864,0,75.81226,0.0,386.3181,0
GRID,10865,0,75.4657,0.0,384.5501,0
GRID,10866,0,75.11915,0.0,382.782,0
GRID,10867,0,74.7726,0.0,381.014,0
GRID,10868,0,74.42604,0.0,379.246,0
GRID,10869,0,74.07949,0.0,377.478,0
GRID,10870,0,73.73294,0.0,375.71,0
GRID,10871,0,73.38638,0.0,373.9419,0
GRID,10872,0,73.03983,0.0,372.1739,0
GRID,10873,0,72.69328,0.0,370.4059,0
GRID,10874,0,72.34672,0.0,368.6379,0
GRID,10875,0,72.00017,0.0,366.8698,0
GRID,10876,0,71.65362,0.0,365.1018,0
GRID,10877,0,71.30706,0.0,363.3338,0
GRID,10878,0,70.96051,0.0,361.5658,0
GRID,10879,0,70.61396,0.0,359.7978,0
GRID,10880,0,70.2674,0.0,358.0297,0
GRID,10881,0,69.92085,0.0,356.2617,0
GRID,10882,0,69.5743,0.0,354.4937,0
GRID,10883,0,69.22774,0.0,352.7257,0
GRID,10884,0,68.88119,0.0,350.9576,0
GRID,10885,0,68.53464,0.0,349.1896,0
GRID,10886,0,68.18808,0.0,347.4216,0
GRID,10887,0,67.84153,0.0,345.6536,0
GRID,10888,0,67.49498,0.0,343.8856,0
GRID,10889,0,67.14842,0.0,342.1175,0
GRID,10890,0,66.80187,0.0,340.3495,0
GRID,10891,0,66.45532,0.0,338.5815,0
GRID,10892,0,66.10876,0.0,336.8135,0
GRID,10893,0,65.76221,0.0,335.0454,0
GRID,10894,0,65.41566,0.0,333.2774,0
GRID,10895,0,65.0691,0.0,331.5094,0
GRID,10896,0,64.72255,0.0,329.7414,0
GRID,10897,0,64.376,0.0,327.9734,0
GRID,10898,0,64.02945,0.0,326.2053,0
GRID,10899,0,63.68289,0.0,324.4373,0
GRID,10900,0,63.33634,0.0,322.6693,0
GRID,10901,0,62.98979,0.0,320.9013,0
GRID,10902,0,62.64323,0.0,319.1332,0
GRID,10903,0,62.29668,0.0,317.3652,0
GRID,10904,0,61.95013,0.0,315.5972,0
GRID,10905,0,61.60357,0.0,313.8292,0
GRID,10906,0,61.25702,0.0,312.0612,0
GRID,10907,0,60.91047,0.0,310.2931,0
GRID,10908,0,60.56391,0.0,308.5251,0
GRID,10909,0,60.21736,0.0,306.7571,0
GRID,10910,0,59.87081,0.0,304.9891,0
GRID,10911,0,59.52425,0.0,303.221,0
GRID,10912,0,59.1777,0.0,301.453,0
GRID,10913,0,58.83115,0.0,299.685,0
GRID,10914,0,58.48459,0.0,297.917,0
GRID,10915,0,58.13804,0.0,296.149,0
GRID,10916,0,75.26836,0.0,399.2655,0
GRID,10917,0,74.93498,0.0,397.495,0
GRID,10918,0,74.6016,0.0,395.7244,0
GRID,10919,0,74.26822,0.0,393.9539,0
GRID,10920,0,73.93483,0.0,392.1833,0
GRID,10921,0,73.60145,0.0,390.4128,0
GRID,10922,0,73.26807,0.0,388.6422,0
GRID,10923,0,72.93469,0.0,386.8717,0
GRID,10924,0,72.60131,0.0,385.1011,0
GRID,10925,0,72.26793,0.0,383.3306,0
GRID,10926,0,71.93454,0.0,381.56,0
GRID,10927,0,71.60116,0.0,379.7895,0
GRID,10928,0,71.26778,0.0,378.0189,0
GRID,10929,0,70.9344,0.0,376.2484,0
GRID,10930,0,70.60102,0.0,374.4778,0
GRID,10931,0,70.26764,0.0,372.7073,0
GRID,10932,0,69.93425,0.0,370.9367,0
GRID,10933,0,69.60087,0.0,369.1661,0
GRID,10934,0,69.26749,0.0,367.3956,0
GRID,10935,0,68.93411,0.0,365.625,0
GRID,10936,0,68.60073,0.0,363.8545,0
GRID,10937,0,68.26735,0.0,362.0839,0
GRID,10938,0,67.93396,0.0,360.3134,0
GRID,10939,0,67.60058,0.0,358.5428,0
GRID,10940,0,67.2672,0.0,356.7723,0
GRID,10941,0,66.93382,0.0,355.0017,0
GRID,10942,0,66.60044,0.0,353.2312,0
GRID,10943,0,66.26706,0.0,351.4606,0
GRID,10944,0,65.93368,0.0,349.6901,0
GRID,10945,0,65.60029,0.0,347.9195,0
GRID,10946,0,65.26691,0.0,346.149,0
GRID,10947,0,64.93353,0.0,344.3784,0
GRID,10948,0,64.60015,0.0,342.6079,0
GRID,10949,0,64.26677,0.0,340.8373,0
GRID,10950,0,63.93339,0.0,339.0667,0
GRID,10951,0,63.6,0.0,337.2962,0
GRID,10952,0,63.26662,0.0,335.5256,0
GRID,10953,0,62.93324,0.0,333.7551,0
GRID,10954,0,62.59986,0.0,331.9845,0
GRID,10955,0,62.26648,0.0,330.214,0
GRID,10956,0,61.9331,0.0,328.4434,0
GRID,10957,0,61.59971,0.0,326.6729,0
GRID,10958,0,61.26633,0.0,324.9023,0
GRID,10959,0,60.93295,0.0,323.1318,0
GRID,10960,0,60.59957,0.0,321.3612,0
GRID,10961,0,60.26619,0.0,319.5907,0
GRID,10962,0,59.93281,0.0,317.8201,0
GRID,10963,0,59.59942,0.0,316.0496,0
GRID,10964,0,59.26604,0.0,314.279,0
GRID,10965,0,58.93266,0.0,312.5085,0
GRID,10966,0,58.59928,0.0,310.7379,0
GRID,10967,0,58.2659,0.0,308.9673,0
GRID,10968,0,57.93252,0.0,307.1968,0
GRID,10969,0,57.59913,0.0,305.4262,0
GRID,10970,0,57.26575,0.0,303.6557,0
GRID,10971,0,56.93237,0.0,301.8851,0
GRID,10972,0,56.59899,0.0,300.1146,0
GRID,10973,0,56.26561,0.0,298.344,0
GRID,10974,0,55.93223,0.0,296.5735,0
GRID,10975,0,72.29442,0.0,399.8147,0
GRID,10976,0,71.97423,0.0,398.0417,0
GRID,10977,0,71.65404,0.0,396.2688,0
GRID,10978,0,71.33385,0.0,394.4958,0
GRID,10979,0,71.01366,0.0,392.7228,0
GRID,10980,0,70.69347,0.0,390.9498,0
GRID,10981,0,70.37327,0.0,389.1768,0
GRID,10982,0,70.05308,0.0,387.4038,0
GRID,10983,0,69.73289,0.0,385.6308,0
GRID,10984,0,69.4127,0.0,383.8579,0
GRID,10985,0,69.09251,0.0,382.0849,0
GRID,10986,0,68.77232,0.0,380.3119,0
GRID,10987,0,68.45212,0.0,378.5389,0
GRID,10988,0,68.13193,0.0,376.7659,0
GRID,10989,0,67.81174,0.0,374.9929,0
GRID,10990,0,67.49155,0.0,373.2199,0
GRID,10991,0,67.17136,0.0,371.447,0
GRID,10992,0,66.85117,0.0,369.674,0
GRID,10993,0,66.53098,0.0,367.901,0
GRID,10994,0,66.21078,0.0,366.128,0
GRID,10995,0,65.89059,0.0,364.355,0
GRID,10996,0,65.5704,0.0,362.582,0
GRID,10997,0,65.25021,0.0,360.809,0
GRID,10998,0,64.93002,0.0,359.0361,0
GRID,10999,0,64.60983,0.0,357.2631,0
GRID,11000,0,64.28963,0.0,355.4901,0
GRID,11001,0,63.96944,0.0,353.7171,0
GRID,11002,0,63.64925,0.0,351.9441,0
GRID,11003,0,63.32906,0.0,350.1711,0
GRID,11004,0,63.00887,0.0,348.3981,0
GRID,11005,0,62.68868,0.0,346.6252,0
GRID,11006,0,62.36849,0.0,344.8522,0
GRID,11007,0,62.04829,0.0,343.0792,0
GRID,11008,0,61.7281,0.0,341.3062,0
GRID,11009,0,61.40791,0.0,339.5332,0
GRID,11010,0,61.08772,0.0,337.7602,0
GRID,11011,0,60.76753,0.0,335.9873,0
GRID,11012,0,60.44734,0.0,334.2143,0
GRID,11013,0,60.12715,0.0,332.4413,0
GRID,11014,0,59.80695,0.0,330.6683,0
GRID,11015,0,59.48676,0.0,328.8953,0
GRID,11016,0,59.16657,0.0,327.1223,0
GRID,11017,0,58.84638,0.0,325.3493,0
GRID,11018,0,58.52619,0.0,323.5764,0
GRID,11019,0,58.206,0.0,321.8034,0
GRID,11020,0,57.8858,0.0,320.0304,0
GRID,11021,0,57.56561,0.0,318.2574,0
GRID,11022,0,57.24542,0.0,316.4844,0
GRID,11023,0,56.92523,0.0,314.7114,0
GRID,11024,0,56.60504,0.0,312.9384,0
GRID,11025,0,56.28485,0.0,311.1655,0
GRID,11026,0,55.96466,0.0,309.3925,0
GRID,11027,0,55.64446,0.0,307.6195,0
GRID,11028,0,55.32427,0.0,305.8465,0
GRID,11029,0,55.00408,0.0,304.0735,0
GRID,11030,0,54.68389,0.0,302.3005,0
GRID,11031,0,54.3637,0.0,300.5275,0
GRID,11032,0,54.04351,0.0,298.7546,0
GRID,11033,0,53.72331,0.0,296.9816,0
GRID,11034,0,69.31648,0.0,400.3418,0
GRID,11035,0,69.0095,0.0,398.5665,0
GRID,11036,0,68.70251,0.0,396.7911,0
GRID,11037,0,68.39553,0.0,395.0158,0
GRID,11038,0,68.08855,0.0,393.2405,0
GRID,11039,0,67.78156,0.0,391.4652,0
GRID,11040,0,67.47458,0.0,389.6898,0
GRID,11041,0,67.1676,0.0,387.9145,0
GRID,11042,0,66.86061,0.0,386.1392,0
GRID,11043,0,66.55363,0.0,384.3639,0
GRID,11044,0,66.24664,0.0,382.5886,0
GRID,11045,0,65.93966,0.0,380.8132,0
GRID,11046,0,65.63268,0.0,379.0379,0
GRID,11047,0,65.32569,0.0,377.2626,0
GRID,11048,0,65.01871,0.0,375.4873,0
GRID,11049,0,64.71173,0.0,373.712,0
GRID,11050,0,64.40474,0.0,371.9366,0
GRID,11051,0,64.09776,0.0,370.1613,0
GRID,11052,0,63.79077,0.0,368.386,0
GRID,11053,0,63.48379,0.0,366.6107,0
GRID,11054,0,63.17681,0.0,364.8354,0
GRID,11055,0,62.86982,0.0,363.06,0
GRID,11056,0,62.56284,0.0,361.2847,0
GRID,11057,0,62.25586,0.0,359.5094,0
GRID,11058,0,61.94887,0.0,357.7341,0
GRID,11059,0,61.64189,0.0,355.9588,0
GRID,11060,0,61.3349,0.0,354.1834,0
GRID,11061,0,61.02792,0.0,352.4081,0
GRID,11062,0,60.72094,0.0,350.6328,0
GRID,11063,0,60.41395,0.0,348.8575,0
GRID,11064,0,60.10697,0.0,347.0822,0
GRID,11065,0,59.79999,0.0,345.3068,0
GRID,11066,0,59.493,0.0,343.5315,0
GRID,11067,0,59.18602,0.0,341.7562,0
GRID,11068,0,58.87903,0.0,339.9809,0
GRID,11069,0,58.57205,0.0,338.2056,0
GRID,11070,0,58.26507,0.0,336.4302,0
GRID,11071,0,57.95808,0.0,334.6549,0
GRID,11072,0,57.6511,0.0,332.8796,0
GRID,11073,0,57.34412,0.0,331.1043,0
GRID,11074,0,57.03713,0.0,329.329,0
GRID,11075,0,56.73015,0.0,327.5536,0
GRID,11076,0,56.42316,0.0,325.7783,0
GRID,11077,0,56.11618,0.0,324.003,0
GRID,11078,0,55.8092,0.0,322.2277,0
GRID,11079,0,55.50221,0.0,320.4524,0
GRID,11080,0,55.19523,0.0,318.677,0
GRID,11081,0,54.88825,0.0,316.9017,0
GRID,11082,0,54.58126,0.0,315.1264,0
GRID,11083,0,54.27428,0.0,313.3511,0
GRID,11084,0,53.96729,0.0,311.5758,0
GRID,11085,0,53.66031,0.0,309.8004,0
GRID,11086,0,53.35333,0.0,308.0251,0
GRID,11087,0,53.04634,0.0,306.2498,0
GRID,11088,0,52.73936,0.0,304.4745,0
GRID,11089,0,52.43238,0.0,302.6992,0
GRID,11090,0,52.12539,0.0,300.9238,0
GRID,11091,0,51.81841,0.0,299.1485,0
GRID,11092,0,51.51142,0.0,297.3732,0
GRID,11093,0,66.3347,0.0,400.8466,0
GRID,11094,0,66.04094,0.0,399.0691,0
GRID,11095,0,65.74718,0.0,397.2915,0
GRID,11096,0,65.45342,0.0,395.514,0
GRID,11097,0,65.15966,0.0,393.7364,0
GRID,11098,0,64.86591,0.0,391.9588,0
GRID,11099,0,64.57215,0.0,390.1813,0
GRID,11100,0,64.27839,0.0,388.4037,0
GRID,11101,0,63.98463,0.0,386.6262,0
GRID,11102,0,63.69087,0.0,384.8486,0
GRID,11103,0,63.39711,0.0,383.0711,0
GRID,11104,0,63.10335,0.0,381.2935,0
GRID,11105,0,62.80959,0.0,379.516,0
GRID,11106,0,62.51583,0.0,377.7384,0
GRID,11107,0,62.22207,0.0,375.9608,0
GRID,11108,0,61.92832,0.0,374.1833,0
GRID,11109,0,61.63456,0.0,372.4057,0
GRID,11110,0,61.3408,0.0,370.6282,0
GRID,11111,0,61.04704,0.0,368.8506,0
GRID,11112,0,60.75328,0.0,367.0731,0
GRID,11113,0,60.45952,0.0,365.2955,0
GRID,11114,0,60.16576,0.0,363.5179,0
GRID,11115,0,59.872,0.0,361.7404,0
GRID,11116,0,59.57824,0.0,359.9628,0
GRID,11117,0,59.28448,0.0,358.1853,0
GRID,11118,0,58.99073,0.0,356.4077,0
GRID,11119,0,58.69697,0.0,354.6302,0
GRID,11120,0,58.40321,0.0,352.8526,0
GRID,11121,0,58.10945,0.0,351.075,0
GRID,11122,0,57.81569,0.0,349.2975,0
GRID,11123,0,57.52193,0.0,347.5199,0
GRID,11124,0,57.22817,0.0,345.7424,0
GRID,11125,0,56.93441,0.0,343.9648,0
GRID,11126,0,56.64065,0.0,342.1873,0
GRID,11127,0,56.34689,0.0,340.4097,0
GRID,11128,0,56.05314,0.0,338.6322,0
GRID,11129,0,55.75938,0.0,336.8546,0
GRID,11130,0,55.46562,0.0,335.077,0
GRID,11131,0,55.17186,0.0,333.2995,0
GRID,11132,0,54.8781,0.0,331.5219,0
GRID,11133,0,54.58434,0.0,329.7444,0
GRID,11134,0,54.29058,0.0,327.9668,0
GRID,11135,0,53.99682,0.0,326.1893,0
GRID,11136,0,53.70306,0.0,324.4117,0
GRID,11137,0,53.40931,0.0,322.6341,0
GRID,11138,0,53.11555,0.0,320.8566,0
GRID,11139,0,52.82179,0.0,319.079,0
GRID,11140,0,52.52803,0.0,317.3015,0
GRID,11141,0,52.23427,0.0,315.5239,0
GRID,11142,0,51.94051,0.0,313.7464,0
GRID,11143,0,51.64675,0.0,311.9688,0
GRID,11144,0,51.35299,0.0,310.1912,0
GRID,11145,0,51.05923,0.0,308.4137,0
GRID,11146,0,50.76547,0.0,306.6361,0
GRID,11147,0,50.47172,0.0,304.8586,0
GRID,11148,0,50.17796,0.0,303.081,0
GRID,11149,0,49.8842,0.0,301.3035,0
GRID,11150,0,49.59044,0.0,299.5259,0
GRID,11151,0,49.29668,0.0,297.7483,0
GRID,11152,0,63.34924,0.0,401.3293,0
GRID,11153,0,63.06873,0.0,399.5496,0
GRID,11154,0,62.78821,0.0,397.7699,0
GRID,11155,0,62.50769,0.0,395.9902,0
GRID,11156,0,62.22717,0.0,394.2105,0
GRID,11157,0,61.94665,0.0,392.4308,0
GRID,11158,0,61.66614,0.0,390.6511,0
GRID,11159,0,61.38562,0.0,388.8714,0
GRID,11160,0,61.1051,0.0,387.0917,0
GRID,11161,0,60.82458,0.0,385.312,0
GRID,11162,0,60.54406,0.0,383.5323,0
GRID,11163,0,60.26355,0.0,381.7526,0
GRID,11164,0,59.98303,0.0,379.9729,0
GRID,11165,0,59.70251,0.0,378.1933,0
GRID,11166,0,59.42199,0.0,376.4136,0
GRID,11167,0,59.14147,0.0,374.6339,0
GRID,11168,0,58.86096,0.0,372.8542,0
GRID,11169,0,58.58044,0.0,371.0745,0
GRID,11170,0,58.29992,0.0,369.2948,0
GRID,11171,0,58.0194,0.0,367.5151,0
GRID,11172,0,57.73888,0.0,365.7354,0
GRID,11173,0,57.45837,0.0,363.9557,0
GRID,11174,0,57.17785,0.0,362.176,0
GRID,11175,0,56.89733,0.0,360.3963,0
GRID,11176,0,56.61681,0.0,358.6166,0
GRID,11177,0,56.33629,0.0,356.8369,0
GRID,11178,0,56.05578,0.0,355.0572,0
GRID,11179,0,55.77526,0.0,353.2775,0
GRID,11180,0,55.49474,0.0,351.4978,0
GRID,11181,0,55.21422,0.0,349.7181,0
GRID,11182,0,54.93371,0.0,347.9384,0
GRID,11183,0,54.65319,0.0,346.1588,0
GRID,11184,0,54.37267,0.0,344.3791,0
GRID,11185,0,54.09215,0.0,342.5994,0
GRID,11186,0,53.81163,0.0,340.8197,0
GRID,11187,0,53.53112,0.0,339.04,0
GRID,11188,0,53.2506,0.0,337.2603,0
GRID,11189,0,52.97008,0.0,335.4806,0
GRID,11190,0,52.68956,0.0,333.7009,0
GRID,11191,0,52.40904,0.0,331.9212,0
GRID,11192,0,52.12853,0.0,330.1415,0
GRID,11193,0,51.84801,0.0,328.3618,0
GRID,11194,0,51.56749,0.0,326.5821,0
GRID,11195,0,51.28697,0.0,324.8024,0
GRID,11196,0,51.00645,0.0,323.0227,0
GRID,11197,0,50.72594,0.0,321.243,0
GRID,11198,0,50.44542,0.0,319.4633,0
GRID,11199,0,50.1649,0.0,317.6836,0
GRID,11200,0,49.88438,0.0,315.9039,0
GRID,11201,0,49.60386,0.0,314.1243,0
GRID,11202,0,49.32335,0.0,312.3446,0
GRID,11203,0,49.04283,0.0,310.5649,0
GRID,11204,0,48.76231,0.0,308.7852,0
GRID,11205,0,48.48179,0.0,307.0055,0
GRID,11206,0,48.20128,0.0,305.2258,0
GRID,11207,0,47.92076,0.0,303.4461,0
GRID,11208,0,47.64024,0.0,301.6664,0
GRID,11209,0,47.35972,0.0,299.8867,0
GRID,11210,0,47.0792,0.0,298.107,0
GRID,11211,0,60.36028,0.0,401.7897,0
GRID,11212,0,60.09301,0.0,400.008,0
GRID,11213,0,59.82575,0.0,398.2262,0
GRID,11214,0,59.55849,0.0,396.4445,0
GRID,11215,0,59.29123,0.0,394.6628,0
GRID,11216,0,59.02397,0.0,392.881,0
GRID,11217,0,58.75671,0.0,391.0993,0
GRID,11218,0,58.48945,0.0,389.3176,0
GRID,11219,0,58.22218,0.0,387.5358,0
GRID,11220,0,57.95492,0.0,385.7541,0
GRID,11221,0,57.68766,0.0,383.9724,0
GRID,11222,0,57.4204,0.0,382.1906,0
GRID,11223,0,57.15314,0.0,380.4089,0
GRID,11224,0,56.88588,0.0,378.6272,0
GRID,11225,0,56.61862,0.0,376.8454,0
GRID,11226,0,56.35136,0.0,375.0637,0
GRID,11227,0,56.08409,0.0,373.282,0
GRID,11228,0,55.81683,0.0,371.5002,0
GRID,11229,0,55.54957,0.0,369.7185,0
GRID,11230,0,55.28231,0.0,367.9368,0
GRID,11231,0,55.01505,0.0,366.155,0
GRID,11232,0,54.74779,0.0,364.3733,0
GRID,11233,0,54.48053,0.0,362.5916,0
GRID,11234,0,54.21327,0.0,360.8098,0
GRID,11235,0,53.946,0.0,359.0281,0
GRID,11236,0,53.67874,0.0,357.2464,0
GRID,11237,0,53.41148,0.0,355.4646,0
GRID,11238,0,53.14422,0.0,353.6829,0
GRID,11239,0,52.87696,0.0,351.9012,0
GRID,11240,0,52.6097,0.0,350.1194,0
GRID,11241,0,52.34244,0.0,348.3377,0
GRID,11242,0,52.07517,0.0,346.5559,0
GRID,11243,0,51.80791,0.0,344.7742,0
GRID,11244,0,51.54065,0.0,342.9925,0
GRID,11245,0,51.27339,0.0,341.2107,0
GRID,11246,0,51.00613,0.0,339.429,0
GRID,11247,0,50.73887,0.0,337.6473,0
GRID,11248,0,50.47161,0.0,335.8655,0
GRID,11249,0,50.20435,0.0,334.0838,0
GRID,11250,0,49.93708,0.0,332.3021,0
GRID,11251,0,49.66982,0.0,330.5203,0
GRID,11252,0,49.40256,0.0,328.7386,0
GRID,11253,0,49.1353,0.0,326.9569,0
GRID,11254,0,48.86804,0.0,325.1751,0
GRID,11255,0,48.60078,0.0,323.3934,0
GRID,11256,0,48.33352,0.0,321.6117,0
GRID,11257,0,48.06625,0.0,319.8299,0
GRID,11258,0,47.79899,0.0,318.0482,0
GRID,11259,0,47.53173,0.0,316.2665,0
GRID,11260,0,47.26447,0.0,314.4847,0
GRID,11261,0,46.99721,0.0,312.703,0
GRID,11262,0,46.72995,0.0,310.9213,0
GRID,11263,0,46.46269,0.0,309.1395,0
GRID,11264,0,46.19543,0.0,307.3578,0
GRID,11265,0,45.92816,0.0,305.5761,0
GRID,11266,0,45.6609,0.0,303.7943,0
GRID,11267,0,45.39364,0.0,302.0126,0
GRID,11268,0,45.12638,0.0,300.2309,0
GRID,11269,0,44.85912,0.0,298.4491,0
GRID,11270,0,57.36796,0.0,402.2278,0
GRID,11271,0,57.11397,0.0,400.4442,0
GRID,11272,0,56.85998,0.0,398.6605,0
GRID,11273,0,56.60599,0.0,396.8768,0
GRID,11274,0,56.352,0.0,395.0931,0
GRID,11275,0,56.09801,0.0,393.3095,0
GRID,11276,0,55.84402,0.0,391.5258,0
GRID,11277,0,55.59003,0.0,389.7421,0
GRID,11278,0,55.33604,0.0,387.9584,0
GRID,11279,0,55.08205,0.0,386.1748,0
GRID,11280,0,54.82806,0.0,384.3911,0
GRID,11281,0,54.57407,0.0,382.6074,0
GRID,11282,0,54.32008,0.0,380.8238,0
GRID,11283,0,54.06609,0.0,379.0401,0
GRID,11284,0,53.8121,0.0,377.2564,0
GRID,11285,0,53.55811,0.0,375.4727,0
GRID,11286,0,53.30412,0.0,373.6891,0
GRID,11287,0,53.05013,0.0,371.9054,0
GRID,11288,0,52.79615,0.0,370.1217,0
GRID,11289,0,52.54216,0.0,368.338,0
GRID,11290,0,52.28817,0.0,366.5544,0
GRID,11291,0,52.03418,0.0,364.7707,0
GRID,11292,0,51.78019,0.0,362.987,0
GRID,11293,0,51.5262,0.0,361.2033,0
GRID,11294,0,51.27221,0.0,359.4197,0
GRID,11295,0,51.01822,0.0,357.636,0
GRID,11296,0,50.76423,0.0,355.8523,0
GRID,11297,0,50.51024,0.0,354.0686,0
GRID,11298,0,50.25625,0.0,352.285,0
GRID,11299,0,50.00226,0.0,350.5013,0
GRID,11300,0,49.74827,0.0,348.7176,0
GRID,11301,0,49.49428,0.0,346.9339,0
GRID,11302,0,49.24029,0.0,345.1503,0
GRID,11303,0,48.9863,0.0,343.3666,0
GRID,11304,0,48.73231,0.0,341.5829,0
GRID,11305,0,48.47832,0.0,339.7992,0
GRID,11306,0,48.22433,0.0,338.0156,0
GRID,11307,0,47.97034,0.0,336.2319,0
GRID,11308,0,47.71635,0.0,334.4482,0
GRID,11309,0,47.46236,0.0,332.6646,0
GRID,11310,0,47.20837,0.0,330.8809,0
GRID,11311,0,46.95438,0.0,329.0972,0
GRID,11312,0,46.70039,0.0,327.3135,0
GRID,11313,0,46.4464,0.0,325.5299,0
GRID,11314,0,46.19241,0.0,323.7462,0
GRID,11315,0,45.93842,0.0,321.9625,0
GRID,11316,0,45.68443,0.0,320.1788,0
GRID,11317,0,45.43044,0.0,318.3952,0
GRID,11318,0,45.17645,0.0,316.6115,0
GRID,11319,0,44.92246,0.0,314.8278,0
GRID,11320,0,44.66847,0.0,313.0441,0
GRID,11321,0,44.41448,0.0,311.2605,0
GRID,11322,0,44.16049,0.0,309.4768,0
GRID,11323,0,43.9065,0.0,307.6931,0
GRID,11324,0,43.65251,0.0,305.9094,0
GRID,11325,0,43.39852,0.0,304.1258,0
GRID,11326,0,43.14453,0.0,302.3421,0
GRID,11327,0,42.89054,0.0,300.5584,0
GRID,11328,0,42.63655,0.0,298.7747,0
GRID,11329,0,54.37247,0.0,402.6437,0
GRID,11330,0,54.13177,0.0,400.8582,0
GRID,11331,0,53.89106,0.0,399.0727,0
GRID,11332,0,53.65036,0.0,397.2872,0
GRID,11333,0,53.40965,0.0,395.5016,0
GRID,11334,0,53.16895,0.0,393.7161,0
GRID,11335,0,52.92825,0.0,391.9306,0
GRID,11336,0,52.68754,0.0,390.1451,0
GRID,11337,0,52.44684,0.0,388.3596,0
GRID,11338,0,52.20613,0.0,386.5741,0
GRID,11339,0,51.96543,0.0,384.7885,0
GRID,11340,0,51.72472,0.0,383.003,0
GRID,11341,0,51.48402,0.0,381.2175,0
GRID,11342,0,51.24331,0.0,379.432,0
GRID,11343,0,51.00261,0.0,377.6465,0
GRID,11344,0,50.76191,0.0,375.861,0
GRID,11345,0,50.5212,0.0,374.0755,0
GRID,11346,0,50.2805,0.0,372.2899,0
GRID,11347,0,50.03979,0.0,370.5044,0
GRID,11348,0,49.79909,0.0,368.7189,0
GRID,11349,0,49.55838,0.0,366.9334,0
GRID,11350,0,49.31768,0.0,365.1479,0
GRID,11351,0,49.07698,0.0,363.3624,0
GRID,11352,0,48.83627,0.0,361.5768,0
GRID,11353,0,48.59557,0.0,359.7913,0
GRID,11354,0,48.35486,0.0,358.0058,0
GRID,11355,0,48.11416,0.0,356.2203,0
GRID,11356,0,47.87345,0.0,354.4348,0
GRID,11357,0,47.63275,0.0,352.6493,0
GRID,11358,0,47.39205,0.0,350.8638,0
GRID,11359,0,47.15134,0.0,349.0782,0
GRID,11360,0,46.91064,0.0,347.2927,0
GRID,11361,0,46.66993,0.0,345.5072,0
GRID,11362,0,46.42923,0.0,343.7217,0
GRID,11363,0,46.18852,0.0,341.9362,0
GRID,11364,0,45.94782,0.0,340.1507,0
GRID,11365,0,45.70712,0.0,338.3651,0
GRID,11366,0,45.46641,0.0,336.5796,0
GRID,11367,0,45.22571,0.0,334.7941,0
GRID,11368,0,44.985,0.0,333.0086,0
GRID,11369,0,44.7443,0.0,331.2231,0
GRID,11370,0,44.50359,0.0,329.4376,0
GRID,11371,0,44.26289,0.0,327.652,0
GRID,11372,0,44.02218,0.0,325.8665,0
GRID,11373,0,43.78148,0.0,324.081,0
GRID,11374,0,43.54078,0.0,322.2955,0
GRID,11375,0,43.30007,0.0,320.51,0
GRID,11376,0,43.05937,0.0,318.7245,0
GRID,11377,0,42.81866,0.0,316.939,0
GRID,11378,0,42.57796,0.0,315.1534,0
GRID,11379,0,42.33725,0.0,313.3679,0
GRID,11380,0,42.09655,0.0,311.5824,0
GRID,11381,0,41.85585,0.0,309.7969,0
GRID,11382,0,41.61514,0.0,308.0114,0
GRID,11383,0,41.37444,0.0,306.2259,0
GRID,11384,0,41.13373,0.0,304.4403,0
GRID,11385,0,40.89303,0.0,302.6548,0
GRID,11386,0,40.65232,0.0,300.8693,0
GRID,11387,0,40.41162,0.0,299.0838,0
GRID,11388,0,51.37397,0.0,403.0372,0
GRID,11389,0,51.14656,0.0,401.25,0
GRID,11390,0,50.91916,0.0,399.4627,0
GRID,11391,0,50.69175,0.0,397.6755,0
GRID,11392,0,50.46435,0.0,395.8882,0
GRID,11393,0,50.23694,0.0,394.101,0
GRID,11394,0,50.00953,0.0,392.3137,0
GRID,11395,0,49.78213,0.0,390.5264,0
GRID,11396,0,49.55472,0.0,388.7392,0
GRID,11397,0,49.32732,0.0,386.9519,0
GRID,11398,0,49.09991,0.0,385.1647,0
GRID,11399,0,48.87251,0.0,383.3774,0
GRID,11400,0,48.6451,0.0,381.5902,0
GRID,11401,0,48.4177,0.0,379.8029,0
GRID,11402,0,48.19029,0.0,378.0156,0
GRID,11403,0,47.96289,0.0,376.2284,0
GRID,11404,0,47.73548,0.0,374.4411,0
GRID,11405,0,47.50807,0.0,372.6539,0
GRID,11406,0,47.28067,0.0,370.8666,0
GRID,11407,0,47.05326,0.0,369.0794,0
GRID,11408,0,46.82586,0.0,367.2921,0
GRID,11409,0,46.59845,0.0,365.5048,0
GRID,11410,0,46.37105,0.0,363.7176,0
GRID,11411,0,46.14364,0.0,361.9303,0
GRID,11412,0,45.91624,0.0,360.1431,0
GRID,11413,0,45.68883,0.0,358.3558,0
GRID,11414,0,45.46143,0.0,356.5685,0
GRID,11415,0,45.23402,0.0,354.7813,0
GRID,11416,0,45.00661,0.0,352.994,0
GRID,11417,0,44.77921,0.0,351.2068,0
GRID,11418,0,44.5518,0.0,349.4195,0
GRID,11419,0,44.3244,0.0,347.6323,0
GRID,11420,0,44.09699,0.0,345.845,0
GRID,11421,0,43.86959,0.0,344.0577,0
GRID,11422,0,43.64218,0.0,342.2705,0
GRID,11423,0,43.41478,0.0,340.4832,0
GRID,11424,0,43.18737,0.0,338.696,0
GRID,11425,0,42.95997,0.0,336.9087,0
GRID,11426,0,42.73256,0.0,335.1215,0
GRID,11427,0,42.50515,0.0,333.3342,0
GRID,11428,0,42.27775,0.0,331.5469,0
GRID,11429,0,42.05034,0.0,329.7597,0
GRID,11430,0,41.82294,0.0,327.9724,0
GRID,11431,0,41.59553,0.0,326.1852,0
GRID,11432,0,41.36813,0.0,324.3979,0
GRID,11433,0,41.14072,0.0,322.6106,0
GRID,11434,0,40.91332,0.0,320.8234,0
GRID,11435,0,40.68591,0.0,319.0361,0
GRID,11436,0,40.45851,0.0,317.2489,0
GRID,11437,0,40.2311,0.0,315.4616,0
GRID,11438,0,40.00369,0.0,313.6744,0
GRID,11439,0,39.77629,0.0,311.8871,0
GRID,11440,0,39.54888,0.0,310.0998,0
GRID,11441,0,39.32148,0.0,308.3126,0
GRID,11442,0,39.09407,0.0,306.5253,0
GRID,11443,0,38.86667,0.0,304.7381,0
GRID,11444,0,38.63926,0.0,302.9508,0
GRID,11445,0,38.41186,0.0,301.1636,0
GRID,11446,0,38.18445,0.0,299.3763,0
GRID,11447,0,48.37262,0.0,403.4085,0
GRID,11448,0,48.15852,0.0,401.6196,0
GRID,11449,0,47.94443,0.0,399.8307,0
GRID,11450,0,47.73034,0.0,398.0418,0
GRID,11451,0,47.51624,0.0,396.2529,0
GRID,11452,0,47.30215,0.0,394.464,0
GRID,11453,0,47.08805,0.0,392.6751,0
GRID,11454,0,46.87396,0.0,390.8862,0
GRID,11455,0,46.65987,0.0,389.0973,0
GRID,11456,0,46.44577,0.0,387.3084,0
GRID,11457,0,46.23168,0.0,385.5195,0
GRID,11458,0,46.01758,0.0,383.7306,0
GRID,11459,0,45.80349,0.0,381.9417,0
GRID,11460,0,45.5894,0.0,380.1528,0
GRID,11461,0,45.3753,0.0,378.3639,0
GRID,11462,0,45.16121,0.0,376.575,0
GRID,11463,0,44.94711,0.0,374.7861,0
GRID,11464,0,44.73302,0.0,372.9972,0
GRID,11465,0,44.51893,0.0,371.2083,0
GRID,11466,0,44.30483,0.0,369.4194,0
GRID,11467,0,44.09074,0.0,367.6305,0
GRID,11468,0,43.87664,0.0,365.8416,0
GRID,11469,0,43.66255,0.0,364.0526,0
GRID,11470,0,43.44846,0.0,362.2637,0
GRID,11471,0,43.23436,0.0,360.4748,0
GRID,11472,0,43.02027,0.0,358.6859,0
GRID,11473,0,42.80617,0.0,356.897,0
GRID,11474,0,42.59208,0.0,355.1081,0
GRID,11475,0,42.37799,0.0,353.3192,0
GRID,11476,0,42.16389,0.0,351.5303,0
GRID,11477,0,41.9498,0.0,349.7414,0
GRID,11478,0,41.7357,0.0,347.9525,0
GRID,11479,0,41.52161,0.0,346.1636,0
GRID,11480,0,41.30752,0.0,344.3747,0
GRID,11481,0,41.09342,0.0,342.5858,0
GRID,11482,0,40.87933,0.0,340.7969,0
GRID,11483,0,40.66524,0.0,339.008,0
GRID,11484,0,40.45114,0.0,337.2191,0
GRID,11485,0,40.23705,0.0,335.4302,0
GRID,11486,0,40.02295,0.0,333.6413,0
GRID,11487,0,39.80886,0.0,331.8524,0
GRID,11488,0,39.59477,0.0,330.0635,0
GRID,11489,0,39.38067,0.0,328.2746,0
GRID,11490,0,39.16658,0.0,326.4857,0
GRID,11491,0,38.95248,0.0,324.6968,0
GRID,11492,0,38.73839,0.0,322.9079,0
GRID,11493,0,38.5243,0.0,321.119,0
GRID,11494,0,38.3102,0.0,319.3301,0
GRID,11495,0,38.09611,0.0,317.5412,0
GRID,11496,0,37.88201,0.0,315.7523,0
GRID,11497,0,37.66792,0.0,313.9634,0
GRID,11498,0,37.45383,0.0,312.1745,0
GRID,11499,0,37.23973,0.0,310.3856,0
GRID,11500,0,37.02564,0.0,308.5967,0
GRID,11501,0,36.81154,0.0,306.8078,0
GRID,11502,0,36.59745,0.0,305.0189,0
GRID,11503,0,36.38336,0.0,303.23,0
GRID,11504,0,36.16926,0.0,301.4411,0
GRID,11505,0,35.95517,0.0,299.6522,0
GRID,11506,0,45.36859,0.0,403.7574,0
GRID,11507,0,45.16782,0.0,401.9669,0
GRID,11508,0,44.96705,0.0,400.1765,0
GRID,11509,0,44.76628,0.0,398.386,0
GRID,11510,0,44.56551,0.0,396.5956,0
GRID,11511,0,44.36474,0.0,394.8051,0
GRID,11512,0,44.16396,0.0,393.0147,0
GRID,11513,0,43.96319,0.0,391.2242,0
GRID,11514,0,43.76242,0.0,389.4338,0
GRID,11515,0,43.56165,0.0,387.6433,0
GRID,11516,0,43.36088,0.0,385.8529,0
GRID,11517,0,43.16011,0.0,384.0625,0
GRID,11518,0,42.95934,0.0,382.272,0
GRID,11519,0,42.75857,0.0,380.4816,0
GRID,11520,0,42.5578,0.0,378.6911,0
GRID,11521,0,42.35703,0.0,376.9007,0
GRID,11522,0,42.15626,0.0,375.1102,0
GRID,11523,0,41.95549,0.0,373.3198,0
GRID,11524,0,41.75472,0.0,371.5293,0
GRID,11525,0,41.55395,0.0,369.7389,0
GRID,11526,0,41.35318,0.0,367.9484,0
GRID,11527,0,41.15241,0.0,366.158,0
GRID,11528,0,40.95164,0.0,364.3676,0
GRID,11529,0,40.75086,0.0,362.5771,0
GRID,11530,0,40.55009,0.0,360.7867,0
GRID,11531,0,40.34932,0.0,358.9962,0
GRID,11532,0,40.14855,0.0,357.2058,0
GRID,11533,0,39.94778,0.0,355.4153,0
GRID,11534,0,39.74701,0.0,353.6249,0
GRID,11535,0,39.54624,0.0,351.8344,0
GRID,11536,0,39.34547,0.0,350.044,0
GRID,11537,0,39.1447,0.0,348.2536,0
GRID,11538,0,38.94393,0.0,346.4631,0
GRID,11539,0,38.74316,0.0,344.6727,0
GRID,11540,0,38.54239,0.0,342.8822,0
GRID,11541,0,38.34162,0.0,341.0918,0
GRID,11542,0,38.14085,0.0,339.3013,0
GRID,11543,0,37.94008,0.0,337.5109,0
GRID,11544,0,37.73931,0.0,335.7204,0
GRID,11545,0,37.53854,0.0,333.93,0
GRID,11546,0,37.33776,0.0,332.1395,0
GRID,11547,0,37.13699,0.0,330.3491,0
GRID,11548,0,36.93622,0.0,328.5587,0
GRID,11549,0,36.73545,0.0,326.7682,0
GRID,11550,0,36.53468,0.0,324.9778,0
GRID,11551,0,36.33391,0.0,323.1873,0
GRID,11552,0,36.13314,0.0,321.3969,0
GRID,11553,0,35.93237,0.0,319.6064,0
GRID,11554,0,35.7316,0.0,317.816,0
GRID,11555,0,35.53083,0.0,316.0255,0
GRID,11556,0,35.33006,0.0,314.2351,0
GRID,11557,0,35.12929,0.0,312.4446,0
GRID,11558,0,34.92852,0.0,310.6542,0
GRID,11559,0,34.72775,0.0,308.8638,0
GRID,11560,0,34.52698,0.0,307.0733,0
GRID,11561,0,34.32621,0.0,305.2829,0
GRID,11562,0,34.12543,0.0,303.4924,0
GRID,11563,0,33.92466,0.0,301.702,0
GRID,11564,0,33.72389,0.0,299.9115,0
GRID,11565,0,42.36205,0.0,404.0839,0
GRID,11566,0,42.17461,0.0,402.292,0
GRID,11567,0,41.98717,0.0,400.5001,0
GRID,11568,0,41.79974,0.0,398.7082,0
GRID,11569,0,41.6123,0.0,396.9163,0
GRID,11570,0,41.42487,0.0,395.1244,0
GRID,11571,0,41.23743,0.0,393.3325,0
GRID,11572,0,41.04999,0.0,391.5406,0
GRID,11573,0,40.86256,0.0,389.7487,0
GRID,11574,0,40.67512,0.0,387.9569,0
GRID,11575,0,40.48769,0.0,386.165,0
GRID,11576,0,40.30025,0.0,384.3731,0
GRID,11577,0,40.11281,0.0,382.5812,0
GRID,11578,0,39.92538,0.0,380.7893,0
GRID,11579,0,39.73794,0.0,378.9974,0
GRID,11580,0,39.5505,0.0,377.2055,0
GRID,11581,0,39.36307,0.0,375.4136,0
GRID,11582,0,39.17563,0.0,373.6217,0
GRID,11583,0,38.9882,0.0,371.8298,0
GRID,11584,0,38.80076,0.0,370.038,0
GRID,11585,0,38.61332,0.0,368.2461,0
GRID,11586,0,38.42589,0.0,366.4542,0
GRID,11587,0,38.23845,0.0,364.6623,0
GRID,11588,0,38.05102,0.0,362.8704,0
GRID,11589,0,37.86358,0.0,361.0785,0
GRID,11590,0,37.67614,0.0,359.2866,0
GRID,11591,0,37.48871,0.0,357.4947,0
GRID,11592,0,37.30127,0.0,355.7028,0
GRID,11593,0,37.11383,0.0,353.9109,0
GRID,11594,0,36.9264,0.0,352.1191,0
GRID,11595,0,36.73896,0.0,350.3272,0
GRID,11596,0,36.55153,0.0,348.5353,0
GRID,11597,0,36.36409,0.0,346.7434,0
GRID,11598,0,36.17665,0.0,344.9515,0
GRID,11599,0,35.98922,0.0,343.1596,0
GRID,11600,0,35.80178,0.0,341.3677,0
GRID,11601,0,35.61435,0.0,339.5758,0
GRID,11602,0,35.42691,0.0,337.7839,0
GRID,11603,0,35.23947,0.0,335.992,0
GRID,11604,0,35.05204,0.0,334.2001,0
GRID,11605,0,34.8646,0.0,332.4083,0
GRID,11606,0,34.67717,0.0,330.6164,0
GRID,11607,0,34.48973,0.0,328.8245,0
GRID,11608,0,34.30229,0.0,327.0326,0
GRID,11609,0,34.11486,0.0,325.2407,0
GRID,11610,0,33.92742,0.0,323.4488,0
GRID,11611,0,33.73998,0.0,321.6569,0
GRID,11612,0,33.55255,0.0,319.865,0
GRID,11613,0,33.36511,0.0,318.0731,0
GRID,11614,0,33.17768,0.0,316.2812,0
GRID,11615,0,32.99024,0.0,314.4894,0
GRID,11616,0,32.8028,0.0,312.6975,0
GRID,11617,0,32.61537,0.0,310.9056,0
GRID,11618,0,32.42793,0.0,309.1137,0
GRID,11619,0,32.2405,0.0,307.3218,0
GRID,11620,0,32.05306,0.0,305.5299,0
GRID,11621,0,31.86562,0.0,303.738,0
GRID,11622,0,31.67819,0.0,301.9461,0
GRID,11623,0,31.49075,0.0,300.1542,0
GRID,11624,0,39.35316,0.0,404.388,0
GRID,11625,0,39.17907,0.0,402.5948,0
GRID,11626,0,39.00498,0.0,400.8015,0
GRID,11627,0,38.83088,0.0,399.0083,0
GRID,11628,0,38.65679,0.0,397.2151,0
GRID,11629,0,38.4827,0.0,395.4218,0
GRID,11630,0,38.30861,0.0,393.6286,0
GRID,11631,0,38.13452,0.0,391.8353,0
GRID,11632,0,37.96043,0.0,390.0421,0
GRID,11633,0,37.78634,0.0,388.2489,0
GRID,11634,0,37.61224,0.0,386.4556,0
GRID,11635,0,37.43815,0.0,384.6624,0
GRID,11636,0,37.26406,0.0,382.8692,0
GRID,11637,0,37.08997,0.0,381.0759,0
GRID,11638,0,36.91588,0.0,379.2827,0
GRID,11639,0,36.74179,0.0,377.4895,0
GRID,11640,0,36.5677,0.0,375.6962,0
GRID,11641,0,36.39361,0.0,373.903,0
GRID,11642,0,36.21951,0.0,372.1097,0
GRID,11643,0,36.04542,0.0,370.3165,0
GRID,11644,0,35.87133,0.0,368.5233,0
GRID,11645,0,35.69724,0.0,366.73,0
GRID,11646,0,35.52315,0.0,364.9368,0
GRID,11647,0,35.34906,0.0,363.1436,0
GRID,11648,0,35.17497,0.0,361.3503,0
GRID,11649,0,35.00088,0.0,359.5571,0
GRID,11650,0,34.82678,0.0,357.7639,0
GRID,11651,0,34.65269,0.0,355.9706,0
GRID,11652,0,34.4786,0.0,354.1774,0
GRID,11653,0,34.30451,0.0,352.3842,0
GRID,11654,0,34.13042,0.0,350.5909,0
GRID,11655,0,33.95633,0.0,348.7977,0
GRID,11656,0,33.78224,0.0,347.0044,0
GRID,11657,0,33.60815,0.0,345.2112,0
GRID,11658,0,33.43405,0.0,343.418,0
GRID,11659,0,33.25996,0.0,341.6247,0
GRID,11660,0,33.08587,0.0,339.8315,0
GRID,11661,0,32.91178,0.0,338.0383,0
GRID,11662,0,32.73769,0.0,336.245,0
GRID,11663,0,32.5636,0.0,334.4518,0
GRID,11664,0,32.38951,0.0,332.6586,0
GRID,11665,0,32.21542,0.0,330.8653,0
GRID,11666,0,32.04132,0.0,329.0721,0
GRID,11667,0,31.86723,0.0,327.2789,0
GRID,11668,0,31.69314,0.0,325.4856,0
GRID,11669,0,31.51905,0.0,323.6924,0
GRID,11670,0,31.34496,0.0,321.8991,0
GRID,11671,0,31.17087,0.0,320.1059,0
GRID,11672,0,30.99678,0.0,318.3127,0
GRID,11673,0,30.82269,0.0,316.5194,0
GRID,11674,0,30.64859,0.0,314.7262,0
GRID,11675,0,30.4745,0.0,312.933,0
GRID,11676,0,30.30041,0.0,311.1397,0
GRID,11677,0,30.12632,0.0,309.3465,0
GRID,11678,0,29.95223,0.0,307.5533,0
GRID,11679,0,29.77814,0.0,305.76,0
GRID,11680,0,29.60405,0.0,303.9668,0
GRID,11681,0,29.42996,0.0,302.1736,0
GRID,11682,0,29.25586,0.0,300.3803,0
GRID,11683,0,36.34209,0.0,404.6697,0
GRID,11684,0,36.18135,0.0,402.8752,0
GRID,11685,0,36.02062,0.0,401.0808,0
GRID,11686,0,35.85988,0.0,399.2863,0
GRID,11687,0,35.69914,0.0,397.4918,0
GRID,11688,0,35.5384,0.0,395.6973,0
GRID,11689,0,35.37767,0.0,393.9028,0
GRID,11690,0,35.21693,0.0,392.1083,0
GRID,11691,0,35.05619,0.0,390.3139,0
GRID,11692,0,34.89546,0.0,388.5194,0
GRID,11693,0,34.73472,0.0,386.7249,0
GRID,11694,0,34.57398,0.0,384.9304,0
GRID,11695,0,34.41325,0.0,383.1359,0
GRID,11696,0,34.25251,0.0,381.3415,0
GRID,11697,0,34.09177,0.0,379.547,0
GRID,11698,0,33.93104,0.0,377.7525,0
GRID,11699,0,33.7703,0.0,375.958,0
GRID,11700,0,33.60956,0.0,374.1635,0
GRID,11701,0,33.44883,0.0,372.369,0
GRID,11702,0,33.28809,0.0,370.5746,0
GRID,11703,0,33.12735,0.0,368.7801,0
GRID,11704,0,32.96662,0.0,366.9856,0
GRID,11705,0,32.80588,0.0,365.1911,0
GRID,11706,0,32.64514,0.0,363.3966,0
GRID,11707,0,32.48441,0.0,361.6021,0
GRID,11708,0,32.32367,0.0,359.8077,0
GRID,11709,0,32.16293,0.0,358.0132,0
GRID,11710,0,32.0022,0.0,356.2187,0
GRID,11711,0,31.84146,0.0,354.4242,0
GRID,11712,0,31.68072,0.0,352.6297,0
GRID,11713,0,31.51999,0.0,350.8353,0
GRID,11714,0,31.35925,0.0,349.0408,0
GRID,11715,0,31.19851,0.0,347.2463,0
GRID,11716,0,31.03778,0.0,345.4518,0
GRID,11717,0,30.87704,0.0,343.6573,0
GRID,11718,0,30.7163,0.0,341.8628,0
GRID,11719,0,30.55556,0.0,340.0684,0
GRID,11720,0,30.39483,0.0,338.2739,0
GRID,11721,0,30.23409,0.0,336.4794,0
GRID,11722,0,30.07335,0.0,334.6849,0
GRID,11723,0,29.91262,0.0,332.8904,0
GRID,11724,0,29.75188,0.0,331.0959,0
GRID,11725,0,29.59114,0.0,329.3015,0
GRID,11726,0,29.43041,0.0,327.507,0
GRID,11727,0,29.26967,0.0,325.7125,0
GRID,11728,0,29.10893,0.0,323.918,0
GRID,11729,0,28.9482,0.0,322.1235,0
GRID,11730,0,28.78746,0.0,320.3291,0
GRID,11731,0,28.62672,0.0,318.5346,0
GRID,11732,0,28.46599,0.0,316.7401,0
GRID,11733,0,28.30525,0.0,314.9456,0
GRID,11734,0,28.14451,0.0,313.1511,0
GRID,11735,0,27.98378,0.0,311.3566,0
GRID,11736,0,27.82304,0.0,309.5622,0
GRID,11737,0,27.6623,0.0,307.7677,0
GRID,11738,0,27.50157,0.0,305.9732,0
GRID,11739,0,27.34083,0.0,304.1787,0
GRID,11740,0,27.18009,0.0,302.3842,0
GRID,11741,0,27.01936,0.0,300.5897,0
GRID,11742,0,33.32901,0.0,404.929,0
GRID,11743,0,33.18163,0.0,403.1334,0
GRID,11744,0,33.03426,0.0,401.3378,0
GRID,11745,0,32.88689,0.0,399.5421,0
GRID,11746,0,32.73951,0.0,397.7465,0
GRID,11747,0,32.59214,0.0,395.9509,0
GRID,11748,0,32.44477,0.0,394.1552,0
GRID,11749,0,32.29739,0.0,392.3596,0
GRID,11750,0,32.15002,0.0,390.564,0
GRID,11751,0,32.00265,0.0,388.7684,0
GRID,11752,0,31.85527,0.0,386.9727,0
GRID,11753,0,31.7079,0.0,385.1771,0
GRID,11754,0,31.56053,0.0,383.3815,0
GRID,11755,0,31.41315,0.0,381.5858,0
GRID,11756,0,31.26578,0.0,379.7902,0
GRID,11757,0,31.11841,0.0,377.9946,0
GRID,11758,0,30.97103,0.0,376.199,0
GRID,11759,0,30.82366,0.0,374.4033,0
GRID,11760,0,30.67629,0.0,372.6077,0
GRID,11761,0,30.52891,0.0,370.8121,0
GRID,11762,0,30.38154,0.0,369.0164,0
GRID,11763,0,30.23417,0.0,367.2208,0
GRID,11764,0,30.08679,0.0,365.4252,0
GRID,11765,0,29.93942,0.0,363.6295,0
GRID,11766,0,29.79205,0.0,361.8339,0
GRID,11767,0,29.64467,0.0,360.0383,0
GRID,11768,0,29.4973,0.0,358.2427,0
GRID,11769,0,29.34993,0.0,356.447,0
GRID,11770,0,29.20255,0.0,354.6514,0
GRID,11771,0,29.05518,0.0,352.8558,0
GRID,11772,0,28.90781,0.0,351.0601,0
GRID,11773,0,28.76043,0.0,349.2645,0
GRID,11774,0,28.61306,0.0,347.4689,0
GRID,11775,0,28.46569,0.0,345.6732,0
GRID,11776,0,28.31831,0.0,343.8776,0
GRID,11777,0,28.17094,0.0,342.082,0
GRID,11778,0,28.02357,0.0,340.2864,0
GRID,11779,0,27.87619,0.0,338.4907,0
GRID,11780,0,27.72882,0.0,336.6951,0
GRID,11781,0,27.58145,0.0,334.8995,0
GRID,11782,0,27.43407,0.0,333.1038,0
GRID,11783,0,27.2867,0.0,331.3082,0
GRID,11784,0,27.13933,0.0,329.5126,0
GRID,11785,0,26.99195,0.0,327.717,0
GRID,11786,0,26.84458,0.0,325.9213,0
GRID,11787,0,26.69721,0.0,324.1257,0
GRID,11788,0,26.54983,0.0,322.3301,0
GRID,11789,0,26.40246,0.0,320.5344,0
GRID,11790,0,26.25509,0.0,318.7388,0
GRID,11791,0,26.10771,0.0,316.9432,0
GRID,11792,0,25.96034,0.0,315.1475,0
GRID,11793,0,25.81296,0.0,313.3519,0
GRID,11794,0,25.66559,0.0,311.5563,0
GRID,11795,0,25.51822,0.0,309.7607,0
GRID,11796,0,25.37084,0.0,307.965,0
GRID,11797,0,25.22347,0.0,306.1694,0
GRID,11798,0,25.0761,0.0,304.3738,0
GRID,11799,0,24.92872,0.0,302.5781,0
GRID,11800,0,24.78135,0.0,300.7825,0
GRID,11801,0,30.31408,0.0,405.1659,0
GRID,11802,0,30.18007,0.0,403.3692,0
GRID,11803,0,30.04607,0.0,401.5725,0
GRID,11804,0,29.91207,0.0,399.7759,0
GRID,11805,0,29.77807,0.0,397.9792,0
GRID,11806,0,29.64407,0.0,396.1825,0
GRID,11807,0,29.51007,0.0,394.3858,0
GRID,11808,0,29.37606,0.0,392.5891,0
GRID,11809,0,29.24206,0.0,390.7925,0
GRID,11810,0,29.10806,0.0,388.9958,0
GRID,11811,0,28.97406,0.0,387.1991,0
GRID,11812,0,28.84006,0.0,385.4024,0
GRID,11813,0,28.70606,0.0,383.6058,0
GRID,11814,0,28.57205,0.0,381.8091,0
GRID,11815,0,28.43805,0.0,380.0124,0
GRID,11816,0,28.30405,0.0,378.2157,0
GRID,11817,0,28.17005,0.0,376.419,0
GRID,11818,0,28.03605,0.0,374.6224,0
GRID,11819,0,27.90204,0.0,372.8257,0
GRID,11820,0,27.76804,0.0,371.029,0
GRID,11821,0,27.63404,0.0,369.2323,0
GRID,11822,0,27.50004,0.0,367.4356,0
GRID,11823,0,27.36604,0.0,365.639,0
GRID,11824,0,27.23204,0.0,363.8423,0
GRID,11825,0,27.09803,0.0,362.0456,0
GRID,11826,0,26.96403,0.0,360.2489,0
GRID,11827,0,26.83003,0.0,358.4523,0
GRID,11828,0,26.69603,0.0,356.6556,0
GRID,11829,0,26.56203,0.0,354.8589,0
GRID,11830,0,26.42802,0.0,353.0622,0
GRID,11831,0,26.29402,0.0,351.2655,0
GRID,11832,0,26.16002,0.0,349.4689,0
GRID,11833,0,26.02602,0.0,347.6722,0
GRID,11834,0,25.89202,0.0,345.8755,0
GRID,11835,0,25.75802,0.0,344.0788,0
GRID,11836,0,25.62401,0.0,342.2822,0
GRID,11837,0,25.49001,0.0,340.4855,0
GRID,11838,0,25.35601,0.0,338.6888,0
GRID,11839,0,25.22201,0.0,336.8921,0
GRID,11840,0,25.08801,0.0,335.0954,0
GRID,11841,0,24.95401,0.0,333.2988,0
GRID,11842,0,24.82,0.0,331.5021,0
GRID,11843,0,24.686,0.0,329.7054,0
GRID,11844,0,24.552,0.0,327.9087,0
GRID,11845,0,24.418,0.0,326.112,0
GRID,11846,0,24.284,0.0,324.3154,0
GRID,11847,0,24.14999,0.0,322.5187,0
GRID,11848,0,24.01599,0.0,320.722,0
GRID,11849,0,23.88199,0.0,318.9253,0
GRID,11850,0,23.74799,0.0,317.1287,0
GRID,11851,0,23.61399,0.0,315.332,0
GRID,11852,0,23.47999,0.0,313.5353,0
GRID,11853,0,23.34598,0.0,311.7386,0
GRID,11854,0,23.21198,0.0,309.9419,0
GRID,11855,0,23.07798,0.0,308.1453,0
GRID,11856,0,22.94398,0.0,306.3486,0
GRID,11857,0,22.80998,0.0,304.5519,0
GRID,11858,0,22.67598,0.0,302.7552,0
GRID,11859,0,22.54197,0.0,300.9585,0
GRID,11860,0,27.29747,0.0,405.3803,0
GRID,11861,0,27.17685,0.0,403.5826,0
GRID,11862,0,27.05622,0.0,401.785,0
GRID,11863,0,26.9356,0.0,399.9874,0
GRID,11864,0,26.81498,0.0,398.1898,0
GRID,11865,0,26.69435,0.0,396.3921,0
GRID,11866,0,26.57373,0.0,394.5945,0
GRID,11867,0,26.45311,0.0,392.7969,0
GRID,11868,0,26.33249,0.0,390.9992,0
GRID,11869,0,26.21186,0.0,389.2016,0
GRID,11870,0,26.09124,0.0,387.404,0
GRID,11871,0,25.97062,0.0,385.6064,0
GRID,11872,0,25.84999,0.0,383.8087,0
GRID,11873,0,25.72937,0.0,382.0111,0
GRID,11874,0,25.60875,0.0,380.2135,0
GRID,11875,0,25.48813,0.0,378.4159,0
GRID,11876,0,25.3675,0.0,376.6182,0
GRID,11877,0,25.24688,0.0,374.8206,0
GRID,11878,0,25.12626,0.0,373.023,0
GRID,11879,0,25.00563,0.0,371.2253,0
GRID,11880,0,24.88501,0.0,369.4277,0
GRID,11881,0,24.76439,0.0,367.6301,0
GRID,11882,0,24.64377,0.0,365.8325,0
GRID,11883,0,24.52314,0.0,364.0348,0
GRID,11884,0,24.40252,0.0,362.2372,0
GRID,11885,0,24.2819,0.0,360.4396,0
GRID,11886,0,24.16128,0.0,358.642,0
GRID,11887,0,24.04065,0.0,356.8443,0
GRID,11888,0,23.92003,0.0,355.0467,0
GRID,11889,0,23.79941,0.0,353.2491,0
GRID,11890,0,23.67878,0.0,351.4514,0
GRID,11891,0,23.55816,0.0,349.6538,0
GRID,11892,0,23.43754,0.0,347.8562,0
GRID,11893,0,23.31692,0.0,346.0586,0
GRID,11894,0,23.19629,0.0,344.2609,0
GRID,11895,0,23.07567,0.0,342.4633,0
GRID,11896,0,22.95505,0.0,340.6657,0
GRID,11897,0,22.83442,0.0,338.8681,0
GRID,11898,0,22.7138,0.0,337.0704,0
GRID,11899,0,22.59318,0.0,335.2728,0
GRID,11900,0,22.47256,0.0,333.4752,0
GRID,11901,0,22.35193,0.0,331.6775,0
GRID,11902,0,22.23131,0.0,329.8799,0
GRID,11903,0,22.11069,0.0,328.0823,0
GRID,11904,0,21.99006,0.0,326.2847,0
GRID,11905,0,21.86944,0.0,324.487,0
GRID,11906,0,21.74882,0.0,322.6894,0
GRID,11907,0,21.6282,0.0,320.8918,0
GRID,11908,0,21.50757,0.0,319.0942,0
GRID,11909,0,21.38695,0.0,317.2965,0
GRID,11910,0,21.26633,0.0,315.4989,0
GRID,11911,0,21.14571,0.0,313.7013,0
GRID,11912,0,21.02508,0.0,311.9036,0
GRID,11913,0,20.90446,0.0,310.106,0
GRID,11914,0,20.78384,0.0,308.3084,0
GRID,11915,0,20.66321,0.0,306.5108,0
GRID,11916,0,20.54259,0.0,304.7131,0
GRID,11917,0,20.42197,0.0,302.9155,0
GRID,11918,0,20.30135,0.0,301.1179,0
GRID,11919,0,24.27935,0.0,405.5721,0
GRID,11920,0,24.17211,0.0,403.7737,0
GRID,11921,0,24.06487,0.0,401.9752,0
GRID,11922,0,23.95763,0.0,400.1767,0
GRID,11923,0,23.8504,0.0,398.3782,0
GRID,11924,0,23.74316,0.0,396.5798,0
GRID,11925,0,23.63592,0.0,394.7813,0
GRID,11926,0,23.52869,0.0,392.9828,0
GRID,11927,0,23.42145,0.0,391.1843,0
GRID,11928,0,23.31421,0.0,389.3858,0
GRID,11929,0,23.20697,0.0,387.5874,0
GRID,11930,0,23.09974,0.0,385.7889,0
GRID,11931,0,22.9925,0.0,383.9904,0
GRID,11932,0,22.88526,0.0,382.1919,0
GRID,11933,0,22.77803,0.0,380.3935,0
GRID,11934,0,22.67079,0.0,378.595,0
GRID,11935,0,22.56355,0.0,376.7965,0
GRID,11936,0,22.45631,0.0,374.998,0
GRID,11937,0,22.34908,0.0,373.1996,0
GRID,11938,0,22.24184,0.0,371.4011,0
GRID,11939,0,22.1346,0.0,369.6026,0
GRID,11940,0,22.02737,0.0,367.8041,0
GRID,11941,0,21.92013,0.0,366.0057,0
GRID,11942,0,21.81289,0.0,364.2072,0
GRID,11943,0,21.70565,0.0,362.4087,0
GRID,11944,0,21.59842,0.0,360.6102,0
GRID,11945,0,21.49118,0.0,358.8118,0
GRID,11946,0,21.38394,0.0,357.0133,0
GRID,11947,0,21.27671,0.0,355.2148,0
GRID,11948,0,21.16947,0.0,353.4163,0
GRID,11949,0,21.06223,0.0,351.6178,0
GRID,11950,0,20.95499,0.0,349.8194,0
GRID,11951,0,20.84776,0.0,348.0209,0
GRID,11952,0,20.74052,0.0,346.2224,0
GRID,11953,0,20.63328,0.0,344.4239,0
GRID,11954,0,20.52605,0.0,342.6255,0
GRID,11955,0,20.41881,0.0,340.827,0
GRID,11956,0,20.31157,0.0,339.0285,0
GRID,11957,0,20.20433,0.0,337.23,0
GRID,11958,0,20.0971,0.0,335.4316,0
GRID,11959,0,19.98986,0.0,333.6331,0
GRID,11960,0,19.88262,0.0,331.8346,0
GRID,11961,0,19.77539,0.0,330.0361,0
GRID,11962,0,19.66815,0.0,328.2377,0
GRID,11963,0,19.56091,0.0,326.4392,0
GRID,11964,0,19.45368,0.0,324.6407,0
GRID,11965,0,19.34644,0.0,322.8422,0
GRID,11966,0,19.2392,0.0,321.0437,0
GRID,11967,0,19.13196,0.0,319.2453,0
GRID,11968,0,19.02473,0.0,317.4468,0
GRID,11969,0,18.91749,0.0,315.6483,0
GRID,11970,0,18.81025,0.0,313.8498,0
GRID,11971,0,18.70302,0.0,312.0514,0
GRID,11972,0,18.59578,0.0,310.2529,0
GRID,11973,0,18.48854,0.0,308.4544,0
GRID,11974,0,18.3813,0.0,306.6559,0
GRID,11975,0,18.27407,0.0,304.8575,0
GRID,11976,0,18.16683,0.0,303.059,0
GRID,11977,0,18.05959,0.0,301.2605,0
GRID,11978,0,21.25988,0.0,405.7415,0
GRID,11979,0,21.16603,0.0,403.9423,0
GRID,11980,0,21.07219,0.0,402.1431,0
GRID,11981,0,20.97834,0.0,400.3438,0
GRID,11982,0,20.8845,0.0,398.5446,0
GRID,11983,0,20.79065,0.0,396.7454,0
GRID,11984,0,20.6968,0.0,394.9462,0
GRID,11985,0,20.60296,0.0,393.1469,0
GRID,11986,0,20.50911,0.0,391.3477,0
GRID,11987,0,20.41527,0.0,389.5485,0
GRID,11988,0,20.32142,0.0,387.7493,0
GRID,11989,0,20.22758,0.0,385.95,0
GRID,11990,0,20.13373,0.0,384.1508,0
GRID,11991,0,20.03989,0.0,382.3516,0
GRID,11992,0,19.94604,0.0,380.5524,0
GRID,11993,0,19.8522,0.0,378.7531,0
GRID,11994,0,19.75835,0.0,376.9539,0
GRID,11995,0,19.6645,0.0,375.1547,0
GRID,11996,0,19.57066,0.0,373.3555,0
GRID,11997,0,19.47681,0.0,371.5562,0
GRID,11998,0,19.38297,0.0,369.757,0
GRID,11999,0,19.28912,0.0,367.9578,0
GRID,12000,0,19.19528,0.0,366.1586,0
GRID,12001,0,19.10143,0.0,364.3593,0
GRID,12002,0,19.00759,0.0,362.5601,0
GRID,12003,0,18.91374,0.0,360.7609,0
GRID,12004,0,18.81989,0.0,358.9617,0
GRID,12005,0,18.72605,0.0,357.1624,0
GRID,12006,0,18.6322,0.0,355.3632,0
GRID,12007,0,18.53836,0.0,353.564,0
GRID,12008,0,18.44451,0.0,351.7648,0
GRID,12009,0,18.35067,0.0,349.9655,0
GRID,12010,0,18.25682,0.0,348.1663,0
GRID,12011,0,18.16298,0.0,346.3671,0
GRID,12012,0,18.06913,0.0,344.5679,0
GRID,12013,0,17.97529,0.0,342.7686,0
GRID,12014,0,17.88144,0.0,340.9694,0
GRID,12015,0,17.78759,0.0,339.1702,0
GRID,12016,0,17.69375,0.0,337.371,0
GRID,12017,0,17.5999,0.0,335.5717,0
GRID,12018,0,17.50606,0.0,333.7725,0
GRID,12019,0,17.41221,0.0,331.9733,0
GRID,12020,0,17.31837,0.0,330.1741,0
GRID,12021,0,17.22452,0.0,328.3748,0
GRID,12022,0,17.13068,0.0,326.5756,0
GRID,12023,0,17.03683,0.0,324.7764,0
GRID,12024,0,16.94298,0.0,322.9772,0
GRID,12025,0,16.84914,0.0,321.1779,0
GRID,12026,0,16.75529,0.0,319.3787,0
GRID,12027,0,16.66145,0.0,317.5795,0
GRID,12028,0,16.5676,0.0,315.7803,0
GRID,12029,0,16.47376,0.0,313.981,0
GRID,12030,0,16.37991,0.0,312.1818,0
GRID,12031,0,16.28607,0.0,310.3826,0
GRID,12032,0,16.19222,0.0,308.5834,0
GRID,12033,0,16.09837,0.0,306.7841,0
GRID,12034,0,16.00453,0.0,304.9849,0
GRID,12035,0,15.91068,0.0,303.1857,0
GRID,12036,0,15.81684,0.0,301.3865,0
GRID,12037,0,18.23923,0.0,405.8884,0
GRID,12038,0,18.15878,0.0,404.0885,0
GRID,12039,0,18.07833,0.0,402.2887,0
GRID,12040,0,17.99789,0.0,400.4888,0
GRID,12041,0,17.91744,0.0,398.6889,0
GRID,12042,0,17.83699,0.0,396.889,0
GRID,12043,0,17.75654,0.0,395.0892,0
GRID,12044,0,17.67609,0.0,393.2893,0
GRID,12045,0,17.59564,0.0,391.4894,0
GRID,12046,0,17.51519,0.0,389.6895,0
GRID,12047,0,17.43474,0.0,387.8897,0
GRID,12048,0,17.3543,0.0,386.0898,0
GRID,12049,0,17.27385,0.0,384.2899,0
GRID,12050,0,17.1934,0.0,382.49,0
GRID,12051,0,17.11295,0.0,380.6902,0
GRID,12052,0,17.0325,0.0,378.8903,0
GRID,12053,0,16.95205,0.0,377.0904,0
GRID,12054,0,16.8716,0.0,375.2905,0
GRID,12055,0,16.79116,0.0,373.4907,0
GRID,12056,0,16.71071,0.0,371.6908,0
GRID,12057,0,16.63026,0.0,369.8909,0
GRID,12058,0,16.54981,0.0,368.091,0
GRID,12059,0,16.46936,0.0,366.2912,0
GRID,12060,0,16.38891,0.0,364.4913,0
GRID,12061,0,16.30846,0.0,362.6914,0
GRID,12062,0,16.22801,0.0,360.8916,0
GRID,12063,0,16.14757,0.0,359.0917,0
GRID,12064,0,16.06712,0.0,357.2918,0
GRID,12065,0,15.98667,0.0,355.4919,0
GRID,12066,0,15.90622,0.0,353.6921,0
GRID,12067,0,15.82577,0.0,351.8922,0
GRID,12068,0,15.74532,0.0,350.0923,0
GRID,12069,0,15.66487,0.0,348.2924,0
GRID,12070,0,15.58443,0.0,346.4926,0
GRID,12071,0,15.50398,0.0,344.6927,0
GRID,12072,0,15.42353,0.0,342.8928,0
GRID,12073,0,15.34308,0.0,341.0929,0
GRID,12074,0,15.26263,0.0,339.2931,0
GRID,12075,0,15.18218,0.0,337.4932,0
GRID,12076,0,15.10173,0.0,335.6933,0
GRID,12077,0,15.02128,0.0,333.8934,0
GRID,12078,0,14.94084,0.0,332.0936,0
GRID,12079,0,14.86039,0.0,330.2937,0
GRID,12080,0,14.77994,0.0,328.4938,0
GRID,12081,0,14.69949,0.0,326.6939,0
GRID,12082,0,14.61904,0.0,324.8941,0
GRID,12083,0,14.53859,0.0,323.0942,0
GRID,12084,0,14.45814,0.0,321.2943,0
GRID,12085,0,14.37769,0.0,319.4945,0
GRID,12086,0,14.29725,0.0,317.6946,0
GRID,12087,0,14.2168,0.0,315.8947,0
GRID,12088,0,14.13635,0.0,314.0948,0
GRID,12089,0,14.0559,0.0,312.295,0
GRID,12090,0,13.97545,0.0,310.4951,0
GRID,12091,0,13.895,0.0,308.6952,0
GRID,12092,0,13.81455,0.0,306.8953,0
GRID,12093,0,13.73411,0.0,305.0955,0
GRID,12094,0,13.65366,0.0,303.2956,0
GRID,12095,0,13.57321,0.0,301.4957,0
GRID,12096,0,15.21757,0.0,406.0128,0
GRID,12097,0,15.15053,0.0,404.2124,0
GRID,12098,0,15.08348,0.0,402.412,0
GRID,12099,0,15.01643,0.0,400.6116,0
GRID,12100,0,14.94938,0.0,398.8111,0
GRID,12101,0,14.88234,0.0,397.0107,0
GRID,12102,0,14.81529,0.0,395.2103,0
GRID,12103,0,14.74824,0.0,393.4099,0
GRID,12104,0,14.6812,0.0,391.6094,0
GRID,12105,0,14.61415,0.0,389.809,0
GRID,12106,0,14.5471,0.0,388.0086,0
GRID,12107,0,14.48005,0.0,386.2082,0
GRID,12108,0,14.41301,0.0,384.4077,0
GRID,12109,0,14.34596,0.0,382.6073,0
GRID,12110,0,14.27891,0.0,380.8069,0
GRID,12111,0,14.21186,0.0,379.0065,0
GRID,12112,0,14.14482,0.0,377.2061,0
GRID,12113,0,14.07777,0.0,375.4056,0
GRID,12114,0,14.01072,0.0,373.6052,0
GRID,12115,0,13.94367,0.0,371.8048,0
GRID,12116,0,13.87663,0.0,370.0044,0
GRID,12117,0,13.80958,0.0,368.2039,0
GRID,12118,0,13.74253,0.0,366.4035,0
GRID,12119,0,13.67548,0.0,364.6031,0
GRID,12120,0,13.60844,0.0,362.8027,0
GRID,12121,0,13.54139,0.0,361.0023,0
GRID,12122,0,13.47434,0.0,359.2018,0
GRID,12123,0,13.4073,0.0,357.4014,0
GRID,12124,0,13.34025,0.0,355.601,0
GRID,12125,0,13.2732,0.0,353.8006,0
GRID,12126,0,13.20615,0.0,352.0001,0
GRID,12127,0,13.13911,0.0,350.1997,0
GRID,12128,0,13.07206,0.0,348.3993,0
GRID,12129,0,13.00501,0.0,346.5989,0
GRID,12130,0,12.93796,0.0,344.7985,0
GRID,12131,0,12.87092,0.0,342.998,0
GRID,12132,0,12.80387,0.0,341.1976,0
GRID,12133,0,12.73682,0.0,339.3972,0
GRID,12134,0,12.66977,0.0,337.5968,0
GRID,12135,0,12.60273,0.0,335.7963,0
GRID,12136,0,12.53568,0.0,333.9959,0
GRID,12137,0,12.46863,0.0,332.1955,0
GRID,12138,0,12.40158,0.0,330.3951,0
GRID,12139,0,12.33454,0.0,328.5946,0
GRID,12140,0,12.26749,0.0,326.7942,0
GRID,12141,0,12.20044,0.0,324.9938,0
GRID,12142,0,12.13339,0.0,323.1934,0
GRID,12143,0,12.06635,0.0,321.393,0
GRID,12144,0,11.9993,0.0,319.5925,0
GRID,12145,0,11.93225,0.0,317.7921,0
GRID,12146,0,11.86521,0.0,315.9917,0
GRID,12147,0,11.79816,0.0,314.1913,0
GRID,12148,0,11.73111,0.0,312.3908,0
GRID,12149,0,11.66406,0.0,310.5904,0
GRID,12150,0,11.59702,0.0,308.79,0
GRID,12151,0,11.52997,0.0,306.9896,0
GRID,12152,0,11.46292,0.0,305.1892,0
GRID,12153,0,11.39587,0.0,303.3887,0
GRID,12154,0,11.32883,0.0,301.5883,0
GRID,12155,0,12.19507,0.0,406.1148,0
GRID,12156,0,12.14143,0.0,404.3139,0
GRID,12157,0,12.08779,0.0,402.513,0
GRID,12158,0,12.03415,0.0,400.7122,0
GRID,12159,0,11.98051,0.0,398.9113,0
GRID,12160,0,11.92686,0.0,397.1104,0
GRID,12161,0,11.87322,0.0,395.3096,0
GRID,12162,0,11.81958,0.0,393.5087,0
GRID,12163,0,11.76594,0.0,391.7078,0
GRID,12164,0,11.71229,0.0,389.9069,0
GRID,12165,0,11.65865,0.0,388.1061,0
GRID,12166,0,11.60501,0.0,386.3052,0
GRID,12167,0,11.55137,0.0,384.5043,0
GRID,12168,0,11.49772,0.0,382.7035,0
GRID,12169,0,11.44408,0.0,380.9026,0
GRID,12170,0,11.39044,0.0,379.1017,0
GRID,12171,0,11.3368,0.0,377.3008,0
GRID,12172,0,11.28315,0.0,375.5,0
GRID,12173,0,11.22951,0.0,373.6991,0
GRID,12174,0,11.17587,0.0,371.8982,0
GRID,12175,0,11.12223,0.0,370.0974,0
GRID,12176,0,11.06858,0.0,368.2965,0
GRID,12177,0,11.01494,0.0,366.4956,0
GRID,12178,0,10.9613,0.0,364.6947,0
GRID,12179,0,10.90766,0.0,362.8939,0
GRID,12180,0,10.85402,0.0,361.093,0
GRID,12181,0,10.80037,0.0,359.2921,0
GRID,12182,0,10.74673,0.0,357.4913,0
GRID,12183,0,10.69309,0.0,355.6904,0
GRID,12184,0,10.63945,0.0,353.8895,0
GRID,12185,0,10.5858,0.0,352.0886,0
GRID,12186,0,10.53216,0.0,350.2878,0
GRID,12187,0,10.47852,0.0,348.4869,0
GRID,12188,0,10.42488,0.0,346.686,0
GRID,12189,0,10.37123,0.0,344.8852,0
GRID,12190,0,10.31759,0.0,343.0843,0
GRID,12191,0,10.26395,0.0,341.2834,0
GRID,12192,0,10.21031,0.0,339.4825,0
GRID,12193,0,10.15666,0.0,337.6817,0
GRID,12194,0,10.10302,0.0,335.8808,0
GRID,12195,0,10.04938,0.0,334.0799,0
GRID,12196,0,9.995738,0.0,332.2791,0
GRID,12197,0,9.942095,0.0,330.4782,0
GRID,12198,0,9.888453,0.0,328.6773,0
GRID,12199,0,9.83481,0.0,326.8764,0
GRID,12200,0,9.781168,0.0,325.0756,0
GRID,12201,0,9.727526,0.0,323.2747,0
GRID,12202,0,9.673883,0.0,321.4738,0
GRID,12203,0,9.620241,0.0,319.673,0
GRID,12204,0,9.566599,0.0,317.8721,0
GRID,12205,0,9.512956,0.0,316.0712,0
GRID,12206,0,9.459314,0.0,314.2703,0
GRID,12207,0,9.405671,0.0,312.4695,0
GRID,12208,0,9.352029,0.0,310.6686,0
GRID,12209,0,9.298387,0.0,308.8677,0
GRID,12210,0,9.244744,0.0,307.0669,0
GRID,12211,0,9.191102,0.0,305.266,0
GRID,12212,0,9.13746,0.0,303.4651,0
GRID,12213,0,9.083817,0.0,301.6642,0
GRID,12214,0,9.1719,0.0,406.1943,0
GRID,12215,0,9.131665,0.0,404.3931,0
GRID,12216,0,9.091431,0.0,402.5919,0
GRID,12217,0,9.051197,0.0,400.7906,0
GRID,12218,0,9.010962,0.0,398.9894,0
GRID,12219,0,8.970728,0.0,397.1882,0
GRID,12220,0,8.930493,0.0,395.387,0
GRID,12221,0,8.890259,0.0,393.5858,0
GRID,12222,0,8.850025,0.0,391.7845,0
GRID,12223,0,8.80979,0.0,389.9833,0
GRID,12224,0,8.769556,0.0,388.1821,0
GRID,12225,0,8.729322,0.0,386.3809,0
GRID,12226,0,8.689087,0.0,384.5797,0
GRID,12227,0,8.648853,0.0,382.7784,0
GRID,12228,0,8.608618,0.0,380.9772,0
GRID,12229,0,8.568384,0.0,379.176,0
GRID,12230,0,8.52815,0.0,377.3748,0
GRID,12231,0,8.487915,0.0,375.5736,0
GRID,12232,0,8.447681,0.0,373.7723,0
GRID,12233,0,8.407446,0.0,371.9711,0
GRID,12234,0,8.367212,0.0,370.1699,0
GRID,12235,0,8.326978,0.0,368.3687,0
GRID,12236,0,8.286743,0.0,366.5675,0
GRID,12237,0,8.246509,0.0,364.7662,0
GRID,12238,0,8.206275,0.0,362.965,0
GRID,12239,0,8.16604,0.0,361.1638,0
GRID,12240,0,8.125806,0.0,359.3626,0
GRID,12241,0,8.085571,0.0,357.5614,0
GRID,12242,0,8.045337,0.0,355.7601,0
GRID,12243,0,8.005103,0.0,353.9589,0
GRID,12244,0,7.964868,0.0,352.1577,0
GRID,12245,0,7.924634,0.0,350.3565,0
GRID,12246,0,7.884399,0.0,348.5553,0
GRID,12247,0,7.844165,0.0,346.754,0
GRID,12248,0,7.803931,0.0,344.9528,0
GRID,12249,0,7.763696,0.0,343.1516,0
GRID,12250,0,7.723462,0.0,341.3504,0
GRID,12251,0,7.683228,0.0,339.5492,0
GRID,12252,0,7.642993,0.0,337.7479,0
GRID,12253,0,7.602759,0.0,335.9467,0
GRID,12254,0,7.562524,0.0,334.1455,0
GRID,12255,0,7.52229,0.0,332.3443,0
GRID,12256,0,7.482056,0.0,330.5431,0
GRID,12257,0,7.441821,0.0,328.7418,0
GRID,12258,0,7.401587,0.0,326.9406,0
GRID,12259,0,7.361352,0.0,325.1394,0
GRID,12260,0,7.321118,0.0,323.3382,0
GRID,12261,0,7.280884,0.0,321.537,0
GRID,12262,0,7.240649,0.0,319.7357,0
GRID,12263,0,7.200415,0.0,317.9345,0
GRID,12264,0,7.160181,0.0,316.1333,0
GRID,12265,0,7.119946,0.0,314.3321,0
GRID,12266,0,7.079712,0.0,312.5309,0
GRID,12267,0,7.039477,0.0,310.7296,0
GRID,12268,0,6.999243,0.0,308.9284,0
GRID,12269,0,6.959009,0.0,307.1272,0
GRID,12270,0,6.918774,0.0,305.326,0
GRID,12271,0,6.87854,0.0,303.5248,0
GRID,12272,0,6.838305,0.0,301.7235,0
GRID,12273,0,6.148217,0.0,406.2514,0
GRID,12274,0,6.121393,0.0,404.4499,0
GRID,12275,0,6.094569,0.0,402.6484,0
GRID,12276,0,6.067745,0.0,400.847,0
GRID,12277,0,6.040921,0.0,399.0455,0
GRID,12278,0,6.014096,0.0,397.244,0
GRID,12279,0,5.987272,0.0,395.4426,0
GRID,12280,0,5.960448,0.0,393.6411,0
GRID,12281,0,5.933624,0.0,391.8396,0
GRID,12282,0,5.9068,0.0,390.0382,0
GRID,12283,0,5.879976,0.0,388.2367,0
GRID,12284,0,5.853151,0.0,386.4352,0
GRID,12285,0,5.826327,0.0,384.6338,0
GRID,12286,0,5.799503,0.0,382.8323,0
GRID,12287,0,5.772679,0.0,381.0308,0
GRID,12288,0,5.745855,0.0,379.2294,0
GRID,12289,0,5.719031,0.0,377.4279,0
GRID,12290,0,5.692206,0.0,375.6264,0
GRID,12291,0,5.665382,0.0,373.8249,0
GRID,12292,0,5.638558,0.0,372.0235,0
GRID,12293,0,5.611734,0.0,370.222,0
GRID,12294,0,5.58491,0.0,368.4205,0
GRID,12295,0,5.558086,0.0,366.6191,0
GRID,12296,0,5.531261,0.0,364.8176,0
GRID,12297,0,5.504437,0.0,363.0161,0
GRID,12298,0,5.477613,0.0,361.2147,0
GRID,12299,0,5.450789,0.0,359.4132,0
GRID,12300,0,5.423965,0.0,357.6117,0
GRID,12301,0,5.397141,0.0,355.8103,0
GRID,12302,0,5.370316,0.0,354.0088,0
GRID,12303,0,5.343492,0.0,352.2073,0
GRID,12304,0,5.316668,0.0,350.4059,0
GRID,12305,0,5.289844,0.0,348.6044,0
GRID,12306,0,5.26302,0.0,346.8029,0
GRID,12307,0,5.236196,0.0,345.0014,0
GRID,12308,0,5.209371,0.0,343.2,0
GRID,12309,0,5.182547,0.0,341.3985,0
GRID,12310,0,5.155723,0.0,339.597,0
GRID,12311,0,5.128899,0.0,337.7956,0
GRID,12312,0,5.102075,0.0,335.9941,0
GRID,12313,0,5.075251,0.0,334.1926,0
GRID,12314,0,5.048426,0.0,332.3912,0
GRID,12315,0,5.021602,0.0,330.5897,0
GRID,12316,0,4.994778,0.0,328.7882,0
GRID,12317,0,4.967954,0.0,326.9868,0
GRID,12318,0,4.94113,0.0,325.1853,0
GRID,12319,0,4.914306,0.0,323.3838,0
GRID,12320,0,4.887481,0.0,321.5823,0
GRID,12321,0,4.860657,0.0,319.7809,0
GRID,12322,0,4.833833,0.0,317.9794,0
GRID,12323,0,4.807009,0.0,316.1779,0
GRID,12324,0,4.780185,0.0,314.3765,0
GRID,12325,0,4.753361,0.0,312.575,0
GRID,12326,0,4.726537,0.0,310.7735,0
GRID,12327,0,4.699712,0.0,308.9721,0
GRID,12328,0,4.672888,0.0,307.1706,0
GRID,12329,0,4.646064,0.0,305.3691,0
GRID,12330,0,4.61924,0.0,303.5677,0
GRID,12331,0,4.592416,0.0,301.7662,0
GRID,12332,0,3.124195,0.0,406.2861,0
GRID,12333,0,3.110782,0.0,404.4844,0
GRID,12334,0,3.09737,0.0,402.6828,0
GRID,12335,0,3.083957,0.0,400.8812,0
GRID,12336,0,3.070545,0.0,399.0796,0
GRID,12337,0,3.057132,0.0,397.278,0
GRID,12338,0,3.04372,0.0,395.4763,0
GRID,12339,0,3.030308,0.0,393.6747,0
GRID,12340,0,3.016895,0.0,391.8731,0
GRID,12341,0,3.003483,0.0,390.0715,0
GRID,12342,0,2.99007,0.0,388.2699,0
GRID,12343,0,2.976658,0.0,386.4683,0
GRID,12344,0,2.963245,0.0,384.6666,0
GRID,12345,0,2.949833,0.0,382.865,0
GRID,12346,0,2.93642,0.0,381.0634,0
GRID,12347,0,2.923008,0.0,379.2618,0
GRID,12348,0,2.909595,0.0,377.4602,0
GRID,12349,0,2.896183,0.0,375.6585,0
GRID,12350,0,2.882771,0.0,373.8569,0
GRID,12351,0,2.869358,0.0,372.0553,0
GRID,12352,0,2.855946,0.0,370.2537,0
GRID,12353,0,2.842533,0.0,368.4521,0
GRID,12354,0,2.829121,0.0,366.6505,0
GRID,12355,0,2.815708,0.0,364.8488,0
GRID,12356,0,2.802296,0.0,363.0472,0
GRID,12357,0,2.788883,0.0,361.2456,0
GRID,12358,0,2.775471,0.0,359.444,0
GRID,12359,0,2.762058,0.0,357.6424,0
GRID,12360,0,2.748646,0.0,355.8408,0
GRID,12361,0,2.735234,0.0,354.0391,0
GRID,12362,0,2.721821,0.0,352.2375,0
GRID,12363,0,2.708409,0.0,350.4359,0
GRID,12364,0,2.694996,0.0,348.6343,0
GRID,12365,0,2.681584,0.0,346.8327,0
GRID,12366,0,2.668171,0.0,345.031,0
GRID,12367,0,2.654759,0.0,343.2294,0
GRID,12368,0,2.641346,0.0,341.4278,0
GRID,12369,0,2.627934,0.0,339.6262,0
GRID,12370,0,2.614521,0.0,337.8246,0
GRID,12371,0,2.601109,0.0,336.023,0
GRID,12372,0,2.587697,0.0,334.2213,0
GRID,12373,0,2.574284,0.0,332.4197,0
GRID,12374,0,2.560872,0.0,330.6181,0
GRID,12375,0,2.547459,0.0,328.8165,0
GRID,12376,0,2.534047,0.0,327.0149,0
GRID,12377,0,2.520634,0.0,325.2133,0
GRID,12378,0,2.507222,0.0,323.4116,0
GRID,12379,0,2.493809,0.0,321.61,0
GRID,12380,0,2.480397,0.0,319.8084,0
GRID,12381,0,2.466984,0.0,318.0068,0
GRID,12382,0,2.453572,0.0,316.2052,0
GRID,12383,0,2.44016,0.0,314.4035,0
GRID,12384,0,2.426747,0.0,312.6019,0
GRID,12385,0,2.413335,0.0,310.8003,0
GRID,12386,0,2.399922,0.0,308.9987,0
GRID,12387,0,2.38651,0.0,307.1971,0
GRID,12388,0,2.373097,0.0,305.3955,0
GRID,12389,0,2.359685,0.0,303.5938,0
GRID,12390,0,2.346272,0.0,301.7922,0
GRID,12391,0,480.2983,0.0,-1170.0,0
GRID,12392,0,473.7067,0.0,-1170.0,0
GRID,12393,0,467.115,0.0,-1170.0,0
GRID,12394,0,460.5233,0.0,-1170.0,0
GRID,12395,0,453.9317,0.0,-1170.0,0
GRID,12396,0,447.34,0.0,-1170.0,0
GRID,12397,0,440.7483,0.0,-1170.0,0
GRID,12398,0,434.1567,0.0,-1170.0,0
GRID,12399,0,427.565,0.0,-1170.0,0
GRID,12400,0,420.9733,0.0,-1170.0,0
GRID,12401,0,414.3817,0.0,-1170.0,0
GRID,12402,0,480.2983,0.0,-1140.0,0
GRID,12403,0,473.7067,0.0,-1140.0,0
GRID,12404,0,467.115,0.0,-1140.0,0
GRID,12405,0,460.5233,0.0,-1140.0,0
GRID,12406,0,453.9317,0.0,-1140.0,0
GRID,12407,0,447.34,0.0,-1140.0,0
GRID,12408,0,440.7483,0.0,-1140.0,0
GRID,12409,0,434.1567,0.0,-1140.0,0
GRID,12410,0,427.565,0.0,-1140.0,0
GRID,12411,0,420.9733,0.0,-1140.0,0
GRID,12412,0,414.3817,0.0,-1140.0,0
GRID,12413,0,480.2983,0.0,-1110.0,0
GRID,12414,0,473.7067,0.0,-1110.0,0
GRID,12415,0,467.115,0.0,-1110.0,0
GRID,12416,0,460.5233,0.0,-1110.0,0
GRID,12417,0,453.9317,0.0,-1110.0,0
GRID,12418,0,447.34,0.0,-1110.0,0
GRID,12419,0,440.7483,0.0,-1110.0,0
GRID,12420,0,434.1567,0.0,-1110.0,0
GRID,12421,0,427.565,0.0,-1110.0,0
GRID,12422,0,420.9733,0.0,-1110.0,0
GRID,12423,0,414.3817,0.0,-1110.0,0
GRID,12424,0,480.2983,0.0,-1080.0,0
GRID,12425,0,473.7067,0.0,-1080.0,0
GRID,12426,0,467.115,0.0,-1080.0,0
GRID,12427,0,460.5233,0.0,-1080.0,0
GRID,12428,0,453.9317,0.0,-1080.0,0
GRID,12429,0,447.34,0.0,-1080.0,0
GRID,12430,0,440.7483,0.0,-1080.0,0
GRID,12431,0,434.1567,0.0,-1080.0,0
GRID,12432,0,427.565,0.0,-1080.0,0
GRID,12433,0,420.9733,0.0,-1080.0,0
GRID,12434,0,414.3817,0.0,-1080.0,0
GRID,12435,0,480.2983,0.0,-1050.0,0
GRID,12436,0,473.7067,0.0,-1050.0,0
GRID,12437,0,467.115,0.0,-1050.0,0
GRID,12438,0,460.5233,0.0,-1050.0,0
GRID,12439,0,453.9317,0.0,-1050.0,0
GRID,12440,0,447.34,0.0,-1050.0,0
GRID,12441,0,440.7483,0.0,-1050.0,0
GRID,12442,0,434.1567,0.0,-1050.0,0
GRID,12443,0,427.565,0.0,-1050.0,0
GRID,12444,0,420.9733,0.0,-1050.0,0
GRID,12445,0,414.3817,0.0,-1050.0,0
GRID,12446,0,480.2983,0.0,-1020.0,0
GRID,12447,0,473.7067,0.0,-1020.0,0
GRID,12448,0,467.115,0.0,-1020.0,0
GRID,12449,0,460.5233,0.0,-1020.0,0
GRID,12450,0,453.9317,0.0,-1020.0,0
GRID,12451,0,447.34,0.0,-1020.0,0
GRID,12452,0,440.7483,0.0,-1020.0,0
GRID,12453,0,434.1567,0.0,-1020.0,0
GRID,12454,0,427.565,0.0,-1020.0,0
GRID,12455,0,420.9733,0.0,-1020.0,0
GRID,12456,0,414.3817,0.0,-1020.0,0
GRID,12457,0,480.2983,0.0,-990.0,0
GRID,12458,0,473.7067,0.0,-990.0,0
GRID,12459,0,467.115,0.0,-990.0,0
GRID,12460,0,460.5233,0.0,-990.0,0
GRID,12461,0,453.9317,0.0,-990.0,0
GRID,12462,0,447.34,0.0,-990.0,0
GRID,12463,0,440.7483,0.0,-990.0,0
GRID,12464,0,434.1567,0.0,-990.0,0
GRID,12465,0,427.565,0.0,-990.0,0
GRID,12466,0,420.9733,0.0,-990.0,0
GRID,12467,0,414.3817,0.0,-990.0,0
GRID,12468,0,480.2983,0.0,-960.0,0
GRID,12469,0,473.7067,0.0,-960.0,0
GRID,12470,0,467.115,0.0,-960.0,0
GRID,12471,0,460.5233,0.0,-960.0,0
GRID,12472,0,453.9317,0.0,-960.0,0
GRID,12473,0,447.34,0.0,-960.0,0
GRID,12474,0,440.7483,0.0,-960.0,0
GRID,12475,0,434.1567,0.0,-960.0,0
GRID,12476,0,427.565,0.0,-960.0,0
GRID,12477,0,420.9733,0.0,-960.0,0
GRID,12478,0,414.3817,0.0,-960.0,0
GRID,12479,0,480.2983,0.0,-930.0,0
GRID,12480,0,473.7067,0.0,-930.0,0
GRID,12481,0,467.115,0.0,-930.0,0
GRID,12482,0,460.5233,0.0,-930.0,0
GRID,12483,0,453.9317,0.0,-930.0,0
GRID,12484,0,447.34,0.0,-930.0,0
GRID,12485,0,440.7483,0.0,-930.0,0
GRID,12486,0,434.1567,0.0,-930.0,0
GRID,12487,0,427.565,0.0,-930.0,0
GRID,12488,0,420.9733,0.0,-930.0,0
GRID,12489,0,414.3817,0.0,-930.0,0
GRID,12490,0,480.2983,0.0,-900.0,0
GRID,12491,0,473.7067,0.0,-900.0,0
GRID,12492,0,467.115,0.0,-900.0,0
GRID,12493,0,460.5233,0.0,-900.0,0
GRID,12494,0,453.9317,0.0,-900.0,0
GRID,12495,0,447.34,0.0,-900.0,0
GRID,12496,0,440.7483,0.0,-900.0,0
GRID,12497,0,434.1567,0.0,-900.0,0
GRID,12498,0,427.565,0.0,-900.0,0
GRID,12499,0,420.9733,0.0,-900.0,0
GRID,12500,0,414.3817,0.0,-900.0,0
GRID,12501,0,480.2983,0.0,-870.0,0
GRID,12502,0,473.7067,0.0,-870.0,0
GRID,12503,0,467.115,0.0,-870.0,0
GRID,12504,0,460.5233,0.0,-870.0,0
GRID,12505,0,453.9317,0.0,-870.0,0
GRID,12506,0,447.34,0.0,-870.0,0
GRID,12507,0,440.7483,0.0,-870.0,0
GRID,12508,0,434.1567,0.0,-870.0,0
GRID,12509,0,427.565,0.0,-870.0,0
GRID,12510,0,420.9733,0.0,-870.0,0
GRID,12511,0,414.3817,0.0,-870.0,0
GRID,12512,0,480.2983,0.0,-840.0,0
GRID,12513,0,473.7067,0.0,-840.0,0
GRID,12514,0,467.115,0.0,-840.0,0
GRID,12515,0,460.5233,0.0,-840.0,0
GRID,12516,0,453.9317,0.0,-840.0,0
GRID,12517,0,447.34,0.0,-840.0,0
GRID,12518,0,440.7483,0.0,-840.0,0
GRID,12519,0,434.1567,0.0,-840.0,0
GRID,12520,0,427.565,0.0,-840.0,0
GRID,12521,0,420.9733,0.0,-840.0,0
GRID,12522,0,414.3817,0.0,-840.0,0
GRID,12523,0,480.2983,0.0,-810.0,0
GRID,12524,0,473.7067,0.0,-810.0,0
GRID,12525,0,467.115,0.0,-810.0,0
GRID,12526,0,460.5233,0.0,-810.0,0
GRID,12527,0,453.9317,0.0,-810.0,0
GRID,12528,0,447.34,0.0,-810.0,0
GRID,12529,0,440.7483,0.0,-810.0,0
GRID,12530,0,434.1567,0.0,-810.0,0
GRID,12531,0,427.565,0.0,-810.0,0
GRID,12532,0,420.9733,0.0,-810.0,0
GRID,12533,0,414.3817,0.0,-810.0,0
GRID,12534,0,480.2983,0.0,-780.0,0
GRID,12535,0,473.7067,0.0,-780.0,0
GRID,12536,0,467.115,0.0,-780.0,0
GRID,12537,0,460.5233,0.0,-780.0,0
GRID,12538,0,453.9317,0.0,-780.0,0
GRID,12539,0,447.34,0.0,-780.0,0
GRID,12540,0,440.7483,0.0,-780.0,0
GRID,12541,0,434.1567,0.0,-780.0,0
GRID,12542,0,427.565,0.0,-780.0,0
GRID,12543,0,420.9733,0.0,-780.0,0
GRID,12544,0,414.3817,0.0,-780.0,0
GRID,12545,0,480.2983,0.0,-750.0,0
GRID,12546,0,473.7067,0.0,-750.0,0
GRID,12547,0,467.115,0.0,-750.0,0
GRID,12548,0,460.5233,0.0,-750.0,0
GRID,12549,0,453.9317,0.0,-750.0,0
GRID,12550,0,447.34,0.0,-750.0,0
GRID,12551,0,440.7483,0.0,-750.0,0
GRID,12552,0,434.1567,0.0,-750.0,0
GRID,12553,0,427.565,0.0,-750.0,0
GRID,12554,0,420.9733,0.0,-750.0,0
GRID,12555,0,414.3817,0.0,-750.0,0
GRID,12556,0,480.2983,0.0,-720.0,0
GRID,12557,0,473.7067,0.0,-720.0,0
GRID,12558,0,467.115,0.0,-720.0,0
GRID,12559,0,460.5233,0.0,-720.0,0
GRID,12560,0,453.9317,0.0,-720.0,0
GRID,12561,0,447.34,0.0,-720.0,0
GRID,12562,0,440.7483,0.0,-720.0,0
GRID,12563,0,434.1567,0.0,-720.0,0
GRID,12564,0,427.565,0.0,-720.0,0
GRID,12565,0,420.9733,0.0,-720.0,0
GRID,12566,0,414.3817,0.0,-720.0,0
GRID,12567,0,480.2983,0.0,-690.0,0
GRID,12568,0,473.7067,0.0,-690.0,0
GRID,12569,0,467.115,0.0,-690.0,0
GRID,12570,0,460.5233,0.0,-690.0,0
GRID,12571,0,453.9317,0.0,-690.0,0
GRID,12572,0,447.34,0.0,-690.0,0
GRID,12573,0,440.7483,0.0,-690.0,0
GRID,12574,0,434.1567,0.0,-690.0,0
GRID,12575,0,427.565,0.0,-690.0,0
GRID,12576,0,420.9733,0.0,-690.0,0
GRID,12577,0,414.3817,0.0,-690.0,0
GRID,12578,0,480.2983,0.0,-660.0,0
GRID,12579,0,473.7067,0.0,-660.0,0
GRID,12580,0,467.115,0.0,-660.0,0
GRID,12581,0,460.5233,0.0,-660.0,0
GRID,12582,0,453.9317,0.0,-660.0,0
GRID,12583,0,447.34,0.0,-660.0,0
GRID,12584,0,440.7483,0.0,-660.0,0
GRID,12585,0,434.1567,0.0,-660.0,0
GRID,12586,0,427.565,0.0,-660.0,0
GRID,12587,0,420.9733,0.0,-660.0,0
GRID,12588,0,414.3817,0.0,-660.0,0
GRID,12589,0,480.2983,0.0,-630.0,0
GRID,12590,0,473.7067,0.0,-630.0,0
GRID,12591,0,467.115,0.0,-630.0,0
GRID,12592,0,460.5233,0.0,-630.0,0
GRID,12593,0,453.9317,0.0,-630.0,0
GRID,12594,0,447.34,0.0,-630.0,0
GRID,12595,0,440.7483,0.0,-630.0,0
GRID,12596,0,434.1567,0.0,-630.0,0
GRID,12597,0,427.565,0.0,-630.0,0
GRID,12598,0,420.9733,0.0,-630.0,0
GRID,12599,0,414.3817,0.0,-630.0,0
GRID,12600,0,480.2983,0.0,-600.0,0
GRID,12601,0,473.7067,0.0,-600.0,0
GRID,12602,0,467.115,0.0,-600.0,0
GRID,12603,0,460.5233,0.0,-600.0,0
GRID,12604,0,453.9317,0.0,-600.0,0
GRID,12605,0,447.34,0.0,-600.0,0
GRID,12606,0,440.7483,0.0,-600.0,0
GRID,12607,0,434.1567,0.0,-600.0,0
GRID,12608,0,427.565,0.0,-600.0,0
GRID,12609,0,420.9733,0.0,-600.0,0
GRID,12610,0,414.3817,0.0,-600.0,0
GRID,12611,0,480.2983,0.0,-570.0,0
GRID,12612,0,473.7067,0.0,-570.0,0
GRID,12613,0,467.115,0.0,-570.0,0
GRID,12614,0,460.5233,0.0,-570.0,0
GRID,12615,0,453.9317,0.0,-570.0,0
GRID,12616,0,447.34,0.0,-570.0,0
GRID,12617,0,440.7483,0.0,-570.0,0
GRID,12618,0,434.1567,0.0,-570.0,0
GRID,12619,0,427.565,0.0,-570.0,0
GRID,12620,0,420.9733,0.0,-570.0,0
GRID,12621,0,414.3817,0.0,-570.0,0
GRID,12622,0,480.2983,0.0,-540.0,0
GRID,12623,0,473.7067,0.0,-540.0,0
GRID,12624,0,467.115,0.0,-540.0,0
GRID,12625,0,460.5233,0.0,-540.0,0
GRID,12626,0,453.9317,0.0,-540.0,0
GRID,12627,0,447.34,0.0,-540.0,0
GRID,12628,0,440.7483,0.0,-540.0,0
GRID,12629,0,434.1567,0.0,-540.0,0
GRID,12630,0,427.565,0.0,-540.0,0
GRID,12631,0,420.9733,0.0,-540.0,0
GRID,12632,0,414.3817,0.0,-540.0,0
GRID,12633,0,480.2983,0.0,-510.0,0
GRID,12634,0,473.7067,0.0,-510.0,0
GRID,12635,0,467.115,0.0,-510.0,0
GRID,12636,0,460.5233,0.0,-510.0,0
GRID,12637,0,453.9317,0.0,-510.0,0
GRID,12638,0,447.34,0.0,-510.0,0
GRID,12639,0,440.7483,0.0,-510.0,0
GRID,12640,0,434.1567,0.0,-510.0,0
GRID,12641,0,427.565,0.0,-510.0,0
GRID,12642,0,420.9733,0.0,-510.0,0
GRID,12643,0,414.3817,0.0,-510.0,0
GRID,12644,0,480.2983,0.0,-480.0,0
GRID,12645,0,473.7067,0.0,-480.0,0
GRID,12646,0,467.115,0.0,-480.0,0
GRID,12647,0,460.5233,0.0,-480.0,0
GRID,12648,0,453.9317,0.0,-480.0,0
GRID,12649,0,447.34,0.0,-480.0,0
GRID,12650,0,440.7483,0.0,-480.0,0
GRID,12651,0,434.1567,0.0,-480.0,0
GRID,12652,0,427.565,0.0,-480.0,0
GRID,12653,0,420.9733,0.0,-480.0,0
GRID,12654,0,414.3817,0.0,-480.0,0
GRID,12655,0,480.2983,0.0,-450.0,0
GRID,12656,0,473.7067,0.0,-450.0,0
GRID,12657,0,467.115,0.0,-450.0,0
GRID,12658,0,460.5233,0.0,-450.0,0
GRID,12659,0,453.9317,0.0,-450.0,0
GRID,12660,0,447.34,0.0,-450.0,0
GRID,12661,0,440.7483,0.0,-450.0,0
GRID,12662,0,434.1567,0.0,-450.0,0
GRID,12663,0,427.565,0.0,-450.0,0
GRID,12664,0,420.9733,0.0,-450.0,0
GRID,12665,0,414.3817,0.0,-450.0,0
GRID,12666,0,480.2983,0.0,-420.0,0
GRID,12667,0,473.7067,0.0,-420.0,0
GRID,12668,0,467.115,0.0,-420.0,0
GRID,12669,0,460.5233,0.0,-420.0,0
GRID,12670,0,453.9317,0.0,-420.0,0
GRID,12671,0,447.34,0.0,-420.0,0
GRID,12672,0,440.7483,0.0,-420.0,0
GRID,12673,0,434.1567,0.0,-420.0,0
GRID,12674,0,427.565,0.0,-420.0,0
GRID,12675,0,420.9733,0.0,-420.0,0
GRID,12676,0,414.3817,0.0,-420.0,0
GRID,12677,0,480.2983,0.0,-390.0,0
GRID,12678,0,473.7067,0.0,-390.0,0
GRID,12679,0,467.115,0.0,-390.0,0
GRID,12680,0,460.5233,0.0,-390.0,0
GRID,12681,0,453.9317,0.0,-390.0,0
GRID,12682,0,447.34,0.0,-390.0,0
GRID,12683,0,440.7483,0.0,-390.0,0
GRID,12684,0,434.1567,0.0,-390.0,0
GRID,12685,0,427.565,0.0,-390.0,0
GRID,12686,0,420.9733,0.0,-390.0,0
GRID,12687,0,414.3817,0.0,-390.0,0
GRID,12688,0,480.2983,0.0,-360.0,0
GRID,12689,0,473.7067,0.0,-360.0,0
GRID,12690,0,467.115,0.0,-360.0,0
GRID,12691,0,460.5233,0.0,-360.0,0
GRID,12692,0,453.9317,0.0,-360.0,0
GRID,12693,0,447.34,0.0,-360.0,0
GRID,12694,0,440.7483,0.0,-360.0,0
GRID,12695,0,434.1567,0.0,-360.0,0
GRID,12696,0,427.565,0.0,-360.0,0
GRID,12697,0,420.9733,0.0,-360.0,0
GRID,12698,0,414.3817,0.0,-360.0,0
GRID,12699,0,480.2983,0.0,-330.0,0
GRID,12700,0,473.7067,0.0,-330.0,0
GRID,12701,0,467.115,0.0,-330.0,0
GRID,12702,0,460.5233,0.0,-330.0,0
GRID,12703,0,453.9317,0.0,-330.0,0
GRID,12704,0,447.34,0.0,-330.0,0
GRID,12705,0,440.7483,0.0,-330.0,0
GRID,12706,0,434.1567,0.0,-330.0,0
GRID,12707,0,427.565,0.0,-330.0,0
GRID,12708,0,420.9733,0.0,-330.0,0
GRID,12709,0,414.3817,0.0,-330.0,0
GRID,12710,0,480.2983,0.0,-300.0,0
GRID,12711,0,473.7067,0.0,-300.0,0
GRID,12712,0,467.115,0.0,-300.0,0
GRID,12713,0,460.5233,0.0,-300.0,0
GRID,12714,0,453.9317,0.0,-300.0,0
GRID,12715,0,447.34,0.0,-300.0,0
GRID,12716,0,440.7483,0.0,-300.0,0
GRID,12717,0,434.1567,0.0,-300.0,0
GRID,12718,0,427.565,0.0,-300.0,0
GRID,12719,0,420.9733,0.0,-300.0,0
GRID,12720,0,414.3817,0.0,-300.0,0
GRID,12721,0,480.2983,0.0,-270.0,0
GRID,12722,0,473.7067,0.0,-270.0,0
GRID,12723,0,467.115,0.0,-270.0,0
GRID,12724,0,460.5233,0.0,-270.0,0
GRID,12725,0,453.9317,0.0,-270.0,0
GRID,12726,0,447.34,0.0,-270.0,0
GRID,12727,0,440.7483,0.0,-270.0,0
GRID,12728,0,434.1567,0.0,-270.0,0
GRID,12729,0,427.565,0.0,-270.0,0
GRID,12730,0,420.9733,0.0,-270.0,0
GRID,12731,0,414.3817,0.0,-270.0,0
GRID,12732,0,480.2983,0.0,-240.0,0
GRID,12733,0,473.7067,0.0,-240.0,0
GRID,12734,0,467.115,0.0,-240.0,0
GRID,12735,0,460.5233,0.0,-240.0,0
GRID,12736,0,453.9317,0.0,-240.0,0
GRID,12737,0,447.34,0.0,-240.0,0
GRID,12738,0,440.7483,0.0,-240.0,0
GRID,12739,0,434.1567,0.0,-240.0,0
GRID,12740,0,427.565,0.0,-240.0,0
GRID,12741,0,420.9733,0.0,-240.0,0
GRID,12742,0,414.3817,0.0,-240.0,0
GRID,12743,0,480.2983,0.0,-210.0,0
GRID,12744,0,473.7067,0.0,-210.0,0
GRID,12745,0,467.115,0.0,-210.0,0
GRID,12746,0,460.5233,0.0,-210.0,0
GRID,12747,0,453.9317,0.0,-210.0,0
GRID,12748,0,447.34,0.0,-210.0,0
GRID,12749,0,440.7483,0.0,-210.0,0
GRID,12750,0,434.1567,0.0,-210.0,0
GRID,12751,0,427.565,0.0,-210.0,0
GRID,12752,0,420.9733,0.0,-210.0,0
GRID,12753,0,414.3817,0.0,-210.0,0
GRID,12754,0,480.2983,0.0,-180.0,0
GRID,12755,0,473.7067,0.0,-180.0,0
GRID,12756,0,467.115,0.0,-180.0,0
GRID,12757,0,460.5233,0.0,-180.0,0
GRID,12758,0,453.9317,0.0,-180.0,0
GRID,12759,0,447.34,0.0,-180.0,0
GRID,12760,0,440.7483,0.0,-180.0,0
GRID,12761,0,434.1567,0.0,-180.0,0
GRID,12762,0,427.565,0.0,-180.0,0
GRID,12763,0,420.9733,0.0,-180.0,0
GRID,12764,0,414.3817,0.0,-180.0,0
GRID,12765,0,480.2983,0.0,-150.0,0
GRID,12766,0,473.7067,0.0,-150.0,0
GRID,12767,0,467.115,0.0,-150.0,0
GRID,12768,0,460.5233,0.0,-150.0,0
GRID,12769,0,453.9317,0.0,-150.0,0
GRID,12770,0,447.34,0.0,-150.0,0
GRID,12771,0,440.7483,0.0,-150.0,0
GRID,12772,0,434.1567,0.0,-150.0,0
GRID,12773,0,427.565,0.0,-150.0,0
GRID,12774,0,420.9733,0.0,-150.0,0
GRID,12775,0,414.3817,0.0,-150.0,0
GRID,12776,0,480.2983,0.0,-120.0,0
GRID,12777,0,473.7067,0.0,-120.0,0
GRID,12778,0,467.115,0.0,-120.0,0
GRID,12779,0,460.5233,0.0,-120.0,0
GRID,12780,0,453.9317,0.0,-120.0,0
GRID,12781,0,447.34,0.0,-120.0,0
GRID,12782,0,440.7483,0.0,-120.0,0
GRID,12783,0,434.1567,0.0,-120.0,0
GRID,12784,0,427.565,0.0,-120.0,0
GRID,12785,0,420.9733,0.0,-120.0,0
GRID,12786,0,414.3817,0.0,-120.0,0
GRID,12787,0,480.2983,0.0,-90.0,0
GRID,12788,0,473.7067,0.0,-90.0,0
GRID,12789,0,467.115,0.0,-90.0,0
GRID,12790,0,460.5233,0.0,-90.0,0
GRID,12791,0,453.9317,0.0,-90.0,0
GRID,12792,0,447.34,0.0,-90.0,0
GRID,12793,0,440.7483,0.0,-90.0,0
GRID,12794,0,434.1567,0.0,-90.0,0
GRID,12795,0,427.565,0.0,-90.0,0
GRID,12796,0,420.9733,0.0,-90.0,0
GRID,12797,0,414.3817,0.0,-90.0,0
GRID,12798,0,480.2983,0.0,-60.0,0
GRID,12799,0,473.7067,0.0,-60.0,0
GRID,12800,0,467.115,0.0,-60.0,0
GRID,12801,0,460.5233,0.0,-60.0,0
GRID,12802,0,453.9317,0.0,-60.0,0
GRID,12803,0,447.34,0.0,-60.0,0
GRID,12804,0,440.7483,0.0,-60.0,0
GRID,12805,0,434.1567,0.0,-60.0,0
GRID,12806,0,427.565,0.0,-60.0,0
GRID,12807,0,420.9733,0.0,-60.0,0
GRID,12808,0,414.3817,0.0,-60.0,0
GRID,12809,0,480.2983,0.0,-30.0,0
GRID,12810,0,473.7067,0.0,-30.0,0
GRID,12811,0,467.115,0.0,-30.0,0
GRID,12812,0,460.5233,0.0,-30.0,0
GRID,12813,0,453.9317,0.0,-30.0,0
GRID,12814,0,447.34,0.0,-30.0,0
GRID,12815,0,440.7483,0.0,-30.0,0
GRID,12816,0,434.1567,0.0,-30.0,0
GRID,12817,0,427.565,0.0,-30.0,0
GRID,12818,0,420.9733,0.0,-30.0,0
GRID,12819,0,414.3817,0.0,-30.0,0
GRID,12820,0,301.8017,0.0,-1020.0,0
GRID,12821,0,301.8017,0.0,-990.0,0
GRID,12822,0,301.8017,0.0,-960.0,0
GRID,12823,0,301.8017,0.0,-930.0,0
GRID,12824,0,301.8017,0.0,-900.0,0
GRID,12825,0,301.8017,0.0,-870.0,0
GRID,12826,0,301.8017,0.0,-840.0,0
GRID,12827,0,301.8017,0.0,-810.0,0
GRID,12828,0,301.8017,0.0,-780.0,0
GRID,12829,0,301.8017,0.0,-750.0,0
GRID,12830,0,301.8017,0.0,-720.0,0
GRID,12831,0,301.8017,0.0,-690.0,0
GRID,12832,0,301.8017,0.0,-660.0,0
GRID,12833,0,301.8017,0.0,-630.0,0
GRID,12834,0,301.8017,0.0,-600.0,0
GRID,12835,0,301.8017,0.0,-570.0,0
GRID,12836,0,301.8017,0.0,-540.0,0
GRID,12837,0,301.8017,0.0,-510.0,0
GRID,12838,0,301.8017,0.0,-480.0,0
GRID,12839,0,301.8017,0.0,-450.0,0
GRID,12840,0,301.8017,0.0,-420.0,0
GRID,12841,0,301.8017,0.0,-390.0,0
GRID,12842,0,301.8017,0.0,-360.0,0
GRID,12843,0,301.8017,0.0,-330.0,0
GRID,12844,0,301.8017,0.0,-300.0,0
GRID,12845,0,301.8017,0.0,-270.0,0
GRID,12846,0,301.8017,0.0,-240.0,0
GRID,12847,0,301.8017,0.0,-210.0,0
GRID,12848,0,301.8017,0.0,-180.0,0
GRID,12849,0,301.8017,0.0,-150.0,0
GRID,12850,0,301.8017,0.0,-120.0,0
GRID,12851,0,301.8017,0.0,-90.0,0
GRID,12852,0,301.8017,0.0,-60.0,0
GRID,12853,0,301.8017,0.0,-30.0,0
GRID,12854,0,303.6033,0.0,-1020.0,0
GRID,12855,0,303.6033,0.0,-990.0,0
GRID,12856,0,303.6033,0.0,-960.0,0
GRID,12857,0,303.6033,0.0,-930.0,0
GRID,12858,0,303.6033,0.0,-900.0,0
GRID,12859,0,303.6033,0.0,-870.0,0
GRID,12860,0,303.6033,0.0,-840.0,0
GRID,12861,0,303.6033,0.0,-810.0,0
GRID,12862,0,303.6033,0.0,-780.0,0
GRID,12863,0,303.6033,0.0,-750.0,0
GRID,12864,0,303.6033,0.0,-720.0,0
GRID,12865,0,303.6033,0.0,-690.0,0
GRID,12866,0,303.6033,0.0,-660.0,0
GRID,12867,0,303.6033,0.0,-630.0,0
GRID,12868,0,303.6033,0.0,-600.0,0
GRID,12869,0,303.6033,0.0,-570.0,0
GRID,12870,0,303.6033,0.0,-540.0,0
GRID,12871,0,303.6033,0.0,-510.0,0
GRID,12872,0,303.6033,0.0,-480.0,0
GRID,12873,0,303.6033,0.0,-450.0,0
GRID,12874,0,303.6033,0.0,-420.0,0
GRID,12875,0,303.6033,0.0,-390.0,0
GRID,12876,0,303.6033,0.0,-360.0,0
GRID,12877,0,303.6033,0.0,-330.0,0
GRID,12878,0,303.6033,0.0,-300.0,0
GRID,12879,0,303.6033,0.0,-270.0,0
GRID,12880,0,303.6033,0.0,-240.0,0
GRID,12881,0,303.6033,0.0,-210.0,0
GRID,12882,0,303.6033,0.0,-180.0,0
GRID,12883,0,303.6033,0.0,-150.0,0
GRID,12884,0,303.6033,0.0,-120.0,0
GRID,12885,0,303.6033,0.0,-90.0,0
GRID,12886,0,303.6033,0.0,-60.0,0
GRID,12887,0,303.6033,0.0,-30.0,0
GRID,12888,0,305.405,0.0,-1020.0,0
GRID,12889,0,305.405,0.0,-990.0,0
GRID,12890,0,305.405,0.0,-960.0,0
GRID,12891,0,305.405,0.0,-930.0,0
GRID,12892,0,305.405,0.0,-900.0,0
GRID,12893,0,305.405,0.0,-870.0,0
GRID,12894,0,305.405,0.0,-840.0,0
GRID,12895,0,305.405,0.0,-810.0,0
GRID,12896,0,305.405,0.0,-780.0,0
GRID,12897,0,305.405,0.0,-750.0,0
GRID,12898,0,305.405,0.0,-720.0,0
GRID,12899,0,305.405,0.0,-690.0,0
GRID,12900,0,305.405,0.0,-660.0,0
GRID,12901,0,305.405,0.0,-630.0,0
GRID,12902,0,305.405,0.0,-600.0,0
GRID,12903,0,305.405,0.0,-570.0,0
GRID,12904,0,305.405,0.0,-540.0,0
GRID,12905,0,305.405,0.0,-510.0,0
GRID,12906,0,305.405,0.0,-480.0,0
GRID,12907,0,305.405,0.0,-450.0,0
GRID,12908,0,305.405,0.0,-420.0,0
GRID,12909,0,305.405,0.0,-390.0,0
GRID,12910,0,305.405,0.0,-360.0,0
GRID,12911,0,305.405,0.0,-330.0,0
GRID,12912,0,305.405,0.0,-300.0,0
GRID,12913,0,305.405,0.0,-270.0,0
GRID,12914,0,305.405,0.0,-240.0,0
GRID,12915,0,305.405,0.0,-210.0,0
GRID,12916,0,305.405,0.0,-180.0,0
GRID,12917,0,305.405,0.0,-150.0,0
GRID,12918,0,305.405,0.0,-120.0,0
GRID,12919,0,305.405,0.0,-90.0,0
GRID,12920,0,305.405,0.0,-60.0,0
GRID,12921,0,305.405,0.0,-30.0,0
GRID,12922,0,307.2067,0.0,-1020.0,0
GRID,12923,0,307.2067,0.0,-990.0,0
GRID,12924,0,307.2067,0.0,-960.0,0
GRID,12925,0,307.2067,0.0,-930.0,0
GRID,12926,0,307.2067,0.0,-900.0,0
GRID,12927,0,307.2067,0.0,-870.0,0
GRID,12928,0,307.2067,0.0,-840.0,0
GRID,12929,0,307.2067,0.0,-810.0,0
GRID,12930,0,307.2067,0.0,-780.0,0
GRID,12931,0,307.2067,0.0,-750.0,0
GRID,12932,0,307.2067,0.0,-720.0,0
GRID,12933,0,307.2067,0.0,-690.0,0
GRID,12934,0,307.2067,0.0,-660.0,0
GRID,12935,0,307.2067,0.0,-630.0,0
GRID,12936,0,307.2067,0.0,-600.0,0
GRID,12937,0,307.2067,0.0,-570.0,0
GRID,12938,0,307.2067,0.0,-540.0,0
GRID,12939,0,307.2067,0.0,-510.0,0
GRID,12940,0,307.2067,0.0,-480.0,0
GRID,12941,0,307.2067,0.0,-450.0,0
GRID,12942,0,307.2067,0.0,-420.0,0
GRID,12943,0,307.2067,0.0,-390.0,0
GRID,12944,0,307.2067,0.0,-360.0,0
GRID,12945,0,307.2067,0.0,-330.0,0
GRID,12946,0,307.2067,0.0,-300.0,0
GRID,12947,0,307.2067,0.0,-270.0,0
GRID,12948,0,307.2067,0.0,-240.0,0
GRID,12949,0,307.2067,0.0,-210.0,0
GRID,12950,0,307.2067,0.0,-180.0,0
GRID,12951,0,307.2067,0.0,-150.0,0
GRID,12952,0,307.2067,0.0,-120.0,0
GRID,12953,0,307.2067,0.0,-90.0,0
GRID,12954,0,307.2067,0.0,-60.0,0
GRID,12955,0,307.2067,0.0,-30.0,0
GRID,12956,0,309.0083,0.0,-1020.0,0
GRID,12957,0,309.0083,0.0,-990.0,0
GRID,12958,0,309.0083,0.0,-960.0,0
GRID,12959,0,309.0083,0.0,-930.0,0
GRID,12960,0,309.0083,0.0,-900.0,0
GRID,12961,0,309.0083,0.0,-870.0,0
GRID,12962,0,309.0083,0.0,-840.0,0
GRID,12963,0,309.0083,0.0,-810.0,0
GRID,12964,0,309.0083,0.0,-780.0,0
GRID,12965,0,309.0083,0.0,-750.0,0
GRID,12966,0,309.0083,0.0,-720.0,0
GRID,12967,0,309.0083,0.0,-690.0,0
GRID,12968,0,309.0083,0.0,-660.0,0
GRID,12969,0,309.0083,0.0,-630.0,0
GRID,12970,0,309.0083,0.0,-600.0,0
GRID,12971,0,309.0083,0.0,-570.0,0
GRID,12972,0,309.0083,0.0,-540.0,0
GRID,12973,0,309.0083,0.0,-510.0,0
GRID,12974,0,309.0083,0.0,-480.0,0
GRID,12975,0,309.0083,0.0,-450.0,0
GRID,12976,0,309.0083,0.0,-420.0,0
GRID,12977,0,309.0083,0.0,-390.0,0
GRID,12978,0,309.0083,0.0,-360.0,0
GRID,12979,0,309.0083,0.0,-330.0,0
GRID,12980,0,309.0083,0.0,-300.0,0
GRID,12981,0,309.0083,0.0,-270.0,0
GRID,12982,0,309.0083,0.0,-240.0,0
GRID,12983,0,309.0083,0.0,-210.0,0
GRID,12984,0,309.0083,0.0,-180.0,0
GRID,12985,0,309.0083,0.0,-150.0,0
GRID,12986,0,309.0083,0.0,-120.0,0
GRID,12987,0,309.0083,0.0,-90.0,0
GRID,12988,0,309.0083,0.0,-60.0,0
GRID,12989,0,309.0083,0.0,-30.0,0
GRID,12990,0,310.81,0.0,-1020.0,0
GRID,12991,0,310.81,0.0,-990.0,0
GRID,12992,0,310.81,0.0,-960.0,0
GRID,12993,0,310.81,0.0,-930.0,0
GRID,12994,0,310.81,0.0,-900.0,0
GRID,12995,0,310.81,0.0,-870.0,0
GRID,12996,0,310.81,0.0,-840.0,0
GRID,12997,0,310.81,0.0,-810.0,0
GRID,12998,0,310.81,0.0,-780.0,0
GRID,12999,0,310.81,0.0,-750.0,0
GRID,13000,0,310.81,0.0,-720.0,0
GRID,13001,0,310.81,0.0,-690.0,0
GRID,13002,0,310.81,0.0,-660.0,0
GRID,13003,0,310.81,0.0,-630.0,0
GRID,13004,0,310.81,0.0,-600.0,0
GRID,13005,0,310.81,0.0,-570.0,0
GRID,13006,0,310.81,0.0,-540.0,0
GRID,13007,0,310.81,0.0,-510.0,0
GRID,13008,0,310.81,0.0,-480.0,0
GRID,13009,0,310.81,0.0,-450.0,0
GRID,13010,0,310.81,0.0,-420.0,0
GRID,13011,0,310.81,0.0,-390.0,0
GRID,13012,0,310.81,0.0,-360.0,0
GRID,13013,0,310.81,0.0,-330.0,0
GRID,13014,0,310.81,0.0,-300.0,0
GRID,13015,0,310.81,0.0,-270.0,0
GRID,13016,0,310.81,0.0,-240.0,0
GRID,13017,0,310.81,0.0,-210.0,0
GRID,13018,0,310.81,0.0,-180.0,0
GRID,13019,0,310.81,0.0,-150.0,0
GRID,13020,0,310.81,0.0,-120.0,0
GRID,13021,0,310.81,0.0,-90.0,0
GRID,13022,0,310.81,0.0,-60.0,0
GRID,13023,0,310.81,0.0,-30.0,0
GRID,13024,0,312.6117,0.0,-1020.0,0
GRID,13025,0,312.6117,0.0,-990.0,0
GRID,13026,0,312.6117,0.0,-960.0,0
GRID,13027,0,312.6117,0.0,-930.0,0
GRID,13028,0,312.6117,0.0,-900.0,0
GRID,13029,0,312.6117,0.0,-870.0,0
GRID,13030,0,312.6117,0.0,-840.0,0
GRID,13031,0,312.6117,0.0,-810.0,0
GRID,13032,0,312.6117,0.0,-780.0,0
GRID,13033,0,312.6117,0.0,-750.0,0
GRID,13034,0,312.6117,0.0,-720.0,0
GRID,13035,0,312.6117,0.0,-690.0,0
GRID,13036,0,312.6117,0.0,-660.0,0
GRID,13037,0,312.6117,0.0,-630.0,0
GRID,13038,0,312.6117,0.0,-600.0,0
GRID,13039,0,312.6117,0.0,-570.0,0
GRID,13040,0,312.6117,0.0,-540.0,0
GRID,13041,0,312.6117,0.0,-510.0,0
GRID,13042,0,312.6117,0.0,-480.0,0
GRID,13043,0,312.6117,0.0,-450.0,0
GRID,13044,0,312.6117,0.0,-420.0,0
GRID,13045,0,312.6117,0.0,-390.0,0
GRID,13046,0,312.6117,0.0,-360.0,0
GRID,13047,0,312.6117,0.0,-330.0,0
GRID,13048,0,312.6117,0.0,-300.0,0
GRID,13049,0,312.6117,0.0,-270.0,0
GRID,13050,0,312.6117,0.0,-240.0,0
GRID,13051,0,312.6117,0.0,-210.0,0
GRID,13052,0,312.6117,0.0,-180.0,0
GRID,13053,0,312.6117,0.0,-150.0,0
GRID,13054,0,312.6117,0.0,-120.0,0
GRID,13055,0,312.6117,0.0,-90.0,0
GRID,13056,0,312.6117,0.0,-60.0,0
GRID,13057,0,312.6117,0.0,-30.0,0
GRID,13058,0,314.4133,0.0,-1020.0,0
GRID,13059,0,314.4133,0.0,-990.0,0
GRID,13060,0,314.4133,0.0,-960.0,0
GRID,13061,0,314.4133,0.0,-930.0,0
GRID,13062,0,314.4133,0.0,-900.0,0
GRID,13063,0,314.4133,0.0,-870.0,0
GRID,13064,0,314.4133,0.0,-840.0,0
GRID,13065,0,314.4133,0.0,-810.0,0
GRID,13066,0,314.4133,0.0,-780.0,0
GRID,13067,0,314.4133,0.0,-750.0,0
GRID,13068,0,314.4133,0.0,-720.0,0
GRID,13069,0,314.4133,0.0,-690.0,0
GRID,13070,0,314.4133,0.0,-660.0,0
GRID,13071,0,314.4133,0.0,-630.0,0
GRID,13072,0,314.4133,0.0,-600.0,0
GRID,13073,0,314.4133,0.0,-570.0,0
GRID,13074,0,314.4133,0.0,-540.0,0
GRID,13075,0,314.4133,0.0,-510.0,0
GRID,13076,0,314.4133,0.0,-480.0,0
GRID,13077,0,314.4133,0.0,-450.0,0
GRID,13078,0,314.4133,0.0,-420.0,0
GRID,13079,0,314.4133,0.0,-390.0,0
GRID,13080,0,314.4133,0.0,-360.0,0
GRID,13081,0,314.4133,0.0,-330.0,0
GRID,13082,0,314.4133,0.0,-300.0,0
GRID,13083,0,314.4133,0.0,-270.0,0
GRID,13084,0,314.4133,0.0,-240.0,0
GRID,13085,0,314.4133,0.0,-210.0,0
GRID,13086,0,314.4133,0.0,-180.0,0
GRID,13087,0,314.4133,0.0,-150.0,0
GRID,13088,0,314.4133,0.0,-120.0,0
GRID,13089,0,314.4133,0.0,-90.0,0
GRID,13090,0,314.4133,0.0,-60.0,0
GRID,13091,0,314.4133,0.0,-30.0,0
GRID,13092,0,316.215,0.0,-1020.0,0
GRID,13093,0,316.215,0.0,-990.0,0
GRID,13094,0,316.215,0.0,-960.0,0
GRID,13095,0,316.215,0.0,-930.0,0
GRID,13096,0,316.215,0.0,-900.0,0
GRID,13097,0,316.215,0.0,-870.0,0
GRID,13098,0,316.215,0.0,-840.0,0
GRID,13099,0,316.215,0.0,-810.0,0
GRID,13100,0,316.215,0.0,-780.0,0
GRID,13101,0,316.215,0.0,-750.0,0
GRID,13102,0,316.215,0.0,-720.0,0
GRID,13103,0,316.215,0.0,-690.0,0
GRID,13104,0,316.215,0.0,-660.0,0
GRID,13105,0,316.215,0.0,-630.0,0
GRID,13106,0,316.215,0.0,-600.0,0
GRID,13107,0,316.215,0.0,-570.0,0
GRID,13108,0,316.215,0.0,-540.0,0
GRID,13109,0,316.215,0.0,-510.0,0
GRID,13110,0,316.215,0.0,-480.0,0
GRID,13111,0,316.215,0.0,-450.0,0
GRID,13112,0,316.215,0.0,-420.0,0
GRID,13113,0,316.215,0.0,-390.0,0
GRID,13114,0,316.215,0.0,-360.0,0
GRID,13115,0,316.215,0.0,-330.0,0
GRID,13116,0,316.215,0.0,-300.0,0
GRID,13117,0,316.215,0.0,-270.0,0
GRID,13118,0,316.215,0.0,-240.0,0
GRID,13119,0,316.215,0.0,-210.0,0
GRID,13120,0,316.215,0.0,-180.0,0
GRID,13121,0,316.215,0.0,-150.0,0
GRID,13122,0,316.215,0.0,-120.0,0
GRID,13123,0,316.215,0.0,-90.0,0
GRID,13124,0,316.215,0.0,-60.0,0
GRID,13125,0,316.215,0.0,-30.0,0
GRID,13126,0,318.0167,0.0,-1020.0,0
GRID,13127,0,318.0167,0.0,-990.0,0
GRID,13128,0,318.0167,0.0,-960.0,0
GRID,13129,0,318.0167,0.0,-930.0,0
GRID,13130,0,318.0167,0.0,-900.0,0
GRID,13131,0,318.0167,0.0,-870.0,0
GRID,13132,0,318.0167,0.0,-840.0,0
GRID,13133,0,318.0167,0.0,-810.0,0
GRID,13134,0,318.0167,0.0,-780.0,0
GRID,13135,0,318.0167,0.0,-750.0,0
GRID,13136,0,318.0167,0.0,-720.0,0
GRID,13137,0,318.0167,0.0,-690.0,0
GRID,13138,0,318.0167,0.0,-660.0,0
GRID,13139,0,318.0167,0.0,-630.0,0
GRID,13140,0,318.0167,0.0,-600.0,0
GRID,13141,0,318.0167,0.0,-570.0,0
GRID,13142,0,318.0167,0.0,-540.0,0
GRID,13143,0,318.0167,0.0,-510.0,0
GRID,13144,0,318.0167,0.0,-480.0,0
GRID,13145,0,318.0167,0.0,-450.0,0
GRID,13146,0,318.0167,0.0,-420.0,0
GRID,13147,0,318.0167,0.0,-390.0,0
GRID,13148,0,318.0167,0.0,-360.0,0
GRID,13149,0,318.0167,0.0,-330.0,0
GRID,13150,0,318.0167,0.0,-300.0,0
GRID,13151,0,318.0167,0.0,-270.0,0
GRID,13152,0,318.0167,0.0,-240.0,0
GRID,13153,0,318.0167,0.0,-210.0,0
GRID,13154,0,318.0167,0.0,-180.0,0
GRID,13155,0,318.0167,0.0,-150.0,0
GRID,13156,0,318.0167,0.0,-120.0,0
GRID,13157,0,318.0167,0.0,-90.0,0
GRID,13158,0,318.0167,0.0,-60.0,0
GRID,13159,0,318.0167,0.0,-30.0,0
GRID,13160,0,319.8183,0.0,-1020.0,0
GRID,13161,0,319.8183,0.0,-990.0,0
GRID,13162,0,319.8183,0.0,-960.0,0
GRID,13163,0,319.8183,0.0,-930.0,0
GRID,13164,0,319.8183,0.0,-900.0,0
GRID,13165,0,319.8183,0.0,-870.0,0
GRID,13166,0,319.8183,0.0,-840.0,0
GRID,13167,0,319.8183,0.0,-810.0,0
GRID,13168,0,319.8183,0.0,-780.0,0
GRID,13169,0,319.8183,0.0,-750.0,0
GRID,13170,0,319.8183,0.0,-720.0,0
GRID,13171,0,319.8183,0.0,-690.0,0
GRID,13172,0,319.8183,0.0,-660.0,0
GRID,13173,0,319.8183,0.0,-630.0,0
GRID,13174,0,319.8183,0.0,-600.0,0
GRID,13175,0,319.8183,0.0,-570.0,0
GRID,13176,0,319.8183,0.0,-540.0,0
GRID,13177,0,319.8183,0.0,-510.0,0
GRID,13178,0,319.8183,0.0,-480.0,0
GRID,13179,0,319.8183,0.0,-450.0,0
GRID,13180,0,319.8183,0.0,-420.0,0
GRID,13181,0,319.8183,0.0,-390.0,0
GRID,13182,0,319.8183,0.0,-360.0,0
GRID,13183,0,319.8183,0.0,-330.0,0
GRID,13184,0,319.8183,0.0,-300.0,0
GRID,13185,0,319.8183,0.0,-270.0,0
GRID,13186,0,319.8183,0.0,-240.0,0
GRID,13187,0,319.8183,0.0,-210.0,0
GRID,13188,0,319.8183,0.0,-180.0,0
GRID,13189,0,319.8183,0.0,-150.0,0
GRID,13190,0,319.8183,0.0,-120.0,0
GRID,13191,0,319.8183,0.0,-90.0,0
GRID,13192,0,319.8183,0.0,-60.0,0
GRID,13193,0,319.8183,0.0,-30.0,0
GRID,13194,0,321.62,0.0,-1020.0,0
GRID,13195,0,321.62,0.0,-990.0,0
GRID,13196,0,321.62,0.0,-960.0,0
GRID,13197,0,321.62,0.0,-930.0,0
GRID,13198,0,321.62,0.0,-900.0,0
GRID,13199,0,321.62,0.0,-870.0,0
GRID,13200,0,321.62,0.0,-840.0,0
GRID,13201,0,321.62,0.0,-810.0,0
GRID,13202,0,321.62,0.0,-780.0,0
GRID,13203,0,321.62,0.0,-750.0,0
GRID,13204,0,321.62,0.0,-720.0,0
GRID,13205,0,321.62,0.0,-690.0,0
GRID,13206,0,321.62,0.0,-660.0,0
GRID,13207,0,321.62,0.0,-630.0,0
GRID,13208,0,321.62,0.0,-600.0,0
GRID,13209,0,321.62,0.0,-570.0,0
GRID,13210,0,321.62,0.0,-540.0,0
GRID,13211,0,321.62,0.0,-510.0,0
GRID,13212,0,321.62,0.0,-480.0,0
GRID,13213,0,321.62,0.0,-450.0,0
GRID,13214,0,321.62,0.0,-420.0,0
GRID,13215,0,321.62,0.0,-390.0,0
GRID,13216,0,321.62,0.0,-360.0,0
GRID,13217,0,321.62,0.0,-330.0,0
GRID,13218,0,321.62,0.0,-300.0,0
GRID,13219,0,321.62,0.0,-270.0,0
GRID,13220,0,321.62,0.0,-240.0,0
GRID,13221,0,321.62,0.0,-210.0,0
GRID,13222,0,321.62,0.0,-180.0,0
GRID,13223,0,321.62,0.0,-150.0,0
GRID,13224,0,321.62,0.0,-120.0,0
GRID,13225,0,321.62,0.0,-90.0,0
GRID,13226,0,321.62,0.0,-60.0,0
GRID,13227,0,321.62,0.0,-30.0,0
GRID,13228,0,323.4217,0.0,-1020.0,0
GRID,13229,0,323.4217,0.0,-990.0,0
GRID,13230,0,323.4217,0.0,-960.0,0
GRID,13231,0,323.4217,0.0,-930.0,0
GRID,13232,0,323.4217,0.0,-900.0,0
GRID,13233,0,323.4217,0.0,-870.0,0
GRID,13234,0,323.4217,0.0,-840.0,0
GRID,13235,0,323.4217,0.0,-810.0,0
GRID,13236,0,323.4217,0.0,-780.0,0
GRID,13237,0,323.4217,0.0,-750.0,0
GRID,13238,0,323.4217,0.0,-720.0,0
GRID,13239,0,323.4217,0.0,-690.0,0
GRID,13240,0,323.4217,0.0,-660.0,0
GRID,13241,0,323.4217,0.0,-630.0,0
GRID,13242,0,323.4217,0.0,-600.0,0
GRID,13243,0,323.4217,0.0,-570.0,0
GRID,13244,0,323.4217,0.0,-540.0,0
GRID,13245,0,323.4217,0.0,-510.0,0
GRID,13246,0,323.4217,0.0,-480.0,0
GRID,13247,0,323.4217,0.0,-450.0,0
GRID,13248,0,323.4217,0.0,-420.0,0
GRID,13249,0,323.4217,0.0,-390.0,0
GRID,13250,0,323.4217,0.0,-360.0,0
GRID,13251,0,323.4217,0.0,-330.0,0
GRID,13252,0,323.4217,0.0,-300.0,0
GRID,13253,0,323.4217,0.0,-270.0,0
GRID,13254,0,323.4217,0.0,-240.0,0
GRID,13255,0,323.4217,0.0,-210.0,0
GRID,13256,0,323.4217,0.0,-180.0,0
GRID,13257,0,323.4217,0.0,-150.0,0
GRID,13258,0,323.4217,0.0,-120.0,0
GRID,13259,0,323.4217,0.0,-90.0,0
GRID,13260,0,323.4217,0.0,-60.0,0
GRID,13261,0,323.4217,0.0,-30.0,0
GRID,13262,0,325.2233,0.0,-1020.0,0
GRID,13263,0,325.2233,0.0,-990.0,0
GRID,13264,0,325.2233,0.0,-960.0,0
GRID,13265,0,325.2233,0.0,-930.0,0
GRID,13266,0,325.2233,0.0,-900.0,0
GRID,13267,0,325.2233,0.0,-870.0,0
GRID,13268,0,325.2233,0.0,-840.0,0
GRID,13269,0,325.2233,0.0,-810.0,0
GRID,13270,0,325.2233,0.0,-780.0,0
GRID,13271,0,325.2233,0.0,-750.0,0
GRID,13272,0,325.2233,0.0,-720.0,0
GRID,13273,0,325.2233,0.0,-690.0,0
GRID,13274,0,325.2233,0.0,-660.0,0
GRID,13275,0,325.2233,0.0,-630.0,0
GRID,13276,0,325.2233,0.0,-600.0,0
GRID,13277,0,325.2233,0.0,-570.0,0
GRID,13278,0,325.2233,0.0,-540.0,0
GRID,13279,0,325.2233,0.0,-510.0,0
GRID,13280,0,325.2233,0.0,-480.0,0
GRID,13281,0,325.2233,0.0,-450.0,0
GRID,13282,0,325.2233,0.0,-420.0,0
GRID,13283,0,325.2233,0.0,-390.0,0
GRID,13284,0,325.2233,0.0,-360.0,0
GRID,13285,0,325.2233,0.0,-330.0,0
GRID,13286,0,325.2233,0.0,-300.0,0
GRID,13287,0,325.2233,0.0,-270.0,0
GRID,13288,0,325.2233,0.0,-240.0,0
GRID,13289,0,325.2233,0.0,-210.0,0
GRID,13290,0,325.2233,0.0,-180.0,0
GRID,13291,0,325.2233,0.0,-150.0,0
GRID,13292,0,325.2233,0.0,-120.0,0
GRID,13293,0,325.2233,0.0,-90.0,0
GRID,13294,0,325.2233,0.0,-60.0,0
GRID,13295,0,325.2233,0.0,-30.0,0
GRID,13296,0,327.025,0.0,-1020.0,0
GRID,13297,0,327.025,0.0,-990.0,0
GRID,13298,0,327.025,0.0,-960.0,0
GRID,13299,0,327.025,0.0,-930.0,0
GRID,13300,0,327.025,0.0,-900.0,0
GRID,13301,0,327.025,0.0,-870.0,0
GRID,13302,0,327.025,0.0,-840.0,0
GRID,13303,0,327.025,0.0,-810.0,0
GRID,13304,0,327.025,0.0,-780.0,0
GRID,13305,0,327.025,0.0,-750.0,0
GRID,13306,0,327.025,0.0,-720.0,0
GRID,13307,0,327.025,0.0,-690.0,0
GRID,13308,0,327.025,0.0,-660.0,0
GRID,13309,0,327.025,0.0,-630.0,0
GRID,13310,0,327.025,0.0,-600.0,0
GRID,13311,0,327.025,0.0,-570.0,0
GRID,13312,0,327.025,0.0,-540.0,0
GRID,13313,0,327.025,0.0,-510.0,0
GRID,13314,0,327.025,0.0,-480.0,0
GRID,13315,0,327.025,0.0,-450.0,0
GRID,13316,0,327.025,0.0,-420.0,0
GRID,13317,0,327.025,0.0,-390.0,0
GRID,13318,0,327.025,0.0,-360.0,0
GRID,13319,0,327.025,0.0,-330.0,0
GRID,13320,0,327.025,0.0,-300.0,0
GRID,13321,0,327.025,0.0,-270.0,0
GRID,13322,0,327.025,0.0,-240.0,0
GRID,13323,0,327.025,0.0,-210.0,0
GRID,13324,0,327.025,0.0,-180.0,0
GRID,13325,0,327.025,0.0,-150.0,0
GRID,13326,0,327.025,0.0,-120.0,0
GRID,13327,0,327.025,0.0,-90.0,0
GRID,13328,0,327.025,0.0,-60.0,0
GRID,13329,0,327.025,0.0,-30.0,0
GRID,13330,0,328.8267,0.0,-1020.0,0
GRID,13331,0,328.8267,0.0,-990.0,0
GRID,13332,0,328.8267,0.0,-960.0,0
GRID,13333,0,328.8267,0.0,-930.0,0
GRID,13334,0,328.8267,0.0,-900.0,0
GRID,13335,0,328.8267,0.0,-870.0,0
GRID,13336,0,328.8267,0.0,-840.0,0
GRID,13337,0,328.8267,0.0,-810.0,0
GRID,13338,0,328.8267,0.0,-780.0,0
GRID,13339,0,328.8267,0.0,-750.0,0
GRID,13340,0,328.8267,0.0,-720.0,0
GRID,13341,0,328.8267,0.0,-690.0,0
GRID,13342,0,328.8267,0.0,-660.0,0
GRID,13343,0,328.8267,0.0,-630.0,0
GRID,13344,0,328.8267,0.0,-600.0,0
GRID,13345,0,328.8267,0.0,-570.0,0
GRID,13346,0,328.8267,0.0,-540.0,0
GRID,13347,0,328.8267,0.0,-510.0,0
GRID,13348,0,328.8267,0.0,-480.0,0
GRID,13349,0,328.8267,0.0,-450.0,0
GRID,13350,0,328.8267,0.0,-420.0,0
GRID,13351,0,328.8267,0.0,-390.0,0
GRID,13352,0,328.8267,0.0,-360.0,0
GRID,13353,0,328.8267,0.0,-330.0,0
GRID,13354,0,328.8267,0.0,-300.0,0
GRID,13355,0,328.8267,0.0,-270.0,0
GRID,13356,0,328.8267,0.0,-240.0,0
GRID,13357,0,328.8267,0.0,-210.0,0
GRID,13358,0,328.8267,0.0,-180.0,0
GRID,13359,0,328.8267,0.0,-150.0,0
GRID,13360,0,328.8267,0.0,-120.0,0
GRID,13361,0,328.8267,0.0,-90.0,0
GRID,13362,0,328.8267,0.0,-60.0,0
GRID,13363,0,328.8267,0.0,-30.0,0
GRID,13364,0,330.6283,0.0,-1020.0,0
GRID,13365,0,330.6283,0.0,-990.0,0
GRID,13366,0,330.6283,0.0,-960.0,0
GRID,13367,0,330.6283,0.0,-930.0,0
GRID,13368,0,330.6283,0.0,-900.0,0
GRID,13369,0,330.6283,0.0,-870.0,0
GRID,13370,0,330.6283,0.0,-840.0,0
GRID,13371,0,330.6283,0.0,-810.0,0
GRID,13372,0,330.6283,0.0,-780.0,0
GRID,13373,0,330.6283,0.0,-750.0,0
GRID,13374,0,330.6283,0.0,-720.0,0
GRID,13375,0,330.6283,0.0,-690.0,0
GRID,13376,0,330.6283,0.0,-660.0,0
GRID,13377,0,330.6283,0.0,-630.0,0
GRID,13378,0,330.6283,0.0,-600.0,0
GRID,13379,0,330.6283,0.0,-570.0,0
GRID,13380,0,330.6283,0.0,-540.0,0
GRID,13381,0,330.6283,0.0,-510.0,0
GRID,13382,0,330.6283,0.0,-480.0,0
GRID,13383,0,330.6283,0.0,-450.0,0
GRID,13384,0,330.6283,0.0,-420.0,0
GRID,13385,0,330.6283,0.0,-390.0,0
GRID,13386,0,330.6283,0.0,-360.0,0
GRID,13387,0,330.6283,0.0,-330.0,0
GRID,13388,0,330.6283,0.0,-300.0,0
GRID,13389,0,330.6283,0.0,-270.0,0
GRID,13390,0,330.6283,0.0,-240.0,0
GRID,13391,0,330.6283,0.0,-210.0,0
GRID,13392,0,330.6283,0.0,-180.0,0
GRID,13393,0,330.6283,0.0,-150.0,0
GRID,13394,0,330.6283,0.0,-120.0,0
GRID,13395,0,330.6283,0.0,-90.0,0
GRID,13396,0,330.6283,0.0,-60.0,0
GRID,13397,0,330.6283,0.0,-30.0,0
GRID,13398,0,332.43,0.0,-1020.0,0
GRID,13399,0,332.43,0.0,-990.0,0
GRID,13400,0,332.43,0.0,-960.0,0
GRID,13401,0,332.43,0.0,-930.0,0
GRID,13402,0,332.43,0.0,-900.0,0
GRID,13403,0,332.43,0.0,-870.0,0
GRID,13404,0,332.43,0.0,-840.0,0
GRID,13405,0,332.43,0.0,-810.0,0
GRID,13406,0,332.43,0.0,-780.0,0
GRID,13407,0,332.43,0.0,-750.0,0
GRID,13408,0,332.43,0.0,-720.0,0
GRID,13409,0,332.43,0.0,-690.0,0
GRID,13410,0,332.43,0.0,-660.0,0
GRID,13411,0,332.43,0.0,-630.0,0
GRID,13412,0,332.43,0.0,-600.0,0
GRID,13413,0,332.43,0.0,-570.0,0
GRID,13414,0,332.43,0.0,-540.0,0
GRID,13415,0,332.43,0.0,-510.0,0
GRID,13416,0,332.43,0.0,-480.0,0
GRID,13417,0,332.43,0.0,-450.0,0
GRID,13418,0,332.43,0.0,-420.0,0
GRID,13419,0,332.43,0.0,-390.0,0
GRID,13420,0,332.43,0.0,-360.0,0
GRID,13421,0,332.43,0.0,-330.0,0
GRID,13422,0,332.43,0.0,-300.0,0
GRID,13423,0,332.43,0.0,-270.0,0
GRID,13424,0,332.43,0.0,-240.0,0
GRID,13425,0,332.43,0.0,-210.0,0
GRID,13426,0,332.43,0.0,-180.0,0
GRID,13427,0,332.43,0.0,-150.0,0
GRID,13428,0,332.43,0.0,-120.0,0
GRID,13429,0,332.43,0.0,-90.0,0
GRID,13430,0,332.43,0.0,-60.0,0
GRID,13431,0,332.43,0.0,-30.0,0
GRID,13432,0,334.2317,0.0,-1020.0,0
GRID,13433,0,334.2317,0.0,-990.0,0
GRID,13434,0,334.2317,0.0,-960.0,0
GRID,13435,0,334.2317,0.0,-930.0,0
GRID,13436,0,334.2317,0.0,-900.0,0
GRID,13437,0,334.2317,0.0,-870.0,0
GRID,13438,0,334.2317,0.0,-840.0,0
GRID,13439,0,334.2317,0.0,-810.0,0
GRID,13440,0,334.2317,0.0,-780.0,0
GRID,13441,0,334.2317,0.0,-750.0,0
GRID,13442,0,334.2317,0.0,-720.0,0
GRID,13443,0,334.2317,0.0,-690.0,0
GRID,13444,0,334.2317,0.0,-660.0,0
GRID,13445,0,334.2317,0.0,-630.0,0
GRID,13446,0,334.2317,0.0,-600.0,0
GRID,13447,0,334.2317,0.0,-570.0,0
GRID,13448,0,334.2317,0.0,-540.0,0
GRID,13449,0,334.2317,0.0,-510.0,0
GRID,13450,0,334.2317,0.0,-480.0,0
GRID,13451,0,334.2317,0.0,-450.0,0
GRID,13452,0,334.2317,0.0,-420.0,0
GRID,13453,0,334.2317,0.0,-390.0,0
GRID,13454,0,334.2317,0.0,-360.0,0
GRID,13455,0,334.2317,0.0,-330.0,0
GRID,13456,0,334.2317,0.0,-300.0,0
GRID,13457,0,334.2317,0.0,-270.0,0
GRID,13458,0,334.2317,0.0,-240.0,0
GRID,13459,0,334.2317,0.0,-210.0,0
GRID,13460,0,334.2317,0.0,-180.0,0
GRID,13461,0,334.2317,0.0,-150.0,0
GRID,13462,0,334.2317,0.0,-120.0,0
GRID,13463,0,334.2317,0.0,-90.0,0
GRID,13464,0,334.2317,0.0,-60.0,0
GRID,13465,0,334.2317,0.0,-30.0,0
GRID,13466,0,336.0333,0.0,-1020.0,0
GRID,13467,0,336.0333,0.0,-990.0,0
GRID,13468,0,336.0333,0.0,-960.0,0
GRID,13469,0,336.0333,0.0,-930.0,0
GRID,13470,0,336.0333,0.0,-900.0,0
GRID,13471,0,336.0333,0.0,-870.0,0
GRID,13472,0,336.0333,0.0,-840.0,0
GRID,13473,0,336.0333,0.0,-810.0,0
GRID,13474,0,336.0333,0.0,-780.0,0
GRID,13475,0,336.0333,0.0,-750.0,0
GRID,13476,0,336.0333,0.0,-720.0,0
GRID,13477,0,336.0333,0.0,-690.0,0
GRID,13478,0,336.0333,0.0,-660.0,0
GRID,13479,0,336.0333,0.0,-630.0,0
GRID,13480,0,336.0333,0.0,-600.0,0
GRID,13481,0,336.0333,0.0,-570.0,0
GRID,13482,0,336.0333,0.0,-540.0,0
GRID,13483,0,336.0333,0.0,-510.0,0
GRID,13484,0,336.0333,0.0,-480.0,0
GRID,13485,0,336.0333,0.0,-450.0,0
GRID,13486,0,336.0333,0.0,-420.0,0
GRID,13487,0,336.0333,0.0,-390.0,0
GRID,13488,0,336.0333,0.0,-360.0,0
GRID,13489,0,336.0333,0.0,-330.0,0
GRID,13490,0,336.0333,0.0,-300.0,0
GRID,13491,0,336.0333,0.0,-270.0,0
GRID,13492,0,336.0333,0.0,-240.0,0
GRID,13493,0,336.0333,0.0,-210.0,0
GRID,13494,0,336.0333,0.0,-180.0,0
GRID,13495,0,336.0333,0.0,-150.0,0
GRID,13496,0,336.0333,0.0,-120.0,0
GRID,13497,0,336.0333,0.0,-90.0,0
GRID,13498,0,336.0333,0.0,-60.0,0
GRID,13499,0,336.0333,0.0,-30.0,0
GRID,13500,0,337.835,0.0,-1020.0,0
GRID,13501,0,337.835,0.0,-990.0,0
GRID,13502,0,337.835,0.0,-960.0,0
GRID,13503,0,337.835,0.0,-930.0,0
GRID,13504,0,337.835,0.0,-900.0,0
GRID,13505,0,337.835,0.0,-870.0,0
GRID,13506,0,337.835,0.0,-840.0,0
GRID,13507,0,337.835,0.0,-810.0,0
GRID,13508,0,337.835,0.0,-780.0,0
GRID,13509,0,337.835,0.0,-750.0,0
GRID,13510,0,337.835,0.0,-720.0,0
GRID,13511,0,337.835,0.0,-690.0,0
GRID,13512,0,337.835,0.0,-660.0,0
GRID,13513,0,337.835,0.0,-630.0,0
GRID,13514,0,337.835,0.0,-600.0,0
GRID,13515,0,337.835,0.0,-570.0,0
GRID,13516,0,337.835,0.0,-540.0,0
GRID,13517,0,337.835,0.0,-510.0,0
GRID,13518,0,337.835,0.0,-480.0,0
GRID,13519,0,337.835,0.0,-450.0,0
GRID,13520,0,337.835,0.0,-420.0,0
GRID,13521,0,337.835,0.0,-390.0,0
GRID,13522,0,337.835,0.0,-360.0,0
GRID,13523,0,337.835,0.0,-330.0,0
GRID,13524,0,337.835,0.0,-300.0,0
GRID,13525,0,337.835,0.0,-270.0,0
GRID,13526,0,337.835,0.0,-240.0,0
GRID,13527,0,337.835,0.0,-210.0,0
GRID,13528,0,337.835,0.0,-180.0,0
GRID,13529,0,337.835,0.0,-150.0,0
GRID,13530,0,337.835,0.0,-120.0,0
GRID,13531,0,337.835,0.0,-90.0,0
GRID,13532,0,337.835,0.0,-60.0,0
GRID,13533,0,337.835,0.0,-30.0,0
GRID,13534,0,339.6367,0.0,-1020.0,0
GRID,13535,0,339.6367,0.0,-990.0,0
GRID,13536,0,339.6367,0.0,-960.0,0
GRID,13537,0,339.6367,0.0,-930.0,0
GRID,13538,0,339.6367,0.0,-900.0,0
GRID,13539,0,339.6367,0.0,-870.0,0
GRID,13540,0,339.6367,0.0,-840.0,0
GRID,13541,0,339.6367,0.0,-810.0,0
GRID,13542,0,339.6367,0.0,-780.0,0
GRID,13543,0,339.6367,0.0,-750.0,0
GRID,13544,0,339.6367,0.0,-720.0,0
GRID,13545,0,339.6367,0.0,-690.0,0
GRID,13546,0,339.6367,0.0,-660.0,0
GRID,13547,0,339.6367,0.0,-630.0,0
GRID,13548,0,339.6367,0.0,-600.0,0
GRID,13549,0,339.6367,0.0,-570.0,0
GRID,13550,0,339.6367,0.0,-540.0,0
GRID,13551,0,339.6367,0.0,-510.0,0
GRID,13552,0,339.6367,0.0,-480.0,0
GRID,13553,0,339.6367,0.0,-450.0,0
GRID,13554,0,339.6367,0.0,-420.0,0
GRID,13555,0,339.6367,0.0,-390.0,0
GRID,13556,0,339.6367,0.0,-360.0,0
GRID,13557,0,339.6367,0.0,-330.0,0
GRID,13558,0,339.6367,0.0,-300.0,0
GRID,13559,0,339.6367,0.0,-270.0,0
GRID,13560,0,339.6367,0.0,-240.0,0
GRID,13561,0,339.6367,0.0,-210.0,0
GRID,13562,0,339.6367,0.0,-180.0,0
GRID,13563,0,339.6367,0.0,-150.0,0
GRID,13564,0,339.6367,0.0,-120.0,0
GRID,13565,0,339.6367,0.0,-90.0,0
GRID,13566,0,339.6367,0.0,-60.0,0
GRID,13567,0,339.6367,0.0,-30.0,0
GRID,13568,0,341.4383,0.0,-1020.0,0
GRID,13569,0,341.4383,0.0,-990.0,0
GRID,13570,0,341.4383,0.0,-960.0,0
GRID,13571,0,341.4383,0.0,-930.0,0
GRID,13572,0,341.4383,0.0,-900.0,0
GRID,13573,0,341.4383,0.0,-870.0,0
GRID,13574,0,341.4383,0.0,-840.0,0
GRID,13575,0,341.4383,0.0,-810.0,0
GRID,13576,0,341.4383,0.0,-780.0,0
GRID,13577,0,341.4383,0.0,-750.0,0
GRID,13578,0,341.4383,0.0,-720.0,0
GRID,13579,0,341.4383,0.0,-690.0,0
GRID,13580,0,341.4383,0.0,-660.0,0
GRID,13581,0,341.4383,0.0,-630.0,0
GRID,13582,0,341.4383,0.0,-600.0,0
GRID,13583,0,341.4383,0.0,-570.0,0
GRID,13584,0,341.4383,0.0,-540.0,0
GRID,13585,0,341.4383,0.0,-510.0,0
GRID,13586,0,341.4383,0.0,-480.0,0
GRID,13587,0,341.4383,0.0,-450.0,0
GRID,13588,0,341.4383,0.0,-420.0,0
GRID,13589,0,341.4383,0.0,-390.0,0
GRID,13590,0,341.4383,0.0,-360.0,0
GRID,13591,0,341.4383,0.0,-330.0,0
GRID,13592,0,341.4383,0.0,-300.0,0
GRID,13593,0,341.4383,0.0,-270.0,0
GRID,13594,0,341.4383,0.0,-240.0,0
GRID,13595,0,341.4383,0.0,-210.0,0
GRID,13596,0,341.4383,0.0,-180.0,0
GRID,13597,0,341.4383,0.0,-150.0,0
GRID,13598,0,341.4383,0.0,-120.0,0
GRID,13599,0,341.4383,0.0,-90.0,0
GRID,13600,0,341.4383,0.0,-60.0,0
GRID,13601,0,341.4383,0.0,-30.0,0
GRID,13602,0,343.24,0.0,-1020.0,0
GRID,13603,0,343.24,0.0,-990.0,0
GRID,13604,0,343.24,0.0,-960.0,0
GRID,13605,0,343.24,0.0,-930.0,0
GRID,13606,0,343.24,0.0,-900.0,0
GRID,13607,0,343.24,0.0,-870.0,0
GRID,13608,0,343.24,0.0,-840.0,0
GRID,13609,0,343.24,0.0,-810.0,0
GRID,13610,0,343.24,0.0,-780.0,0
GRID,13611,0,343.24,0.0,-750.0,0
GRID,13612,0,343.24,0.0,-720.0,0
GRID,13613,0,343.24,0.0,-690.0,0
GRID,13614,0,343.24,0.0,-660.0,0
GRID,13615,0,343.24,0.0,-630.0,0
GRID,13616,0,343.24,0.0,-600.0,0
GRID,13617,0,343.24,0.0,-570.0,0
GRID,13618,0,343.24,0.0,-540.0,0
GRID,13619,0,343.24,0.0,-510.0,0
GRID,13620,0,343.24,0.0,-480.0,0
GRID,13621,0,343.24,0.0,-450.0,0
GRID,13622,0,343.24,0.0,-420.0,0
GRID,13623,0,343.24,0.0,-390.0,0
GRID,13624,0,343.24,0.0,-360.0,0
GRID,13625,0,343.24,0.0,-330.0,0
GRID,13626,0,343.24,0.0,-300.0,0
GRID,13627,0,343.24,0.0,-270.0,0
GRID,13628,0,343.24,0.0,-240.0,0
GRID,13629,0,343.24,0.0,-210.0,0
GRID,13630,0,343.24,0.0,-180.0,0
GRID,13631,0,343.24,0.0,-150.0,0
GRID,13632,0,343.24,0.0,-120.0,0
GRID,13633,0,343.24,0.0,-90.0,0
GRID,13634,0,343.24,0.0,-60.0,0
GRID,13635,0,343.24,0.0,-30.0,0
GRID,13636,0,345.0417,0.0,-1020.0,0
GRID,13637,0,345.0417,0.0,-990.0,0
GRID,13638,0,345.0417,0.0,-960.0,0
GRID,13639,0,345.0417,0.0,-930.0,0
GRID,13640,0,345.0417,0.0,-900.0,0
GRID,13641,0,345.0417,0.0,-870.0,0
GRID,13642,0,345.0417,0.0,-840.0,0
GRID,13643,0,345.0417,0.0,-810.0,0
GRID,13644,0,345.0417,0.0,-780.0,0
GRID,13645,0,345.0417,0.0,-750.0,0
GRID,13646,0,345.0417,0.0,-720.0,0
GRID,13647,0,345.0417,0.0,-690.0,0
GRID,13648,0,345.0417,0.0,-660.0,0
GRID,13649,0,345.0417,0.0,-630.0,0
GRID,13650,0,345.0417,0.0,-600.0,0
GRID,13651,0,345.0417,0.0,-570.0,0
GRID,13652,0,345.0417,0.0,-540.0,0
GRID,13653,0,345.0417,0.0,-510.0,0
GRID,13654,0,345.0417,0.0,-480.0,0
GRID,13655,0,345.0417,0.0,-450.0,0
GRID,13656,0,345.0417,0.0,-420.0,0
GRID,13657,0,345.0417,0.0,-390.0,0
GRID,13658,0,345.0417,0.0,-360.0,0
GRID,13659,0,345.0417,0.0,-330.0,0
GRID,13660,0,345.0417,0.0,-300.0,0
GRID,13661,0,345.0417,0.0,-270.0,0
GRID,13662,0,345.0417,0.0,-240.0,0
GRID,13663,0,345.0417,0.0,-210.0,0
GRID,13664,0,345.0417,0.0,-180.0,0
GRID,13665,0,345.0417,0.0,-150.0,0
GRID,13666,0,345.0417,0.0,-120.0,0
GRID,13667,0,345.0417,0.0,-90.0,0
GRID,13668,0,345.0417,0.0,-60.0,0
GRID,13669,0,345.0417,0.0,-30.0,0
GRID,13670,0,346.8433,0.0,-1020.0,0
GRID,13671,0,346.8433,0.0,-990.0,0
GRID,13672,0,346.8433,0.0,-960.0,0
GRID,13673,0,346.8433,0.0,-930.0,0
GRID,13674,0,346.8433,0.0,-900.0,0
GRID,13675,0,346.8433,0.0,-870.0,0
GRID,13676,0,346.8433,0.0,-840.0,0
GRID,13677,0,346.8433,0.0,-810.0,0
GRID,13678,0,346.8433,0.0,-780.0,0
GRID,13679,0,346.8433,0.0,-750.0,0
GRID,13680,0,346.8433,0.0,-720.0,0
GRID,13681,0,346.8433,0.0,-690.0,0
GRID,13682,0,346.8433,0.0,-660.0,0
GRID,13683,0,346.8433,0.0,-630.0,0
GRID,13684,0,346.8433,0.0,-600.0,0
GRID,13685,0,346.8433,0.0,-570.0,0
GRID,13686,0,346.8433,0.0,-540.0,0
GRID,13687,0,346.8433,0.0,-510.0,0
GRID,13688,0,346.8433,0.0,-480.0,0
GRID,13689,0,346.8433,0.0,-450.0,0
GRID,13690,0,346.8433,0.0,-420.0,0
GRID,13691,0,346.8433,0.0,-390.0,0
GRID,13692,0,346.8433,0.0,-360.0,0
GRID,13693,0,346.8433,0.0,-330.0,0
GRID,13694,0,346.8433,0.0,-300.0,0
GRID,13695,0,346.8433,0.0,-270.0,0
GRID,13696,0,346.8433,0.0,-240.0,0
GRID,13697,0,346.8433,0.0,-210.0,0
GRID,13698,0,346.8433,0.0,-180.0,0
GRID,13699,0,346.8433,0.0,-150.0,0
GRID,13700,0,346.8433,0.0,-120.0,0
GRID,13701,0,346.8433,0.0,-90.0,0
GRID,13702,0,346.8433,0.0,-60.0,0
GRID,13703,0,346.8433,0.0,-30.0,0
GRID,13704,0,348.645,0.0,-1020.0,0
GRID,13705,0,348.645,0.0,-990.0,0
GRID,13706,0,348.645,0.0,-960.0,0
GRID,13707,0,348.645,0.0,-930.0,0
GRID,13708,0,348.645,0.0,-900.0,0
GRID,13709,0,348.645,0.0,-870.0,0
GRID,13710,0,348.645,0.0,-840.0,0
GRID,13711,0,348.645,0.0,-810.0,0
GRID,13712,0,348.645,0.0,-780.0,0
GRID,13713,0,348.645,0.0,-750.0,0
GRID,13714,0,348.645,0.0,-720.0,0
GRID,13715,0,348.645,0.0,-690.0,0
GRID,13716,0,348.645,0.0,-660.0,0
GRID,13717,0,348.645,0.0,-630.0,0
GRID,13718,0,348.645,0.0,-600.0,0
GRID,13719,0,348.645,0.0,-570.0,0
GRID,13720,0,348.645,0.0,-540.0,0
GRID,13721,0,348.645,0.0,-510.0,0
GRID,13722,0,348.645,0.0,-480.0,0
GRID,13723,0,348.645,0.0,-450.0,0
GRID,13724,0,348.645,0.0,-420.0,0
GRID,13725,0,348.645,0.0,-390.0,0
GRID,13726,0,348.645,0.0,-360.0,0
GRID,13727,0,348.645,0.0,-330.0,0
GRID,13728,0,348.645,0.0,-300.0,0
GRID,13729,0,348.645,0.0,-270.0,0
GRID,13730,0,348.645,0.0,-240.0,0
GRID,13731,0,348.645,0.0,-210.0,0
GRID,13732,0,348.645,0.0,-180.0,0
GRID,13733,0,348.645,0.0,-150.0,0
GRID,13734,0,348.645,0.0,-120.0,0
GRID,13735,0,348.645,0.0,-90.0,0
GRID,13736,0,348.645,0.0,-60.0,0
GRID,13737,0,348.645,0.0,-30.0,0
GRID,13738,0,350.4467,0.0,-1020.0,0
GRID,13739,0,350.4467,0.0,-990.0,0
GRID,13740,0,350.4467,0.0,-960.0,0
GRID,13741,0,350.4467,0.0,-930.0,0
GRID,13742,0,350.4467,0.0,-900.0,0
GRID,13743,0,350.4467,0.0,-870.0,0
GRID,13744,0,350.4467,0.0,-840.0,0
GRID,13745,0,350.4467,0.0,-810.0,0
GRID,13746,0,350.4467,0.0,-780.0,0
GRID,13747,0,350.4467,0.0,-750.0,0
GRID,13748,0,350.4467,0.0,-720.0,0
GRID,13749,0,350.4467,0.0,-690.0,0
GRID,13750,0,350.4467,0.0,-660.0,0
GRID,13751,0,350.4467,0.0,-630.0,0
GRID,13752,0,350.4467,0.0,-600.0,0
GRID,13753,0,350.4467,0.0,-570.0,0
GRID,13754,0,350.4467,0.0,-540.0,0
GRID,13755,0,350.4467,0.0,-510.0,0
GRID,13756,0,350.4467,0.0,-480.0,0
GRID,13757,0,350.4467,0.0,-450.0,0
GRID,13758,0,350.4467,0.0,-420.0,0
GRID,13759,0,350.4467,0.0,-390.0,0
GRID,13760,0,350.4467,0.0,-360.0,0
GRID,13761,0,350.4467,0.0,-330.0,0
GRID,13762,0,350.4467,0.0,-300.0,0
GRID,13763,0,350.4467,0.0,-270.0,0
GRID,13764,0,350.4467,0.0,-240.0,0
GRID,13765,0,350.4467,0.0,-210.0,0
GRID,13766,0,350.4467,0.0,-180.0,0
GRID,13767,0,350.4467,0.0,-150.0,0
GRID,13768,0,350.4467,0.0,-120.0,0
GRID,13769,0,350.4467,0.0,-90.0,0
GRID,13770,0,350.4467,0.0,-60.0,0
GRID,13771,0,350.4467,0.0,-30.0,0
GRID,13772,0,352.2483,0.0,-1020.0,0
GRID,13773,0,352.2483,0.0,-990.0,0
GRID,13774,0,352.2483,0.0,-960.0,0
GRID,13775,0,352.2483,0.0,-930.0,0
GRID,13776,0,352.2483,0.0,-900.0,0
GRID,13777,0,352.2483,0.0,-870.0,0
GRID,13778,0,352.2483,0.0,-840.0,0
GRID,13779,0,352.2483,0.0,-810.0,0
GRID,13780,0,352.2483,0.0,-780.0,0
GRID,13781,0,352.2483,0.0,-750.0,0
GRID,13782,0,352.2483,0.0,-720.0,0
GRID,13783,0,352.2483,0.0,-690.0,0
GRID,13784,0,352.2483,0.0,-660.0,0
GRID,13785,0,352.2483,0.0,-630.0,0
GRID,13786,0,352.2483,0.0,-600.0,0
GRID,13787,0,352.2483,0.0,-570.0,0
GRID,13788,0,352.2483,0.0,-540.0,0
GRID,13789,0,352.2483,0.0,-510.0,0
GRID,13790,0,352.2483,0.0,-480.0,0
GRID,13791,0,352.2483,0.0,-450.0,0
GRID,13792,0,352.2483,0.0,-420.0,0
GRID,13793,0,352.2483,0.0,-390.0,0
GRID,13794,0,352.2483,0.0,-360.0,0
GRID,13795,0,352.2483,0.0,-330.0,0
GRID,13796,0,352.2483,0.0,-300.0,0
GRID,13797,0,352.2483,0.0,-270.0,0
GRID,13798,0,352.2483,0.0,-240.0,0
GRID,13799,0,352.2483,0.0,-210.0,0
GRID,13800,0,352.2483,0.0,-180.0,0
GRID,13801,0,352.2483,0.0,-150.0,0
GRID,13802,0,352.2483,0.0,-120.0,0
GRID,13803,0,352.2483,0.0,-90.0,0
GRID,13804,0,352.2483,0.0,-60.0,0
GRID,13805,0,352.2483,0.0,-30.0,0
GRID,13806,0,354.05,0.0,-1020.0,0
GRID,13807,0,354.05,0.0,-990.0,0
GRID,13808,0,354.05,0.0,-960.0,0
GRID,13809,0,354.05,0.0,-930.0,0
GRID,13810,0,354.05,0.0,-900.0,0
GRID,13811,0,354.05,0.0,-870.0,0
GRID,13812,0,354.05,0.0,-840.0,0
GRID,13813,0,354.05,0.0,-810.0,0
GRID,13814,0,354.05,0.0,-780.0,0
GRID,13815,0,354.05,0.0,-750.0,0
GRID,13816,0,354.05,0.0,-720.0,0
GRID,13817,0,354.05,0.0,-690.0,0
GRID,13818,0,354.05,0.0,-660.0,0
GRID,13819,0,354.05,0.0,-630.0,0
GRID,13820,0,354.05,0.0,-600.0,0
GRID,13821,0,354.05,0.0,-570.0,0
GRID,13822,0,354.05,0.0,-540.0,0
GRID,13823,0,354.05,0.0,-510.0,0
GRID,13824,0,354.05,0.0,-480.0,0
GRID,13825,0,354.05,0.0,-450.0,0
GRID,13826,0,354.05,0.0,-420.0,0
GRID,13827,0,354.05,0.0,-390.0,0
GRID,13828,0,354.05,0.0,-360.0,0
GRID,13829,0,354.05,0.0,-330.0,0
GRID,13830,0,354.05,0.0,-300.0,0
GRID,13831,0,354.05,0.0,-270.0,0
GRID,13832,0,354.05,0.0,-240.0,0
GRID,13833,0,354.05,0.0,-210.0,0
GRID,13834,0,354.05,0.0,-180.0,0
GRID,13835,0,354.05,0.0,-150.0,0
GRID,13836,0,354.05,0.0,-120.0,0
GRID,13837,0,354.05,0.0,-90.0,0
GRID,13838,0,354.05,0.0,-60.0,0
GRID,13839,0,354.05,0.0,-30.0,0
GRID,13840,0,355.8517,0.0,-1020.0,0
GRID,13841,0,355.8517,0.0,-990.0,0
GRID,13842,0,355.8517,0.0,-960.0,0
GRID,13843,0,355.8517,0.0,-930.0,0
GRID,13844,0,355.8517,0.0,-900.0,0
GRID,13845,0,355.8517,0.0,-870.0,0
GRID,13846,0,355.8517,0.0,-840.0,0
GRID,13847,0,355.8517,0.0,-810.0,0
GRID,13848,0,355.8517,0.0,-780.0,0
GRID,13849,0,355.8517,0.0,-750.0,0
GRID,13850,0,355.8517,0.0,-720.0,0
GRID,13851,0,355.8517,0.0,-690.0,0
GRID,13852,0,355.8517,0.0,-660.0,0
GRID,13853,0,355.8517,0.0,-630.0,0
GRID,13854,0,355.8517,0.0,-600.0,0
GRID,13855,0,355.8517,0.0,-570.0,0
GRID,13856,0,355.8517,0.0,-540.0,0
GRID,13857,0,355.8517,0.0,-510.0,0
GRID,13858,0,355.8517,0.0,-480.0,0
GRID,13859,0,355.8517,0.0,-450.0,0
GRID,13860,0,355.8517,0.0,-420.0,0
GRID,13861,0,355.8517,0.0,-390.0,0
GRID,13862,0,355.8517,0.0,-360.0,0
GRID,13863,0,355.8517,0.0,-330.0,0
GRID,13864,0,355.8517,0.0,-300.0,0
GRID,13865,0,355.8517,0.0,-270.0,0
GRID,13866,0,355.8517,0.0,-240.0,0
GRID,13867,0,355.8517,0.0,-210.0,0
GRID,13868,0,355.8517,0.0,-180.0,0
GRID,13869,0,355.8517,0.0,-150.0,0
GRID,13870,0,355.8517,0.0,-120.0,0
GRID,13871,0,355.8517,0.0,-90.0,0
GRID,13872,0,355.8517,0.0,-60.0,0
GRID,13873,0,355.8517,0.0,-30.0,0
GRID,13874,0,357.6533,0.0,-1020.0,0
GRID,13875,0,357.6533,0.0,-990.0,0
GRID,13876,0,357.6533,0.0,-960.0,0
GRID,13877,0,357.6533,0.0,-930.0,0
GRID,13878,0,357.6533,0.0,-900.0,0
GRID,13879,0,357.6533,0.0,-870.0,0
GRID,13880,0,357.6533,0.0,-840.0,0
GRID,13881,0,357.6533,0.0,-810.0,0
GRID,13882,0,357.6533,0.0,-780.0,0
GRID,13883,0,357.6533,0.0,-750.0,0
GRID,13884,0,357.6533,0.0,-720.0,0
GRID,13885,0,357.6533,0.0,-690.0,0
GRID,13886,0,357.6533,0.0,-660.0,0
GRID,13887,0,357.6533,0.0,-630.0,0
GRID,13888,0,357.6533,0.0,-600.0,0
GRID,13889,0,357.6533,0.0,-570.0,0
GRID,13890,0,357.6533,0.0,-540.0,0
GRID,13891,0,357.6533,0.0,-510.0,0
GRID,13892,0,357.6533,0.0,-480.0,0
GRID,13893,0,357.6533,0.0,-450.0,0
GRID,13894,0,357.6533,0.0,-420.0,0
GRID,13895,0,357.6533,0.0,-390.0,0
GRID,13896,0,357.6533,0.0,-360.0,0
GRID,13897,0,357.6533,0.0,-330.0,0
GRID,13898,0,357.6533,0.0,-300.0,0
GRID,13899,0,357.6533,0.0,-270.0,0
GRID,13900,0,357.6533,0.0,-240.0,0
GRID,13901,0,357.6533,0.0,-210.0,0
GRID,13902,0,357.6533,0.0,-180.0,0
GRID,13903,0,357.6533,0.0,-150.0,0
GRID,13904,0,357.6533,0.0,-120.0,0
GRID,13905,0,357.6533,0.0,-90.0,0
GRID,13906,0,357.6533,0.0,-60.0,0
GRID,13907,0,357.6533,0.0,-30.0,0
GRID,13908,0,359.455,0.0,-1020.0,0
GRID,13909,0,359.455,0.0,-990.0,0
GRID,13910,0,359.455,0.0,-960.0,0
GRID,13911,0,359.455,0.0,-930.0,0
GRID,13912,0,359.455,0.0,-900.0,0
GRID,13913,0,359.455,0.0,-870.0,0
GRID,13914,0,359.455,0.0,-840.0,0
GRID,13915,0,359.455,0.0,-810.0,0
GRID,13916,0,359.455,0.0,-780.0,0
GRID,13917,0,359.455,0.0,-750.0,0
GRID,13918,0,359.455,0.0,-720.0,0
GRID,13919,0,359.455,0.0,-690.0,0
GRID,13920,0,359.455,0.0,-660.0,0
GRID,13921,0,359.455,0.0,-630.0,0
GRID,13922,0,359.455,0.0,-600.0,0
GRID,13923,0,359.455,0.0,-570.0,0
GRID,13924,0,359.455,0.0,-540.0,0
GRID,13925,0,359.455,0.0,-510.0,0
GRID,13926,0,359.455,0.0,-480.0,0
GRID,13927,0,359.455,0.0,-450.0,0
GRID,13928,0,359.455,0.0,-420.0,0
GRID,13929,0,359.455,0.0,-390.0,0
GRID,13930,0,359.455,0.0,-360.0,0
GRID,13931,0,359.455,0.0,-330.0,0
GRID,13932,0,359.455,0.0,-300.0,0
GRID,13933,0,359.455,0.0,-270.0,0
GRID,13934,0,359.455,0.0,-240.0,0
GRID,13935,0,359.455,0.0,-210.0,0
GRID,13936,0,359.455,0.0,-180.0,0
GRID,13937,0,359.455,0.0,-150.0,0
GRID,13938,0,359.455,0.0,-120.0,0
GRID,13939,0,359.455,0.0,-90.0,0
GRID,13940,0,359.455,0.0,-60.0,0
GRID,13941,0,359.455,0.0,-30.0,0
GRID,13942,0,361.2567,0.0,-1020.0,0
GRID,13943,0,361.2567,0.0,-990.0,0
GRID,13944,0,361.2567,0.0,-960.0,0
GRID,13945,0,361.2567,0.0,-930.0,0
GRID,13946,0,361.2567,0.0,-900.0,0
GRID,13947,0,361.2567,0.0,-870.0,0
GRID,13948,0,361.2567,0.0,-840.0,0
GRID,13949,0,361.2567,0.0,-810.0,0
GRID,13950,0,361.2567,0.0,-780.0,0
GRID,13951,0,361.2567,0.0,-750.0,0
GRID,13952,0,361.2567,0.0,-720.0,0
GRID,13953,0,361.2567,0.0,-690.0,0
GRID,13954,0,361.2567,0.0,-660.0,0
GRID,13955,0,361.2567,0.0,-630.0,0
GRID,13956,0,361.2567,0.0,-600.0,0
GRID,13957,0,361.2567,0.0,-570.0,0
GRID,13958,0,361.2567,0.0,-540.0,0
GRID,13959,0,361.2567,0.0,-510.0,0
GRID,13960,0,361.2567,0.0,-480.0,0
GRID,13961,0,361.2567,0.0,-450.0,0
GRID,13962,0,361.2567,0.0,-420.0,0
GRID,13963,0,361.2567,0.0,-390.0,0
GRID,13964,0,361.2567,0.0,-360.0,0
GRID,13965,0,361.2567,0.0,-330.0,0
GRID,13966,0,361.2567,0.0,-300.0,0
GRID,13967,0,361.2567,0.0,-270.0,0
GRID,13968,0,361.2567,0.0,-240.0,0
GRID,13969,0,361.2567,0.0,-210.0,0
GRID,13970,0,361.2567,0.0,-180.0,0
GRID,13971,0,361.2567,0.0,-150.0,0
GRID,13972,0,361.2567,0.0,-120.0,0
GRID,13973,0,361.2567,0.0,-90.0,0
GRID,13974,0,361.2567,0.0,-60.0,0
GRID,13975,0,361.2567,0.0,-30.0,0
GRID,13976,0,363.0583,0.0,-1020.0,0
GRID,13977,0,363.0583,0.0,-990.0,0
GRID,13978,0,363.0583,0.0,-960.0,0
GRID,13979,0,363.0583,0.0,-930.0,0
GRID,13980,0,363.0583,0.0,-900.0,0
GRID,13981,0,363.0583,0.0,-870.0,0
GRID,13982,0,363.0583,0.0,-840.0,0
GRID,13983,0,363.0583,0.0,-810.0,0
GRID,13984,0,363.0583,0.0,-780.0,0
GRID,13985,0,363.0583,0.0,-750.0,0
GRID,13986,0,363.0583,0.0,-720.0,0
GRID,13987,0,363.0583,0.0,-690.0,0
GRID,13988,0,363.0583,0.0,-660.0,0
GRID,13989,0,363.0583,0.0,-630.0,0
GRID,13990,0,363.0583,0.0,-600.0,0
GRID,13991,0,363.0583,0.0,-570.0,0
GRID,13992,0,363.0583,0.0,-540.0,0
GRID,13993,0,363.0583,0.0,-510.0,0
GRID,13994,0,363.0583,0.0,-480.0,0
GRID,13995,0,363.0583,0.0,-450.0,0
GRID,13996,0,363.0583,0.0,-420.0,0
GRID,13997,0,363.0583,0.0,-390.0,0
GRID,13998,0,363.0583,0.0,-360.0,0
GRID,13999,0,363.0583,0.0,-330.0,0
GRID,14000,0,363.0583,0.0,-300.0,0
GRID,14001,0,363.0583,0.0,-270.0,0
GRID,14002,0,363.0583,0.0,-240.0,0
GRID,14003,0,363.0583,0.0,-210.0,0
GRID,14004,0,363.0583,0.0,-180.0,0
GRID,14005,0,363.0583,0.0,-150.0,0
GRID,14006,0,363.0583,0.0,-120.0,0
GRID,14007,0,363.0583,0.0,-90.0,0
GRID,14008,0,363.0583,0.0,-60.0,0
GRID,14009,0,363.0583,0.0,-30.0,0
GRID,14010,0,364.86,0.0,-1020.0,0
GRID,14011,0,364.86,0.0,-990.0,0
GRID,14012,0,364.86,0.0,-960.0,0
GRID,14013,0,364.86,0.0,-930.0,0
GRID,14014,0,364.86,0.0,-900.0,0
GRID,14015,0,364.86,0.0,-870.0,0
GRID,14016,0,364.86,0.0,-840.0,0
GRID,14017,0,364.86,0.0,-810.0,0
GRID,14018,0,364.86,0.0,-780.0,0
GRID,14019,0,364.86,0.0,-750.0,0
GRID,14020,0,364.86,0.0,-720.0,0
GRID,14021,0,364.86,0.0,-690.0,0
GRID,14022,0,364.86,0.0,-660.0,0
GRID,14023,0,364.86,0.0,-630.0,0
GRID,14024,0,364.86,0.0,-600.0,0
GRID,14025,0,364.86,0.0,-570.0,0
GRID,14026,0,364.86,0.0,-540.0,0
GRID,14027,0,364.86,0.0,-510.0,0
GRID,14028,0,364.86,0.0,-480.0,0
GRID,14029,0,364.86,0.0,-450.0,0
GRID,14030,0,364.86,0.0,-420.0,0
GRID,14031,0,364.86,0.0,-390.0,0
GRID,14032,0,364.86,0.0,-360.0,0
GRID,14033,0,364.86,0.0,-330.0,0
GRID,14034,0,364.86,0.0,-300.0,0
GRID,14035,0,364.86,0.0,-270.0,0
GRID,14036,0,364.86,0.0,-240.0,0
GRID,14037,0,364.86,0.0,-210.0,0
GRID,14038,0,364.86,0.0,-180.0,0
GRID,14039,0,364.86,0.0,-150.0,0
GRID,14040,0,364.86,0.0,-120.0,0
GRID,14041,0,364.86,0.0,-90.0,0
GRID,14042,0,364.86,0.0,-60.0,0
GRID,14043,0,364.86,0.0,-30.0,0
GRID,14044,0,366.6617,0.0,-1020.0,0
GRID,14045,0,366.6617,0.0,-990.0,0
GRID,14046,0,366.6617,0.0,-960.0,0
GRID,14047,0,366.6617,0.0,-930.0,0
GRID,14048,0,366.6617,0.0,-900.0,0
GRID,14049,0,366.6617,0.0,-870.0,0
GRID,14050,0,366.6617,0.0,-840.0,0
GRID,14051,0,366.6617,0.0,-810.0,0
GRID,14052,0,366.6617,0.0,-780.0,0
GRID,14053,0,366.6617,0.0,-750.0,0
GRID,14054,0,366.6617,0.0,-720.0,0
GRID,14055,0,366.6617,0.0,-690.0,0
GRID,14056,0,366.6617,0.0,-660.0,0
GRID,14057,0,366.6617,0.0,-630.0,0
GRID,14058,0,366.6617,0.0,-600.0,0
GRID,14059,0,366.6617,0.0,-570.0,0
GRID,14060,0,366.6617,0.0,-540.0,0
GRID,14061,0,366.6617,0.0,-510.0,0
GRID,14062,0,366.6617,0.0,-480.0,0
GRID,14063,0,366.6617,0.0,-450.0,0
GRID,14064,0,366.6617,0.0,-420.0,0
GRID,14065,0,366.6617,0.0,-390.0,0
GRID,14066,0,366.6617,0.0,-360.0,0
GRID,14067,0,366.6617,0.0,-330.0,0
GRID,14068,0,366.6617,0.0,-300.0,0
GRID,14069,0,366.6617,0.0,-270.0,0
GRID,14070,0,366.6617,0.0,-240.0,0
GRID,14071,0,366.6617,0.0,-210.0,0
GRID,14072,0,366.6617,0.0,-180.0,0
GRID,14073,0,366.6617,0.0,-150.0,0
GRID,14074,0,366.6617,0.0,-120.0,0
GRID,14075,0,366.6617,0.0,-90.0,0
GRID,14076,0,366.6617,0.0,-60.0,0
GRID,14077,0,366.6617,0.0,-30.0,0
GRID,14078,0,368.4633,0.0,-1020.0,0
GRID,14079,0,368.4633,0.0,-990.0,0
GRID,14080,0,368.4633,0.0,-960.0,0
GRID,14081,0,368.4633,0.0,-930.0,0
GRID,14082,0,368.4633,0.0,-900.0,0
GRID,14083,0,368.4633,0.0,-870.0,0
GRID,14084,0,368.4633,0.0,-840.0,0
GRID,14085,0,368.4633,0.0,-810.0,0
GRID,14086,0,368.4633,0.0,-780.0,0
GRID,14087,0,368.4633,0.0,-750.0,0
GRID,14088,0,368.4633,0.0,-720.0,0
GRID,14089,0,368.4633,0.0,-690.0,0
GRID,14090,0,368.4633,0.0,-660.0,0
GRID,14091,0,368.4633,0.0,-630.0,0
GRID,14092,0,368.4633,0.0,-600.0,0
GRID,14093,0,368.4633,0.0,-570.0,0
GRID,14094,0,368.4633,0.0,-540.0,0
GRID,14095,0,368.4633,0.0,-510.0,0
GRID,14096,0,368.4633,0.0,-480.0,0
GRID,14097,0,368.4633,0.0,-450.0,0
GRID,14098,0,368.4633,0.0,-420.0,0
GRID,14099,0,368.4633,0.0,-390.0,0
GRID,14100,0,368.4633,0.0,-360.0,0
GRID,14101,0,368.4633,0.0,-330.0,0
GRID,14102,0,368.4633,0.0,-300.0,0
GRID,14103,0,368.4633,0.0,-270.0,0
GRID,14104,0,368.4633,0.0,-240.0,0
GRID,14105,0,368.4633,0.0,-210.0,0
GRID,14106,0,368.4633,0.0,-180.0,0
GRID,14107,0,368.4633,0.0,-150.0,0
GRID,14108,0,368.4633,0.0,-120.0,0
GRID,14109,0,368.4633,0.0,-90.0,0
GRID,14110,0,368.4633,0.0,-60.0,0
GRID,14111,0,368.4633,0.0,-30.0,0
GRID,14112,0,370.265,0.0,-1020.0,0
GRID,14113,0,370.265,0.0,-990.0,0
GRID,14114,0,370.265,0.0,-960.0,0
GRID,14115,0,370.265,0.0,-930.0,0
GRID,14116,0,370.265,0.0,-900.0,0
GRID,14117,0,370.265,0.0,-870.0,0
GRID,14118,0,370.265,0.0,-840.0,0
GRID,14119,0,370.265,0.0,-810.0,0
GRID,14120,0,370.265,0.0,-780.0,0
GRID,14121,0,370.265,0.0,-750.0,0
GRID,14122,0,370.265,0.0,-720.0,0
GRID,14123,0,370.265,0.0,-690.0,0
GRID,14124,0,370.265,0.0,-660.0,0
GRID,14125,0,370.265,0.0,-630.0,0
GRID,14126,0,370.265,0.0,-600.0,0
GRID,14127,0,370.265,0.0,-570.0,0
GRID,14128,0,370.265,0.0,-540.0,0
GRID,14129,0,370.265,0.0,-510.0,0
GRID,14130,0,370.265,0.0,-480.0,0
GRID,14131,0,370.265,0.0,-450.0,0
GRID,14132,0,370.265,0.0,-420.0,0
GRID,14133,0,370.265,0.0,-390.0,0
GRID,14134,0,370.265,0.0,-360.0,0
GRID,14135,0,370.265,0.0,-330.0,0
GRID,14136,0,370.265,0.0,-300.0,0
GRID,14137,0,370.265,0.0,-270.0,0
GRID,14138,0,370.265,0.0,-240.0,0
GRID,14139,0,370.265,0.0,-210.0,0
GRID,14140,0,370.265,0.0,-180.0,0
GRID,14141,0,370.265,0.0,-150.0,0
GRID,14142,0,370.265,0.0,-120.0,0
GRID,14143,0,370.265,0.0,-90.0,0
GRID,14144,0,370.265,0.0,-60.0,0
GRID,14145,0,370.265,0.0,-30.0,0
GRID,14146,0,372.0667,0.0,-1020.0,0
GRID,14147,0,372.0667,0.0,-990.0,0
GRID,14148,0,372.0667,0.0,-960.0,0
GRID,14149,0,372.0667,0.0,-930.0,0
GRID,14150,0,372.0667,0.0,-900.0,0
GRID,14151,0,372.0667,0.0,-870.0,0
GRID,14152,0,372.0667,0.0,-840.0,0
GRID,14153,0,372.0667,0.0,-810.0,0
GRID,14154,0,372.0667,0.0,-780.0,0
GRID,14155,0,372.0667,0.0,-750.0,0
GRID,14156,0,372.0667,0.0,-720.0,0
GRID,14157,0,372.0667,0.0,-690.0,0
GRID,14158,0,372.0667,0.0,-660.0,0
GRID,14159,0,372.0667,0.0,-630.0,0
GRID,14160,0,372.0667,0.0,-600.0,0
GRID,14161,0,372.0667,0.0,-570.0,0
GRID,14162,0,372.0667,0.0,-540.0,0
GRID,14163,0,372.0667,0.0,-510.0,0
GRID,14164,0,372.0667,0.0,-480.0,0
GRID,14165,0,372.0667,0.0,-450.0,0
GRID,14166,0,372.0667,0.0,-420.0,0
GRID,14167,0,372.0667,0.0,-390.0,0
GRID,14168,0,372.0667,0.0,-360.0,0
GRID,14169,0,372.0667,0.0,-330.0,0
GRID,14170,0,372.0667,0.0,-300.0,0
GRID,14171,0,372.0667,0.0,-270.0,0
GRID,14172,0,372.0667,0.0,-240.0,0
GRID,14173,0,372.0667,0.0,-210.0,0
GRID,14174,0,372.0667,0.0,-180.0,0
GRID,14175,0,372.0667,0.0,-150.0,0
GRID,14176,0,372.0667,0.0,-120.0,0
GRID,14177,0,372.0667,0.0,-90.0,0
GRID,14178,0,372.0667,0.0,-60.0,0
GRID,14179,0,372.0667,0.0,-30.0,0
GRID,14180,0,373.8683,0.0,-1020.0,0
GRID,14181,0,373.8683,0.0,-990.0,0
GRID,14182,0,373.8683,0.0,-960.0,0
GRID,14183,0,373.8683,0.0,-930.0,0
GRID,14184,0,373.8683,0.0,-900.0,0
GRID,14185,0,373.8683,0.0,-870.0,0
GRID,14186,0,373.8683,0.0,-840.0,0
GRID,14187,0,373.8683,0.0,-810.0,0
GRID,14188,0,373.8683,0.0,-780.0,0
GRID,14189,0,373.8683,0.0,-750.0,0
GRID,14190,0,373.8683,0.0,-720.0,0
GRID,14191,0,373.8683,0.0,-690.0,0
GRID,14192,0,373.8683,0.0,-660.0,0
GRID,14193,0,373.8683,0.0,-630.0,0
GRID,14194,0,373.8683,0.0,-600.0,0
GRID,14195,0,373.8683,0.0,-570.0,0
GRID,14196,0,373.8683,0.0,-540.0,0
GRID,14197,0,373.8683,0.0,-510.0,0
GRID,14198,0,373.8683,0.0,-480.0,0
GRID,14199,0,373.8683,0.0,-450.0,0
GRID,14200,0,373.8683,0.0,-420.0,0
GRID,14201,0,373.8683,0.0,-390.0,0
GRID,14202,0,373.8683,0.0,-360.0,0
GRID,14203,0,373.8683,0.0,-330.0,0
GRID,14204,0,373.8683,0.0,-300.0,0
GRID,14205,0,373.8683,0.0,-270.0,0
GRID,14206,0,373.8683,0.0,-240.0,0
GRID,14207,0,373.8683,0.0,-210.0,0
GRID,14208,0,373.8683,0.0,-180.0,0
GRID,14209,0,373.8683,0.0,-150.0,0
GRID,14210,0,373.8683,0.0,-120.0,0
GRID,14211,0,373.8683,0.0,-90.0,0
GRID,14212,0,373.8683,0.0,-60.0,0
GRID,14213,0,373.8683,0.0,-30.0,0
GRID,14214,0,375.67,0.0,-1020.0,0
GRID,14215,0,375.67,0.0,-990.0,0
GRID,14216,0,375.67,0.0,-960.0,0
GRID,14217,0,375.67,0.0,-930.0,0
GRID,14218,0,375.67,0.0,-900.0,0
GRID,14219,0,375.67,0.0,-870.0,0
GRID,14220,0,375.67,0.0,-840.0,0
GRID,14221,0,375.67,0.0,-810.0,0
GRID,14222,0,375.67,0.0,-780.0,0
GRID,14223,0,375.67,0.0,-750.0,0
GRID,14224,0,375.67,0.0,-720.0,0
GRID,14225,0,375.67,0.0,-690.0,0
GRID,14226,0,375.67,0.0,-660.0,0
GRID,14227,0,375.67,0.0,-630.0,0
GRID,14228,0,375.67,0.0,-600.0,0
GRID,14229,0,375.67,0.0,-570.0,0
GRID,14230,0,375.67,0.0,-540.0,0
GRID,14231,0,375.67,0.0,-510.0,0
GRID,14232,0,375.67,0.0,-480.0,0
GRID,14233,0,375.67,0.0,-450.0,0
GRID,14234,0,375.67,0.0,-420.0,0
GRID,14235,0,375.67,0.0,-390.0,0
GRID,14236,0,375.67,0.0,-360.0,0
GRID,14237,0,375.67,0.0,-330.0,0
GRID,14238,0,375.67,0.0,-300.0,0
GRID,14239,0,375.67,0.0,-270.0,0
GRID,14240,0,375.67,0.0,-240.0,0
GRID,14241,0,375.67,0.0,-210.0,0
GRID,14242,0,375.67,0.0,-180.0,0
GRID,14243,0,375.67,0.0,-150.0,0
GRID,14244,0,375.67,0.0,-120.0,0
GRID,14245,0,375.67,0.0,-90.0,0
GRID,14246,0,375.67,0.0,-60.0,0
GRID,14247,0,375.67,0.0,-30.0,0
GRID,14248,0,377.4717,0.0,-1020.0,0
GRID,14249,0,377.4717,0.0,-990.0,0
GRID,14250,0,377.4717,0.0,-960.0,0
GRID,14251,0,377.4717,0.0,-930.0,0
GRID,14252,0,377.4717,0.0,-900.0,0
GRID,14253,0,377.4717,0.0,-870.0,0
GRID,14254,0,377.4717,0.0,-840.0,0
GRID,14255,0,377.4717,0.0,-810.0,0
GRID,14256,0,377.4717,0.0,-780.0,0
GRID,14257,0,377.4717,0.0,-750.0,0
GRID,14258,0,377.4717,0.0,-720.0,0
GRID,14259,0,377.4717,0.0,-690.0,0
GRID,14260,0,377.4717,0.0,-660.0,0
GRID,14261,0,377.4717,0.0,-630.0,0
GRID,14262,0,377.4717,0.0,-600.0,0
GRID,14263,0,377.4717,0.0,-570.0,0
GRID,14264,0,377.4717,0.0,-540.0,0
GRID,14265,0,377.4717,0.0,-510.0,0
GRID,14266,0,377.4717,0.0,-480.0,0
GRID,14267,0,377.4717,0.0,-450.0,0
GRID,14268,0,377.4717,0.0,-420.0,0
GRID,14269,0,377.4717,0.0,-390.0,0
GRID,14270,0,377.4717,0.0,-360.0,0
GRID,14271,0,377.4717,0.0,-330.0,0
GRID,14272,0,377.4717,0.0,-300.0,0
GRID,14273,0,377.4717,0.0,-270.0,0
GRID,14274,0,377.4717,0.0,-240.0,0
GRID,14275,0,377.4717,0.0,-210.0,0
GRID,14276,0,377.4717,0.0,-180.0,0
GRID,14277,0,377.4717,0.0,-150.0,0
GRID,14278,0,377.4717,0.0,-120.0,0
GRID,14279,0,377.4717,0.0,-90.0,0
GRID,14280,0,377.4717,0.0,-60.0,0
GRID,14281,0,377.4717,0.0,-30.0,0
GRID,14282,0,379.2733,0.0,-1020.0,0
GRID,14283,0,379.2733,0.0,-990.0,0
GRID,14284,0,379.2733,0.0,-960.0,0
GRID,14285,0,379.2733,0.0,-930.0,0
GRID,14286,0,379.2733,0.0,-900.0,0
GRID,14287,0,379.2733,0.0,-870.0,0
GRID,14288,0,379.2733,0.0,-840.0,0
GRID,14289,0,379.2733,0.0,-810.0,0
GRID,14290,0,379.2733,0.0,-780.0,0
GRID,14291,0,379.2733,0.0,-750.0,0
GRID,14292,0,379.2733,0.0,-720.0,0
GRID,14293,0,379.2733,0.0,-690.0,0
GRID,14294,0,379.2733,0.0,-660.0,0
GRID,14295,0,379.2733,0.0,-630.0,0
GRID,14296,0,379.2733,0.0,-600.0,0
GRID,14297,0,379.2733,0.0,-570.0,0
GRID,14298,0,379.2733,0.0,-540.0,0
GRID,14299,0,379.2733,0.0,-510.0,0
GRID,14300,0,379.2733,0.0,-480.0,0
GRID,14301,0,379.2733,0.0,-450.0,0
GRID,14302,0,379.2733,0.0,-420.0,0
GRID,14303,0,379.2733,0.0,-390.0,0
GRID,14304,0,379.2733,0.0,-360.0,0
GRID,14305,0,379.2733,0.0,-330.0,0
GRID,14306,0,379.2733,0.0,-300.0,0
GRID,14307,0,379.2733,0.0,-270.0,0
GRID,14308,0,379.2733,0.0,-240.0,0
GRID,14309,0,379.2733,0.0,-210.0,0
GRID,14310,0,379.2733,0.0,-180.0,0
GRID,14311,0,379.2733,0.0,-150.0,0
GRID,14312,0,379.2733,0.0,-120.0,0
GRID,14313,0,379.2733,0.0,-90.0,0
GRID,14314,0,379.2733,0.0,-60.0,0
GRID,14315,0,379.2733,0.0,-30.0,0
GRID,14316,0,381.075,0.0,-1020.0,0
GRID,14317,0,381.075,0.0,-990.0,0
GRID,14318,0,381.075,0.0,-960.0,0
GRID,14319,0,381.075,0.0,-930.0,0
GRID,14320,0,381.075,0.0,-900.0,0
GRID,14321,0,381.075,0.0,-870.0,0
GRID,14322,0,381.075,0.0,-840.0,0
GRID,14323,0,381.075,0.0,-810.0,0
GRID,14324,0,381.075,0.0,-780.0,0
GRID,14325,0,381.075,0.0,-750.0,0
GRID,14326,0,381.075,0.0,-720.0,0
GRID,14327,0,381.075,0.0,-690.0,0
GRID,14328,0,381.075,0.0,-660.0,0
GRID,14329,0,381.075,0.0,-630.0,0
GRID,14330,0,381.075,0.0,-600.0,0
GRID,14331,0,381.075,0.0,-570.0,0
GRID,14332,0,381.075,0.0,-540.0,0
GRID,14333,0,381.075,0.0,-510.0,0
GRID,14334,0,381.075,0.0,-480.0,0
GRID,14335,0,381.075,0.0,-450.0,0
GRID,14336,0,381.075,0.0,-420.0,0
GRID,14337,0,381.075,0.0,-390.0,0
GRID,14338,0,381.075,0.0,-360.0,0
GRID,14339,0,381.075,0.0,-330.0,0
GRID,14340,0,381.075,0.0,-300.0,0
GRID,14341,0,381.075,0.0,-270.0,0
GRID,14342,0,381.075,0.0,-240.0,0
GRID,14343,0,381.075,0.0,-210.0,0
GRID,14344,0,381.075,0.0,-180.0,0
GRID,14345,0,381.075,0.0,-150.0,0
GRID,14346,0,381.075,0.0,-120.0,0
GRID,14347,0,381.075,0.0,-90.0,0
GRID,14348,0,381.075,0.0,-60.0,0
GRID,14349,0,381.075,0.0,-30.0,0
GRID,14350,0,382.8767,0.0,-1020.0,0
GRID,14351,0,382.8767,0.0,-990.0,0
GRID,14352,0,382.8767,0.0,-960.0,0
GRID,14353,0,382.8767,0.0,-930.0,0
GRID,14354,0,382.8767,0.0,-900.0,0
GRID,14355,0,382.8767,0.0,-870.0,0
GRID,14356,0,382.8767,0.0,-840.0,0
GRID,14357,0,382.8767,0.0,-810.0,0
GRID,14358,0,382.8767,0.0,-780.0,0
GRID,14359,0,382.8767,0.0,-750.0,0
GRID,14360,0,382.8767,0.0,-720.0,0
GRID,14361,0,382.8767,0.0,-690.0,0
GRID,14362,0,382.8767,0.0,-660.0,0
GRID,14363,0,382.8767,0.0,-630.0,0
GRID,14364,0,382.8767,0.0,-600.0,0
GRID,14365,0,382.8767,0.0,-570.0,0
GRID,14366,0,382.8767,0.0,-540.0,0
GRID,14367,0,382.8767,0.0,-510.0,0
GRID,14368,0,382.8767,0.0,-480.0,0
GRID,14369,0,382.8767,0.0,-450.0,0
GRID,14370,0,382.8767,0.0,-420.0,0
GRID,14371,0,382.8767,0.0,-390.0,0
GRID,14372,0,382.8767,0.0,-360.0,0
GRID,14373,0,382.8767,0.0,-330.0,0
GRID,14374,0,382.8767,0.0,-300.0,0
GRID,14375,0,382.8767,0.0,-270.0,0
GRID,14376,0,382.8767,0.0,-240.0,0
GRID,14377,0,382.8767,0.0,-210.0,0
GRID,14378,0,382.8767,0.0,-180.0,0
GRID,14379,0,382.8767,0.0,-150.0,0
GRID,14380,0,382.8767,0.0,-120.0,0
GRID,14381,0,382.8767,0.0,-90.0,0
GRID,14382,0,382.8767,0.0,-60.0,0
GRID,14383,0,382.8767,0.0,-30.0,0
GRID,14384,0,384.6783,0.0,-1020.0,0
GRID,14385,0,384.6783,0.0,-990.0,0
GRID,14386,0,384.6783,0.0,-960.0,0
GRID,14387,0,384.6783,0.0,-930.0,0
GRID,14388,0,384.6783,0.0,-900.0,0
GRID,14389,0,384.6783,0.0,-870.0,0
GRID,14390,0,384.6783,0.0,-840.0,0
GRID,14391,0,384.6783,0.0,-810.0,0
GRID,14392,0,384.6783,0.0,-780.0,0
GRID,14393,0,384.6783,0.0,-750.0,0
GRID,14394,0,384.6783,0.0,-720.0,0
GRID,14395,0,384.6783,0.0,-690.0,0
GRID,14396,0,384.6783,0.0,-660.0,0
GRID,14397,0,384.6783,0.0,-630.0,0
GRID,14398,0,384.6783,0.0,-600.0,0
GRID,14399,0,384.6783,0.0,-570.0,0
GRID,14400,0,384.6783,0.0,-540.0,0
GRID,14401,0,384.6783,0.0,-510.0,0
GRID,14402,0,384.6783,0.0,-480.0,0
GRID,14403,0,384.6783,0.0,-450.0,0
GRID,14404,0,384.6783,0.0,-420.0,0
GRID,14405,0,384.6783,0.0,-390.0,0
GRID,14406,0,384.6783,0.0,-360.0,0
GRID,14407,0,384.6783,0.0,-330.0,0
GRID,14408,0,384.6783,0.0,-300.0,0
GRID,14409,0,384.6783,0.0,-270.0,0
GRID,14410,0,384.6783,0.0,-240.0,0
GRID,14411,0,384.6783,0.0,-210.0,0
GRID,14412,0,384.6783,0.0,-180.0,0
GRID,14413,0,384.6783,0.0,-150.0,0
GRID,14414,0,384.6783,0.0,-120.0,0
GRID,14415,0,384.6783,0.0,-90.0,0
GRID,14416,0,384.6783,0.0,-60.0,0
GRID,14417,0,384.6783,0.0,-30.0,0
GRID,14418,0,386.48,0.0,-1020.0,0
GRID,14419,0,386.48,0.0,-990.0,0
GRID,14420,0,386.48,0.0,-960.0,0
GRID,14421,0,386.48,0.0,-930.0,0
GRID,14422,0,386.48,0.0,-900.0,0
GRID,14423,0,386.48,0.0,-870.0,0
GRID,14424,0,386.48,0.0,-840.0,0
GRID,14425,0,386.48,0.0,-810.0,0
GRID,14426,0,386.48,0.0,-780.0,0
GRID,14427,0,386.48,0.0,-750.0,0
GRID,14428,0,386.48,0.0,-720.0,0
GRID,14429,0,386.48,0.0,-690.0,0
GRID,14430,0,386.48,0.0,-660.0,0
GRID,14431,0,386.48,0.0,-630.0,0
GRID,14432,0,386.48,0.0,-600.0,0
GRID,14433,0,386.48,0.0,-570.0,0
GRID,14434,0,386.48,0.0,-540.0,0
GRID,14435,0,386.48,0.0,-510.0,0
GRID,14436,0,386.48,0.0,-480.0,0
GRID,14437,0,386.48,0.0,-450.0,0
GRID,14438,0,386.48,0.0,-420.0,0
GRID,14439,0,386.48,0.0,-390.0,0
GRID,14440,0,386.48,0.0,-360.0,0
GRID,14441,0,386.48,0.0,-330.0,0
GRID,14442,0,386.48,0.0,-300.0,0
GRID,14443,0,386.48,0.0,-270.0,0
GRID,14444,0,386.48,0.0,-240.0,0
GRID,14445,0,386.48,0.0,-210.0,0
GRID,14446,0,386.48,0.0,-180.0,0
GRID,14447,0,386.48,0.0,-150.0,0
GRID,14448,0,386.48,0.0,-120.0,0
GRID,14449,0,386.48,0.0,-90.0,0
GRID,14450,0,386.48,0.0,-60.0,0
GRID,14451,0,386.48,0.0,-30.0,0
GRID,14452,0,388.2817,0.0,-1020.0,0
GRID,14453,0,388.2817,0.0,-990.0,0
GRID,14454,0,388.2817,0.0,-960.0,0
GRID,14455,0,388.2817,0.0,-930.0,0
GRID,14456,0,388.2817,0.0,-900.0,0
GRID,14457,0,388.2817,0.0,-870.0,0
GRID,14458,0,388.2817,0.0,-840.0,0
GRID,14459,0,388.2817,0.0,-810.0,0
GRID,14460,0,388.2817,0.0,-780.0,0
GRID,14461,0,388.2817,0.0,-750.0,0
GRID,14462,0,388.2817,0.0,-720.0,0
GRID,14463,0,388.2817,0.0,-690.0,0
GRID,14464,0,388.2817,0.0,-660.0,0
GRID,14465,0,388.2817,0.0,-630.0,0
GRID,14466,0,388.2817,0.0,-600.0,0
GRID,14467,0,388.2817,0.0,-570.0,0
GRID,14468,0,388.2817,0.0,-540.0,0
GRID,14469,0,388.2817,0.0,-510.0,0
GRID,14470,0,388.2817,0.0,-480.0,0
GRID,14471,0,388.2817,0.0,-450.0,0
GRID,14472,0,388.2817,0.0,-420.0,0
GRID,14473,0,388.2817,0.0,-390.0,0
GRID,14474,0,388.2817,0.0,-360.0,0
GRID,14475,0,388.2817,0.0,-330.0,0
GRID,14476,0,388.2817,0.0,-300.0,0
GRID,14477,0,388.2817,0.0,-270.0,0
GRID,14478,0,388.2817,0.0,-240.0,0
GRID,14479,0,388.2817,0.0,-210.0,0
GRID,14480,0,388.2817,0.0,-180.0,0
GRID,14481,0,388.2817,0.0,-150.0,0
GRID,14482,0,388.2817,0.0,-120.0,0
GRID,14483,0,388.2817,0.0,-90.0,0
GRID,14484,0,388.2817,0.0,-60.0,0
GRID,14485,0,388.2817,0.0,-30.0,0
GRID,14486,0,390.0833,0.0,-1020.0,0
GRID,14487,0,390.0833,0.0,-990.0,0
GRID,14488,0,390.0833,0.0,-960.0,0
GRID,14489,0,390.0833,0.0,-930.0,0
GRID,14490,0,390.0833,0.0,-900.0,0
GRID,14491,0,390.0833,0.0,-870.0,0
GRID,14492,0,390.0833,0.0,-840.0,0
GRID,14493,0,390.0833,0.0,-810.0,0
GRID,14494,0,390.0833,0.0,-780.0,0
GRID,14495,0,390.0833,0.0,-750.0,0
GRID,14496,0,390.0833,0.0,-720.0,0
GRID,14497,0,390.0833,0.0,-690.0,0
GRID,14498,0,390.0833,0.0,-660.0,0
GRID,14499,0,390.0833,0.0,-630.0,0
GRID,14500,0,390.0833,0.0,-600.0,0
GRID,14501,0,390.0833,0.0,-570.0,0
GRID,14502,0,390.0833,0.0,-540.0,0
GRID,14503,0,390.0833,0.0,-510.0,0
GRID,14504,0,390.0833,0.0,-480.0,0
GRID,14505,0,390.0833,0.0,-450.0,0
GRID,14506,0,390.0833,0.0,-420.0,0
GRID,14507,0,390.0833,0.0,-390.0,0
GRID,14508,0,390.0833,0.0,-360.0,0
GRID,14509,0,390.0833,0.0,-330.0,0
GRID,14510,0,390.0833,0.0,-300.0,0
GRID,14511,0,390.0833,0.0,-270.0,0
GRID,14512,0,390.0833,0.0,-240.0,0
GRID,14513,0,390.0833,0.0,-210.0,0
GRID,14514,0,390.0833,0.0,-180.0,0
GRID,14515,0,390.0833,0.0,-150.0,0
GRID,14516,0,390.0833,0.0,-120.0,0
GRID,14517,0,390.0833,0.0,-90.0,0
GRID,14518,0,390.0833,0.0,-60.0,0
GRID,14519,0,390.0833,0.0,-30.0,0
GRID,14520,0,391.885,0.0,-1020.0,0
GRID,14521,0,391.885,0.0,-990.0,0
GRID,14522,0,391.885,0.0,-960.0,0
GRID,14523,0,391.885,0.0,-930.0,0
GRID,14524,0,391.885,0.0,-900.0,0
GRID,14525,0,391.885,0.0,-870.0,0
GRID,14526,0,391.885,0.0,-840.0,0
GRID,14527,0,391.885,0.0,-810.0,0
GRID,14528,0,391.885,0.0,-780.0,0
GRID,14529,0,391.885,0.0,-750.0,0
GRID,14530,0,391.885,0.0,-720.0,0
GRID,14531,0,391.885,0.0,-690.0,0
GRID,14532,0,391.885,0.0,-660.0,0
GRID,14533,0,391.885,0.0,-630.0,0
GRID,14534,0,391.885,0.0,-600.0,0
GRID,14535,0,391.885,0.0,-570.0,0
GRID,14536,0,391.885,0.0,-540.0,0
GRID,14537,0,391.885,0.0,-510.0,0
GRID,14538,0,391.885,0.0,-480.0,0
GRID,14539,0,391.885,0.0,-450.0,0
GRID,14540,0,391.885,0.0,-420.0,0
GRID,14541,0,391.885,0.0,-390.0,0
GRID,14542,0,391.885,0.0,-360.0,0
GRID,14543,0,391.885,0.0,-330.0,0
GRID,14544,0,391.885,0.0,-300.0,0
GRID,14545,0,391.885,0.0,-270.0,0
GRID,14546,0,391.885,0.0,-240.0,0
GRID,14547,0,391.885,0.0,-210.0,0
GRID,14548,0,391.885,0.0,-180.0,0
GRID,14549,0,391.885,0.0,-150.0,0
GRID,14550,0,391.885,0.0,-120.0,0
GRID,14551,0,391.885,0.0,-90.0,0
GRID,14552,0,391.885,0.0,-60.0,0
GRID,14553,0,391.885,0.0,-30.0,0
GRID,14554,0,393.6867,0.0,-1020.0,0
GRID,14555,0,393.6867,0.0,-990.0,0
GRID,14556,0,393.6867,0.0,-960.0,0
GRID,14557,0,393.6867,0.0,-930.0,0
GRID,14558,0,393.6867,0.0,-900.0,0
GRID,14559,0,393.6867,0.0,-870.0,0
GRID,14560,0,393.6867,0.0,-840.0,0
GRID,14561,0,393.6867,0.0,-810.0,0
GRID,14562,0,393.6867,0.0,-780.0,0
GRID,14563,0,393.6867,0.0,-750.0,0
GRID,14564,0,393.6867,0.0,-720.0,0
GRID,14565,0,393.6867,0.0,-690.0,0
GRID,14566,0,393.6867,0.0,-660.0,0
GRID,14567,0,393.6867,0.0,-630.0,0
GRID,14568,0,393.6867,0.0,-600.0,0
GRID,14569,0,393.6867,0.0,-570.0,0
GRID,14570,0,393.6867,0.0,-540.0,0
GRID,14571,0,393.6867,0.0,-510.0,0
GRID,14572,0,393.6867,0.0,-480.0,0
GRID,14573,0,393.6867,0.0,-450.0,0
GRID,14574,0,393.6867,0.0,-420.0,0
GRID,14575,0,393.6867,0.0,-390.0,0
GRID,14576,0,393.6867,0.0,-360.0,0
GRID,14577,0,393.6867,0.0,-330.0,0
GRID,14578,0,393.6867,0.0,-300.0,0
GRID,14579,0,393.6867,0.0,-270.0,0
GRID,14580,0,393.6867,0.0,-240.0,0
GRID,14581,0,393.6867,0.0,-210.0,0
GRID,14582,0,393.6867,0.0,-180.0,0
GRID,14583,0,393.6867,0.0,-150.0,0
GRID,14584,0,393.6867,0.0,-120.0,0
GRID,14585,0,393.6867,0.0,-90.0,0
GRID,14586,0,393.6867,0.0,-60.0,0
GRID,14587,0,393.6867,0.0,-30.0,0
GRID,14588,0,395.4883,0.0,-1020.0,0
GRID,14589,0,395.4883,0.0,-990.0,0
GRID,14590,0,395.4883,0.0,-960.0,0
GRID,14591,0,395.4883,0.0,-930.0,0
GRID,14592,0,395.4883,0.0,-900.0,0
GRID,14593,0,395.4883,0.0,-870.0,0
GRID,14594,0,395.4883,0.0,-840.0,0
GRID,14595,0,395.4883,0.0,-810.0,0
GRID,14596,0,395.4883,0.0,-780.0,0
GRID,14597,0,395.4883,0.0,-750.0,0
GRID,14598,0,395.4883,0.0,-720.0,0
GRID,14599,0,395.4883,0.0,-690.0,0
GRID,14600,0,395.4883,0.0,-660.0,0
GRID,14601,0,395.4883,0.0,-630.0,0
GRID,14602,0,395.4883,0.0,-600.0,0
GRID,14603,0,395.4883,0.0,-570.0,0
GRID,14604,0,395.4883,0.0,-540.0,0
GRID,14605,0,395.4883,0.0,-510.0,0
GRID,14606,0,395.4883,0.0,-480.0,0
GRID,14607,0,395.4883,0.0,-450.0,0
GRID,14608,0,395.4883,0.0,-420.0,0
GRID,14609,0,395.4883,0.0,-390.0,0
GRID,14610,0,395.4883,0.0,-360.0,0
GRID,14611,0,395.4883,0.0,-330.0,0
GRID,14612,0,395.4883,0.0,-300.0,0
GRID,14613,0,395.4883,0.0,-270.0,0
GRID,14614,0,395.4883,0.0,-240.0,0
GRID,14615,0,395.4883,0.0,-210.0,0
GRID,14616,0,395.4883,0.0,-180.0,0
GRID,14617,0,395.4883,0.0,-150.0,0
GRID,14618,0,395.4883,0.0,-120.0,0
GRID,14619,0,395.4883,0.0,-90.0,0
GRID,14620,0,395.4883,0.0,-60.0,0
GRID,14621,0,395.4883,0.0,-30.0,0
GRID,14622,0,397.29,0.0,-1020.0,0
GRID,14623,0,397.29,0.0,-990.0,0
GRID,14624,0,397.29,0.0,-960.0,0
GRID,14625,0,397.29,0.0,-930.0,0
GRID,14626,0,397.29,0.0,-900.0,0
GRID,14627,0,397.29,0.0,-870.0,0
GRID,14628,0,397.29,0.0,-840.0,0
GRID,14629,0,397.29,0.0,-810.0,0
GRID,14630,0,397.29,0.0,-780.0,0
GRID,14631,0,397.29,0.0,-750.0,0
GRID,14632,0,397.29,0.0,-720.0,0
GRID,14633,0,397.29,0.0,-690.0,0
GRID,14634,0,397.29,0.0,-660.0,0
GRID,14635,0,397.29,0.0,-630.0,0
GRID,14636,0,397.29,0.0,-600.0,0
GRID,14637,0,397.29,0.0,-570.0,0
GRID,14638,0,397.29,0.0,-540.0,0
GRID,14639,0,397.29,0.0,-510.0,0
GRID,14640,0,397.29,0.0,-480.0,0
GRID,14641,0,397.29,0.0,-450.0,0
GRID,14642,0,397.29,0.0,-420.0,0
GRID,14643,0,397.29,0.0,-390.0,0
GRID,14644,0,397.29,0.0,-360.0,0
GRID,14645,0,397.29,0.0,-330.0,0
GRID,14646,0,397.29,0.0,-300.0,0
GRID,14647,0,397.29,0.0,-270.0,0
GRID,14648,0,397.29,0.0,-240.0,0
GRID,14649,0,397.29,0.0,-210.0,0
GRID,14650,0,397.29,0.0,-180.0,0
GRID,14651,0,397.29,0.0,-150.0,0
GRID,14652,0,397.29,0.0,-120.0,0
GRID,14653,0,397.29,0.0,-90.0,0
GRID,14654,0,397.29,0.0,-60.0,0
GRID,14655,0,397.29,0.0,-30.0,0
GRID,14656,0,399.0917,0.0,-1020.0,0
GRID,14657,0,399.0917,0.0,-990.0,0
GRID,14658,0,399.0917,0.0,-960.0,0
GRID,14659,0,399.0917,0.0,-930.0,0
GRID,14660,0,399.0917,0.0,-900.0,0
GRID,14661,0,399.0917,0.0,-870.0,0
GRID,14662,0,399.0917,0.0,-840.0,0
GRID,14663,0,399.0917,0.0,-810.0,0
GRID,14664,0,399.0917,0.0,-780.0,0
GRID,14665,0,399.0917,0.0,-750.0,0
GRID,14666,0,399.0917,0.0,-720.0,0
GRID,14667,0,399.0917,0.0,-690.0,0
GRID,14668,0,399.0917,0.0,-660.0,0
GRID,14669,0,399.0917,0.0,-630.0,0
GRID,14670,0,399.0917,0.0,-600.0,0
GRID,14671,0,399.0917,0.0,-570.0,0
GRID,14672,0,399.0917,0.0,-540.0,0
GRID,14673,0,399.0917,0.0,-510.0,0
GRID,14674,0,399.0917,0.0,-480.0,0
GRID,14675,0,399.0917,0.0,-450.0,0
GRID,14676,0,399.0917,0.0,-420.0,0
GRID,14677,0,399.0917,0.0,-390.0,0
GRID,14678,0,399.0917,0.0,-360.0,0
GRID,14679,0,399.0917,0.0,-330.0,0
GRID,14680,0,399.0917,0.0,-300.0,0
GRID,14681,0,399.0917,0.0,-270.0,0
GRID,14682,0,399.0917,0.0,-240.0,0
GRID,14683,0,399.0917,0.0,-210.0,0
GRID,14684,0,399.0917,0.0,-180.0,0
GRID,14685,0,399.0917,0.0,-150.0,0
GRID,14686,0,399.0917,0.0,-120.0,0
GRID,14687,0,399.0917,0.0,-90.0,0
GRID,14688,0,399.0917,0.0,-60.0,0
GRID,14689,0,399.0917,0.0,-30.0,0
GRID,14690,0,400.8933,0.0,-1020.0,0
GRID,14691,0,400.8933,0.0,-990.0,0
GRID,14692,0,400.8933,0.0,-960.0,0
GRID,14693,0,400.8933,0.0,-930.0,0
GRID,14694,0,400.8933,0.0,-900.0,0
GRID,14695,0,400.8933,0.0,-870.0,0
GRID,14696,0,400.8933,0.0,-840.0,0
GRID,14697,0,400.8933,0.0,-810.0,0
GRID,14698,0,400.8933,0.0,-780.0,0
GRID,14699,0,400.8933,0.0,-750.0,0
GRID,14700,0,400.8933,0.0,-720.0,0
GRID,14701,0,400.8933,0.0,-690.0,0
GRID,14702,0,400.8933,0.0,-660.0,0
GRID,14703,0,400.8933,0.0,-630.0,0
GRID,14704,0,400.8933,0.0,-600.0,0
GRID,14705,0,400.8933,0.0,-570.0,0
GRID,14706,0,400.8933,0.0,-540.0,0
GRID,14707,0,400.8933,0.0,-510.0,0
GRID,14708,0,400.8933,0.0,-480.0,0
GRID,14709,0,400.8933,0.0,-450.0,0
GRID,14710,0,400.8933,0.0,-420.0,0
GRID,14711,0,400.8933,0.0,-390.0,0
GRID,14712,0,400.8933,0.0,-360.0,0
GRID,14713,0,400.8933,0.0,-330.0,0
GRID,14714,0,400.8933,0.0,-300.0,0
GRID,14715,0,400.8933,0.0,-270.0,0
GRID,14716,0,400.8933,0.0,-240.0,0
GRID,14717,0,400.8933,0.0,-210.0,0
GRID,14718,0,400.8933,0.0,-180.0,0
GRID,14719,0,400.8933,0.0,-150.0,0
GRID,14720,0,400.8933,0.0,-120.0,0
GRID,14721,0,400.8933,0.0,-90.0,0
GRID,14722,0,400.8933,0.0,-60.0,0
GRID,14723,0,400.8933,0.0,-30.0,0
GRID,14724,0,402.695,0.0,-1020.0,0
GRID,14725,0,402.695,0.0,-990.0,0
GRID,14726,0,402.695,0.0,-960.0,0
GRID,14727,0,402.695,0.0,-930.0,0
GRID,14728,0,402.695,0.0,-900.0,0
GRID,14729,0,402.695,0.0,-870.0,0
GRID,14730,0,402.695,0.0,-840.0,0
GRID,14731,0,402.695,0.0,-810.0,0
GRID,14732,0,402.695,0.0,-780.0,0
GRID,14733,0,402.695,0.0,-750.0,0
GRID,14734,0,402.695,0.0,-720.0,0
GRID,14735,0,402.695,0.0,-690.0,0
GRID,14736,0,402.695,0.0,-660.0,0
GRID,14737,0,402.695,0.0,-630.0,0
GRID,14738,0,402.695,0.0,-600.0,0
GRID,14739,0,402.695,0.0,-570.0,0
GRID,14740,0,402.695,0.0,-540.0,0
GRID,14741,0,402.695,0.0,-510.0,0
GRID,14742,0,402.695,0.0,-480.0,0
GRID,14743,0,402.695,0.0,-450.0,0
GRID,14744,0,402.695,0.0,-420.0,0
GRID,14745,0,402.695,0.0,-390.0,0
GRID,14746,0,402.695,0.0,-360.0,0
GRID,14747,0,402.695,0.0,-330.0,0
GRID,14748,0,402.695,0.0,-300.0,0
GRID,14749,0,402.695,0.0,-270.0,0
GRID,14750,0,402.695,0.0,-240.0,0
GRID,14751,0,402.695,0.0,-210.0,0
GRID,14752,0,402.695,0.0,-180.0,0
GRID,14753,0,402.695,0.0,-150.0,0
GRID,14754,0,402.695,0.0,-120.0,0
GRID,14755,0,402.695,0.0,-90.0,0
GRID,14756,0,402.695,0.0,-60.0,0
GRID,14757,0,402.695,0.0,-30.0,0
GRID,14758,0,404.4967,0.0,-1020.0,0
GRID,14759,0,404.4967,0.0,-990.0,0
GRID,14760,0,404.4967,0.0,-960.0,0
GRID,14761,0,404.4967,0.0,-930.0,0
GRID,14762,0,404.4967,0.0,-900.0,0
GRID,14763,0,404.4967,0.0,-870.0,0
GRID,14764,0,404.4967,0.0,-840.0,0
GRID,14765,0,404.4967,0.0,-810.0,0
GRID,14766,0,404.4967,0.0,-780.0,0
GRID,14767,0,404.4967,0.0,-750.0,0
GRID,14768,0,404.4967,0.0,-720.0,0
GRID,14769,0,404.4967,0.0,-690.0,0
GRID,14770,0,404.4967,0.0,-660.0,0
GRID,14771,0,404.4967,0.0,-630.0,0
GRID,14772,0,404.4967,0.0,-600.0,0
GRID,14773,0,404.4967,0.0,-570.0,0
GRID,14774,0,404.4967,0.0,-540.0,0
GRID,14775,0,404.4967,0.0,-510.0,0
GRID,14776,0,404.4967,0.0,-480.0,0
GRID,14777,0,404.4967,0.0,-450.0,0
GRID,14778,0,404.4967,0.0,-420.0,0
GRID,14779,0,404.4967,0.0,-390.0,0
GRID,14780,0,404.4967,0.0,-360.0,0
GRID,14781,0,404.4967,0.0,-330.0,0
GRID,14782,0,404.4967,0.0,-300.0,0
GRID,14783,0,404.4967,0.0,-270.0,0
GRID,14784,0,404.4967,0.0,-240.0,0
GRID,14785,0,404.4967,0.0,-210.0,0
GRID,14786,0,404.4967,0.0,-180.0,0
GRID,14787,0,404.4967,0.0,-150.0,0
GRID,14788,0,404.4967,0.0,-120.0,0
GRID,14789,0,404.4967,0.0,-90.0,0
GRID,14790,0,404.4967,0.0,-60.0,0
GRID,14791,0,404.4967,0.0,-30.0,0
GRID,14792,0,406.2983,0.0,-1020.0,0
GRID,14793,0,406.2983,0.0,-990.0,0
GRID,14794,0,406.2983,0.0,-960.0,0
GRID,14795,0,406.2983,0.0,-930.0,0
GRID,14796,0,406.2983,0.0,-900.0,0
GRID,14797,0,406.2983,0.0,-870.0,0
GRID,14798,0,406.2983,0.0,-840.0,0
GRID,14799,0,406.2983,0.0,-810.0,0
GRID,14800,0,406.2983,0.0,-780.0,0
GRID,14801,0,406.2983,0.0,-750.0,0
GRID,14802,0,406.2983,0.0,-720.0,0
GRID,14803,0,406.2983,0.0,-690.0,0
GRID,14804,0,406.2983,0.0,-660.0,0
GRID,14805,0,406.2983,0.0,-630.0,0
GRID,14806,0,406.2983,0.0,-600.0,0
GRID,14807,0,406.2983,0.0,-570.0,0
GRID,14808,0,406.2983,0.0,-540.0,0
GRID,14809,0,406.2983,0.0,-510.0,0
GRID,14810,0,406.2983,0.0,-480.0,0
GRID,14811,0,406.2983,0.0,-450.0,0
GRID,14812,0,406.2983,0.0,-420.0,0
GRID,14813,0,406.2983,0.0,-390.0,0
GRID,14814,0,406.2983,0.0,-360.0,0
GRID,14815,0,406.2983,0.0,-330.0,0
GRID,14816,0,406.2983,0.0,-300.0,0
GRID,14817,0,406.2983,0.0,-270.0,0
GRID,14818,0,406.2983,0.0,-240.0,0
GRID,14819,0,406.2983,0.0,-210.0,0
GRID,14820,0,406.2983,0.0,-180.0,0
GRID,14821,0,406.2983,0.0,-150.0,0
GRID,14822,0,406.2983,0.0,-120.0,0
GRID,14823,0,406.2983,0.0,-90.0,0
GRID,14824,0,406.2983,0.0,-60.0,0
GRID,14825,0,406.2983,0.0,-30.0,0
GRID,14826,0,406.2983,0.0,-1053.0,0
GRID,14827,0,406.2983,0.0,-1056.0,0
GRID,14828,0,406.2983,0.0,-1059.0,0
GRID,14829,0,406.2983,0.0,-1062.0,0
GRID,14830,0,406.2983,0.0,-1065.0,0
GRID,14831,0,406.2983,0.0,-1068.0,0
GRID,14832,0,406.2983,0.0,-1071.0,0
GRID,14833,0,406.2982,0.0,-1073.99,0
GRID,14834,0,406.2979,0.0,-1076.99,0
GRID,14835,0,406.2973,0.0,-1079.99,0
GRID,14836,0,406.2965,0.0,-1082.98,0
GRID,14837,0,406.2955,0.0,-1085.98,0
GRID,14838,0,406.2943,0.0,-1088.98,0
GRID,14839,0,406.2928,0.0,-1091.97,0
GRID,14840,0,406.2912,0.0,-1094.97,0
GRID,14841,0,406.2893,0.0,-1097.97,0
GRID,14842,0,406.2871,0.0,-1100.96,0
GRID,14843,0,406.2848,0.0,-1103.96,0
GRID,14844,0,406.2822,0.0,-1106.96,0
GRID,14845,0,406.2794,0.0,-1109.95,0
GRID,14846,0,406.2764,0.0,-1112.95,0
GRID,14847,0,406.2732,0.0,-1115.95,0
GRID,14848,0,406.2697,0.0,-1118.94,0
GRID,14849,0,406.266,0.0,-1121.94,0
GRID,14850,0,406.2621,0.0,-1124.94,0
GRID,14851,0,406.258,0.0,-1127.93,0
GRID,14852,0,406.2536,0.0,-1130.93,0
GRID,14853,0,406.249,0.0,-1133.93,0
GRID,14854,0,406.2442,0.0,-1136.92,0
GRID,14855,0,406.2392,0.0,-1139.92,0
GRID,14856,0,406.234,0.0,-1142.91,0
GRID,14857,0,406.2285,0.0,-1145.91,0
GRID,14858,0,406.2228,0.0,-1148.91,0
GRID,14859,0,406.2169,0.0,-1151.9,0
GRID,14860,0,406.2108,0.0,-1154.9,0
GRID,14861,0,406.2044,0.0,-1157.9,0
GRID,14862,0,406.1978,0.0,-1160.89,0
GRID,14863,0,406.1911,0.0,-1163.89,0
GRID,14864,0,406.1841,0.0,-1166.88,0
GRID,14865,0,406.1768,0.0,-1169.88,0
GRID,14866,0,406.1694,0.0,-1172.88,0
GRID,14867,0,406.1617,0.0,-1175.87,0
GRID,14868,0,406.1538,0.0,-1178.87,0
GRID,14869,0,406.1457,0.0,-1181.86,0
GRID,14870,0,406.1374,0.0,-1184.86,0
GRID,14871,0,406.1289,0.0,-1187.86,0
GRID,14872,0,406.1201,0.0,-1190.85,0
GRID,14873,0,406.1112,0.0,-1193.85,0
GRID,14874,0,406.102,0.0,-1196.84,0
GRID,14875,0,406.0926,0.0,-1199.84,0
GRID,14876,0,406.0829,0.0,-1202.83,0
GRID,14877,0,406.0731,0.0,-1205.83,0
GRID,14878,0,406.0631,0.0,-1208.82,0
GRID,14879,0,406.0528,0.0,-1211.82,0
GRID,14880,0,406.0423,0.0,-1214.81,0
GRID,14881,0,406.0163,0.0,-1217.81,0
GRID,14882,0,405.9604,0.0,-1220.81,0
GRID,14883,0,405.8745,0.0,-1223.81,0
GRID,14884,0,405.7587,0.0,-1226.81,0
GRID,14885,0,405.6129,0.0,-1229.81,0
GRID,14886,0,405.4371,0.0,-1232.8,0
GRID,14887,0,405.2312,0.0,-1235.8,0
GRID,14888,0,404.9953,0.0,-1238.79,0
GRID,14889,0,404.7293,0.0,-1241.78,0
GRID,14890,0,404.4333,0.0,-1244.76,0
GRID,14891,0,404.1073,0.0,-1247.75,0
GRID,14892,0,403.7515,0.0,-1250.73,0
GRID,14893,0,403.3658,0.0,-1253.7,0
GRID,14894,0,402.9503,0.0,-1256.67,0
GRID,14895,0,402.505,0.0,-1259.64,0
GRID,14896,0,402.0299,0.0,-1262.61,0
GRID,14897,0,401.5252,0.0,-1265.56,0
GRID,14898,0,400.9908,0.0,-1268.52,0
GRID,14899,0,400.4268,0.0,-1271.46,0
GRID,14900,0,399.8333,0.0,-1274.41,0
GRID,14901,0,399.2103,0.0,-1277.34,0
GRID,14902,0,398.5578,0.0,-1280.27,0
GRID,14903,0,397.8761,0.0,-1283.19,0
GRID,14904,0,397.1651,0.0,-1286.11,0
GRID,14905,0,396.4248,0.0,-1289.02,0
GRID,14906,0,395.6554,0.0,-1291.92,0
GRID,14907,0,394.857,0.0,-1294.81,0
GRID,14908,0,394.0295,0.0,-1297.7,0
GRID,14909,0,393.1732,0.0,-1300.57,0
GRID,14910,0,392.2881,0.0,-1303.44,0
GRID,14911,0,391.3742,0.0,-1306.3,0
GRID,14912,0,390.4317,0.0,-1309.15,0
GRID,14913,0,389.4607,0.0,-1311.99,0
GRID,14914,0,388.4613,0.0,-1314.82,0
GRID,14915,0,387.4335,0.0,-1317.64,0
GRID,14916,0,386.3775,0.0,-1320.45,0
GRID,14917,0,385.2933,0.0,-1323.25,0
GRID,14918,0,384.1811,0.0,-1326.04,0
GRID,14919,0,383.041,0.0,-1328.81,0
GRID,14920,0,381.8732,0.0,-1331.58,0
GRID,14921,0,380.6776,0.0,-1334.33,0
GRID,14922,0,379.4545,0.0,-1337.07,0
GRID,14923,0,378.204,0.0,-1339.8,0
GRID,14924,0,376.9262,0.0,-1342.52,0
GRID,14925,0,375.6211,0.0,-1345.22,0
GRID,14926,0,374.2891,0.0,-1347.91,0
GRID,14927,0,372.9301,0.0,-1350.59,0
GRID,14928,0,371.5443,0.0,-1353.25,0
GRID,14929,0,370.1319,0.0,-1355.9,0
GRID,14930,0,368.6931,0.0,-1358.53,0
GRID,14931,0,367.2278,0.0,-1361.15,0
GRID,14932,0,365.7364,0.0,-1363.76,0
GRID,14933,0,364.2189,0.0,-1366.35,0
GRID,14934,0,362.6755,0.0,-1368.92,0
GRID,14935,0,361.1063,0.0,-1371.48,0
GRID,14936,0,359.5116,0.0,-1374.02,0
GRID,14937,0,357.8914,0.0,-1376.55,0
GRID,14938,0,356.246,0.0,-1379.06,0
GRID,14939,0,354.5755,0.0,-1381.56,0
GRID,14940,0,352.88,0.0,-1384.03,0
GRID,14941,0,351.1598,0.0,-1386.49,0
GRID,14942,0,349.415,0.0,-1388.94,0
GRID,14943,0,347.6457,0.0,-1391.36,0
GRID,14944,0,345.8523,0.0,-1393.77,0
GRID,14945,0,344.0348,0.0,-1396.16,0
GRID,14946,0,342.1934,0.0,-1398.53,0
GRID,14947,0,340.3283,0.0,-1400.88,0
GRID,14948,0,338.4398,0.0,-1403.21,0
GRID,14949,0,336.5279,0.0,-1405.53,0
GRID,14950,0,334.5929,0.0,-1407.82,0
GRID,14951,0,332.6349,0.0,-1410.1,0
GRID,14952,0,330.6542,0.0,-1412.35,0
GRID,14953,0,328.6509,0.0,-1414.59,0
GRID,14954,0,326.6253,0.0,-1416.81,0
GRID,14955,0,324.5775,0.0,-1419.0,0
GRID,14956,0,322.508,0.0,-1421.18,0
GRID,14957,0,320.4171,0.0,-1423.33,0
GRID,14958,0,318.3049,0.0,-1425.46,0
GRID,14959,0,316.2414,0.0,-1427.53,0
GRID,14960,0,314.1779,0.0,-1429.59,0
GRID,14961,0,312.1144,0.0,-1431.66,0
GRID,14962,0,310.0508,0.0,-1433.72,0
GRID,14963,0,307.9873,0.0,-1435.78,0
GRID,14964,0,305.9238,0.0,-1437.85,0
GRID,14965,0,303.8603,0.0,-1439.91,0
GRID,14966,0,301.7968,0.0,-1441.97,0
GRID,14967,0,299.7332,0.0,-1444.04,0
GRID,14968,0,297.5907,0.0,-1446.16,0
GRID,14969,0,295.4286,0.0,-1448.26,0
GRID,14970,0,293.2469,0.0,-1450.34,0
GRID,14971,0,291.046,0.0,-1452.4,0
GRID,14972,0,288.8259,0.0,-1454.44,0
GRID,14973,0,286.5868,0.0,-1456.46,0
GRID,14974,0,284.3289,0.0,-1458.46,0
GRID,14975,0,282.0525,0.0,-1460.44,0
GRID,14976,0,279.7576,0.0,-1462.4,0
GRID,14977,0,277.4444,0.0,-1464.33,0
GRID,14978,0,275.1133,0.0,-1466.24,0
GRID,14979,0,272.7644,0.0,-1468.13,0
GRID,14980,0,270.3979,0.0,-1470.0,0
GRID,14981,0,268.0141,0.0,-1471.85,0
GRID,14982,0,265.6131,0.0,-1473.67,0
GRID,14983,0,263.1953,0.0,-1475.47,0
GRID,14984,0,260.7606,0.0,-1477.25,0
GRID,14985,0,258.3095,0.0,-1479.01,0
GRID,14986,0,255.8421,0.0,-1480.74,0
GRID,14987,0,253.3586,0.0,-1482.45,0
GRID,14988,0,250.8593,0.0,-1484.14,0
GRID,14989,0,248.3444,0.0,-1485.8,0
GRID,14990,0,245.814,0.0,-1487.44,0
GRID,14991,0,243.2685,0.0,-1489.05,0
GRID,14992,0,240.7081,0.0,-1490.64,0
GRID,14993,0,238.1329,0.0,-1492.21,0
GRID,14994,0,235.5432,0.0,-1493.75,0
GRID,14995,0,232.9393,0.0,-1495.27,0
GRID,14996,0,230.3213,0.0,-1496.77,0
GRID,14997,0,227.6895,0.0,-1498.24,0
GRID,14998,0,225.0442,0.0,-1499.68,0
GRID,14999,0,222.3855,0.0,-1501.1,0
GRID,15000,0,219.7138,0.0,-1502.5,0
GRID,15001,0,217.0292,0.0,-1503.86,0
GRID,15002,0,214.332,0.0,-1505.21,0
GRID,15003,0,211.6224,0.0,-1506.53,0
GRID,15004,0,208.9006,0.0,-1507.82,0
GRID,15005,0,206.167,0.0,-1509.09,0
GRID,15006,0,203.4217,0.0,-1510.33,0
GRID,15007,0,200.665,0.0,-1511.55,0
GRID,15008,0,197.8971,0.0,-1512.74,0
GRID,15009,0,195.1184,0.0,-1513.9,0
GRID,15010,0,192.3289,0.0,-1515.04,0
GRID,15011,0,189.5291,0.0,-1516.15,0
GRID,15012,0,186.719,0.0,-1517.24,0
GRID,15013,0,183.8991,0.0,-1518.3,0
GRID,15014,0,181.0695,0.0,-1519.33,0
GRID,15015,0,178.2304,0.0,-1520.34,0
GRID,15016,0,175.3822,0.0,-1521.32,0
GRID,15017,0,172.5248,0.0,-1522.27,0
GRID,15018,0,169.6585,0.0,-1523.19,0
GRID,15019,0,166.7834,0.0,-1524.09,0
GRID,15020,0,163.8999,0.0,-1524.96,0
GRID,15021,0,161.0081,0.0,-1525.81,0
GRID,15022,0,158.1084,0.0,-1526.62,0
GRID,15023,0,155.2011,0.0,-1527.41,0
GRID,15024,0,152.2863,0.0,-1528.17,0
GRID,15025,0,149.3643,0.0,-1528.9,0
GRID,15026,0,146.4355,0.0,-1529.61,0
GRID,15027,0,143.5,0.0,-1530.29,0
GRID,15028,0,140.5582,0.0,-1530.93,0
GRID,15029,0,137.6103,0.0,-1531.56,0
GRID,15030,0,134.6566,0.0,-1532.15,0
GRID,15031,0,131.6973,0.0,-1532.71,0
GRID,15032,0,128.7327,0.0,-1533.25,0
GRID,15033,0,125.7631,0.0,-1533.76,0
GRID,15034,0,122.7887,0.0,-1534.24,0
GRID,15035,0,119.8098,0.0,-1534.69,0
GRID,15036,0,116.8268,0.0,-1535.11,0
GRID,15037,0,113.8398,0.0,-1535.51,0
GRID,15038,0,110.8491,0.0,-1535.88,0
GRID,15039,0,107.855,0.0,-1536.22,0
GRID,15040,0,104.8578,0.0,-1536.52,0
GRID,15041,0,101.8577,0.0,-1536.81,0
GRID,15042,0,98.85508,0.0,-1537.06,0
GRID,15043,0,95.8501,0.0,-1537.28,0
GRID,15044,0,92.84308,0.0,-1537.48,0
GRID,15045,0,89.83429,0.0,-1537.65,0
GRID,15046,0,86.82401,0.0,-1537.78,0
GRID,15047,0,83.8125,0.0,-1537.89,0
GRID,15048,0,80.80003,0.0,-1537.98,0
GRID,15049,0,77.78689,0.0,-1538.03,0
GRID,15050,0,74.77334,0.0,-1538.05,0
GRID,15051,0,71.75965,0.0,-1538.05,0
GRID,15052,0,68.74611,0.0,-1538.01,0
GRID,15053,0,65.73298,0.0,-1537.95,0
GRID,15054,0,62.72053,0.0,-1537.86,0
GRID,15055,0,59.70905,0.0,-1537.74,0
GRID,15056,0,56.6988,0.0,-1537.59,0
GRID,15057,0,53.69005,0.0,-1537.42,0
GRID,15058,0,50.68308,0.0,-1537.21,0
GRID,15059,0,47.67817,0.0,-1536.98,0
GRID,15060,0,44.67558,0.0,-1536.71,0
GRID,15061,0,41.67558,0.0,-1536.42,0
GRID,15062,0,38.67846,0.0,-1536.1,0
GRID,15063,0,35.68447,0.0,-1535.75,0
GRID,15064,0,32.69389,0.0,-1535.38,0
GRID,15065,0,29.70699,0.0,-1534.97,0
GRID,15066,0,26.72405,0.0,-1534.54,0
GRID,15067,0,23.74535,0.0,-1534.08,0
GRID,15068,0,20.77116,0.0,-1533.59,0
GRID,15069,0,17.80174,0.0,-1533.07,0
GRID,15070,0,14.83735,0.0,-1532.52,0
GRID,15071,0,11.87825,0.0,-1531.95,0
GRID,15072,0,8.924704,0.0,-1531.34,0
GRID,15073,0,5.976974,0.0,-1530.71,0
GRID,15074,0,3.035319,0.0,-1530.05,0
GRID,15075,0,404.4967,0.0,-1052.99,0
GRID,15076,0,404.4967,0.0,-1055.97,0
GRID,15077,0,404.4967,0.0,-1058.96,0
GRID,15078,0,404.4967,0.0,-1061.95,0
GRID,15079,0,404.4967,0.0,-1064.93,0
GRID,15080,0,404.4967,0.0,-1067.92,0
GRID,15081,0,404.4967,0.0,-1070.9,0
GRID,15082,0,404.4964,0.0,-1073.89,0
GRID,15083,0,404.4958,0.0,-1076.87,0
GRID,15084,0,404.4946,0.0,-1079.85,0
GRID,15085,0,404.4931,0.0,-1082.83,0
GRID,15086,0,404.491,0.0,-1085.81,0
GRID,15087,0,404.4886,0.0,-1088.79,0
GRID,15088,0,404.4857,0.0,-1091.77,0
GRID,15089,0,404.4823,0.0,-1094.76,0
GRID,15090,0,404.4785,0.0,-1097.74,0
GRID,15091,0,404.4743,0.0,-1100.72,0
GRID,15092,0,404.4696,0.0,-1103.7,0
GRID,15093,0,404.4644,0.0,-1106.68,0
GRID,15094,0,404.4588,0.0,-1109.66,0
GRID,15095,0,404.4528,0.0,-1112.64,0
GRID,15096,0,404.4463,0.0,-1115.62,0
GRID,15097,0,404.4394,0.0,-1118.6,0
GRID,15098,0,404.432,0.0,-1121.59,0
GRID,15099,0,404.4242,0.0,-1124.57,0
GRID,15100,0,404.4159,0.0,-1127.55,0
GRID,15101,0,404.4072,0.0,-1130.53,0
GRID,15102,0,404.398,0.0,-1133.51,0
GRID,15103,0,404.3884,0.0,-1136.49,0
GRID,15104,0,404.3784,0.0,-1139.47,0
GRID,15105,0,404.3679,0.0,-1142.45,0
GRID,15106,0,404.357,0.0,-1145.43,0
GRID,15107,0,404.3456,0.0,-1148.41,0
GRID,15108,0,404.3338,0.0,-1151.39,0
GRID,15109,0,404.3215,0.0,-1154.37,0
GRID,15110,0,404.3088,0.0,-1157.35,0
GRID,15111,0,404.2957,0.0,-1160.33,0
GRID,15112,0,404.2821,0.0,-1163.31,0
GRID,15113,0,404.2681,0.0,-1166.29,0
GRID,15114,0,404.2536,0.0,-1169.27,0
GRID,15115,0,404.2388,0.0,-1172.25,0
GRID,15116,0,404.2234,0.0,-1175.23,0
GRID,15117,0,404.2077,0.0,-1178.21,0
GRID,15118,0,404.1915,0.0,-1181.19,0
GRID,15119,0,404.1748,0.0,-1184.17,0
GRID,15120,0,404.1577,0.0,-1187.15,0
GRID,15121,0,404.1402,0.0,-1190.13,0
GRID,15122,0,404.1223,0.0,-1193.11,0
GRID,15123,0,404.1039,0.0,-1196.09,0
GRID,15124,0,404.0851,0.0,-1199.07,0
GRID,15125,0,404.0659,0.0,-1202.04,0
GRID,15126,0,404.0462,0.0,-1205.02,0
GRID,15127,0,404.0261,0.0,-1208.0,0
GRID,15128,0,404.0056,0.0,-1210.98,0
GRID,15129,0,403.9847,0.0,-1213.96,0
GRID,15130,0,403.9482,0.0,-1216.94,0
GRID,15131,0,403.8821,0.0,-1219.92,0
GRID,15132,0,403.7864,0.0,-1222.91,0
GRID,15133,0,403.661,0.0,-1225.89,0
GRID,15134,0,403.506,0.0,-1228.87,0
GRID,15135,0,403.3212,0.0,-1231.84,0
GRID,15136,0,403.1067,0.0,-1234.82,0
GRID,15137,0,402.8624,0.0,-1237.79,0
GRID,15138,0,402.5883,0.0,-1240.77,0
GRID,15139,0,402.2845,0.0,-1243.73,0
GRID,15140,0,401.9511,0.0,-1246.7,0
GRID,15141,0,401.588,0.0,-1249.66,0
GRID,15142,0,401.1954,0.0,-1252.62,0
GRID,15143,0,400.7733,0.0,-1255.57,0
GRID,15144,0,400.3217,0.0,-1258.52,0
GRID,15145,0,399.8406,0.0,-1261.47,0
GRID,15146,0,399.3302,0.0,-1264.41,0
GRID,15147,0,398.7904,0.0,-1267.34,0
GRID,15148,0,398.2212,0.0,-1270.27,0
GRID,15149,0,397.6229,0.0,-1273.2,0
GRID,15150,0,396.9953,0.0,-1276.12,0
GRID,15151,0,396.3386,0.0,-1279.03,0
GRID,15152,0,395.6529,0.0,-1281.93,0
GRID,15153,0,394.9382,0.0,-1284.83,0
GRID,15154,0,394.1946,0.0,-1287.72,0
GRID,15155,0,393.4221,0.0,-1290.6,0
GRID,15156,0,392.6209,0.0,-1293.48,0
GRID,15157,0,391.7909,0.0,-1296.35,0
GRID,15158,0,390.9324,0.0,-1299.21,0
GRID,15159,0,390.0453,0.0,-1302.06,0
GRID,15160,0,389.1298,0.0,-1304.9,0
GRID,15161,0,388.186,0.0,-1307.73,0
GRID,15162,0,387.2139,0.0,-1310.55,0
GRID,15163,0,386.2137,0.0,-1313.37,0
GRID,15164,0,385.1854,0.0,-1316.17,0
GRID,15165,0,384.1292,0.0,-1318.96,0
GRID,15166,0,383.0451,0.0,-1321.74,0
GRID,15167,0,381.9332,0.0,-1324.51,0
GRID,15168,0,380.7937,0.0,-1327.27,0
GRID,15169,0,379.6268,0.0,-1330.02,0
GRID,15170,0,378.4324,0.0,-1332.76,0
GRID,15171,0,377.2108,0.0,-1335.48,0
GRID,15172,0,375.962,0.0,-1338.19,0
GRID,15173,0,374.6861,0.0,-1340.89,0
GRID,15174,0,373.3834,0.0,-1343.58,0
GRID,15175,0,372.0538,0.0,-1346.25,0
GRID,15176,0,370.6977,0.0,-1348.91,0
GRID,15177,0,369.315,0.0,-1351.56,0
GRID,15178,0,367.9059,0.0,-1354.19,0
GRID,15179,0,366.4707,0.0,-1356.81,0
GRID,15180,0,365.0093,0.0,-1359.41,0
GRID,15181,0,363.522,0.0,-1362.0,0
GRID,15182,0,362.0089,0.0,-1364.58,0
GRID,15183,0,360.4701,0.0,-1367.14,0
GRID,15184,0,358.9059,0.0,-1369.68,0
GRID,15185,0,357.3163,0.0,-1372.21,0
GRID,15186,0,355.7015,0.0,-1374.72,0
GRID,15187,0,354.0618,0.0,-1377.22,0
GRID,15188,0,352.3972,0.0,-1379.69,0
GRID,15189,0,350.7079,0.0,-1382.16,0
GRID,15190,0,348.9941,0.0,-1384.6,0
GRID,15191,0,347.2559,0.0,-1387.03,0
GRID,15192,0,345.4935,0.0,-1389.44,0
GRID,15193,0,343.7072,0.0,-1391.84,0
GRID,15194,0,341.897,0.0,-1394.21,0
GRID,15195,0,340.0633,0.0,-1396.57,0
GRID,15196,0,338.206,0.0,-1398.91,0
GRID,15197,0,336.3255,0.0,-1401.23,0
GRID,15198,0,334.4219,0.0,-1403.53,0
GRID,15199,0,332.4955,0.0,-1405.81,0
GRID,15200,0,330.5462,0.0,-1408.07,0
GRID,15201,0,328.5744,0.0,-1410.31,0
GRID,15202,0,326.5803,0.0,-1412.54,0
GRID,15203,0,324.5641,0.0,-1414.74,0
GRID,15204,0,322.5257,0.0,-1416.92,0
GRID,15205,0,320.466,0.0,-1419.09,0
GRID,15206,0,318.3852,0.0,-1421.23,0
GRID,15207,0,316.2836,0.0,-1423.35,0
GRID,15208,0,314.2297,0.0,-1425.41,0
GRID,15209,0,312.1759,0.0,-1427.46,0
GRID,15210,0,310.122,0.0,-1429.52,0
GRID,15211,0,308.0682,0.0,-1431.57,0
GRID,15212,0,306.0143,0.0,-1433.62,0
GRID,15213,0,303.9605,0.0,-1435.68,0
GRID,15214,0,301.9066,0.0,-1437.73,0
GRID,15215,0,299.8528,0.0,-1439.79,0
GRID,15216,0,297.799,0.0,-1441.84,0
GRID,15217,0,295.6675,0.0,-1443.95,0
GRID,15218,0,293.5166,0.0,-1446.04,0
GRID,15219,0,291.3467,0.0,-1448.11,0
GRID,15220,0,289.1577,0.0,-1450.17,0
GRID,15221,0,286.9499,0.0,-1452.2,0
GRID,15222,0,284.7235,0.0,-1454.21,0
GRID,15223,0,282.4786,0.0,-1456.2,0
GRID,15224,0,280.2155,0.0,-1458.17,0
GRID,15225,0,277.9341,0.0,-1460.12,0
GRID,15226,0,275.6349,0.0,-1462.04,0
GRID,15227,0,273.318,0.0,-1463.95,0
GRID,15228,0,270.9836,0.0,-1465.83,0
GRID,15229,0,268.6319,0.0,-1467.69,0
GRID,15230,0,266.2632,0.0,-1469.53,0
GRID,15231,0,263.8777,0.0,-1471.35,0
GRID,15232,0,261.4755,0.0,-1473.15,0
GRID,15233,0,259.0568,0.0,-1474.92,0
GRID,15234,0,256.6219,0.0,-1476.67,0
GRID,15235,0,254.171,0.0,-1478.4,0
GRID,15236,0,251.7044,0.0,-1480.11,0
GRID,15237,0,249.2221,0.0,-1481.79,0
GRID,15238,0,246.7245,0.0,-1483.45,0
GRID,15239,0,244.2117,0.0,-1485.09,0
GRID,15240,0,241.6841,0.0,-1486.7,0
GRID,15241,0,239.1417,0.0,-1488.29,0
GRID,15242,0,236.5849,0.0,-1489.86,0
GRID,15243,0,234.0138,0.0,-1491.4,0
GRID,15244,0,231.4287,0.0,-1492.92,0
GRID,15245,0,228.8298,0.0,-1494.41,0
GRID,15246,0,226.2173,0.0,-1495.88,0
GRID,15247,0,223.5915,0.0,-1497.32,0
GRID,15248,0,220.9526,0.0,-1498.75,0
GRID,15249,0,218.3009,0.0,-1500.14,0
GRID,15250,0,215.6365,0.0,-1501.51,0
GRID,15251,0,212.9596,0.0,-1502.86,0
GRID,15252,0,210.2707,0.0,-1504.18,0
GRID,15253,0,207.5698,0.0,-1505.48,0
GRID,15254,0,204.8572,0.0,-1506.75,0
GRID,15255,0,202.1331,0.0,-1508.0,0
GRID,15256,0,199.3978,0.0,-1509.22,0
GRID,15257,0,196.6516,0.0,-1510.41,0
GRID,15258,0,193.8946,0.0,-1511.58,0
GRID,15259,0,191.1272,0.0,-1512.73,0
GRID,15260,0,188.3495,0.0,-1513.85,0
GRID,15261,0,185.5618,0.0,-1514.94,0
GRID,15262,0,182.7643,0.0,-1516.01,0
GRID,15263,0,179.9573,0.0,-1517.05,0
GRID,15264,0,177.1411,0.0,-1518.06,0
GRID,15265,0,174.3158,0.0,-1519.05,0
GRID,15266,0,171.4814,0.0,-1520.01,0
GRID,15267,0,168.6377,0.0,-1520.95,0
GRID,15268,0,165.7852,0.0,-1521.85,0
GRID,15269,0,162.924,0.0,-1522.73,0
GRID,15270,0,160.0544,0.0,-1523.59,0
GRID,15271,0,157.1768,0.0,-1524.41,0
GRID,15272,0,154.2912,0.0,-1525.21,0
GRID,15273,0,151.3981,0.0,-1525.98,0
GRID,15274,0,148.4976,0.0,-1526.72,0
GRID,15275,0,145.59,0.0,-1527.44,0
GRID,15276,0,142.6757,0.0,-1528.12,0
GRID,15277,0,139.7548,0.0,-1528.78,0
GRID,15278,0,136.8277,0.0,-1529.41,0
GRID,15279,0,133.8945,0.0,-1530.02,0
GRID,15280,0,130.9556,0.0,-1530.59,0
GRID,15281,0,128.0113,0.0,-1531.14,0
GRID,15282,0,125.0618,0.0,-1531.66,0
GRID,15283,0,122.1073,0.0,-1532.15,0
GRID,15284,0,119.1482,0.0,-1532.61,0
GRID,15285,0,116.1847,0.0,-1533.05,0
GRID,15286,0,113.217,0.0,-1533.45,0
GRID,15287,0,110.2456,0.0,-1533.83,0
GRID,15288,0,107.2706,0.0,-1534.18,0
GRID,15289,0,104.2922,0.0,-1534.5,0
GRID,15290,0,101.3109,0.0,-1534.79,0
GRID,15291,0,98.32677,0.0,-1535.06,0
GRID,15292,0,95.34019,0.0,-1535.29,0
GRID,15293,0,92.3514,0.0,-1535.5,0
GRID,15294,0,89.36068,0.0,-1535.68,0
GRID,15295,0,86.3683,0.0,-1535.83,0
GRID,15296,0,83.37453,0.0,-1535.95,0
GRID,15297,0,80.37966,0.0,-1536.04,0
GRID,15298,0,77.38395,0.0,-1536.11,0
GRID,15299,0,74.38768,0.0,-1536.14,0
GRID,15300,0,71.39112,0.0,-1536.15,0
GRID,15301,0,68.39455,0.0,-1536.13,0
GRID,15302,0,65.39824,0.0,-1536.08,0
GRID,15303,0,62.40246,0.0,-1536.0,0
GRID,15304,0,59.4075,0.0,-1535.89,0
GRID,15305,0,56.41362,0.0,-1535.75,0
GRID,15306,0,53.4211,0.0,-1535.59,0
GRID,15307,0,50.43022,0.0,-1535.4,0
GRID,15308,0,47.44125,0.0,-1535.17,0
GRID,15309,0,44.45446,0.0,-1534.92,0
GRID,15310,0,41.47012,0.0,-1534.64,0
GRID,15311,0,38.48852,0.0,-1534.34,0
GRID,15312,0,35.50991,0.0,-1534.0,0
GRID,15313,0,32.53459,0.0,-1533.64,0
GRID,15314,0,29.56281,0.0,-1533.24,0
GRID,15315,0,26.59485,0.0,-1532.82,0
GRID,15316,0,23.631,0.0,-1532.37,0
GRID,15317,0,20.67153,0.0,-1531.89,0
GRID,15318,0,17.71671,0.0,-1531.39,0
GRID,15319,0,14.76679,0.0,-1530.85,0
GRID,15320,0,11.82205,0.0,-1530.29,0
GRID,15321,0,8.882729,0.0,-1529.7,0
GRID,15322,0,5.949108,0.0,-1529.08,0
GRID,15323,0,3.021444,0.0,-1528.43,0
GRID,15324,0,402.695,0.0,-1052.97,0
GRID,15325,0,402.695,0.0,-1055.95,0
GRID,15326,0,402.695,0.0,-1058.92,0
GRID,15327,0,402.695,0.0,-1061.89,0
GRID,15328,0,402.695,0.0,-1064.87,0
GRID,15329,0,402.695,0.0,-1067.84,0
GRID,15330,0,402.695,0.0,-1070.81,0
GRID,15331,0,402.6947,0.0,-1073.78,0
GRID,15332,0,402.6936,0.0,-1076.75,0
GRID,15333,0,402.6919,0.0,-1079.71,0
GRID,15334,0,402.6896,0.0,-1082.68,0
GRID,15335,0,402.6866,0.0,-1085.64,0
GRID,15336,0,402.6829,0.0,-1088.61,0
GRID,15337,0,402.6785,0.0,-1091.58,0
GRID,15338,0,402.6735,0.0,-1094.54,0
GRID,15339,0,402.6678,0.0,-1097.51,0
GRID,15340,0,402.6614,0.0,-1100.47,0
GRID,15341,0,402.6544,0.0,-1103.44,0
GRID,15342,0,402.6466,0.0,-1106.4,0
GRID,15343,0,402.6383,0.0,-1109.37,0
GRID,15344,0,402.6292,0.0,-1112.34,0
GRID,15345,0,402.6195,0.0,-1115.3,0
GRID,15346,0,402.6091,0.0,-1118.27,0
GRID,15347,0,402.598,0.0,-1121.23,0
GRID,15348,0,402.5863,0.0,-1124.2,0
GRID,15349,0,402.5739,0.0,-1127.16,0
GRID,15350,0,402.5608,0.0,-1130.13,0
GRID,15351,0,402.547,0.0,-1133.09,0
GRID,15352,0,402.5326,0.0,-1136.06,0
GRID,15353,0,402.5176,0.0,-1139.02,0
GRID,15354,0,402.5018,0.0,-1141.99,0
GRID,15355,0,402.4855,0.0,-1144.95,0
GRID,15356,0,402.4684,0.0,-1147.92,0
GRID,15357,0,402.4507,0.0,-1150.88,0
GRID,15358,0,402.4323,0.0,-1153.85,0
GRID,15359,0,402.4132,0.0,-1156.81,0
GRID,15360,0,402.3935,0.0,-1159.77,0
GRID,15361,0,402.3732,0.0,-1162.74,0
GRID,15362,0,402.3521,0.0,-1165.7,0
GRID,15363,0,402.3305,0.0,-1168.67,0
GRID,15364,0,402.3081,0.0,-1171.63,0
GRID,15365,0,402.2851,0.0,-1174.59,0
GRID,15366,0,402.2615,0.0,-1177.56,0
GRID,15367,0,402.2372,0.0,-1180.52,0
GRID,15368,0,402.2122,0.0,-1183.48,0
GRID,15369,0,402.1866,0.0,-1186.44,0
GRID,15370,0,402.1604,0.0,-1189.41,0
GRID,15371,0,402.1335,0.0,-1192.37,0
GRID,15372,0,402.1059,0.0,-1195.33,0
GRID,15373,0,402.0777,0.0,-1198.29,0
GRID,15374,0,402.0488,0.0,-1201.26,0
GRID,15375,0,402.0193,0.0,-1204.22,0
GRID,15376,0,401.9892,0.0,-1207.18,0
GRID,15377,0,401.9584,0.0,-1210.14,0
GRID,15378,0,401.927,0.0,-1213.1,0
GRID,15379,0,401.8801,0.0,-1216.07,0
GRID,15380,0,401.8039,0.0,-1219.03,0
GRID,15381,0,401.6983,0.0,-1222.0,0
GRID,15382,0,401.5634,0.0,-1224.96,0
GRID,15383,0,401.3991,0.0,-1227.92,0
GRID,15384,0,401.2053,0.0,-1230.88,0
GRID,15385,0,400.9821,0.0,-1233.84,0
GRID,15386,0,400.7294,0.0,-1236.8,0
GRID,15387,0,400.4473,0.0,-1239.75,0
GRID,15388,0,400.1357,0.0,-1242.7,0
GRID,15389,0,399.7948,0.0,-1245.65,0
GRID,15390,0,399.4246,0.0,-1248.6,0
GRID,15391,0,399.0251,0.0,-1251.54,0
GRID,15392,0,398.5963,0.0,-1254.47,0
GRID,15393,0,398.1384,0.0,-1257.4,0
GRID,15394,0,397.6513,0.0,-1260.33,0
GRID,15395,0,397.1352,0.0,-1263.25,0
GRID,15396,0,396.5899,0.0,-1266.17,0
GRID,15397,0,396.0157,0.0,-1269.08,0
GRID,15398,0,395.4124,0.0,-1271.99,0
GRID,15399,0,394.7804,0.0,-1274.89,0
GRID,15400,0,394.1194,0.0,-1277.78,0
GRID,15401,0,393.4298,0.0,-1280.67,0
GRID,15402,0,392.7114,0.0,-1283.55,0
GRID,15403,0,391.9644,0.0,-1286.43,0
GRID,15404,0,391.1889,0.0,-1289.29,0
GRID,15405,0,390.3848,0.0,-1292.15,0
GRID,15406,0,389.5524,0.0,-1295.0,0
GRID,15407,0,388.6916,0.0,-1297.84,0
GRID,15408,0,387.8026,0.0,-1300.67,0
GRID,15409,0,386.8855,0.0,-1303.5,0
GRID,15410,0,385.9403,0.0,-1306.31,0
GRID,15411,0,384.9671,0.0,-1309.12,0
GRID,15412,0,383.9661,0.0,-1311.91,0
GRID,15413,0,382.9373,0.0,-1314.7,0
GRID,15414,0,381.8808,0.0,-1317.47,0
GRID,15415,0,380.7968,0.0,-1320.24,0
GRID,15416,0,379.6853,0.0,-1322.99,0
GRID,15417,0,378.5465,0.0,-1325.73,0
GRID,15418,0,377.3804,0.0,-1328.46,0
GRID,15419,0,376.1872,0.0,-1331.18,0
GRID,15420,0,374.967,0.0,-1333.89,0
GRID,15421,0,373.72,0.0,-1336.59,0
GRID,15422,0,372.4461,0.0,-1339.27,0
GRID,15423,0,371.1456,0.0,-1341.94,0
GRID,15424,0,369.8186,0.0,-1344.6,0
GRID,15425,0,368.4653,0.0,-1347.24,0
GRID,15426,0,367.0857,0.0,-1349.87,0
GRID,15427,0,365.6799,0.0,-1352.49,0
GRID,15428,0,364.2483,0.0,-1355.09,0
GRID,15429,0,362.7908,0.0,-1357.68,0
GRID,15430,0,361.3076,0.0,-1360.25,0
GRID,15431,0,359.7989,0.0,-1362.81,0
GRID,15432,0,358.2648,0.0,-1365.35,0
GRID,15433,0,356.7054,0.0,-1367.88,0
GRID,15434,0,355.121,0.0,-1370.39,0
GRID,15435,0,353.5117,0.0,-1372.89,0
GRID,15436,0,351.8776,0.0,-1375.37,0
GRID,15437,0,350.2189,0.0,-1377.83,0
GRID,15438,0,348.5357,0.0,-1380.28,0
GRID,15439,0,346.8283,0.0,-1382.71,0
GRID,15440,0,345.0968,0.0,-1385.13,0
GRID,15441,0,343.3413,0.0,-1387.52,0
GRID,15442,0,341.5621,0.0,-1389.9,0
GRID,15443,0,339.7593,0.0,-1392.26,0
GRID,15444,0,337.9331,0.0,-1394.61,0
GRID,15445,0,336.0837,0.0,-1396.93,0
GRID,15446,0,334.2113,0.0,-1399.24,0
GRID,15447,0,332.316,0.0,-1401.53,0
GRID,15448,0,330.398,0.0,-1403.79,0
GRID,15449,0,328.4575,0.0,-1406.04,0
GRID,15450,0,326.4946,0.0,-1408.27,0
GRID,15451,0,324.5097,0.0,-1410.49,0
GRID,15452,0,322.503,0.0,-1412.68,0
GRID,15453,0,320.4739,0.0,-1414.85,0
GRID,15454,0,318.424,0.0,-1417.0,0
GRID,15455,0,316.3533,0.0,-1419.13,0
GRID,15456,0,314.2622,0.0,-1421.24,0
GRID,15457,0,312.218,0.0,-1423.29,0
GRID,15458,0,310.1738,0.0,-1425.33,0
GRID,15459,0,308.1297,0.0,-1427.38,0
GRID,15460,0,306.0855,0.0,-1429.42,0
GRID,15461,0,304.0413,0.0,-1431.46,0
GRID,15462,0,301.9972,0.0,-1433.51,0
GRID,15463,0,299.953,0.0,-1435.55,0
GRID,15464,0,297.9088,0.0,-1437.6,0
GRID,15465,0,295.8647,0.0,-1439.64,0
GRID,15466,0,293.7442,0.0,-1441.74,0
GRID,15467,0,291.6047,0.0,-1443.82,0
GRID,15468,0,289.4464,0.0,-1445.89,0
GRID,15469,0,287.2694,0.0,-1447.93,0
GRID,15470,0,285.074,0.0,-1449.95,0
GRID,15471,0,282.8602,0.0,-1451.95,0
GRID,15472,0,280.6283,0.0,-1453.93,0
GRID,15473,0,278.3784,0.0,-1455.89,0
GRID,15474,0,276.1107,0.0,-1457.83,0
GRID,15475,0,273.8254,0.0,-1459.75,0
GRID,15476,0,271.5227,0.0,-1461.65,0
GRID,15477,0,269.2028,0.0,-1463.53,0
GRID,15478,0,266.866,0.0,-1465.39,0
GRID,15479,0,264.5123,0.0,-1467.22,0
GRID,15480,0,262.1422,0.0,-1469.03,0
GRID,15481,0,259.7556,0.0,-1470.82,0
GRID,15482,0,257.353,0.0,-1472.59,0
GRID,15483,0,254.9343,0.0,-1474.34,0
GRID,15484,0,252.5,0.0,-1476.06,0
GRID,15485,0,250.0501,0.0,-1477.77,0
GRID,15486,0,247.5849,0.0,-1479.45,0
GRID,15487,0,245.1046,0.0,-1481.1,0
GRID,15488,0,242.6094,0.0,-1482.74,0
GRID,15489,0,240.0996,0.0,-1484.35,0
GRID,15490,0,237.5753,0.0,-1485.93,0
GRID,15491,0,235.0369,0.0,-1487.5,0
GRID,15492,0,232.4844,0.0,-1489.04,0
GRID,15493,0,229.9181,0.0,-1490.56,0
GRID,15494,0,227.3383,0.0,-1492.05,0
GRID,15495,0,224.7451,0.0,-1493.52,0
GRID,15496,0,222.1388,0.0,-1494.97,0
GRID,15497,0,219.5197,0.0,-1496.39,0
GRID,15498,0,216.8879,0.0,-1497.79,0
GRID,15499,0,214.2437,0.0,-1499.16,0
GRID,15500,0,211.5873,0.0,-1500.51,0
GRID,15501,0,208.919,0.0,-1501.84,0
GRID,15502,0,206.2389,0.0,-1503.14,0
GRID,15503,0,203.5473,0.0,-1504.41,0
GRID,15504,0,200.8445,0.0,-1505.66,0
GRID,15505,0,198.1307,0.0,-1506.89,0
GRID,15506,0,195.406,0.0,-1508.09,0
GRID,15507,0,192.6709,0.0,-1509.26,0
GRID,15508,0,189.9254,0.0,-1510.42,0
GRID,15509,0,187.1698,0.0,-1511.54,0
GRID,15510,0,184.4045,0.0,-1512.64,0
GRID,15511,0,181.6295,0.0,-1513.71,0
GRID,15512,0,178.8452,0.0,-1514.76,0
GRID,15513,0,176.0518,0.0,-1515.78,0
GRID,15514,0,173.2495,0.0,-1516.78,0
GRID,15515,0,170.4379,0.0,-1517.75,0
GRID,15516,0,167.617,0.0,-1518.7,0
GRID,15517,0,164.787,0.0,-1519.61,0
GRID,15518,0,161.9482,0.0,-1520.5,0
GRID,15519,0,159.1008,0.0,-1521.36,0
GRID,15520,0,156.2451,0.0,-1522.2,0
GRID,15521,0,153.3814,0.0,-1523.01,0
GRID,15522,0,150.5099,0.0,-1523.79,0
GRID,15523,0,147.6309,0.0,-1524.54,0
GRID,15524,0,144.7446,0.0,-1525.26,0
GRID,15525,0,141.8514,0.0,-1525.96,0
GRID,15526,0,138.9514,0.0,-1526.63,0
GRID,15527,0,136.0451,0.0,-1527.27,0
GRID,15528,0,133.1325,0.0,-1527.89,0
GRID,15529,0,130.214,0.0,-1528.47,0
GRID,15530,0,127.2899,0.0,-1529.03,0
GRID,15531,0,124.3605,0.0,-1529.56,0
GRID,15532,0,121.4259,0.0,-1530.06,0
GRID,15533,0,118.4865,0.0,-1530.54,0
GRID,15534,0,115.5425,0.0,-1530.98,0
GRID,15535,0,112.5943,0.0,-1531.4,0
GRID,15536,0,109.6421,0.0,-1531.79,0
GRID,15537,0,106.6861,0.0,-1532.15,0
GRID,15538,0,103.7267,0.0,-1532.48,0
GRID,15539,0,100.764,0.0,-1532.78,0
GRID,15540,0,97.79847,0.0,-1533.06,0
GRID,15541,0,94.83028,0.0,-1533.31,0
GRID,15542,0,91.85971,0.0,-1533.52,0
GRID,15543,0,88.88706,0.0,-1533.71,0
GRID,15544,0,85.91259,0.0,-1533.88,0
GRID,15545,0,82.93657,0.0,-1534.01,0
GRID,15546,0,79.95929,0.0,-1534.11,0
GRID,15547,0,76.98101,0.0,-1534.19,0
GRID,15548,0,74.00202,0.0,-1534.24,0
GRID,15549,0,71.02258,0.0,-1534.25,0
GRID,15550,0,68.04298,0.0,-1534.24,0
GRID,15551,0,65.06349,0.0,-1534.2,0
GRID,15552,0,62.08439,0.0,-1534.14,0
GRID,15553,0,59.10595,0.0,-1534.04,0
GRID,15554,0,56.12845,0.0,-1533.92,0
GRID,15555,0,53.15216,0.0,-1533.76,0
GRID,15556,0,50.17736,0.0,-1533.58,0
GRID,15557,0,47.20433,0.0,-1533.37,0
GRID,15558,0,44.23334,0.0,-1533.13,0
GRID,15559,0,41.26466,0.0,-1532.87,0
GRID,15560,0,38.29858,0.0,-1532.57,0
GRID,15561,0,35.33536,0.0,-1532.25,0
GRID,15562,0,32.37528,0.0,-1531.89,0
GRID,15563,0,29.41862,0.0,-1531.51,0
GRID,15564,0,26.46565,0.0,-1531.1,0
GRID,15565,0,23.51665,0.0,-1530.66,0
GRID,15566,0,20.57191,0.0,-1530.2,0
GRID,15567,0,17.63169,0.0,-1529.7,0
GRID,15568,0,14.69624,0.0,-1529.18,0
GRID,15569,0,11.76584,0.0,-1528.63,0
GRID,15570,0,8.840755,0.0,-1528.05,0
GRID,15571,0,5.921242,0.0,-1527.44,0
GRID,15572,0,3.007569,0.0,-1526.81,0
GRID,15573,0,400.8933,0.0,-1052.96,0
GRID,15574,0,400.8933,0.0,-1055.92,0
GRID,15575,0,400.8933,0.0,-1058.88,0
GRID,15576,0,400.8933,0.0,-1061.84,0
GRID,15577,0,400.8933,0.0,-1064.8,0
GRID,15578,0,400.8933,0.0,-1067.76,0
GRID,15579,0,400.8933,0.0,-1070.72,0
GRID,15580,0,400.8929,0.0,-1073.67,0
GRID,15581,0,400.8915,0.0,-1076.63,0
GRID,15582,0,400.8893,0.0,-1079.58,0
GRID,15583,0,400.8861,0.0,-1082.53,0
GRID,15584,0,400.8821,0.0,-1085.48,0
GRID,15585,0,400.8772,0.0,-1088.43,0
GRID,15586,0,400.8713,0.0,-1091.38,0
GRID,15587,0,400.8646,0.0,-1094.33,0
GRID,15588,0,400.857,0.0,-1097.28,0
GRID,15589,0,400.8485,0.0,-1100.23,0
GRID,15590,0,400.8391,0.0,-1103.18,0
GRID,15591,0,400.8289,0.0,-1106.13,0
GRID,15592,0,400.8177,0.0,-1109.08,0
GRID,15593,0,400.8056,0.0,-1112.03,0
GRID,15594,0,400.7926,0.0,-1114.98,0
GRID,15595,0,400.7787,0.0,-1117.93,0
GRID,15596,0,400.764,0.0,-1120.88,0
GRID,15597,0,400.7483,0.0,-1123.83,0
GRID,15598,0,400.7318,0.0,-1126.78,0
GRID,15599,0,400.7144,0.0,-1129.73,0
GRID,15600,0,400.6961,0.0,-1132.68,0
GRID,15601,0,400.6769,0.0,-1135.63,0
GRID,15602,0,400.6568,0.0,-1138.58,0
GRID,15603,0,400.6358,0.0,-1141.52,0
GRID,15604,0,400.6139,0.0,-1144.47,0
GRID,15605,0,400.5912,0.0,-1147.42,0
GRID,15606,0,400.5676,0.0,-1150.37,0
GRID,15607,0,400.543,0.0,-1153.32,0
GRID,15608,0,400.5177,0.0,-1156.27,0
GRID,15609,0,400.4914,0.0,-1159.22,0
GRID,15610,0,400.4642,0.0,-1162.16,0
GRID,15611,0,400.4362,0.0,-1165.11,0
GRID,15612,0,400.4073,0.0,-1168.06,0
GRID,15613,0,400.3775,0.0,-1171.01,0
GRID,15614,0,400.3468,0.0,-1173.95,0
GRID,15615,0,400.3153,0.0,-1176.9,0
GRID,15616,0,400.2829,0.0,-1179.85,0
GRID,15617,0,400.2496,0.0,-1182.79,0
GRID,15618,0,400.2155,0.0,-1185.74,0
GRID,15619,0,400.1805,0.0,-1188.69,0
GRID,15620,0,400.1446,0.0,-1191.63,0
GRID,15621,0,400.1079,0.0,-1194.58,0
GRID,15622,0,400.0702,0.0,-1197.52,0
GRID,15623,0,400.0318,0.0,-1200.47,0
GRID,15624,0,399.9924,0.0,-1203.41,0
GRID,15625,0,399.9523,0.0,-1206.36,0
GRID,15626,0,399.9112,0.0,-1209.3,0
GRID,15627,0,399.8693,0.0,-1212.25,0
GRID,15628,0,399.812,0.0,-1215.19,0
GRID,15629,0,399.7257,0.0,-1218.14,0
GRID,15630,0,399.6103,0.0,-1221.09,0
GRID,15631,0,399.4658,0.0,-1224.04,0
GRID,15632,0,399.2922,0.0,-1226.98,0
GRID,15633,0,399.0894,0.0,-1229.92,0
GRID,15634,0,398.8576,0.0,-1232.86,0
GRID,15635,0,398.5965,0.0,-1235.8,0
GRID,15636,0,398.3063,0.0,-1238.74,0
GRID,15637,0,397.9869,0.0,-1241.67,0
GRID,15638,0,397.6385,0.0,-1244.6,0
GRID,15639,0,397.2611,0.0,-1247.53,0
GRID,15640,0,396.8547,0.0,-1250.45,0
GRID,15641,0,396.4194,0.0,-1253.37,0
GRID,15642,0,395.9551,0.0,-1256.29,0
GRID,15643,0,395.4621,0.0,-1259.2,0
GRID,15644,0,394.9402,0.0,-1262.1,0
GRID,15645,0,394.3895,0.0,-1265.0,0
GRID,15646,0,393.8101,0.0,-1267.89,0
GRID,15647,0,393.202,0.0,-1270.78,0
GRID,15648,0,392.5654,0.0,-1273.67,0
GRID,15649,0,391.9002,0.0,-1276.54,0
GRID,15650,0,391.2066,0.0,-1279.41,0
GRID,15651,0,390.4846,0.0,-1282.27,0
GRID,15652,0,389.7342,0.0,-1285.13,0
GRID,15653,0,388.9556,0.0,-1287.98,0
GRID,15654,0,388.1487,0.0,-1290.82,0
GRID,15655,0,387.3138,0.0,-1293.65,0
GRID,15656,0,386.4508,0.0,-1296.47,0
GRID,15657,0,385.5599,0.0,-1299.29,0
GRID,15658,0,384.6411,0.0,-1302.09,0
GRID,15659,0,383.6945,0.0,-1304.89,0
GRID,15660,0,382.7203,0.0,-1307.68,0
GRID,15661,0,381.7185,0.0,-1310.46,0
GRID,15662,0,380.6892,0.0,-1313.23,0
GRID,15663,0,379.6325,0.0,-1315.98,0
GRID,15664,0,378.5486,0.0,-1318.73,0
GRID,15665,0,377.4374,0.0,-1321.47,0
GRID,15666,0,376.2992,0.0,-1324.19,0
GRID,15667,0,375.134,0.0,-1326.91,0
GRID,15668,0,373.942,0.0,-1329.61,0
GRID,15669,0,372.7233,0.0,-1332.3,0
GRID,15670,0,371.4779,0.0,-1334.98,0
GRID,15671,0,370.2061,0.0,-1337.64,0
GRID,15672,0,368.9079,0.0,-1340.3,0
GRID,15673,0,367.5834,0.0,-1342.94,0
GRID,15674,0,366.2328,0.0,-1345.57,0
GRID,15675,0,364.8563,0.0,-1348.18,0
GRID,15676,0,363.454,0.0,-1350.78,0
GRID,15677,0,362.0259,0.0,-1353.37,0
GRID,15678,0,360.5723,0.0,-1355.94,0
GRID,15679,0,359.0932,0.0,-1358.5,0
GRID,15680,0,357.5889,0.0,-1361.04,0
GRID,15681,0,356.0594,0.0,-1363.57,0
GRID,15682,0,354.505,0.0,-1366.08,0
GRID,15683,0,352.9257,0.0,-1368.58,0
GRID,15684,0,351.3218,0.0,-1371.06,0
GRID,15685,0,349.6934,0.0,-1373.53,0
GRID,15686,0,348.0406,0.0,-1375.97,0
GRID,15687,0,346.3636,0.0,-1378.41,0
GRID,15688,0,344.6626,0.0,-1380.82,0
GRID,15689,0,342.9377,0.0,-1383.22,0
GRID,15690,0,341.1891,0.0,-1385.61,0
GRID,15691,0,339.417,0.0,-1387.97,0
GRID,15692,0,337.6216,0.0,-1390.32,0
GRID,15693,0,335.803,0.0,-1392.65,0
GRID,15694,0,333.9614,0.0,-1394.96,0
GRID,15695,0,332.097,0.0,-1397.25,0
GRID,15696,0,330.21,0.0,-1399.53,0
GRID,15697,0,328.3005,0.0,-1401.78,0
GRID,15698,0,326.3687,0.0,-1404.02,0
GRID,15699,0,324.4149,0.0,-1406.23,0
GRID,15700,0,322.4391,0.0,-1408.43,0
GRID,15701,0,320.4418,0.0,-1410.61,0
GRID,15702,0,318.4222,0.0,-1412.77,0
GRID,15703,0,316.382,0.0,-1414.91,0
GRID,15704,0,314.3215,0.0,-1417.03,0
GRID,15705,0,312.2408,0.0,-1419.13,0
GRID,15706,0,310.2063,0.0,-1421.17,0
GRID,15707,0,308.1718,0.0,-1423.2,0
GRID,15708,0,306.1373,0.0,-1425.24,0
GRID,15709,0,304.1028,0.0,-1427.27,0
GRID,15710,0,302.0683,0.0,-1429.31,0
GRID,15711,0,300.0338,0.0,-1431.34,0
GRID,15712,0,297.9993,0.0,-1433.38,0
GRID,15713,0,295.9649,0.0,-1435.41,0
GRID,15714,0,293.9304,0.0,-1437.44,0
GRID,15715,0,291.8209,0.0,-1439.53,0
GRID,15716,0,289.6928,0.0,-1441.61,0
GRID,15717,0,287.5461,0.0,-1443.66,0
GRID,15718,0,285.3812,0.0,-1445.69,0
GRID,15719,0,283.1981,0.0,-1447.7,0
GRID,15720,0,280.997,0.0,-1449.7,0
GRID,15721,0,278.778,0.0,-1451.67,0
GRID,15722,0,276.5414,0.0,-1453.62,0
GRID,15723,0,274.2873,0.0,-1455.55,0
GRID,15724,0,272.0159,0.0,-1457.47,0
GRID,15725,0,269.7274,0.0,-1459.36,0
GRID,15726,0,267.422,0.0,-1461.23,0
GRID,15727,0,265.1,0.0,-1463.08,0
GRID,15728,0,262.7615,0.0,-1464.91,0
GRID,15729,0,260.4067,0.0,-1466.71,0
GRID,15730,0,258.0358,0.0,-1468.5,0
GRID,15731,0,255.6491,0.0,-1470.26,0
GRID,15732,0,253.2467,0.0,-1472.0,0
GRID,15733,0,250.8289,0.0,-1473.72,0
GRID,15734,0,248.3958,0.0,-1475.42,0
GRID,15735,0,245.9477,0.0,-1477.1,0
GRID,15736,0,243.4847,0.0,-1478.75,0
GRID,15737,0,241.0071,0.0,-1480.38,0
GRID,15738,0,238.5151,0.0,-1481.99,0
GRID,15739,0,236.009,0.0,-1483.58,0
GRID,15740,0,233.4888,0.0,-1485.14,0
GRID,15741,0,230.955,0.0,-1486.68,0
GRID,15742,0,228.4075,0.0,-1488.2,0
GRID,15743,0,225.8468,0.0,-1489.69,0
GRID,15744,0,223.2729,0.0,-1491.17,0
GRID,15745,0,220.6862,0.0,-1492.61,0
GRID,15746,0,218.0868,0.0,-1494.04,0
GRID,15747,0,215.475,0.0,-1495.44,0
GRID,15748,0,212.851,0.0,-1496.81,0
GRID,15749,0,210.215,0.0,-1498.16,0
GRID,15750,0,207.5673,0.0,-1499.49,0
GRID,15751,0,204.9081,0.0,-1500.79,0
GRID,15752,0,202.2375,0.0,-1502.07,0
GRID,15753,0,199.5559,0.0,-1503.33,0
GRID,15754,0,196.8635,0.0,-1504.56,0
GRID,15755,0,194.1605,0.0,-1505.76,0
GRID,15756,0,191.4471,0.0,-1506.95,0
GRID,15757,0,188.7236,0.0,-1508.1,0
GRID,15758,0,185.9902,0.0,-1509.23,0
GRID,15759,0,183.2472,0.0,-1510.34,0
GRID,15760,0,180.4947,0.0,-1511.42,0
GRID,15761,0,177.7331,0.0,-1512.48,0
GRID,15762,0,174.9625,0.0,-1513.51,0
GRID,15763,0,172.1832,0.0,-1514.51,0
GRID,15764,0,169.3945,0.0,-1515.49,0
GRID,15765,0,166.5962,0.0,-1516.45,0
GRID,15766,0,163.7888,0.0,-1517.37,0
GRID,15767,0,160.9723,0.0,-1518.27,0
GRID,15768,0,158.1471,0.0,-1519.14,0
GRID,15769,0,155.3134,0.0,-1519.99,0
GRID,15770,0,152.4715,0.0,-1520.81,0
GRID,15771,0,149.6217,0.0,-1521.6,0
GRID,15772,0,146.7641,0.0,-1522.36,0
GRID,15773,0,143.8992,0.0,-1523.09,0
GRID,15774,0,141.027,0.0,-1523.8,0
GRID,15775,0,138.148,0.0,-1524.48,0
GRID,15776,0,135.2624,0.0,-1525.13,0
GRID,15777,0,132.3705,0.0,-1525.76,0
GRID,15778,0,129.4724,0.0,-1526.35,0
GRID,15779,0,126.5685,0.0,-1526.92,0
GRID,15780,0,123.6591,0.0,-1527.46,0
GRID,15781,0,120.7445,0.0,-1527.97,0
GRID,15782,0,117.8248,0.0,-1528.46,0
GRID,15783,0,114.9004,0.0,-1528.91,0
GRID,15784,0,111.9716,0.0,-1529.34,0
GRID,15785,0,109.0386,0.0,-1529.74,0
GRID,15786,0,106.1016,0.0,-1530.11,0
GRID,15787,0,103.1611,0.0,-1530.46,0
GRID,15788,0,100.2172,0.0,-1530.77,0
GRID,15789,0,97.27017,0.0,-1531.06,0
GRID,15790,0,94.32036,0.0,-1531.32,0
GRID,15791,0,91.36803,0.0,-1531.55,0
GRID,15792,0,88.41344,0.0,-1531.75,0
GRID,15793,0,85.45688,0.0,-1531.92,0
GRID,15794,0,82.49861,0.0,-1532.07,0
GRID,15795,0,79.53892,0.0,-1532.18,0
GRID,15796,0,76.57808,0.0,-1532.27,0
GRID,15797,0,73.61636,0.0,-1532.33,0
GRID,15798,0,70.65405,0.0,-1532.36,0
GRID,15799,0,67.69142,0.0,-1532.36,0
GRID,15800,0,64.72875,0.0,-1532.33,0
GRID,15801,0,61.76632,0.0,-1532.28,0
GRID,15802,0,58.8044,0.0,-1532.19,0
GRID,15803,0,55.84327,0.0,-1532.08,0
GRID,15804,0,52.88321,0.0,-1531.94,0
GRID,15805,0,49.9245,0.0,-1531.77,0
GRID,15806,0,46.96741,0.0,-1531.57,0
GRID,15807,0,44.01222,0.0,-1531.34,0
GRID,15808,0,41.0592,0.0,-1531.09,0
GRID,15809,0,38.10864,0.0,-1530.8,0
GRID,15810,0,35.16081,0.0,-1530.49,0
GRID,15811,0,32.21598,0.0,-1530.15,0
GRID,15812,0,29.27443,0.0,-1529.78,0
GRID,15813,0,26.33644,0.0,-1529.38,0
GRID,15814,0,23.4023,0.0,-1528.96,0
GRID,15815,0,20.47229,0.0,-1528.5,0
GRID,15816,0,17.54666,0.0,-1528.02,0
GRID,15817,0,14.62569,0.0,-1527.51,0
GRID,15818,0,11.70964,0.0,-1526.97,0
GRID,15819,0,8.798781,0.0,-1526.4,0
GRID,15820,0,5.893376,0.0,-1525.81,0
GRID,15821,0,2.993694,0.0,-1525.19,0
GRID,15822,0,399.0917,0.0,-1052.95,0
GRID,15823,0,399.0917,0.0,-1055.9,0
GRID,15824,0,399.0917,0.0,-1058.84,0
GRID,15825,0,399.0917,0.0,-1061.79,0
GRID,15826,0,399.0917,0.0,-1064.74,0
GRID,15827,0,399.0917,0.0,-1067.69,0
GRID,15828,0,399.0917,0.0,-1070.63,0
GRID,15829,0,399.0911,0.0,-1073.57,0
GRID,15830,0,399.0894,0.0,-1076.5,0
GRID,15831,0,399.0866,0.0,-1079.44,0
GRID,15832,0,399.0827,0.0,-1082.37,0
GRID,15833,0,399.0776,0.0,-1085.31,0
GRID,15834,0,399.0715,0.0,-1088.24,0
GRID,15835,0,399.0642,0.0,-1091.18,0
GRID,15836,0,399.0558,0.0,-1094.11,0
GRID,15837,0,399.0463,0.0,-1097.05,0
GRID,15838,0,399.0357,0.0,-1099.98,0
GRID,15839,0,399.0239,0.0,-1102.92,0
GRID,15840,0,399.0111,0.0,-1105.85,0
GRID,15841,0,398.9971,0.0,-1108.79,0
GRID,15842,0,398.982,0.0,-1111.72,0
GRID,15843,0,398.9658,0.0,-1114.66,0
GRID,15844,0,398.9484,0.0,-1117.59,0
GRID,15845,0,398.93,0.0,-1120.53,0
GRID,15846,0,398.9104,0.0,-1123.46,0
GRID,15847,0,398.8898,0.0,-1126.39,0
GRID,15848,0,398.868,0.0,-1129.33,0
GRID,15849,0,398.8451,0.0,-1132.26,0
GRID,15850,0,398.8211,0.0,-1135.19,0
GRID,15851,0,398.796,0.0,-1138.13,0
GRID,15852,0,398.7697,0.0,-1141.06,0
GRID,15853,0,398.7424,0.0,-1143.99,0
GRID,15854,0,398.714,0.0,-1146.93,0
GRID,15855,0,398.6845,0.0,-1149.86,0
GRID,15856,0,398.6538,0.0,-1152.79,0
GRID,15857,0,398.6221,0.0,-1155.72,0
GRID,15858,0,398.5892,0.0,-1158.66,0
GRID,15859,0,398.5553,0.0,-1161.59,0
GRID,15860,0,398.5202,0.0,-1164.52,0
GRID,15861,0,398.4841,0.0,-1167.45,0
GRID,15862,0,398.4469,0.0,-1170.38,0
GRID,15863,0,398.4086,0.0,-1173.31,0
GRID,15864,0,398.3691,0.0,-1176.24,0
GRID,15865,0,398.3286,0.0,-1179.17,0
GRID,15866,0,398.287,0.0,-1182.1,0
GRID,15867,0,398.2444,0.0,-1185.03,0
GRID,15868,0,398.2006,0.0,-1187.96,0
GRID,15869,0,398.1557,0.0,-1190.89,0
GRID,15870,0,398.1098,0.0,-1193.82,0
GRID,15871,0,398.0628,0.0,-1196.75,0
GRID,15872,0,398.0147,0.0,-1199.68,0
GRID,15873,0,397.9656,0.0,-1202.61,0
GRID,15874,0,397.9153,0.0,-1205.53,0
GRID,15875,0,397.864,0.0,-1208.46,0
GRID,15876,0,397.8116,0.0,-1211.39,0
GRID,15877,0,397.7439,0.0,-1214.32,0
GRID,15878,0,397.6474,0.0,-1217.25,0
GRID,15879,0,397.5222,0.0,-1220.18,0
GRID,15880,0,397.3681,0.0,-1223.11,0
GRID,15881,0,397.1853,0.0,-1226.04,0
GRID,15882,0,396.9736,0.0,-1228.96,0
GRID,15883,0,396.733,0.0,-1231.89,0
GRID,15884,0,396.4636,0.0,-1234.81,0
GRID,15885,0,396.1653,0.0,-1237.73,0
GRID,15886,0,395.8381,0.0,-1240.64,0
GRID,15887,0,395.4822,0.0,-1243.55,0
GRID,15888,0,395.0976,0.0,-1246.46,0
GRID,15889,0,394.6843,0.0,-1249.37,0
GRID,15890,0,394.2424,0.0,-1252.27,0
GRID,15891,0,393.7719,0.0,-1255.17,0
GRID,15892,0,393.2728,0.0,-1258.06,0
GRID,15893,0,392.7451,0.0,-1260.95,0
GRID,15894,0,392.189,0.0,-1263.83,0
GRID,15895,0,391.6045,0.0,-1266.7,0
GRID,15896,0,390.9916,0.0,-1269.57,0
GRID,15897,0,390.3504,0.0,-1272.44,0
GRID,15898,0,389.681,0.0,-1275.3,0
GRID,15899,0,388.9834,0.0,-1278.15,0
GRID,15900,0,388.2577,0.0,-1280.99,0
GRID,15901,0,387.504,0.0,-1283.83,0
GRID,15902,0,386.7223,0.0,-1286.66,0
GRID,15903,0,385.9126,0.0,-1289.48,0
GRID,15904,0,385.0752,0.0,-1292.3,0
GRID,15905,0,384.21,0.0,-1295.11,0
GRID,15906,0,383.3171,0.0,-1297.9,0
GRID,15907,0,382.3967,0.0,-1300.69,0
GRID,15908,0,381.4488,0.0,-1303.47,0
GRID,15909,0,380.4735,0.0,-1306.24,0
GRID,15910,0,379.4709,0.0,-1309.0,0
GRID,15911,0,378.4411,0.0,-1311.75,0
GRID,15912,0,377.3842,0.0,-1314.49,0
GRID,15913,0,376.3003,0.0,-1317.22,0
GRID,15914,0,375.1895,0.0,-1319.94,0
GRID,15915,0,374.0519,0.0,-1322.65,0
GRID,15916,0,372.8876,0.0,-1325.35,0
GRID,15917,0,371.6968,0.0,-1328.04,0
GRID,15918,0,370.4795,0.0,-1330.71,0
GRID,15919,0,369.2359,0.0,-1333.37,0
GRID,15920,0,367.966,0.0,-1336.02,0
GRID,15921,0,366.6701,0.0,-1338.66,0
GRID,15922,0,365.3482,0.0,-1341.28,0
GRID,15923,0,364.0004,0.0,-1343.89,0
GRID,15924,0,362.627,0.0,-1346.49,0
GRID,15925,0,361.228,0.0,-1349.08,0
GRID,15926,0,359.8035,0.0,-1351.65,0
GRID,15927,0,358.3538,0.0,-1354.2,0
GRID,15928,0,356.8789,0.0,-1356.74,0
GRID,15929,0,355.3789,0.0,-1359.27,0
GRID,15930,0,353.8541,0.0,-1361.78,0
GRID,15931,0,352.3045,0.0,-1364.28,0
GRID,15932,0,350.7304,0.0,-1366.76,0
GRID,15933,0,349.1319,0.0,-1369.23,0
GRID,15934,0,347.5091,0.0,-1371.68,0
GRID,15935,0,345.8623,0.0,-1374.11,0
GRID,15936,0,344.1914,0.0,-1376.53,0
GRID,15937,0,342.4968,0.0,-1378.93,0
GRID,15938,0,340.7786,0.0,-1381.32,0
GRID,15939,0,339.0369,0.0,-1383.69,0
GRID,15940,0,337.2719,0.0,-1386.04,0
GRID,15941,0,335.4838,0.0,-1388.37,0
GRID,15942,0,333.6728,0.0,-1390.69,0
GRID,15943,0,331.8391,0.0,-1392.98,0
GRID,15944,0,329.9827,0.0,-1395.26,0
GRID,15945,0,328.104,0.0,-1397.52,0
GRID,15946,0,326.2031,0.0,-1399.77,0
GRID,15947,0,324.28,0.0,-1401.99,0
GRID,15948,0,322.3351,0.0,-1404.2,0
GRID,15949,0,320.3685,0.0,-1406.38,0
GRID,15950,0,318.3806,0.0,-1408.55,0
GRID,15951,0,316.3704,0.0,-1410.69,0
GRID,15952,0,314.34,0.0,-1412.82,0
GRID,15953,0,312.2896,0.0,-1414.93,0
GRID,15954,0,310.2194,0.0,-1417.02,0
GRID,15955,0,308.1946,0.0,-1419.05,0
GRID,15956,0,306.1698,0.0,-1421.07,0
GRID,15957,0,304.145,0.0,-1423.1,0
GRID,15958,0,302.1202,0.0,-1425.12,0
GRID,15959,0,300.0953,0.0,-1427.15,0
GRID,15960,0,298.0705,0.0,-1429.17,0
GRID,15961,0,296.0457,0.0,-1431.2,0
GRID,15962,0,294.0209,0.0,-1433.22,0
GRID,15963,0,291.9961,0.0,-1435.25,0
GRID,15964,0,289.8976,0.0,-1437.33,0
GRID,15965,0,287.7808,0.0,-1439.39,0
GRID,15966,0,285.6459,0.0,-1441.43,0
GRID,15967,0,283.4929,0.0,-1443.45,0
GRID,15968,0,281.3222,0.0,-1445.45,0
GRID,15969,0,279.1337,0.0,-1447.44,0
GRID,15970,0,276.9277,0.0,-1449.4,0
GRID,15971,0,274.7044,0.0,-1451.35,0
GRID,15972,0,272.4639,0.0,-1453.27,0
GRID,15973,0,270.2064,0.0,-1455.18,0
GRID,15974,0,267.9321,0.0,-1457.06,0
GRID,15975,0,265.6412,0.0,-1458.93,0
GRID,15976,0,263.334,0.0,-1460.77,0
GRID,15977,0,261.0106,0.0,-1462.59,0
GRID,15978,0,258.6712,0.0,-1464.39,0
GRID,15979,0,256.316,0.0,-1466.17,0
GRID,15980,0,253.9453,0.0,-1467.93,0
GRID,15981,0,251.5591,0.0,-1469.67,0
GRID,15982,0,249.1578,0.0,-1471.39,0
GRID,15983,0,246.7415,0.0,-1473.08,0
GRID,15984,0,244.3104,0.0,-1474.75,0
GRID,15985,0,241.8648,0.0,-1476.4,0
GRID,15986,0,239.4048,0.0,-1478.03,0
GRID,15987,0,236.9307,0.0,-1479.64,0
GRID,15988,0,234.4426,0.0,-1481.23,0
GRID,15989,0,231.9408,0.0,-1482.79,0
GRID,15990,0,229.4255,0.0,-1484.33,0
GRID,15991,0,226.8969,0.0,-1485.84,0
GRID,15992,0,224.3552,0.0,-1487.34,0
GRID,15993,0,221.8007,0.0,-1488.81,0
GRID,15994,0,219.2335,0.0,-1490.26,0
GRID,15995,0,216.6539,0.0,-1491.68,0
GRID,15996,0,214.0621,0.0,-1493.08,0
GRID,15997,0,211.4583,0.0,-1494.46,0
GRID,15998,0,208.8427,0.0,-1495.81,0
GRID,15999,0,206.2156,0.0,-1497.15,0
GRID,16000,0,203.5772,0.0,-1498.45,0
GRID,16001,0,200.9277,0.0,-1499.74,0
GRID,16002,0,198.2673,0.0,-1500.99,0
GRID,16003,0,195.5963,0.0,-1502.23,0
GRID,16004,0,192.9149,0.0,-1503.44,0
GRID,16005,0,190.2234,0.0,-1504.63,0
GRID,16006,0,187.5218,0.0,-1505.79,0
GRID,16007,0,184.8106,0.0,-1506.93,0
GRID,16008,0,182.0899,0.0,-1508.04,0
GRID,16009,0,179.3599,0.0,-1509.13,0
GRID,16010,0,176.6209,0.0,-1510.19,0
GRID,16011,0,173.8731,0.0,-1511.23,0
GRID,16012,0,171.1168,0.0,-1512.25,0
GRID,16013,0,168.351,0.0,-1513.24,0
GRID,16014,0,165.5755,0.0,-1514.2,0
GRID,16015,0,162.7906,0.0,-1515.13,0
GRID,16016,0,159.9965,0.0,-1516.04,0
GRID,16017,0,157.1934,0.0,-1516.92,0
GRID,16018,0,154.3818,0.0,-1517.78,0
GRID,16019,0,151.5617,0.0,-1518.6,0
GRID,16020,0,148.7335,0.0,-1519.4,0
GRID,16021,0,145.8974,0.0,-1520.18,0
GRID,16022,0,143.0537,0.0,-1520.92,0
GRID,16023,0,140.2027,0.0,-1521.64,0
GRID,16024,0,137.3447,0.0,-1522.33,0
GRID,16025,0,134.4798,0.0,-1522.99,0
GRID,16026,0,131.6084,0.0,-1523.63,0
GRID,16027,0,128.7308,0.0,-1524.23,0
GRID,16028,0,125.8472,0.0,-1524.81,0
GRID,16029,0,122.9578,0.0,-1525.36,0
GRID,16030,0,120.0631,0.0,-1525.89,0
GRID,16031,0,117.1631,0.0,-1526.38,0
GRID,16032,0,114.2583,0.0,-1526.85,0
GRID,16033,0,111.3488,0.0,-1527.29,0
GRID,16034,0,108.435,0.0,-1527.7,0
GRID,16035,0,105.5172,0.0,-1528.08,0
GRID,16036,0,102.5955,0.0,-1528.44,0
GRID,16037,0,99.6703,0.0,-1528.76,0
GRID,16038,0,96.74186,0.0,-1529.06,0
GRID,16039,0,93.81045,0.0,-1529.33,0
GRID,16040,0,90.87635,0.0,-1529.57,0
GRID,16041,0,87.93983,0.0,-1529.78,0
GRID,16042,0,85.00117,0.0,-1529.97,0
GRID,16043,0,82.06065,0.0,-1530.12,0
GRID,16044,0,79.11855,0.0,-1530.25,0
GRID,16045,0,76.17514,0.0,-1530.35,0
GRID,16046,0,73.2307,0.0,-1530.42,0
GRID,16047,0,70.28552,0.0,-1530.46,0
GRID,16048,0,67.33986,0.0,-1530.47,0
GRID,16049,0,64.39401,0.0,-1530.46,0
GRID,16050,0,61.44825,0.0,-1530.41,0
GRID,16051,0,58.50285,0.0,-1530.34,0
GRID,16052,0,55.5581,0.0,-1530.24,0
GRID,16053,0,52.61426,0.0,-1530.11,0
GRID,16054,0,49.67163,0.0,-1529.95,0
GRID,16055,0,46.73049,0.0,-1529.77,0
GRID,16056,0,43.79109,0.0,-1529.55,0
GRID,16057,0,40.85374,0.0,-1529.31,0
GRID,16058,0,37.9187,0.0,-1529.04,0
GRID,16059,0,34.98625,0.0,-1528.74,0
GRID,16060,0,32.05667,0.0,-1528.41,0
GRID,16061,0,29.13024,0.0,-1528.05,0
GRID,16062,0,26.20724,0.0,-1527.67,0
GRID,16063,0,23.28796,0.0,-1527.25,0
GRID,16064,0,20.37266,0.0,-1526.81,0
GRID,16065,0,17.46164,0.0,-1526.34,0
GRID,16066,0,14.55514,0.0,-1525.84,0
GRID,16067,0,11.65344,0.0,-1525.31,0
GRID,16068,0,8.756807,0.0,-1524.76,0
GRID,16069,0,5.865511,0.0,-1524.18,0
GRID,16070,0,2.979819,0.0,-1523.57,0
GRID,16071,0,397.29,0.0,-1052.93,0
GRID,16072,0,397.29,0.0,-1055.87,0
GRID,16073,0,397.29,0.0,-1058.8,0
GRID,16074,0,397.29,0.0,-1061.74,0
GRID,16075,0,397.29,0.0,-1064.67,0
GRID,16076,0,397.29,0.0,-1067.61,0
GRID,16077,0,397.29,0.0,-1070.54,0
GRID,16078,0,397.2893,0.0,-1073.46,0
GRID,16079,0,397.2873,0.0,-1076.38,0
GRID,16080,0,397.2839,0.0,-1079.3,0
GRID,16081,0,397.2792,0.0,-1082.22,0
GRID,16082,0,397.2731,0.0,-1085.14,0
GRID,16083,0,397.2657,0.0,-1088.06,0
GRID,16084,0,397.257,0.0,-1090.98,0
GRID,16085,0,397.247,0.0,-1093.9,0
GRID,16086,0,397.2355,0.0,-1096.82,0
GRID,16087,0,397.2228,0.0,-1099.74,0
GRID,16088,0,397.2087,0.0,-1102.66,0
GRID,16089,0,397.1933,0.0,-1105.58,0
GRID,16090,0,397.1765,0.0,-1108.5,0
GRID,16091,0,397.1584,0.0,-1111.42,0
GRID,16092,0,397.1389,0.0,-1114.34,0
GRID,16093,0,397.1181,0.0,-1117.25,0
GRID,16094,0,397.096,0.0,-1120.17,0
GRID,16095,0,397.0725,0.0,-1123.09,0
GRID,16096,0,397.0477,0.0,-1126.01,0
GRID,16097,0,397.0216,0.0,-1128.93,0
GRID,16098,0,396.9941,0.0,-1131.85,0
GRID,16099,0,396.9653,0.0,-1134.76,0
GRID,16100,0,396.9352,0.0,-1137.68,0
GRID,16101,0,396.9037,0.0,-1140.6,0
GRID,16102,0,396.8709,0.0,-1143.52,0
GRID,16103,0,396.8368,0.0,-1146.43,0
GRID,16104,0,396.8013,0.0,-1149.35,0
GRID,16105,0,396.7646,0.0,-1152.27,0
GRID,16106,0,396.7265,0.0,-1155.18,0
GRID,16107,0,396.6871,0.0,-1158.1,0
GRID,16108,0,396.6463,0.0,-1161.01,0
GRID,16109,0,396.6043,0.0,-1163.93,0
GRID,16110,0,396.5609,0.0,-1166.84,0
GRID,16111,0,396.5163,0.0,-1169.76,0
GRID,16112,0,396.4703,0.0,-1172.67,0
GRID,16113,0,396.423,0.0,-1175.59,0
GRID,16114,0,396.3744,0.0,-1178.5,0
GRID,16115,0,396.3244,0.0,-1181.42,0
GRID,16116,0,396.2732,0.0,-1184.33,0
GRID,16117,0,396.2207,0.0,-1187.24,0
GRID,16118,0,396.1669,0.0,-1190.15,0
GRID,16119,0,396.1118,0.0,-1193.07,0
GRID,16120,0,396.0554,0.0,-1195.98,0
GRID,16121,0,395.9977,0.0,-1198.89,0
GRID,16122,0,395.9387,0.0,-1201.8,0
GRID,16123,0,395.8784,0.0,-1204.71,0
GRID,16124,0,395.8168,0.0,-1207.62,0
GRID,16125,0,395.754,0.0,-1210.53,0
GRID,16126,0,395.6758,0.0,-1213.45,0
GRID,16127,0,395.5692,0.0,-1216.36,0
GRID,16128,0,395.4341,0.0,-1219.27,0
GRID,16129,0,395.2705,0.0,-1222.19,0
GRID,16130,0,395.0784,0.0,-1225.1,0
GRID,16131,0,394.8577,0.0,-1228.0,0
GRID,16132,0,394.6085,0.0,-1230.91,0
GRID,16133,0,394.3307,0.0,-1233.81,0
GRID,16134,0,394.0243,0.0,-1236.71,0
GRID,16135,0,393.6893,0.0,-1239.61,0
GRID,16136,0,393.326,0.0,-1242.51,0
GRID,16137,0,392.9341,0.0,-1245.4,0
GRID,16138,0,392.514,0.0,-1248.29,0
GRID,16139,0,392.0654,0.0,-1251.17,0
GRID,16140,0,391.5886,0.0,-1254.05,0
GRID,16141,0,391.0835,0.0,-1256.92,0
GRID,16142,0,390.5501,0.0,-1259.79,0
GRID,16143,0,389.9886,0.0,-1262.66,0
GRID,16144,0,389.3989,0.0,-1265.51,0
GRID,16145,0,388.7812,0.0,-1268.37,0
GRID,16146,0,388.1355,0.0,-1271.21,0
GRID,16147,0,387.4618,0.0,-1274.05,0
GRID,16148,0,386.7603,0.0,-1276.89,0
GRID,16149,0,386.0309,0.0,-1279.72,0
GRID,16150,0,385.2738,0.0,-1282.54,0
GRID,16151,0,384.489,0.0,-1285.35,0
GRID,16152,0,383.6766,0.0,-1288.15,0
GRID,16153,0,382.8366,0.0,-1290.95,0
GRID,16154,0,381.9692,0.0,-1293.74,0
GRID,16155,0,381.0744,0.0,-1296.52,0
GRID,16156,0,380.1523,0.0,-1299.29,0
GRID,16157,0,379.2031,0.0,-1302.05,0
GRID,16158,0,378.2267,0.0,-1304.81,0
GRID,16159,0,377.2233,0.0,-1307.55,0
GRID,16160,0,376.193,0.0,-1310.28,0
GRID,16161,0,375.1359,0.0,-1313.01,0
GRID,16162,0,374.0521,0.0,-1315.72,0
GRID,16163,0,372.9416,0.0,-1318.42,0
GRID,16164,0,371.8046,0.0,-1321.11,0
GRID,16165,0,370.6412,0.0,-1323.79,0
GRID,16166,0,369.4516,0.0,-1326.46,0
GRID,16167,0,368.2358,0.0,-1329.12,0
GRID,16168,0,366.9939,0.0,-1331.76,0
GRID,16169,0,365.726,0.0,-1334.4,0
GRID,16170,0,364.4323,0.0,-1337.02,0
GRID,16171,0,363.113,0.0,-1339.63,0
GRID,16172,0,361.768,0.0,-1342.22,0
GRID,16173,0,360.3977,0.0,-1344.8,0
GRID,16174,0,359.002,0.0,-1347.37,0
GRID,16175,0,357.5811,0.0,-1349.92,0
GRID,16176,0,356.1353,0.0,-1352.46,0
GRID,16177,0,354.6645,0.0,-1354.99,0
GRID,16178,0,353.1689,0.0,-1357.5,0
GRID,16179,0,351.6487,0.0,-1360.0,0
GRID,16180,0,350.1041,0.0,-1362.48,0
GRID,16181,0,348.5352,0.0,-1364.95,0
GRID,16182,0,346.942,0.0,-1367.4,0
GRID,16183,0,345.3249,0.0,-1369.83,0
GRID,16184,0,343.684,0.0,-1372.25,0
GRID,16185,0,342.0193,0.0,-1374.66,0
GRID,16186,0,340.3311,0.0,-1377.05,0
GRID,16187,0,338.6195,0.0,-1379.42,0
GRID,16188,0,336.8847,0.0,-1381.77,0
GRID,16189,0,335.1268,0.0,-1384.11,0
GRID,16190,0,333.3461,0.0,-1386.42,0
GRID,16191,0,331.5427,0.0,-1388.73,0
GRID,16192,0,329.7168,0.0,-1391.01,0
GRID,16193,0,327.8685,0.0,-1393.28,0
GRID,16194,0,325.998,0.0,-1395.52,0
GRID,16195,0,324.1056,0.0,-1397.75,0
GRID,16196,0,322.1913,0.0,-1399.96,0
GRID,16197,0,320.2553,0.0,-1402.16,0
GRID,16198,0,318.298,0.0,-1404.33,0
GRID,16199,0,316.3194,0.0,-1406.48,0
GRID,16200,0,314.3186,0.0,-1408.62,0
GRID,16201,0,312.298,0.0,-1410.74,0
GRID,16202,0,310.2577,0.0,-1412.83,0
GRID,16203,0,308.1981,0.0,-1414.91,0
GRID,16204,0,306.1829,0.0,-1416.93,0
GRID,16205,0,304.1678,0.0,-1418.94,0
GRID,16206,0,302.1526,0.0,-1420.96,0
GRID,16207,0,300.1375,0.0,-1422.97,0
GRID,16208,0,298.1223,0.0,-1424.99,0
GRID,16209,0,296.1072,0.0,-1427.0,0
GRID,16210,0,294.0921,0.0,-1429.02,0
GRID,16211,0,292.0769,0.0,-1431.03,0
GRID,16212,0,290.0618,0.0,-1433.05,0
GRID,16213,0,287.9743,0.0,-1435.12,0
GRID,16214,0,285.8689,0.0,-1437.17,0
GRID,16215,0,283.7456,0.0,-1439.2,0
GRID,16216,0,281.6047,0.0,-1441.21,0
GRID,16217,0,279.4462,0.0,-1443.21,0
GRID,16218,0,277.2704,0.0,-1445.18,0
GRID,16219,0,275.0774,0.0,-1447.14,0
GRID,16220,0,272.8674,0.0,-1449.08,0
GRID,16221,0,270.6405,0.0,-1450.99,0
GRID,16222,0,268.3968,0.0,-1452.89,0
GRID,16223,0,266.1368,0.0,-1454.77,0
GRID,16224,0,263.8604,0.0,-1456.62,0
GRID,16225,0,261.568,0.0,-1458.46,0
GRID,16226,0,259.2597,0.0,-1460.28,0
GRID,16227,0,256.9357,0.0,-1462.07,0
GRID,16228,0,254.5962,0.0,-1463.85,0
GRID,16229,0,252.2414,0.0,-1465.6,0
GRID,16230,0,249.8716,0.0,-1467.33,0
GRID,16231,0,247.4867,0.0,-1469.05,0
GRID,16232,0,245.0872,0.0,-1470.74,0
GRID,16233,0,242.6732,0.0,-1472.41,0
GRID,16234,0,240.2449,0.0,-1474.06,0
GRID,16235,0,237.8025,0.0,-1475.68,0
GRID,16236,0,235.3462,0.0,-1477.29,0
GRID,16237,0,232.8763,0.0,-1478.87,0
GRID,16238,0,230.3928,0.0,-1480.43,0
GRID,16239,0,227.8961,0.0,-1481.97,0
GRID,16240,0,225.3863,0.0,-1483.49,0
GRID,16241,0,222.8637,0.0,-1484.98,0
GRID,16242,0,220.3285,0.0,-1486.45,0
GRID,16243,0,217.7808,0.0,-1487.9,0
GRID,16244,0,215.221,0.0,-1489.33,0
GRID,16245,0,212.6491,0.0,-1490.73,0
GRID,16246,0,210.0656,0.0,-1492.11,0
GRID,16247,0,207.4704,0.0,-1493.47,0
GRID,16248,0,204.8639,0.0,-1494.8,0
GRID,16249,0,202.2464,0.0,-1496.11,0
GRID,16250,0,199.6179,0.0,-1497.4,0
GRID,16251,0,196.9787,0.0,-1498.66,0
GRID,16252,0,194.3292,0.0,-1499.9,0
GRID,16253,0,191.6694,0.0,-1501.12,0
GRID,16254,0,188.9996,0.0,-1502.31,0
GRID,16255,0,186.3201,0.0,-1503.48,0
GRID,16256,0,183.631,0.0,-1504.62,0
GRID,16257,0,180.9326,0.0,-1505.74,0
GRID,16258,0,178.2251,0.0,-1506.84,0
GRID,16259,0,175.5088,0.0,-1507.91,0
GRID,16260,0,172.7838,0.0,-1508.96,0
GRID,16261,0,170.0505,0.0,-1509.98,0
GRID,16262,0,167.3075,0.0,-1510.98,0
GRID,16263,0,164.5547,0.0,-1511.95,0
GRID,16264,0,161.7923,0.0,-1512.89,0
GRID,16265,0,159.0206,0.0,-1513.81,0
GRID,16266,0,156.2398,0.0,-1514.7,0
GRID,16267,0,153.4501,0.0,-1515.57,0
GRID,16268,0,150.6518,0.0,-1516.4,0
GRID,16269,0,147.8453,0.0,-1517.21,0
GRID,16270,0,145.0307,0.0,-1517.99,0
GRID,16271,0,142.2083,0.0,-1518.75,0
GRID,16272,0,139.3784,0.0,-1519.48,0
GRID,16273,0,136.5413,0.0,-1520.18,0
GRID,16274,0,133.6972,0.0,-1520.85,0
GRID,16275,0,130.8464,0.0,-1521.49,0
GRID,16276,0,127.9892,0.0,-1522.11,0
GRID,16277,0,125.1258,0.0,-1522.7,0
GRID,16278,0,122.2565,0.0,-1523.26,0
GRID,16279,0,119.3817,0.0,-1523.8,0
GRID,16280,0,116.5015,0.0,-1524.3,0
GRID,16281,0,113.6162,0.0,-1524.78,0
GRID,16282,0,110.7261,0.0,-1525.23,0
GRID,16283,0,107.8315,0.0,-1525.65,0
GRID,16284,0,104.9327,0.0,-1526.05,0
GRID,16285,0,102.0299,0.0,-1526.41,0
GRID,16286,0,99.12344,0.0,-1526.75,0
GRID,16287,0,96.21356,0.0,-1527.06,0
GRID,16288,0,93.30054,0.0,-1527.34,0
GRID,16289,0,90.38466,0.0,-1527.59,0
GRID,16290,0,87.46621,0.0,-1527.82,0
GRID,16291,0,84.54546,0.0,-1528.01,0
GRID,16292,0,81.62269,0.0,-1528.18,0
GRID,16293,0,78.69818,0.0,-1528.32,0
GRID,16294,0,75.7722,0.0,-1528.43,0
GRID,16295,0,72.84505,0.0,-1528.51,0
GRID,16296,0,69.91698,0.0,-1528.56,0
GRID,16297,0,66.9883,0.0,-1528.59,0
GRID,16298,0,64.05927,0.0,-1528.59,0
GRID,16299,0,61.13018,0.0,-1528.55,0
GRID,16300,0,58.2013,0.0,-1528.49,0
GRID,16301,0,55.27292,0.0,-1528.4,0
GRID,16302,0,52.34532,0.0,-1528.29,0
GRID,16303,0,49.41877,0.0,-1528.14,0
GRID,16304,0,46.49356,0.0,-1527.97,0
GRID,16305,0,43.56997,0.0,-1527.76,0
GRID,16306,0,40.64828,0.0,-1527.53,0
GRID,16307,0,37.72876,0.0,-1527.27,0
GRID,16308,0,34.8117,0.0,-1526.98,0
GRID,16309,0,31.89737,0.0,-1526.67,0
GRID,16310,0,28.98606,0.0,-1526.32,0
GRID,16311,0,26.07804,0.0,-1525.95,0
GRID,16312,0,23.17361,0.0,-1525.55,0
GRID,16313,0,20.27304,0.0,-1525.12,0
GRID,16314,0,17.37661,0.0,-1524.66,0
GRID,16315,0,14.48459,0.0,-1524.17,0
GRID,16316,0,11.59724,0.0,-1523.66,0
GRID,16317,0,8.714832,0.0,-1523.11,0
GRID,16318,0,5.837645,0.0,-1522.54,0
GRID,16319,0,2.965944,0.0,-1521.94,0
GRID,16320,0,395.4883,0.0,-1052.92,0
GRID,16321,0,395.4883,0.0,-1055.84,0
GRID,16322,0,395.4883,0.0,-1058.77,0
GRID,16323,0,395.4883,0.0,-1061.69,0
GRID,16324,0,395.4883,0.0,-1064.61,0
GRID,16325,0,395.4883,0.0,-1067.53,0
GRID,16326,0,395.4883,0.0,-1070.45,0
GRID,16327,0,395.4875,0.0,-1073.36,0
GRID,16328,0,395.4851,0.0,-1076.26,0
GRID,16329,0,395.4812,0.0,-1079.17,0
GRID,16330,0,395.4757,0.0,-1082.07,0
GRID,16331,0,395.4687,0.0,-1084.98,0
GRID,16332,0,395.46,0.0,-1087.88,0
GRID,16333,0,395.4499,0.0,-1090.78,0
GRID,16334,0,395.4381,0.0,-1093.69,0
GRID,16335,0,395.4248,0.0,-1096.59,0
GRID,16336,0,395.4099,0.0,-1099.5,0
GRID,16337,0,395.3935,0.0,-1102.4,0
GRID,16338,0,395.3755,0.0,-1105.3,0
GRID,16339,0,395.3559,0.0,-1108.21,0
GRID,16340,0,395.3348,0.0,-1111.11,0
GRID,16341,0,395.3121,0.0,-1114.01,0
GRID,16342,0,395.2878,0.0,-1116.92,0
GRID,16343,0,395.262,0.0,-1119.82,0
GRID,16344,0,395.2346,0.0,-1122.72,0
GRID,16345,0,395.2057,0.0,-1125.62,0
GRID,16346,0,395.1752,0.0,-1128.53,0
GRID,16347,0,395.1431,0.0,-1131.43,0
GRID,16348,0,395.1095,0.0,-1134.33,0
GRID,16349,0,395.0743,0.0,-1137.23,0
GRID,16350,0,395.0376,0.0,-1140.13,0
GRID,16351,0,394.9994,0.0,-1143.04,0
GRID,16352,0,394.9596,0.0,-1145.94,0
GRID,16353,0,394.9182,0.0,-1148.84,0
GRID,16354,0,394.8753,0.0,-1151.74,0
GRID,16355,0,394.8309,0.0,-1154.64,0
GRID,16356,0,394.7849,0.0,-1157.54,0
GRID,16357,0,394.7374,0.0,-1160.44,0
GRID,16358,0,394.6883,0.0,-1163.34,0
GRID,16359,0,394.6377,0.0,-1166.24,0
GRID,16360,0,394.5856,0.0,-1169.14,0
GRID,16361,0,394.532,0.0,-1172.03,0
GRID,16362,0,394.4768,0.0,-1174.93,0
GRID,16363,0,394.4201,0.0,-1177.83,0
GRID,16364,0,394.3619,0.0,-1180.73,0
GRID,16365,0,394.3021,0.0,-1183.62,0
GRID,16366,0,394.2408,0.0,-1186.52,0
GRID,16367,0,394.178,0.0,-1189.42,0
GRID,16368,0,394.1137,0.0,-1192.31,0
GRID,16369,0,394.0479,0.0,-1195.21,0
GRID,16370,0,393.9806,0.0,-1198.1,0
GRID,16371,0,393.9118,0.0,-1201.0,0
GRID,16372,0,393.8414,0.0,-1203.89,0
GRID,16373,0,393.7696,0.0,-1206.78,0
GRID,16374,0,393.6963,0.0,-1209.68,0
GRID,16375,0,393.6077,0.0,-1212.57,0
GRID,16376,0,393.4909,0.0,-1215.47,0
GRID,16377,0,393.346,0.0,-1218.37,0
GRID,16378,0,393.1728,0.0,-1221.26,0
GRID,16379,0,392.9715,0.0,-1224.15,0
GRID,16380,0,392.7418,0.0,-1227.04,0
GRID,16381,0,392.4839,0.0,-1229.93,0
GRID,16382,0,392.1978,0.0,-1232.82,0
GRID,16383,0,391.8833,0.0,-1235.7,0
GRID,16384,0,391.5406,0.0,-1238.58,0
GRID,16385,0,391.1697,0.0,-1241.46,0
GRID,16386,0,390.7707,0.0,-1244.33,0
GRID,16387,0,390.3436,0.0,-1247.2,0
GRID,16388,0,389.8884,0.0,-1250.07,0
GRID,16389,0,389.4053,0.0,-1252.93,0
GRID,16390,0,388.8942,0.0,-1255.79,0
GRID,16391,0,388.3551,0.0,-1258.64,0
GRID,16392,0,387.7882,0.0,-1261.48,0
GRID,16393,0,387.1934,0.0,-1264.32,0
GRID,16394,0,386.5708,0.0,-1267.16,0
GRID,16395,0,385.9205,0.0,-1269.99,0
GRID,16396,0,385.2426,0.0,-1272.81,0
GRID,16397,0,384.5371,0.0,-1275.63,0
GRID,16398,0,383.8041,0.0,-1278.44,0
GRID,16399,0,383.0436,0.0,-1281.24,0
GRID,16400,0,382.2557,0.0,-1284.03,0
GRID,16401,0,381.4405,0.0,-1286.82,0
GRID,16402,0,380.598,0.0,-1289.6,0
GRID,16403,0,379.7284,0.0,-1292.37,0
GRID,16404,0,378.8316,0.0,-1295.13,0
GRID,16405,0,377.9079,0.0,-1297.89,0
GRID,16406,0,376.9573,0.0,-1300.63,0
GRID,16407,0,375.9799,0.0,-1303.37,0
GRID,16408,0,374.9758,0.0,-1306.09,0
GRID,16409,0,373.945,0.0,-1308.81,0
GRID,16410,0,372.8876,0.0,-1311.52,0
GRID,16411,0,371.8038,0.0,-1314.21,0
GRID,16412,0,370.6937,0.0,-1316.9,0
GRID,16413,0,369.5573,0.0,-1319.57,0
GRID,16414,0,368.3948,0.0,-1322.24,0
GRID,16415,0,367.2064,0.0,-1324.89,0
GRID,16416,0,365.992,0.0,-1327.53,0
GRID,16417,0,364.7518,0.0,-1330.16,0
GRID,16418,0,363.486,0.0,-1332.77,0
GRID,16419,0,362.1946,0.0,-1335.38,0
GRID,16420,0,360.8777,0.0,-1337.97,0
GRID,16421,0,359.5356,0.0,-1340.55,0
GRID,16422,0,358.1683,0.0,-1343.11,0
GRID,16423,0,356.776,0.0,-1345.66,0
GRID,16424,0,355.3588,0.0,-1348.2,0
GRID,16425,0,353.9167,0.0,-1350.73,0
GRID,16426,0,352.4501,0.0,-1353.24,0
GRID,16427,0,350.9589,0.0,-1355.73,0
GRID,16428,0,349.4434,0.0,-1358.21,0
GRID,16429,0,347.9037,0.0,-1360.68,0
GRID,16430,0,346.3399,0.0,-1363.13,0
GRID,16431,0,344.7522,0.0,-1365.57,0
GRID,16432,0,343.1407,0.0,-1367.99,0
GRID,16433,0,341.5057,0.0,-1370.39,0
GRID,16434,0,339.8472,0.0,-1372.78,0
GRID,16435,0,338.1653,0.0,-1375.16,0
GRID,16436,0,336.4604,0.0,-1377.51,0
GRID,16437,0,334.7325,0.0,-1379.85,0
GRID,16438,0,332.9817,0.0,-1382.17,0
GRID,16439,0,331.2084,0.0,-1384.48,0
GRID,16440,0,329.4126,0.0,-1386.77,0
GRID,16441,0,327.5944,0.0,-1389.04,0
GRID,16442,0,325.7542,0.0,-1391.29,0
GRID,16443,0,323.8921,0.0,-1393.52,0
GRID,16444,0,322.0081,0.0,-1395.74,0
GRID,16445,0,320.1026,0.0,-1397.94,0
GRID,16446,0,318.1756,0.0,-1400.12,0
GRID,16447,0,316.2274,0.0,-1402.28,0
GRID,16448,0,314.2582,0.0,-1404.42,0
GRID,16449,0,312.2668,0.0,-1406.54,0
GRID,16450,0,310.2559,0.0,-1408.65,0
GRID,16451,0,308.2258,0.0,-1410.73,0
GRID,16452,0,306.1767,0.0,-1412.8,0
GRID,16453,0,304.1712,0.0,-1414.81,0
GRID,16454,0,302.1658,0.0,-1416.81,0
GRID,16455,0,300.1603,0.0,-1418.82,0
GRID,16456,0,298.1548,0.0,-1420.82,0
GRID,16457,0,296.1493,0.0,-1422.83,0
GRID,16458,0,294.1439,0.0,-1424.84,0
GRID,16459,0,292.1384,0.0,-1426.84,0
GRID,16460,0,290.1329,0.0,-1428.85,0
GRID,16461,0,288.1275,0.0,-1430.85,0
GRID,16462,0,286.051,0.0,-1432.91,0
GRID,16463,0,283.957,0.0,-1434.95,0
GRID,16464,0,281.8454,0.0,-1436.97,0
GRID,16465,0,279.7164,0.0,-1438.98,0
GRID,16466,0,277.5703,0.0,-1440.96,0
GRID,16467,0,275.4072,0.0,-1442.93,0
GRID,16468,0,273.2271,0.0,-1444.87,0
GRID,16469,0,271.0304,0.0,-1446.8,0
GRID,16470,0,268.817,0.0,-1448.71,0
GRID,16471,0,266.5873,0.0,-1450.6,0
GRID,16472,0,264.3415,0.0,-1452.47,0
GRID,16473,0,262.0796,0.0,-1454.32,0
GRID,16474,0,259.802,0.0,-1456.15,0
GRID,16475,0,257.5088,0.0,-1457.96,0
GRID,16476,0,255.2002,0.0,-1459.75,0
GRID,16477,0,252.8764,0.0,-1461.52,0
GRID,16478,0,250.5376,0.0,-1463.27,0
GRID,16479,0,248.184,0.0,-1465.0,0
GRID,16480,0,245.8157,0.0,-1466.71,0
GRID,16481,0,243.433,0.0,-1468.4,0
GRID,16482,0,241.036,0.0,-1470.06,0
GRID,16483,0,238.625,0.0,-1471.71,0
GRID,16484,0,236.2002,0.0,-1473.33,0
GRID,16485,0,233.7618,0.0,-1474.93,0
GRID,16486,0,231.3099,0.0,-1476.52,0
GRID,16487,0,228.8448,0.0,-1478.07,0
GRID,16488,0,226.3667,0.0,-1479.61,0
GRID,16489,0,223.8758,0.0,-1481.13,0
GRID,16490,0,221.3722,0.0,-1482.62,0
GRID,16491,0,218.8563,0.0,-1484.09,0
GRID,16492,0,216.3282,0.0,-1485.54,0
GRID,16493,0,213.7881,0.0,-1486.97,0
GRID,16494,0,211.2362,0.0,-1488.38,0
GRID,16495,0,208.6728,0.0,-1489.76,0
GRID,16496,0,206.0981,0.0,-1491.12,0
GRID,16497,0,203.5123,0.0,-1492.45,0
GRID,16498,0,200.9155,0.0,-1493.77,0
GRID,16499,0,198.3081,0.0,-1495.06,0
GRID,16500,0,195.6902,0.0,-1496.33,0
GRID,16501,0,193.062,0.0,-1497.57,0
GRID,16502,0,190.4238,0.0,-1498.79,0
GRID,16503,0,187.7758,0.0,-1499.99,0
GRID,16504,0,185.1183,0.0,-1501.16,0
GRID,16505,0,182.4514,0.0,-1502.31,0
GRID,16506,0,179.7753,0.0,-1503.44,0
GRID,16507,0,177.0903,0.0,-1504.54,0
GRID,16508,0,174.3966,0.0,-1505.62,0
GRID,16509,0,171.6945,0.0,-1506.68,0
GRID,16510,0,168.9841,0.0,-1507.71,0
GRID,16511,0,166.2641,0.0,-1508.72,0
GRID,16512,0,163.534,0.0,-1509.7,0
GRID,16513,0,160.7941,0.0,-1510.65,0
GRID,16514,0,158.0447,0.0,-1511.58,0
GRID,16515,0,155.2861,0.0,-1512.48,0
GRID,16516,0,152.5184,0.0,-1513.35,0
GRID,16517,0,149.742,0.0,-1514.2,0
GRID,16518,0,146.9571,0.0,-1515.02,0
GRID,16519,0,144.1639,0.0,-1515.81,0
GRID,16520,0,141.3628,0.0,-1516.58,0
GRID,16521,0,138.5541,0.0,-1517.32,0
GRID,16522,0,135.7379,0.0,-1518.03,0
GRID,16523,0,132.9146,0.0,-1518.71,0
GRID,16524,0,130.0844,0.0,-1519.36,0
GRID,16525,0,127.2476,0.0,-1519.99,0
GRID,16526,0,124.4044,0.0,-1520.59,0
GRID,16527,0,121.5552,0.0,-1521.16,0
GRID,16528,0,118.7003,0.0,-1521.71,0
GRID,16529,0,115.8398,0.0,-1522.23,0
GRID,16530,0,112.9741,0.0,-1522.71,0
GRID,16531,0,110.1034,0.0,-1523.18,0
GRID,16532,0,107.228,0.0,-1523.61,0
GRID,16533,0,104.3482,0.0,-1524.01,0
GRID,16534,0,101.4643,0.0,-1524.39,0
GRID,16535,0,98.57659,0.0,-1524.74,0
GRID,16536,0,95.68525,0.0,-1525.06,0
GRID,16537,0,92.79063,0.0,-1525.35,0
GRID,16538,0,89.89298,0.0,-1525.61,0
GRID,16539,0,86.99259,0.0,-1525.85,0
GRID,16540,0,84.08975,0.0,-1526.06,0
GRID,16541,0,81.18473,0.0,-1526.24,0
GRID,16542,0,78.27781,0.0,-1526.39,0
GRID,16543,0,75.36927,0.0,-1526.51,0
GRID,16544,0,72.45939,0.0,-1526.6,0
GRID,16545,0,69.54845,0.0,-1526.67,0
GRID,16546,0,66.63674,0.0,-1526.7,0
GRID,16547,0,63.72453,0.0,-1526.71,0
GRID,16548,0,60.8121,0.0,-1526.69,0
GRID,16549,0,57.89975,0.0,-1526.64,0
GRID,16550,0,54.98774,0.0,-1526.57,0
GRID,16551,0,52.07637,0.0,-1526.46,0
GRID,16552,0,49.16591,0.0,-1526.33,0
GRID,16553,0,46.25664,0.0,-1526.16,0
GRID,16554,0,43.34885,0.0,-1525.97,0
GRID,16555,0,40.44282,0.0,-1525.75,0
GRID,16556,0,37.53882,0.0,-1525.51,0
GRID,16557,0,34.63714,0.0,-1525.23,0
GRID,16558,0,31.73807,0.0,-1524.92,0
GRID,16559,0,28.84187,0.0,-1524.59,0
GRID,16560,0,25.94884,0.0,-1524.23,0
GRID,16561,0,23.05926,0.0,-1523.84,0
GRID,16562,0,20.17342,0.0,-1523.42,0
GRID,16563,0,17.29159,0.0,-1522.98,0
GRID,16564,0,14.41403,0.0,-1522.5,0
GRID,16565,0,11.54103,0.0,-1522.0,0
GRID,16566,0,8.672858,0.0,-1521.47,0
GRID,16567,0,5.809779,0.0,-1520.91,0
GRID,16568,0,2.952069,0.0,-1520.32,0
GRID,16569,0,393.6867,0.0,-1052.91,0
GRID,16570,0,393.6867,0.0,-1055.82,0
GRID,16571,0,393.6867,0.0,-1058.73,0
GRID,16572,0,393.6867,0.0,-1061.64,0
GRID,16573,0,393.6867,0.0,-1064.55,0
GRID,16574,0,393.6867,0.0,-1067.45,0
GRID,16575,0,393.6867,0.0,-1070.36,0
GRID,16576,0,393.6857,0.0,-1073.25,0
GRID,16577,0,393.683,0.0,-1076.14,0
GRID,16578,0,393.6785,0.0,-1079.03,0
GRID,16579,0,393.6722,0.0,-1081.92,0
GRID,16580,0,393.6642,0.0,-1084.81,0
GRID,16581,0,393.6543,0.0,-1087.7,0
GRID,16582,0,393.6427,0.0,-1090.59,0
GRID,16583,0,393.6293,0.0,-1093.47,0
GRID,16584,0,393.6141,0.0,-1096.36,0
GRID,16585,0,393.5971,0.0,-1099.25,0
GRID,16586,0,393.5783,0.0,-1102.14,0
GRID,16587,0,393.5577,0.0,-1105.03,0
GRID,16588,0,393.5353,0.0,-1107.92,0
GRID,16589,0,393.5112,0.0,-1110.8,0
GRID,16590,0,393.4852,0.0,-1113.69,0
GRID,16591,0,393.4575,0.0,-1116.58,0
GRID,16592,0,393.428,0.0,-1119.47,0
GRID,16593,0,393.3967,0.0,-1122.35,0
GRID,16594,0,393.3636,0.0,-1125.24,0
GRID,16595,0,393.3288,0.0,-1128.13,0
GRID,16596,0,393.2921,0.0,-1131.01,0
GRID,16597,0,393.2537,0.0,-1133.9,0
GRID,16598,0,393.2135,0.0,-1136.79,0
GRID,16599,0,393.1716,0.0,-1139.67,0
GRID,16600,0,393.1279,0.0,-1142.56,0
GRID,16601,0,393.0824,0.0,-1145.44,0
GRID,16602,0,393.0351,0.0,-1148.33,0
GRID,16603,0,392.9861,0.0,-1151.21,0
GRID,16604,0,392.9353,0.0,-1154.1,0
GRID,16605,0,392.8828,0.0,-1156.98,0
GRID,16606,0,392.8284,0.0,-1159.86,0
GRID,16607,0,392.7724,0.0,-1162.75,0
GRID,16608,0,392.7146,0.0,-1165.63,0
GRID,16609,0,392.655,0.0,-1168.51,0
GRID,16610,0,392.5937,0.0,-1171.39,0
GRID,16611,0,392.5306,0.0,-1174.28,0
GRID,16612,0,392.4658,0.0,-1177.16,0
GRID,16613,0,392.3993,0.0,-1180.04,0
GRID,16614,0,392.331,0.0,-1182.92,0
GRID,16615,0,392.2609,0.0,-1185.8,0
GRID,16616,0,392.1892,0.0,-1188.68,0
GRID,16617,0,392.1157,0.0,-1191.56,0
GRID,16618,0,392.0405,0.0,-1194.44,0
GRID,16619,0,391.9635,0.0,-1197.31,0
GRID,16620,0,391.8849,0.0,-1200.19,0
GRID,16621,0,391.8045,0.0,-1203.07,0
GRID,16622,0,391.7224,0.0,-1205.94,0
GRID,16623,0,391.6386,0.0,-1208.82,0
GRID,16624,0,391.5396,0.0,-1211.7,0
GRID,16625,0,391.4127,0.0,-1214.58,0
GRID,16626,0,391.2579,0.0,-1217.46,0
GRID,16627,0,391.0752,0.0,-1220.33,0
GRID,16628,0,390.8646,0.0,-1223.21,0
GRID,16629,0,390.626,0.0,-1226.08,0
GRID,16630,0,390.3594,0.0,-1228.95,0
GRID,16631,0,390.0648,0.0,-1231.82,0
GRID,16632,0,389.7423,0.0,-1234.69,0
GRID,16633,0,389.3918,0.0,-1237.55,0
GRID,16634,0,389.0134,0.0,-1240.41,0
GRID,16635,0,388.6072,0.0,-1243.27,0
GRID,16636,0,388.1732,0.0,-1246.12,0
GRID,16637,0,387.7115,0.0,-1248.97,0
GRID,16638,0,387.222,0.0,-1251.81,0
GRID,16639,0,386.7049,0.0,-1254.65,0
GRID,16640,0,386.1601,0.0,-1257.48,0
GRID,16641,0,385.5877,0.0,-1260.31,0
GRID,16642,0,384.9878,0.0,-1263.13,0
GRID,16643,0,384.3604,0.0,-1265.95,0
GRID,16644,0,383.7056,0.0,-1268.76,0
GRID,16645,0,383.0234,0.0,-1271.57,0
GRID,16646,0,382.314,0.0,-1274.37,0
GRID,16647,0,381.5772,0.0,-1277.16,0
GRID,16648,0,380.8134,0.0,-1279.94,0
GRID,16649,0,380.0224,0.0,-1282.72,0
GRID,16650,0,379.2044,0.0,-1285.49,0
GRID,16651,0,378.3594,0.0,-1288.25,0
GRID,16652,0,377.4876,0.0,-1291.0,0
GRID,16653,0,376.5889,0.0,-1293.75,0
GRID,16654,0,375.6636,0.0,-1296.49,0
GRID,16655,0,374.7116,0.0,-1299.21,0
GRID,16656,0,373.7331,0.0,-1301.93,0
GRID,16657,0,372.7282,0.0,-1304.64,0
GRID,16658,0,371.6969,0.0,-1307.34,0
GRID,16659,0,370.6393,0.0,-1310.03,0
GRID,16660,0,369.5556,0.0,-1312.71,0
GRID,16661,0,368.4458,0.0,-1315.38,0
GRID,16662,0,367.31,0.0,-1318.03,0
GRID,16663,0,366.1485,0.0,-1320.68,0
GRID,16664,0,364.9612,0.0,-1323.31,0
GRID,16665,0,363.7482,0.0,-1325.94,0
GRID,16666,0,362.5098,0.0,-1328.55,0
GRID,16667,0,361.2459,0.0,-1331.15,0
GRID,16668,0,359.9568,0.0,-1333.74,0
GRID,16669,0,358.6425,0.0,-1336.31,0
GRID,16670,0,357.3032,0.0,-1338.87,0
GRID,16671,0,355.939,0.0,-1341.42,0
GRID,16672,0,354.55,0.0,-1343.96,0
GRID,16673,0,353.1364,0.0,-1346.48,0
GRID,16674,0,351.6982,0.0,-1348.99,0
GRID,16675,0,350.2357,0.0,-1351.48,0
GRID,16676,0,348.7489,0.0,-1353.96,0
GRID,16677,0,347.2381,0.0,-1356.43,0
GRID,16678,0,345.7032,0.0,-1358.88,0
GRID,16679,0,344.1446,0.0,-1361.32,0
GRID,16680,0,342.5623,0.0,-1363.74,0
GRID,16681,0,340.9565,0.0,-1366.14,0
GRID,16682,0,339.3274,0.0,-1368.53,0
GRID,16683,0,337.675,0.0,-1370.91,0
GRID,16684,0,335.9996,0.0,-1373.27,0
GRID,16685,0,334.3013,0.0,-1375.61,0
GRID,16686,0,332.5802,0.0,-1377.93,0
GRID,16687,0,330.8366,0.0,-1380.24,0
GRID,16688,0,329.0706,0.0,-1382.53,0
GRID,16689,0,327.2824,0.0,-1384.81,0
GRID,16690,0,325.4721,0.0,-1387.06,0
GRID,16691,0,323.64,0.0,-1389.3,0
GRID,16692,0,321.7861,0.0,-1391.52,0
GRID,16693,0,319.9107,0.0,-1393.73,0
GRID,16694,0,318.0138,0.0,-1395.91,0
GRID,16695,0,316.0958,0.0,-1398.08,0
GRID,16696,0,314.1568,0.0,-1400.22,0
GRID,16697,0,312.197,0.0,-1402.35,0
GRID,16698,0,310.215,0.0,-1404.46,0
GRID,16699,0,308.2139,0.0,-1406.56,0
GRID,16700,0,306.194,0.0,-1408.63,0
GRID,16701,0,304.1553,0.0,-1410.69,0
GRID,16702,0,302.1595,0.0,-1412.69,0
GRID,16703,0,300.1637,0.0,-1414.68,0
GRID,16704,0,298.1679,0.0,-1416.68,0
GRID,16705,0,296.1721,0.0,-1418.68,0
GRID,16706,0,294.1764,0.0,-1420.67,0
GRID,16707,0,292.1806,0.0,-1422.67,0
GRID,16708,0,290.1848,0.0,-1424.66,0
GRID,16709,0,288.189,0.0,-1426.66,0
GRID,16710,0,286.1932,0.0,-1428.65,0
GRID,16711,0,284.1278,0.0,-1430.7,0
GRID,16712,0,282.045,0.0,-1432.73,0
GRID,16713,0,279.9451,0.0,-1434.74,0
GRID,16714,0,277.8282,0.0,-1436.74,0
GRID,16715,0,275.6944,0.0,-1438.71,0
GRID,16716,0,273.5439,0.0,-1440.67,0
GRID,16717,0,271.3768,0.0,-1442.61,0
GRID,16718,0,269.1933,0.0,-1444.53,0
GRID,16719,0,266.9936,0.0,-1446.43,0
GRID,16720,0,264.7778,0.0,-1448.31,0
GRID,16721,0,262.5462,0.0,-1450.17,0
GRID,16722,0,260.2988,0.0,-1452.02,0
GRID,16723,0,258.036,0.0,-1453.84,0
GRID,16724,0,255.7579,0.0,-1455.65,0
GRID,16725,0,253.4647,0.0,-1457.43,0
GRID,16726,0,251.1566,0.0,-1459.2,0
GRID,16727,0,248.8338,0.0,-1460.94,0
GRID,16728,0,246.4964,0.0,-1462.67,0
GRID,16729,0,244.1446,0.0,-1464.37,0
GRID,16730,0,241.7787,0.0,-1466.05,0
GRID,16731,0,239.3988,0.0,-1467.72,0
GRID,16732,0,237.0051,0.0,-1469.36,0
GRID,16733,0,234.5979,0.0,-1470.98,0
GRID,16734,0,232.1773,0.0,-1472.58,0
GRID,16735,0,229.7435,0.0,-1474.16,0
GRID,16736,0,227.2968,0.0,-1475.72,0
GRID,16737,0,224.8373,0.0,-1477.26,0
GRID,16738,0,222.3652,0.0,-1478.77,0
GRID,16739,0,219.8807,0.0,-1480.26,0
GRID,16740,0,217.3841,0.0,-1481.74,0
GRID,16741,0,214.8755,0.0,-1483.19,0
GRID,16742,0,212.3552,0.0,-1484.62,0
GRID,16743,0,209.8233,0.0,-1486.02,0
GRID,16744,0,207.2801,0.0,-1487.41,0
GRID,16745,0,204.7258,0.0,-1488.77,0
GRID,16746,0,202.1606,0.0,-1490.11,0
GRID,16747,0,199.5847,0.0,-1491.42,0
GRID,16748,0,196.9982,0.0,-1492.72,0
GRID,16749,0,194.4016,0.0,-1493.99,0
GRID,16750,0,191.7948,0.0,-1495.24,0
GRID,16751,0,189.1783,0.0,-1496.47,0
GRID,16752,0,186.5521,0.0,-1497.67,0
GRID,16753,0,183.9165,0.0,-1498.85,0
GRID,16754,0,181.2717,0.0,-1500.01,0
GRID,16755,0,178.618,0.0,-1501.14,0
GRID,16756,0,175.9555,0.0,-1502.25,0
GRID,16757,0,173.2845,0.0,-1503.34,0
GRID,16758,0,170.6052,0.0,-1504.4,0
GRID,16759,0,167.9178,0.0,-1505.44,0
GRID,16760,0,165.2206,0.0,-1506.46,0
GRID,16761,0,162.5133,0.0,-1507.45,0
GRID,16762,0,159.7959,0.0,-1508.41,0
GRID,16763,0,157.0689,0.0,-1509.35,0
GRID,16764,0,154.3324,0.0,-1510.26,0
GRID,16765,0,151.5867,0.0,-1511.14,0
GRID,16766,0,148.8321,0.0,-1512.0,0
GRID,16767,0,146.0689,0.0,-1512.83,0
GRID,16768,0,143.2972,0.0,-1513.63,0
GRID,16769,0,140.5174,0.0,-1514.41,0
GRID,16770,0,137.7297,0.0,-1515.15,0
GRID,16771,0,134.9345,0.0,-1515.87,0
GRID,16772,0,132.1319,0.0,-1516.57,0
GRID,16773,0,129.3223,0.0,-1517.23,0
GRID,16774,0,126.5059,0.0,-1517.87,0
GRID,16775,0,123.6831,0.0,-1518.48,0
GRID,16776,0,120.8539,0.0,-1519.07,0
GRID,16777,0,118.0189,0.0,-1519.62,0
GRID,16778,0,115.1781,0.0,-1520.15,0
GRID,16779,0,112.3319,0.0,-1520.65,0
GRID,16780,0,109.4806,0.0,-1521.12,0
GRID,16781,0,106.6245,0.0,-1521.56,0
GRID,16782,0,103.7638,0.0,-1521.98,0
GRID,16783,0,100.8988,0.0,-1522.37,0
GRID,16784,0,98.02973,0.0,-1522.73,0
GRID,16785,0,95.15695,0.0,-1523.06,0
GRID,16786,0,92.28071,0.0,-1523.36,0
GRID,16787,0,89.4013,0.0,-1523.64,0
GRID,16788,0,86.51898,0.0,-1523.88,0
GRID,16789,0,83.63404,0.0,-1524.1,0
GRID,16790,0,80.74677,0.0,-1524.29,0
GRID,16791,0,77.85744,0.0,-1524.46,0
GRID,16792,0,74.96633,0.0,-1524.59,0
GRID,16793,0,72.07373,0.0,-1524.69,0
GRID,16794,0,69.17992,0.0,-1524.77,0
GRID,16795,0,66.28517,0.0,-1524.82,0
GRID,16796,0,63.38979,0.0,-1524.84,0
GRID,16797,0,60.49403,0.0,-1524.83,0
GRID,16798,0,57.5982,0.0,-1524.79,0
GRID,16799,0,54.70257,0.0,-1524.73,0
GRID,16800,0,51.80742,0.0,-1524.63,0
GRID,16801,0,48.91305,0.0,-1524.51,0
GRID,16802,0,46.01972,0.0,-1524.36,0
GRID,16803,0,43.12773,0.0,-1524.18,0
GRID,16804,0,40.23736,0.0,-1523.98,0
GRID,16805,0,37.34888,0.0,-1523.74,0
GRID,16806,0,34.46259,0.0,-1523.47,0
GRID,16807,0,31.57876,0.0,-1523.18,0
GRID,16808,0,28.69768,0.0,-1522.86,0
GRID,16809,0,25.81963,0.0,-1522.51,0
GRID,16810,0,22.94491,0.0,-1522.13,0
GRID,16811,0,20.07379,0.0,-1521.73,0
GRID,16812,0,17.20656,0.0,-1521.29,0
GRID,16813,0,14.34348,0.0,-1520.83,0
GRID,16814,0,11.48483,0.0,-1520.34,0
GRID,16815,0,8.630884,0.0,-1519.82,0
GRID,16816,0,5.781914,0.0,-1519.27,0
GRID,16817,0,2.938194,0.0,-1518.7,0
GRID,16818,0,391.885,0.0,-1052.9,0
GRID,16819,0,391.885,0.0,-1055.79,0
GRID,16820,0,391.885,0.0,-1058.69,0
GRID,16821,0,391.885,0.0,-1061.58,0
GRID,16822,0,391.885,0.0,-1064.48,0
GRID,16823,0,391.885,0.0,-1067.38,0
GRID,16824,0,391.885,0.0,-1070.27,0
GRID,16825,0,391.884,0.0,-1073.15,0
GRID,16826,0,391.8809,0.0,-1076.02,0
GRID,16827,0,391.8758,0.0,-1078.89,0
GRID,16828,0,391.8688,0.0,-1081.77,0
GRID,16829,0,391.8597,0.0,-1084.64,0
GRID,16830,0,391.8486,0.0,-1087.51,0
GRID,16831,0,391.8355,0.0,-1090.39,0
GRID,16832,0,391.8204,0.0,-1093.26,0
GRID,16833,0,391.8033,0.0,-1096.13,0
GRID,16834,0,391.7842,0.0,-1099.01,0
GRID,16835,0,391.7631,0.0,-1101.88,0
GRID,16836,0,391.7399,0.0,-1104.75,0
GRID,16837,0,391.7147,0.0,-1107.62,0
GRID,16838,0,391.6876,0.0,-1110.5,0
GRID,16839,0,391.6584,0.0,-1113.37,0
GRID,16840,0,391.6272,0.0,-1116.24,0
GRID,16841,0,391.594,0.0,-1119.11,0
GRID,16842,0,391.5588,0.0,-1121.98,0
GRID,16843,0,391.5216,0.0,-1124.86,0
GRID,16844,0,391.4823,0.0,-1127.73,0
GRID,16845,0,391.4411,0.0,-1130.6,0
GRID,16846,0,391.3979,0.0,-1133.47,0
GRID,16847,0,391.3527,0.0,-1136.34,0
GRID,16848,0,391.3055,0.0,-1139.21,0
GRID,16849,0,391.2563,0.0,-1142.08,0
GRID,16850,0,391.2052,0.0,-1144.95,0
GRID,16851,0,391.152,0.0,-1147.82,0
GRID,16852,0,391.0969,0.0,-1150.68,0
GRID,16853,0,391.0397,0.0,-1153.55,0
GRID,16854,0,390.9806,0.0,-1156.42,0
GRID,16855,0,390.9195,0.0,-1159.29,0
GRID,16856,0,390.8564,0.0,-1162.16,0
GRID,16857,0,390.7914,0.0,-1165.02,0
GRID,16858,0,390.7244,0.0,-1167.89,0
GRID,16859,0,390.6554,0.0,-1170.75,0
GRID,16860,0,390.5844,0.0,-1173.62,0
GRID,16861,0,390.5115,0.0,-1176.48,0
GRID,16862,0,390.4367,0.0,-1179.35,0
GRID,16863,0,390.3598,0.0,-1182.21,0
GRID,16864,0,390.2811,0.0,-1185.08,0
GRID,16865,0,390.2003,0.0,-1187.94,0
GRID,16866,0,390.1177,0.0,-1190.8,0
GRID,16867,0,390.033,0.0,-1193.66,0
GRID,16868,0,389.9465,0.0,-1196.52,0
GRID,16869,0,389.858,0.0,-1199.39,0
GRID,16870,0,389.7676,0.0,-1202.25,0
GRID,16871,0,389.6752,0.0,-1205.11,0
GRID,16872,0,389.5809,0.0,-1207.96,0
GRID,16873,0,389.4715,0.0,-1210.83,0
GRID,16874,0,389.3345,0.0,-1213.69,0
GRID,16875,0,389.1698,0.0,-1216.55,0
GRID,16876,0,388.9776,0.0,-1219.41,0
GRID,16877,0,388.7577,0.0,-1222.27,0
GRID,16878,0,388.5101,0.0,-1225.12,0
GRID,16879,0,388.2348,0.0,-1227.98,0
GRID,16880,0,387.9319,0.0,-1230.83,0
GRID,16881,0,387.6013,0.0,-1233.68,0
GRID,16882,0,387.243,0.0,-1236.52,0
GRID,16883,0,386.8571,0.0,-1239.36,0
GRID,16884,0,386.4437,0.0,-1242.2,0
GRID,16885,0,386.0028,0.0,-1245.03,0
GRID,16886,0,385.5345,0.0,-1247.86,0
GRID,16887,0,385.0387,0.0,-1250.69,0
GRID,16888,0,384.5156,0.0,-1253.51,0
GRID,16889,0,383.9651,0.0,-1256.33,0
GRID,16890,0,383.3873,0.0,-1259.14,0
GRID,16891,0,382.7822,0.0,-1261.94,0
GRID,16892,0,382.15,0.0,-1264.74,0
GRID,16893,0,381.4906,0.0,-1267.54,0
GRID,16894,0,380.8042,0.0,-1270.32,0
GRID,16895,0,380.0908,0.0,-1273.11,0
GRID,16896,0,379.3504,0.0,-1275.88,0
GRID,16897,0,378.5832,0.0,-1278.65,0
GRID,16898,0,377.7891,0.0,-1281.41,0
GRID,16899,0,376.9683,0.0,-1284.16,0
GRID,16900,0,376.1208,0.0,-1286.9,0
GRID,16901,0,375.2467,0.0,-1289.64,0
GRID,16902,0,374.3462,0.0,-1292.37,0
GRID,16903,0,373.4192,0.0,-1295.08,0
GRID,16904,0,372.4659,0.0,-1297.79,0
GRID,16905,0,371.4863,0.0,-1300.5,0
GRID,16906,0,370.4806,0.0,-1303.19,0
GRID,16907,0,369.4488,0.0,-1305.87,0
GRID,16908,0,368.391,0.0,-1308.54,0
GRID,16909,0,367.3073,0.0,-1311.2,0
GRID,16910,0,366.1979,0.0,-1313.85,0
GRID,16911,0,365.0627,0.0,-1316.49,0
GRID,16912,0,363.9021,0.0,-1319.12,0
GRID,16913,0,362.7159,0.0,-1321.74,0
GRID,16914,0,361.5045,0.0,-1324.35,0
GRID,16915,0,360.2678,0.0,-1326.94,0
GRID,16916,0,359.0059,0.0,-1329.53,0
GRID,16917,0,357.7191,0.0,-1332.1,0
GRID,16918,0,356.4073,0.0,-1334.66,0
GRID,16919,0,355.0708,0.0,-1337.2,0
GRID,16920,0,353.7097,0.0,-1339.73,0
GRID,16921,0,352.324,0.0,-1342.25,0
GRID,16922,0,350.914,0.0,-1344.76,0
GRID,16923,0,349.4797,0.0,-1347.25,0
GRID,16924,0,348.0213,0.0,-1349.73,0
GRID,16925,0,346.5389,0.0,-1352.2,0
GRID,16926,0,345.0327,0.0,-1354.65,0
GRID,16927,0,343.5028,0.0,-1357.08,0
GRID,16928,0,341.9493,0.0,-1359.5,0
GRID,16929,0,340.3724,0.0,-1361.91,0
GRID,16930,0,338.7723,0.0,-1364.3,0
GRID,16931,0,337.1491,0.0,-1366.67,0
GRID,16932,0,335.5029,0.0,-1369.03,0
GRID,16933,0,333.8339,0.0,-1371.38,0
GRID,16934,0,332.1422,0.0,-1373.7,0
GRID,16935,0,330.428,0.0,-1376.01,0
GRID,16936,0,328.6915,0.0,-1378.31,0
GRID,16937,0,326.9329,0.0,-1380.59,0
GRID,16938,0,325.1523,0.0,-1382.85,0
GRID,16939,0,323.3498,0.0,-1385.09,0
GRID,16940,0,321.5257,0.0,-1387.31,0
GRID,16941,0,319.6801,0.0,-1389.52,0
GRID,16942,0,317.8132,0.0,-1391.71,0
GRID,16943,0,315.9251,0.0,-1393.88,0
GRID,16944,0,314.016,0.0,-1396.04,0
GRID,16945,0,312.0862,0.0,-1398.17,0
GRID,16946,0,310.1358,0.0,-1400.29,0
GRID,16947,0,308.1632,0.0,-1402.39,0
GRID,16948,0,306.1719,0.0,-1404.47,0
GRID,16949,0,304.1621,0.0,-1406.54,0
GRID,16950,0,302.1339,0.0,-1408.58,0
GRID,16951,0,300.1478,0.0,-1410.57,0
GRID,16952,0,298.1617,0.0,-1412.55,0
GRID,16953,0,296.1756,0.0,-1414.54,0
GRID,16954,0,294.1895,0.0,-1416.53,0
GRID,16955,0,292.2034,0.0,-1418.51,0
GRID,16956,0,290.2172,0.0,-1420.5,0
GRID,16957,0,288.2311,0.0,-1422.48,0
GRID,16958,0,286.245,0.0,-1424.47,0
GRID,16959,0,284.2589,0.0,-1426.46,0
GRID,16960,0,282.2045,0.0,-1428.49,0
GRID,16961,0,280.1331,0.0,-1430.51,0
GRID,16962,0,278.0449,0.0,-1432.52,0
GRID,16963,0,275.9399,0.0,-1434.5,0
GRID,16964,0,273.8185,0.0,-1436.47,0
GRID,16965,0,271.6806,0.0,-1438.41,0
GRID,16966,0,269.5265,0.0,-1440.34,0
GRID,16967,0,267.3563,0.0,-1442.26,0
GRID,16968,0,265.1702,0.0,-1444.15,0
GRID,16969,0,262.9683,0.0,-1446.02,0
GRID,16970,0,260.7509,0.0,-1447.88,0
GRID,16971,0,258.518,0.0,-1449.72,0
GRID,16972,0,256.2701,0.0,-1451.53,0
GRID,16973,0,254.0071,0.0,-1453.33,0
GRID,16974,0,251.7293,0.0,-1455.11,0
GRID,16975,0,249.4368,0.0,-1456.87,0
GRID,16976,0,247.1299,0.0,-1458.61,0
GRID,16977,0,244.8088,0.0,-1460.33,0
GRID,16978,0,242.4735,0.0,-1462.03,0
GRID,16979,0,240.1244,0.0,-1463.71,0
GRID,16980,0,237.7616,0.0,-1465.37,0
GRID,16981,0,235.3852,0.0,-1467.01,0
GRID,16982,0,232.9956,0.0,-1468.63,0
GRID,16983,0,230.5928,0.0,-1470.23,0
GRID,16984,0,228.1772,0.0,-1471.81,0
GRID,16985,0,225.7488,0.0,-1473.36,0
GRID,16986,0,223.3078,0.0,-1474.9,0
GRID,16987,0,220.8546,0.0,-1476.41,0
GRID,16988,0,218.3892,0.0,-1477.91,0
GRID,16989,0,215.9119,0.0,-1479.38,0
GRID,16990,0,213.4228,0.0,-1480.83,0
GRID,16991,0,210.9222,0.0,-1482.26,0
GRID,16992,0,208.4104,0.0,-1483.67,0
GRID,16993,0,205.8874,0.0,-1485.05,0
GRID,16994,0,203.3535,0.0,-1486.42,0
GRID,16995,0,200.8089,0.0,-1487.76,0
GRID,16996,0,198.2538,0.0,-1489.08,0
GRID,16997,0,195.6884,0.0,-1490.38,0
GRID,16998,0,193.113,0.0,-1491.66,0
GRID,16999,0,190.5277,0.0,-1492.91,0
GRID,17000,0,187.9327,0.0,-1494.14,0
GRID,17001,0,185.3283,0.0,-1495.35,0
GRID,17002,0,182.7147,0.0,-1496.54,0
GRID,17003,0,180.0921,0.0,-1497.7,0
GRID,17004,0,177.4607,0.0,-1498.84,0
GRID,17005,0,174.8207,0.0,-1499.96,0
GRID,17006,0,172.1724,0.0,-1501.06,0
GRID,17007,0,169.5159,0.0,-1502.13,0
GRID,17008,0,166.8515,0.0,-1503.18,0
GRID,17009,0,164.1772,0.0,-1504.2,0
GRID,17010,0,161.4925,0.0,-1505.2,0
GRID,17011,0,158.7977,0.0,-1506.17,0
GRID,17012,0,156.093,0.0,-1507.12,0
GRID,17013,0,153.3787,0.0,-1508.04,0
GRID,17014,0,150.6551,0.0,-1508.93,0
GRID,17015,0,147.9223,0.0,-1509.8,0
GRID,17016,0,145.1807,0.0,-1510.64,0
GRID,17017,0,142.4305,0.0,-1511.45,0
GRID,17018,0,139.672,0.0,-1512.23,0
GRID,17019,0,136.9054,0.0,-1512.99,0
GRID,17020,0,134.1311,0.0,-1513.72,0
GRID,17021,0,131.3493,0.0,-1514.43,0
GRID,17022,0,128.5603,0.0,-1515.1,0
GRID,17023,0,125.7643,0.0,-1515.75,0
GRID,17024,0,122.9617,0.0,-1516.37,0
GRID,17025,0,120.1526,0.0,-1516.97,0
GRID,17026,0,117.3374,0.0,-1517.53,0
GRID,17027,0,114.5164,0.0,-1518.07,0
GRID,17028,0,111.6898,0.0,-1518.58,0
GRID,17029,0,108.8579,0.0,-1519.06,0
GRID,17030,0,106.021,0.0,-1519.52,0
GRID,17031,0,103.1793,0.0,-1519.95,0
GRID,17032,0,100.3332,0.0,-1520.35,0
GRID,17033,0,97.48287,0.0,-1520.72,0
GRID,17034,0,94.62865,0.0,-1521.06,0
GRID,17035,0,91.7708,0.0,-1521.37,0
GRID,17036,0,88.90961,0.0,-1521.66,0
GRID,17037,0,86.04536,0.0,-1521.92,0
GRID,17038,0,83.17833,0.0,-1522.15,0
GRID,17039,0,80.30881,0.0,-1522.35,0
GRID,17040,0,77.43707,0.0,-1522.52,0
GRID,17041,0,74.5634,0.0,-1522.67,0
GRID,17042,0,71.68807,0.0,-1522.79,0
GRID,17043,0,68.81138,0.0,-1522.87,0
GRID,17044,0,65.93361,0.0,-1522.93,0
GRID,17045,0,63.05504,0.0,-1522.97,0
GRID,17046,0,60.17596,0.0,-1522.97,0
GRID,17047,0,57.29665,0.0,-1522.94,0
GRID,17048,0,54.41739,0.0,-1522.89,0
GRID,17049,0,51.53848,0.0,-1522.81,0
GRID,17050,0,48.66018,0.0,-1522.7,0
GRID,17051,0,45.7828,0.0,-1522.56,0
GRID,17052,0,42.90661,0.0,-1522.39,0
GRID,17053,0,40.03189,0.0,-1522.2,0
GRID,17054,0,37.15894,0.0,-1521.97,0
GRID,17055,0,34.28803,0.0,-1521.72,0
GRID,17056,0,31.41946,0.0,-1521.44,0
GRID,17057,0,28.55349,0.0,-1521.13,0
GRID,17058,0,25.69043,0.0,-1520.79,0
GRID,17059,0,22.83056,0.0,-1520.43,0
GRID,17060,0,19.97417,0.0,-1520.03,0
GRID,17061,0,17.12154,0.0,-1519.61,0
GRID,17062,0,14.27293,0.0,-1519.16,0
GRID,17063,0,11.42863,0.0,-1518.68,0
GRID,17064,0,8.588909,0.0,-1518.18,0
GRID,17065,0,5.754048,0.0,-1517.64,0
GRID,17066,0,2.924319,0.0,-1517.08,0
GRID,17067,0,390.0833,0.0,-1052.88,0
GRID,17068,0,390.0833,0.0,-1055.77,0
GRID,17069,0,390.0833,0.0,-1058.65,0
GRID,17070,0,390.0833,0.0,-1061.53,0
GRID,17071,0,390.0833,0.0,-1064.42,0
GRID,17072,0,390.0833,0.0,-1067.3,0
GRID,17073,0,390.0833,0.0,-1070.18,0
GRID,17074,0,390.0822,0.0,-1073.04,0
GRID,17075,0,390.0788,0.0,-1075.9,0
GRID,17076,0,390.0731,0.0,-1078.76,0
GRID,17077,0,390.0653,0.0,-1081.62,0
GRID,17078,0,390.0552,0.0,-1084.47,0
GRID,17079,0,390.0429,0.0,-1087.33,0
GRID,17080,0,390.0284,0.0,-1090.19,0
GRID,17081,0,390.0116,0.0,-1093.05,0
GRID,17082,0,389.9926,0.0,-1095.9,0
GRID,17083,0,389.9713,0.0,-1098.76,0
GRID,17084,0,389.9478,0.0,-1101.62,0
GRID,17085,0,389.9221,0.0,-1104.48,0
GRID,17086,0,389.8942,0.0,-1107.33,0
GRID,17087,0,389.864,0.0,-1110.19,0
GRID,17088,0,389.8315,0.0,-1113.05,0
GRID,17089,0,389.7969,0.0,-1115.9,0
GRID,17090,0,389.76,0.0,-1118.76,0
GRID,17091,0,389.7209,0.0,-1121.61,0
GRID,17092,0,389.6795,0.0,-1124.47,0
GRID,17093,0,389.6359,0.0,-1127.33,0
GRID,17094,0,389.5902,0.0,-1130.18,0
GRID,17095,0,389.5421,0.0,-1133.04,0
GRID,17096,0,389.4919,0.0,-1135.89,0
GRID,17097,0,389.4395,0.0,-1138.74,0
GRID,17098,0,389.3848,0.0,-1141.6,0
GRID,17099,0,389.328,0.0,-1144.45,0
GRID,17100,0,389.2689,0.0,-1147.3,0
GRID,17101,0,389.2076,0.0,-1150.16,0
GRID,17102,0,389.1441,0.0,-1153.01,0
GRID,17103,0,389.0784,0.0,-1155.86,0
GRID,17104,0,389.0106,0.0,-1158.71,0
GRID,17105,0,388.9405,0.0,-1161.56,0
GRID,17106,0,388.8682,0.0,-1164.41,0
GRID,17107,0,388.7937,0.0,-1167.26,0
GRID,17108,0,388.7171,0.0,-1170.11,0
GRID,17109,0,388.6383,0.0,-1172.96,0
GRID,17110,0,388.5573,0.0,-1175.81,0
GRID,17111,0,388.4741,0.0,-1178.66,0
GRID,17112,0,388.3887,0.0,-1181.51,0
GRID,17113,0,388.3012,0.0,-1184.35,0
GRID,17114,0,388.2115,0.0,-1187.2,0
GRID,17115,0,388.1196,0.0,-1190.05,0
GRID,17116,0,388.0256,0.0,-1192.89,0
GRID,17117,0,387.9294,0.0,-1195.74,0
GRID,17118,0,387.8311,0.0,-1198.58,0
GRID,17119,0,387.7306,0.0,-1201.42,0
GRID,17120,0,387.628,0.0,-1204.27,0
GRID,17121,0,387.5233,0.0,-1207.11,0
GRID,17122,0,387.4034,0.0,-1209.95,0
GRID,17123,0,387.2562,0.0,-1212.8,0
GRID,17124,0,387.0817,0.0,-1215.64,0
GRID,17125,0,386.8799,0.0,-1218.48,0
GRID,17126,0,386.6508,0.0,-1221.32,0
GRID,17127,0,386.3942,0.0,-1224.16,0
GRID,17128,0,386.1103,0.0,-1227.0,0
GRID,17129,0,385.799,0.0,-1229.83,0
GRID,17130,0,385.4603,0.0,-1232.66,0
GRID,17131,0,385.0942,0.0,-1235.49,0
GRID,17132,0,384.7009,0.0,-1238.31,0
GRID,17133,0,384.2803,0.0,-1241.13,0
GRID,17134,0,383.8325,0.0,-1243.95,0
GRID,17135,0,383.3575,0.0,-1246.76,0
GRID,17136,0,382.8554,0.0,-1249.57,0
GRID,17137,0,382.3263,0.0,-1252.37,0
GRID,17138,0,381.7701,0.0,-1255.17,0
GRID,17139,0,381.1868,0.0,-1257.97,0
GRID,17140,0,380.5767,0.0,-1260.75,0
GRID,17141,0,379.9396,0.0,-1263.54,0
GRID,17142,0,379.2757,0.0,-1266.31,0
GRID,17143,0,378.585,0.0,-1269.08,0
GRID,17144,0,377.8676,0.0,-1271.84,0
GRID,17145,0,377.1236,0.0,-1274.6,0
GRID,17146,0,376.353,0.0,-1277.35,0
GRID,17147,0,375.5558,0.0,-1280.09,0
GRID,17148,0,374.7322,0.0,-1282.83,0
GRID,17149,0,373.8822,0.0,-1285.55,0
GRID,17150,0,373.0059,0.0,-1288.27,0
GRID,17151,0,372.1034,0.0,-1290.98,0
GRID,17152,0,371.1748,0.0,-1293.68,0
GRID,17153,0,370.2201,0.0,-1296.37,0
GRID,17154,0,369.2395,0.0,-1299.06,0
GRID,17155,0,368.233,0.0,-1301.73,0
GRID,17156,0,367.2007,0.0,-1304.4,0
GRID,17157,0,366.1427,0.0,-1307.05,0
GRID,17158,0,365.0591,0.0,-1309.7,0
GRID,17159,0,363.95,0.0,-1312.33,0
GRID,17160,0,362.8155,0.0,-1314.95,0
GRID,17161,0,361.6557,0.0,-1317.57,0
GRID,17162,0,360.4707,0.0,-1320.17,0
GRID,17163,0,359.2607,0.0,-1322.76,0
GRID,17164,0,358.0257,0.0,-1325.34,0
GRID,17165,0,356.7659,0.0,-1327.9,0
GRID,17166,0,355.4813,0.0,-1330.46,0
GRID,17167,0,354.1721,0.0,-1333.0,0
GRID,17168,0,352.8384,0.0,-1335.53,0
GRID,17169,0,351.4803,0.0,-1338.04,0
GRID,17170,0,350.098,0.0,-1340.55,0
GRID,17171,0,348.6916,0.0,-1343.04,0
GRID,17172,0,347.2612,0.0,-1345.52,0
GRID,17173,0,345.8069,0.0,-1347.98,0
GRID,17174,0,344.3289,0.0,-1350.43,0
GRID,17175,0,342.8274,0.0,-1352.86,0
GRID,17176,0,341.3023,0.0,-1355.28,0
GRID,17177,0,339.754,0.0,-1357.69,0
GRID,17178,0,338.1826,0.0,-1360.08,0
GRID,17179,0,336.5881,0.0,-1362.45,0
GRID,17180,0,334.9708,0.0,-1364.81,0
GRID,17181,0,333.3307,0.0,-1367.16,0
GRID,17182,0,331.6681,0.0,-1369.49,0
GRID,17183,0,329.9831,0.0,-1371.8,0
GRID,17184,0,328.2758,0.0,-1374.1,0
GRID,17185,0,326.5465,0.0,-1376.38,0
GRID,17186,0,324.7952,0.0,-1378.64,0
GRID,17187,0,323.0221,0.0,-1380.89,0
GRID,17188,0,321.2275,0.0,-1383.11,0
GRID,17189,0,319.4115,0.0,-1385.33,0
GRID,17190,0,317.5742,0.0,-1387.52,0
GRID,17191,0,315.7157,0.0,-1389.7,0
GRID,17192,0,313.8364,0.0,-1391.86,0
GRID,17193,0,311.9363,0.0,-1394.0,0
GRID,17194,0,310.0156,0.0,-1396.12,0
GRID,17195,0,308.0746,0.0,-1398.22,0
GRID,17196,0,306.1114,0.0,-1400.31,0
GRID,17197,0,304.1299,0.0,-1402.38,0
GRID,17198,0,302.1302,0.0,-1404.44,0
GRID,17199,0,300.1126,0.0,-1406.47,0
GRID,17200,0,298.1361,0.0,-1408.45,0
GRID,17201,0,296.1597,0.0,-1410.42,0
GRID,17202,0,294.1832,0.0,-1412.4,0
GRID,17203,0,292.2068,0.0,-1414.38,0
GRID,17204,0,290.2304,0.0,-1416.35,0
GRID,17205,0,288.2539,0.0,-1418.33,0
GRID,17206,0,286.2775,0.0,-1420.31,0
GRID,17207,0,284.301,0.0,-1422.28,0
GRID,17208,0,282.3246,0.0,-1424.26,0
GRID,17209,0,280.2812,0.0,-1426.29,0
GRID,17210,0,278.2212,0.0,-1428.29,0
GRID,17211,0,276.1446,0.0,-1430.29,0
GRID,17212,0,274.0517,0.0,-1432.26,0
GRID,17213,0,271.9425,0.0,-1434.22,0
GRID,17214,0,269.8173,0.0,-1436.16,0
GRID,17215,0,267.6762,0.0,-1438.08,0
GRID,17216,0,265.5193,0.0,-1439.98,0
GRID,17217,0,263.3468,0.0,-1441.87,0
GRID,17218,0,261.1588,0.0,-1443.74,0
GRID,17219,0,258.9555,0.0,-1445.58,0
GRID,17220,0,256.7373,0.0,-1447.41,0
GRID,17221,0,254.5041,0.0,-1449.23,0
GRID,17222,0,252.2562,0.0,-1451.02,0
GRID,17223,0,249.9938,0.0,-1452.79,0
GRID,17224,0,247.717,0.0,-1454.55,0
GRID,17225,0,245.4261,0.0,-1456.28,0
GRID,17226,0,243.1212,0.0,-1458.0,0
GRID,17227,0,240.8025,0.0,-1459.69,0
GRID,17228,0,238.4701,0.0,-1461.37,0
GRID,17229,0,236.1243,0.0,-1463.02,0
GRID,17230,0,233.7653,0.0,-1464.66,0
GRID,17231,0,231.3933,0.0,-1466.28,0
GRID,17232,0,229.0084,0.0,-1467.87,0
GRID,17233,0,226.6108,0.0,-1469.45,0
GRID,17234,0,224.2007,0.0,-1471.01,0
GRID,17235,0,221.7784,0.0,-1472.54,0
GRID,17236,0,219.344,0.0,-1474.06,0
GRID,17237,0,216.8977,0.0,-1475.55,0
GRID,17238,0,214.4396,0.0,-1477.02,0
GRID,17239,0,211.9701,0.0,-1478.47,0
GRID,17240,0,209.4893,0.0,-1479.91,0
GRID,17241,0,206.9974,0.0,-1481.32,0
GRID,17242,0,204.4947,0.0,-1482.7,0
GRID,17243,0,201.9812,0.0,-1484.07,0
GRID,17244,0,199.4572,0.0,-1485.42,0
GRID,17245,0,196.9229,0.0,-1486.74,0
GRID,17246,0,194.3786,0.0,-1488.04,0
GRID,17247,0,191.8244,0.0,-1489.32,0
GRID,17248,0,189.2605,0.0,-1490.58,0
GRID,17249,0,186.6872,0.0,-1491.82,0
GRID,17250,0,184.1046,0.0,-1493.03,0
GRID,17251,0,181.513,0.0,-1494.22,0
GRID,17252,0,178.9125,0.0,-1495.39,0
GRID,17253,0,176.3034,0.0,-1496.54,0
GRID,17254,0,173.6859,0.0,-1497.67,0
GRID,17255,0,171.0602,0.0,-1498.77,0
GRID,17256,0,168.4266,0.0,-1499.85,0
GRID,17257,0,165.7851,0.0,-1500.91,0
GRID,17258,0,163.1337,0.0,-1501.94,0
GRID,17259,0,160.4718,0.0,-1502.95,0
GRID,17260,0,157.7995,0.0,-1503.93,0
GRID,17261,0,155.1172,0.0,-1504.89,0
GRID,17262,0,152.4251,0.0,-1505.82,0
GRID,17263,0,149.7234,0.0,-1506.72,0
GRID,17264,0,147.0125,0.0,-1507.6,0
GRID,17265,0,144.2925,0.0,-1508.44,0
GRID,17266,0,141.5637,0.0,-1509.27,0
GRID,17267,0,138.8265,0.0,-1510.06,0
GRID,17268,0,136.0811,0.0,-1510.83,0
GRID,17269,0,133.3277,0.0,-1511.57,0
GRID,17270,0,130.5667,0.0,-1512.28,0
GRID,17271,0,127.7983,0.0,-1512.97,0
GRID,17272,0,125.0227,0.0,-1513.63,0
GRID,17273,0,122.2403,0.0,-1514.26,0
GRID,17274,0,119.4513,0.0,-1514.87,0
GRID,17275,0,116.656,0.0,-1515.44,0
GRID,17276,0,113.8547,0.0,-1515.99,0
GRID,17277,0,111.0477,0.0,-1516.51,0
GRID,17278,0,108.2352,0.0,-1517.01,0
GRID,17279,0,105.4175,0.0,-1517.47,0
GRID,17280,0,102.5949,0.0,-1517.91,0
GRID,17281,0,99.76761,0.0,-1518.32,0
GRID,17282,0,96.93601,0.0,-1518.7,0
GRID,17283,0,94.10034,0.0,-1519.06,0
GRID,17284,0,91.26089,0.0,-1519.38,0
GRID,17285,0,88.41793,0.0,-1519.68,0
GRID,17286,0,85.57175,0.0,-1519.95,0
GRID,17287,0,82.72262,0.0,-1520.19,0
GRID,17288,0,79.87085,0.0,-1520.41,0
GRID,17289,0,77.0167,0.0,-1520.59,0
GRID,17290,0,74.16046,0.0,-1520.75,0
GRID,17291,0,71.30241,0.0,-1520.88,0
GRID,17292,0,68.44285,0.0,-1520.98,0
GRID,17293,0,65.58205,0.0,-1521.05,0
GRID,17294,0,62.7203,0.0,-1521.09,0
GRID,17295,0,59.85789,0.0,-1521.11,0
GRID,17296,0,56.9951,0.0,-1521.1,0
GRID,17297,0,54.13222,0.0,-1521.05,0
GRID,17298,0,51.26953,0.0,-1520.98,0
GRID,17299,0,48.40732,0.0,-1520.88,0
GRID,17300,0,45.54588,0.0,-1520.76,0
GRID,17301,0,42.68549,0.0,-1520.6,0
GRID,17302,0,39.82643,0.0,-1520.42,0
GRID,17303,0,36.969,0.0,-1520.21,0
GRID,17304,0,34.11348,0.0,-1519.97,0
GRID,17305,0,31.26015,0.0,-1519.7,0
GRID,17306,0,28.40931,0.0,-1519.4,0
GRID,17307,0,25.56123,0.0,-1519.08,0
GRID,17308,0,22.71621,0.0,-1518.72,0
GRID,17309,0,19.87455,0.0,-1518.34,0
GRID,17310,0,17.03651,0.0,-1517.93,0
GRID,17311,0,14.20238,0.0,-1517.49,0
GRID,17312,0,11.37243,0.0,-1517.02,0
GRID,17313,0,8.546935,0.0,-1516.53,0
GRID,17314,0,5.726182,0.0,-1516.01,0
GRID,17315,0,2.910444,0.0,-1515.46,0
GRID,17316,0,388.2817,0.0,-1052.87,0
GRID,17317,0,388.2817,0.0,-1055.74,0
GRID,17318,0,388.2817,0.0,-1058.61,0
GRID,17319,0,388.2817,0.0,-1061.48,0
GRID,17320,0,388.2817,0.0,-1064.35,0
GRID,17321,0,388.2817,0.0,-1067.22,0
GRID,17322,0,388.2817,0.0,-1070.09,0
GRID,17323,0,388.2804,0.0,-1072.94,0
GRID,17324,0,388.2766,0.0,-1075.78,0
GRID,17325,0,388.2705,0.0,-1078.62,0
GRID,17326,0,388.2618,0.0,-1081.46,0
GRID,17327,0,388.2507,0.0,-1084.31,0
GRID,17328,0,388.2372,0.0,-1087.15,0
GRID,17329,0,388.2212,0.0,-1089.99,0
GRID,17330,0,388.2027,0.0,-1092.83,0
GRID,17331,0,388.1818,0.0,-1095.68,0
GRID,17332,0,388.1585,0.0,-1098.52,0
GRID,17333,0,388.1326,0.0,-1101.36,0
GRID,17334,0,388.1043,0.0,-1104.2,0
GRID,17335,0,388.0736,0.0,-1107.04,0
GRID,17336,0,388.0404,0.0,-1109.88,0
GRID,17337,0,388.0047,0.0,-1112.72,0
GRID,17338,0,387.9665,0.0,-1115.57,0
GRID,17339,0,387.926,0.0,-1118.41,0
GRID,17340,0,387.8829,0.0,-1121.25,0
GRID,17341,0,387.8375,0.0,-1124.09,0
GRID,17342,0,387.7895,0.0,-1126.93,0
GRID,17343,0,387.7392,0.0,-1129.77,0
GRID,17344,0,387.6864,0.0,-1132.6,0
GRID,17345,0,387.6311,0.0,-1135.44,0
GRID,17346,0,387.5734,0.0,-1138.28,0
GRID,17347,0,387.5133,0.0,-1141.12,0
GRID,17348,0,387.4508,0.0,-1143.96,0
GRID,17349,0,387.3858,0.0,-1146.79,0
GRID,17350,0,387.3184,0.0,-1149.63,0
GRID,17351,0,387.2485,0.0,-1152.47,0
GRID,17352,0,387.1763,0.0,-1155.3,0
GRID,17353,0,387.1016,0.0,-1158.14,0
GRID,17354,0,387.0245,0.0,-1160.97,0
GRID,17355,0,386.945,0.0,-1163.81,0
GRID,17356,0,386.8631,0.0,-1166.64,0
GRID,17357,0,386.7788,0.0,-1169.47,0
GRID,17358,0,386.6921,0.0,-1172.31,0
GRID,17359,0,386.603,0.0,-1175.14,0
GRID,17360,0,386.5115,0.0,-1177.97,0
GRID,17361,0,386.4176,0.0,-1180.8,0
GRID,17362,0,386.3213,0.0,-1183.63,0
GRID,17363,0,386.2226,0.0,-1186.46,0
GRID,17364,0,386.1216,0.0,-1189.29,0
GRID,17365,0,386.0182,0.0,-1192.12,0
GRID,17366,0,385.9124,0.0,-1194.95,0
GRID,17367,0,385.8042,0.0,-1197.77,0
GRID,17368,0,385.6937,0.0,-1200.6,0
GRID,17369,0,385.5808,0.0,-1203.43,0
GRID,17370,0,385.4656,0.0,-1206.25,0
GRID,17371,0,385.3353,0.0,-1209.08,0
GRID,17372,0,385.178,0.0,-1211.91,0
GRID,17373,0,384.9936,0.0,-1214.73,0
GRID,17374,0,384.7823,0.0,-1217.56,0
GRID,17375,0,384.5438,0.0,-1220.38,0
GRID,17376,0,384.2783,0.0,-1223.2,0
GRID,17377,0,383.9858,0.0,-1226.02,0
GRID,17378,0,383.6661,0.0,-1228.84,0
GRID,17379,0,383.3193,0.0,-1231.65,0
GRID,17380,0,382.9454,0.0,-1234.46,0
GRID,17381,0,382.5446,0.0,-1237.27,0
GRID,17382,0,382.1168,0.0,-1240.07,0
GRID,17383,0,381.6621,0.0,-1242.87,0
GRID,17384,0,381.1806,0.0,-1245.66,0
GRID,17385,0,380.6722,0.0,-1248.45,0
GRID,17386,0,380.137,0.0,-1251.24,0
GRID,17387,0,379.5751,0.0,-1254.02,0
GRID,17388,0,378.9864,0.0,-1256.79,0
GRID,17389,0,378.3711,0.0,-1259.56,0
GRID,17390,0,377.7292,0.0,-1262.33,0
GRID,17391,0,377.0607,0.0,-1265.09,0
GRID,17392,0,376.3658,0.0,-1267.84,0
GRID,17393,0,375.6445,0.0,-1270.58,0
GRID,17394,0,374.8968,0.0,-1273.32,0
GRID,17395,0,374.1228,0.0,-1276.05,0
GRID,17396,0,373.3225,0.0,-1278.78,0
GRID,17397,0,372.4961,0.0,-1281.49,0
GRID,17398,0,371.6436,0.0,-1284.2,0
GRID,17399,0,370.7651,0.0,-1286.9,0
GRID,17400,0,369.8607,0.0,-1289.6,0
GRID,17401,0,368.9304,0.0,-1292.28,0
GRID,17402,0,367.9744,0.0,-1294.96,0
GRID,17403,0,366.9927,0.0,-1297.62,0
GRID,17404,0,365.9854,0.0,-1300.28,0
GRID,17405,0,364.9526,0.0,-1302.93,0
GRID,17406,0,363.8944,0.0,-1305.56,0
GRID,17407,0,362.8108,0.0,-1308.19,0
GRID,17408,0,361.702,0.0,-1310.81,0
GRID,17409,0,360.5682,0.0,-1313.41,0
GRID,17410,0,359.4093,0.0,-1316.01,0
GRID,17411,0,358.2255,0.0,-1318.59,0
GRID,17412,0,357.017,0.0,-1321.17,0
GRID,17413,0,355.7837,0.0,-1323.73,0
GRID,17414,0,354.5258,0.0,-1326.28,0
GRID,17415,0,353.2435,0.0,-1328.82,0
GRID,17416,0,351.9369,0.0,-1331.34,0
GRID,17417,0,350.606,0.0,-1333.85,0
GRID,17418,0,349.251,0.0,-1336.36,0
GRID,17419,0,347.872,0.0,-1338.84,0
GRID,17420,0,346.4692,0.0,-1341.32,0
GRID,17421,0,345.0427,0.0,-1343.78,0
GRID,17422,0,343.5926,0.0,-1346.22,0
GRID,17423,0,342.119,0.0,-1348.66,0
GRID,17424,0,340.622,0.0,-1351.08,0
GRID,17425,0,339.1019,0.0,-1353.48,0
GRID,17426,0,337.5588,0.0,-1355.87,0
GRID,17427,0,335.9927,0.0,-1358.25,0
GRID,17428,0,334.4039,0.0,-1360.61,0
GRID,17429,0,332.7925,0.0,-1362.95,0
GRID,17430,0,331.1586,0.0,-1365.28,0
GRID,17431,0,329.5024,0.0,-1367.6,0
GRID,17432,0,327.824,0.0,-1369.9,0
GRID,17433,0,326.1236,0.0,-1372.18,0
GRID,17434,0,324.4014,0.0,-1374.44,0
GRID,17435,0,322.6574,0.0,-1376.69,0
GRID,17436,0,320.892,0.0,-1378.93,0
GRID,17437,0,319.1052,0.0,-1381.14,0
GRID,17438,0,317.2972,0.0,-1383.34,0
GRID,17439,0,315.4682,0.0,-1385.52,0
GRID,17440,0,313.6183,0.0,-1387.68,0
GRID,17441,0,311.7477,0.0,-1389.83,0
GRID,17442,0,309.8565,0.0,-1391.96,0
GRID,17443,0,307.945,0.0,-1394.07,0
GRID,17444,0,306.0134,0.0,-1396.16,0
GRID,17445,0,304.0596,0.0,-1398.23,0
GRID,17446,0,302.0879,0.0,-1400.29,0
GRID,17447,0,300.0984,0.0,-1402.34,0
GRID,17448,0,298.0912,0.0,-1404.36,0
GRID,17449,0,296.1244,0.0,-1406.33,0
GRID,17450,0,294.1577,0.0,-1408.3,0
GRID,17451,0,292.1909,0.0,-1410.26,0
GRID,17452,0,290.2241,0.0,-1412.23,0
GRID,17453,0,288.2574,0.0,-1414.2,0
GRID,17454,0,286.2906,0.0,-1416.16,0
GRID,17455,0,284.3238,0.0,-1418.13,0
GRID,17456,0,282.3571,0.0,-1420.1,0
GRID,17457,0,280.3903,0.0,-1422.06,0
GRID,17458,0,278.3579,0.0,-1424.08,0
GRID,17459,0,276.3092,0.0,-1426.08,0
GRID,17460,0,274.2443,0.0,-1428.06,0
GRID,17461,0,272.1634,0.0,-1430.02,0
GRID,17462,0,270.0666,0.0,-1431.97,0
GRID,17463,0,267.9541,0.0,-1433.9,0
GRID,17464,0,265.8259,0.0,-1435.81,0
GRID,17465,0,263.6823,0.0,-1437.71,0
GRID,17466,0,261.5233,0.0,-1439.59,0
GRID,17467,0,259.3493,0.0,-1441.45,0
GRID,17468,0,257.1602,0.0,-1443.29,0
GRID,17469,0,254.9565,0.0,-1445.11,0
GRID,17470,0,252.7381,0.0,-1446.92,0
GRID,17471,0,250.5053,0.0,-1448.7,0
GRID,17472,0,248.2583,0.0,-1450.47,0
GRID,17473,0,245.9972,0.0,-1452.22,0
GRID,17474,0,243.7222,0.0,-1453.95,0
GRID,17475,0,241.4336,0.0,-1455.66,0
GRID,17476,0,239.1314,0.0,-1457.35,0
GRID,17477,0,236.8158,0.0,-1459.03,0
GRID,17478,0,234.4871,0.0,-1460.68,0
GRID,17479,0,232.1454,0.0,-1462.31,0
GRID,17480,0,229.791,0.0,-1463.93,0
GRID,17481,0,227.4239,0.0,-1465.52,0
GRID,17482,0,225.0444,0.0,-1467.1,0
GRID,17483,0,222.6527,0.0,-1468.65,0
GRID,17484,0,220.249,0.0,-1470.18,0
GRID,17485,0,217.8334,0.0,-1471.7,0
GRID,17486,0,215.4061,0.0,-1473.19,0
GRID,17487,0,212.9674,0.0,-1474.67,0
GRID,17488,0,210.5175,0.0,-1476.12,0
GRID,17489,0,208.0564,0.0,-1477.55,0
GRID,17490,0,205.5845,0.0,-1478.96,0
GRID,17491,0,203.1019,0.0,-1480.35,0
GRID,17492,0,200.6089,0.0,-1481.72,0
GRID,17493,0,198.1055,0.0,-1483.07,0
GRID,17494,0,195.5921,0.0,-1484.4,0
GRID,17495,0,193.0688,0.0,-1485.7,0
GRID,17496,0,190.5358,0.0,-1486.99,0
GRID,17497,0,187.9933,0.0,-1488.25,0
GRID,17498,0,185.4416,0.0,-1489.49,0
GRID,17499,0,182.8808,0.0,-1490.71,0
GRID,17500,0,180.3112,0.0,-1491.91,0
GRID,17501,0,177.7329,0.0,-1493.09,0
GRID,17502,0,175.1461,0.0,-1494.24,0
GRID,17503,0,172.5511,0.0,-1495.38,0
GRID,17504,0,169.9481,0.0,-1496.49,0
GRID,17505,0,167.3373,0.0,-1497.57,0
GRID,17506,0,164.7188,0.0,-1498.64,0
GRID,17507,0,162.0903,0.0,-1499.68,0
GRID,17508,0,159.451,0.0,-1500.7,0
GRID,17509,0,156.8013,0.0,-1501.69,0
GRID,17510,0,154.1413,0.0,-1502.66,0
GRID,17511,0,151.4714,0.0,-1503.6,0
GRID,17512,0,148.7917,0.0,-1504.51,0
GRID,17513,0,146.1026,0.0,-1505.39,0
GRID,17514,0,143.4043,0.0,-1506.25,0
GRID,17515,0,140.697,0.0,-1507.08,0
GRID,17516,0,137.9811,0.0,-1507.89,0
GRID,17517,0,135.2568,0.0,-1508.67,0
GRID,17518,0,132.5243,0.0,-1509.42,0
GRID,17519,0,129.7841,0.0,-1510.14,0
GRID,17520,0,127.0362,0.0,-1510.84,0
GRID,17521,0,124.2811,0.0,-1511.51,0
GRID,17522,0,121.5189,0.0,-1512.15,0
GRID,17523,0,118.75,0.0,-1512.77,0
GRID,17524,0,115.9746,0.0,-1513.36,0
GRID,17525,0,113.1931,0.0,-1513.92,0
GRID,17526,0,110.4056,0.0,-1514.45,0
GRID,17527,0,107.6124,0.0,-1514.95,0
GRID,17528,0,104.814,0.0,-1515.43,0
GRID,17529,0,102.0104,0.0,-1515.88,0
GRID,17530,0,99.20203,0.0,-1516.3,0
GRID,17531,0,96.38915,0.0,-1516.69,0
GRID,17532,0,93.57204,0.0,-1517.06,0
GRID,17533,0,90.75098,0.0,-1517.4,0
GRID,17534,0,87.92624,0.0,-1517.71,0
GRID,17535,0,85.09813,0.0,-1517.99,0
GRID,17536,0,82.26691,0.0,-1518.24,0
GRID,17537,0,79.43289,0.0,-1518.46,0
GRID,17538,0,76.59633,0.0,-1518.66,0
GRID,17539,0,73.75752,0.0,-1518.83,0
GRID,17540,0,70.91676,0.0,-1518.97,0
GRID,17541,0,68.07432,0.0,-1519.08,0
GRID,17542,0,65.23049,0.0,-1519.17,0
GRID,17543,0,62.38556,0.0,-1519.22,0
GRID,17544,0,59.53982,0.0,-1519.25,0
GRID,17545,0,56.69355,0.0,-1519.25,0
GRID,17546,0,53.84704,0.0,-1519.22,0
GRID,17547,0,51.00058,0.0,-1519.16,0
GRID,17548,0,48.15446,0.0,-1519.07,0
GRID,17549,0,45.30896,0.0,-1518.96,0
GRID,17550,0,42.46437,0.0,-1518.81,0
GRID,17551,0,39.62097,0.0,-1518.64,0
GRID,17552,0,36.77906,0.0,-1518.44,0
GRID,17553,0,33.93893,0.0,-1518.21,0
GRID,17554,0,31.10085,0.0,-1517.96,0
GRID,17555,0,28.26512,0.0,-1517.67,0
GRID,17556,0,25.43202,0.0,-1517.36,0
GRID,17557,0,22.60186,0.0,-1517.02,0
GRID,17558,0,19.77492,0.0,-1516.65,0
GRID,17559,0,16.95149,0.0,-1516.25,0
GRID,17560,0,14.13182,0.0,-1515.82,0
GRID,17561,0,11.31622,0.0,-1515.37,0
GRID,17562,0,8.504961,0.0,-1514.88,0
GRID,17563,0,5.698316,0.0,-1514.37,0
GRID,17564,0,2.89657,0.0,-1513.83,0
GRID,17565,0,386.48,0.0,-1052.86,0
GRID,17566,0,386.48,0.0,-1055.71,0
GRID,17567,0,386.48,0.0,-1058.57,0
GRID,17568,0,386.48,0.0,-1061.43,0
GRID,17569,0,386.48,0.0,-1064.29,0
GRID,17570,0,386.48,0.0,-1067.14,0
GRID,17571,0,386.48,0.0,-1070.0,0
GRID,17572,0,386.4786,0.0,-1072.83,0
GRID,17573,0,386.4745,0.0,-1075.66,0
GRID,17574,0,386.4678,0.0,-1078.48,0
GRID,17575,0,386.4584,0.0,-1081.31,0
GRID,17576,0,386.4463,0.0,-1084.14,0
GRID,17577,0,386.4315,0.0,-1086.97,0
GRID,17578,0,386.414,0.0,-1089.79,0
GRID,17579,0,386.3939,0.0,-1092.62,0
GRID,17580,0,386.3711,0.0,-1095.45,0
GRID,17581,0,386.3456,0.0,-1098.27,0
GRID,17582,0,386.3174,0.0,-1101.1,0
GRID,17583,0,386.2865,0.0,-1103.93,0
GRID,17584,0,386.253,0.0,-1106.75,0
GRID,17585,0,386.2168,0.0,-1109.58,0
GRID,17586,0,386.1778,0.0,-1112.4,0
GRID,17587,0,386.1362,0.0,-1115.23,0
GRID,17588,0,386.092,0.0,-1118.05,0
GRID,17589,0,386.045,0.0,-1120.88,0
GRID,17590,0,385.9954,0.0,-1123.7,0
GRID,17591,0,385.9431,0.0,-1126.53,0
GRID,17592,0,385.8882,0.0,-1129.35,0
GRID,17593,0,385.8306,0.0,-1132.17,0
GRID,17594,0,385.7703,0.0,-1135.0,0
GRID,17595,0,385.7074,0.0,-1137.82,0
GRID,17596,0,385.6418,0.0,-1140.64,0
GRID,17597,0,385.5736,0.0,-1143.46,0
GRID,17598,0,385.5027,0.0,-1146.28,0
GRID,17599,0,385.4291,0.0,-1149.1,0
GRID,17600,0,385.353,0.0,-1151.92,0
GRID,17601,0,385.2741,0.0,-1154.74,0
GRID,17602,0,385.1927,0.0,-1157.56,0
GRID,17603,0,385.1086,0.0,-1160.38,0
GRID,17604,0,385.0218,0.0,-1163.2,0
GRID,17605,0,384.9325,0.0,-1166.02,0
GRID,17606,0,384.8405,0.0,-1168.83,0
GRID,17607,0,384.7459,0.0,-1171.65,0
GRID,17608,0,384.6487,0.0,-1174.47,0
GRID,17609,0,384.5489,0.0,-1177.28,0
GRID,17610,0,384.4465,0.0,-1180.1,0
GRID,17611,0,384.3414,0.0,-1182.91,0
GRID,17612,0,384.2338,0.0,-1185.72,0
GRID,17613,0,384.1236,0.0,-1188.54,0
GRID,17614,0,384.0107,0.0,-1191.35,0
GRID,17615,0,383.8953,0.0,-1194.16,0
GRID,17616,0,383.7773,0.0,-1196.97,0
GRID,17617,0,383.6568,0.0,-1199.78,0
GRID,17618,0,383.5336,0.0,-1202.59,0
GRID,17619,0,383.4079,0.0,-1205.4,0
GRID,17620,0,383.2672,0.0,-1208.21,0
GRID,17621,0,383.0997,0.0,-1211.02,0
GRID,17622,0,382.9056,0.0,-1213.83,0
GRID,17623,0,382.6846,0.0,-1216.63,0
GRID,17624,0,382.4369,0.0,-1219.44,0
GRID,17625,0,382.1625,0.0,-1222.24,0
GRID,17626,0,381.8612,0.0,-1225.04,0
GRID,17627,0,381.5331,0.0,-1227.84,0
GRID,17628,0,381.1783,0.0,-1230.64,0
GRID,17629,0,380.7966,0.0,-1233.43,0
GRID,17630,0,380.3883,0.0,-1236.22,0
GRID,17631,0,379.9533,0.0,-1239.0,0
GRID,17632,0,379.4917,0.0,-1241.78,0
GRID,17633,0,379.0036,0.0,-1244.56,0
GRID,17634,0,378.4889,0.0,-1247.33,0
GRID,17635,0,377.9477,0.0,-1250.1,0
GRID,17636,0,377.38,0.0,-1252.86,0
GRID,17637,0,376.786,0.0,-1255.62,0
GRID,17638,0,376.1655,0.0,-1258.37,0
GRID,17639,0,375.5188,0.0,-1261.12,0
GRID,17640,0,374.8458,0.0,-1263.86,0
GRID,17641,0,374.1466,0.0,-1266.59,0
GRID,17642,0,373.4213,0.0,-1269.32,0
GRID,17643,0,372.6699,0.0,-1272.04,0
GRID,17644,0,371.8926,0.0,-1274.76,0
GRID,17645,0,371.0892,0.0,-1277.46,0
GRID,17646,0,370.26,0.0,-1280.16,0
GRID,17647,0,369.405,0.0,-1282.85,0
GRID,17648,0,368.5243,0.0,-1285.54,0
GRID,17649,0,367.618,0.0,-1288.21,0
GRID,17650,0,366.6861,0.0,-1290.88,0
GRID,17651,0,365.7287,0.0,-1293.54,0
GRID,17652,0,364.7459,0.0,-1296.18,0
GRID,17653,0,363.7378,0.0,-1298.82,0
GRID,17654,0,362.7045,0.0,-1301.45,0
GRID,17655,0,361.646,0.0,-1304.07,0
GRID,17656,0,360.5626,0.0,-1306.68,0
GRID,17657,0,359.4541,0.0,-1309.28,0
GRID,17658,0,358.3209,0.0,-1311.87,0
GRID,17659,0,357.1629,0.0,-1314.45,0
GRID,17660,0,355.9803,0.0,-1317.02,0
GRID,17661,0,354.7732,0.0,-1319.58,0
GRID,17662,0,353.5417,0.0,-1322.12,0
GRID,17663,0,352.2858,0.0,-1324.65,0
GRID,17664,0,351.0058,0.0,-1327.18,0
GRID,17665,0,349.7016,0.0,-1329.68,0
GRID,17666,0,348.3736,0.0,-1332.18,0
GRID,17667,0,347.0217,0.0,-1334.67,0
GRID,17668,0,345.646,0.0,-1337.14,0
GRID,17669,0,344.2468,0.0,-1339.6,0
GRID,17670,0,342.8242,0.0,-1342.04,0
GRID,17671,0,341.3782,0.0,-1344.47,0
GRID,17672,0,339.909,0.0,-1346.89,0
GRID,17673,0,338.4167,0.0,-1349.29,0
GRID,17674,0,336.9015,0.0,-1351.68,0
GRID,17675,0,335.3635,0.0,-1354.06,0
GRID,17676,0,333.8028,0.0,-1356.42,0
GRID,17677,0,332.2197,0.0,-1358.76,0
GRID,17678,0,330.6142,0.0,-1361.09,0
GRID,17679,0,328.9864,0.0,-1363.41,0
GRID,17680,0,327.3366,0.0,-1365.71,0
GRID,17681,0,325.6649,0.0,-1367.99,0
GRID,17682,0,323.9714,0.0,-1370.26,0
GRID,17683,0,322.2563,0.0,-1372.51,0
GRID,17684,0,320.5197,0.0,-1374.75,0
GRID,17685,0,318.7619,0.0,-1376.97,0
GRID,17686,0,316.9829,0.0,-1379.17,0
GRID,17687,0,315.1829,0.0,-1381.35,0
GRID,17688,0,313.3622,0.0,-1383.52,0
GRID,17689,0,311.5208,0.0,-1385.67,0
GRID,17690,0,309.6589,0.0,-1387.8,0
GRID,17691,0,307.7767,0.0,-1389.92,0
GRID,17692,0,305.8744,0.0,-1392.01,0
GRID,17693,0,303.9522,0.0,-1394.09,0
GRID,17694,0,302.0079,0.0,-1396.16,0
GRID,17695,0,300.0459,0.0,-1398.21,0
GRID,17696,0,298.0665,0.0,-1400.24,0
GRID,17697,0,296.0698,0.0,-1402.25,0
GRID,17698,0,294.1127,0.0,-1404.21,0
GRID,17699,0,292.1556,0.0,-1406.17,0
GRID,17700,0,290.1986,0.0,-1408.12,0
GRID,17701,0,288.2415,0.0,-1410.08,0
GRID,17702,0,286.2844,0.0,-1412.04,0
GRID,17703,0,284.3273,0.0,-1413.99,0
GRID,17704,0,282.3702,0.0,-1415.95,0
GRID,17705,0,280.4131,0.0,-1417.91,0
GRID,17706,0,278.456,0.0,-1419.87,0
GRID,17707,0,276.4346,0.0,-1421.87,0
GRID,17708,0,274.3973,0.0,-1423.86,0
GRID,17709,0,272.3441,0.0,-1425.83,0
GRID,17710,0,270.2752,0.0,-1427.79,0
GRID,17711,0,268.1907,0.0,-1429.72,0
GRID,17712,0,266.0908,0.0,-1431.65,0
GRID,17713,0,263.9756,0.0,-1433.55,0
GRID,17714,0,261.8453,0.0,-1435.44,0
GRID,17715,0,259.6999,0.0,-1437.31,0
GRID,17716,0,257.5397,0.0,-1439.16,0
GRID,17717,0,255.3649,0.0,-1440.99,0
GRID,17718,0,253.1757,0.0,-1442.81,0
GRID,17719,0,250.9721,0.0,-1444.61,0
GRID,17720,0,248.7544,0.0,-1446.39,0
GRID,17721,0,246.5228,0.0,-1448.15,0
GRID,17722,0,244.2774,0.0,-1449.89,0
GRID,17723,0,242.0184,0.0,-1451.62,0
GRID,17724,0,239.746,0.0,-1453.33,0
GRID,17725,0,237.4603,0.0,-1455.01,0
GRID,17726,0,235.1615,0.0,-1456.68,0
GRID,17727,0,232.8499,0.0,-1458.33,0
GRID,17728,0,230.5255,0.0,-1459.96,0
GRID,17729,0,228.1887,0.0,-1461.58,0
GRID,17730,0,225.8395,0.0,-1463.17,0
GRID,17731,0,223.4781,0.0,-1464.74,0
GRID,17732,0,221.1047,0.0,-1466.29,0
GRID,17733,0,218.7196,0.0,-1467.83,0
GRID,17734,0,216.3228,0.0,-1469.34,0
GRID,17735,0,213.9146,0.0,-1470.84,0
GRID,17736,0,211.4952,0.0,-1472.31,0
GRID,17737,0,209.0648,0.0,-1473.76,0
GRID,17738,0,206.6235,0.0,-1475.2,0
GRID,17739,0,204.1716,0.0,-1476.61,0
GRID,17740,0,201.7092,0.0,-1478.0,0
GRID,17741,0,199.2366,0.0,-1479.37,0
GRID,17742,0,196.7538,0.0,-1480.72,0
GRID,17743,0,194.2612,0.0,-1482.06,0
GRID,17744,0,191.759,0.0,-1483.37,0
GRID,17745,0,189.2472,0.0,-1484.65,0
GRID,17746,0,186.7262,0.0,-1485.92,0
GRID,17747,0,184.1961,0.0,-1487.17,0
GRID,17748,0,181.6571,0.0,-1488.39,0
GRID,17749,0,179.1094,0.0,-1489.6,0
GRID,17750,0,176.5533,0.0,-1490.78,0
GRID,17751,0,173.9888,0.0,-1491.94,0
GRID,17752,0,171.4163,0.0,-1493.08,0
GRID,17753,0,168.836,0.0,-1494.2,0
GRID,17754,0,166.2479,0.0,-1495.3,0
GRID,17755,0,163.6524,0.0,-1496.37,0
GRID,17756,0,161.0468,0.0,-1497.43,0
GRID,17757,0,158.4303,0.0,-1498.45,0
GRID,17758,0,155.8031,0.0,-1499.45,0
GRID,17759,0,153.1655,0.0,-1500.43,0
GRID,17760,0,150.5177,0.0,-1501.37,0
GRID,17761,0,147.8601,0.0,-1502.3,0
GRID,17762,0,145.1928,0.0,-1503.19,0
GRID,17763,0,142.5161,0.0,-1504.06,0
GRID,17764,0,139.8303,0.0,-1504.9,0
GRID,17765,0,137.1356,0.0,-1505.72,0
GRID,17766,0,134.4324,0.0,-1506.51,0
GRID,17767,0,131.721,0.0,-1507.27,0
GRID,17768,0,129.0015,0.0,-1508.0,0
GRID,17769,0,126.2742,0.0,-1508.71,0
GRID,17770,0,123.5395,0.0,-1509.39,0
GRID,17771,0,120.7976,0.0,-1510.04,0
GRID,17772,0,118.0487,0.0,-1510.67,0
GRID,17773,0,115.2932,0.0,-1511.27,0
GRID,17774,0,112.5314,0.0,-1511.84,0
GRID,17775,0,109.7634,0.0,-1512.38,0
GRID,17776,0,106.9897,0.0,-1512.9,0
GRID,17777,0,104.2104,0.0,-1513.39,0
GRID,17778,0,101.4259,0.0,-1513.85,0
GRID,17779,0,98.63645,0.0,-1514.28,0
GRID,17780,0,95.84229,0.0,-1514.68,0
GRID,17781,0,93.04374,0.0,-1515.06,0
GRID,17782,0,90.24106,0.0,-1515.41,0
GRID,17783,0,87.43456,0.0,-1515.73,0
GRID,17784,0,84.62451,0.0,-1516.02,0
GRID,17785,0,81.81121,0.0,-1516.29,0
GRID,17786,0,78.99493,0.0,-1516.52,0
GRID,17787,0,76.17596,0.0,-1516.73,0
GRID,17788,0,73.35459,0.0,-1516.91,0
GRID,17789,0,70.5311,0.0,-1517.06,0
GRID,17790,0,67.70578,0.0,-1517.19,0
GRID,17791,0,64.87893,0.0,-1517.28,0
GRID,17792,0,62.05082,0.0,-1517.35,0
GRID,17793,0,59.22175,0.0,-1517.39,0
GRID,17794,0,56.392,0.0,-1517.4,0
GRID,17795,0,53.56187,0.0,-1517.38,0
GRID,17796,0,50.73164,0.0,-1517.33,0
GRID,17797,0,47.9016,0.0,-1517.26,0
GRID,17798,0,45.07204,0.0,-1517.15,0
GRID,17799,0,42.24324,0.0,-1517.02,0
GRID,17800,0,39.41551,0.0,-1516.86,0
GRID,17801,0,36.58912,0.0,-1516.67,0
GRID,17802,0,33.76437,0.0,-1516.46,0
GRID,17803,0,30.94154,0.0,-1516.21,0
GRID,17804,0,28.12093,0.0,-1515.94,0
GRID,17805,0,25.30282,0.0,-1515.64,0
GRID,17806,0,22.48752,0.0,-1515.31,0
GRID,17807,0,19.6753,0.0,-1514.95,0
GRID,17808,0,16.86646,0.0,-1514.57,0
GRID,17809,0,14.06127,0.0,-1514.15,0
GRID,17810,0,11.26002,0.0,-1513.71,0
GRID,17811,0,8.462987,0.0,-1513.24,0
GRID,17812,0,5.670451,0.0,-1512.74,0
GRID,17813,0,2.882695,0.0,-1512.21,0
GRID,17814,0,384.6783,0.0,-1052.84,0
GRID,17815,0,384.6783,0.0,-1055.69,0
GRID,17816,0,384.6783,0.0,-1058.53,0
GRID,17817,0,384.6783,0.0,-1061.38,0
GRID,17818,0,384.6783,0.0,-1064.22,0
GRID,17819,0,384.6783,0.0,-1067.07,0
GRID,17820,0,384.6783,0.0,-1069.91,0
GRID,17821,0,384.6768,0.0,-1072.72,0
GRID,17822,0,384.6724,0.0,-1075.54,0
GRID,17823,0,384.6651,0.0,-1078.35,0
GRID,17824,0,384.6549,0.0,-1081.16,0
GRID,17825,0,384.6418,0.0,-1083.97,0
GRID,17826,0,384.6258,0.0,-1086.78,0
GRID,17827,0,384.6069,0.0,-1089.59,0
GRID,17828,0,384.5851,0.0,-1092.41,0
GRID,17829,0,384.5603,0.0,-1095.22,0
GRID,17830,0,384.5327,0.0,-1098.03,0
GRID,17831,0,384.5022,0.0,-1100.84,0
GRID,17832,0,384.4688,0.0,-1103.65,0
GRID,17833,0,384.4324,0.0,-1106.46,0
GRID,17834,0,384.3931,0.0,-1109.27,0
GRID,17835,0,384.351,0.0,-1112.08,0
GRID,17836,0,384.3059,0.0,-1114.89,0
GRID,17837,0,384.258,0.0,-1117.7,0
GRID,17838,0,384.2071,0.0,-1120.51,0
GRID,17839,0,384.1534,0.0,-1123.32,0
GRID,17840,0,384.0967,0.0,-1126.13,0
GRID,17841,0,384.0372,0.0,-1128.93,0
GRID,17842,0,383.9748,0.0,-1131.74,0
GRID,17843,0,383.9095,0.0,-1134.55,0
GRID,17844,0,383.8413,0.0,-1137.35,0
GRID,17845,0,383.7703,0.0,-1140.16,0
GRID,17846,0,383.6964,0.0,-1142.97,0
GRID,17847,0,383.6196,0.0,-1145.77,0
GRID,17848,0,383.5399,0.0,-1148.58,0
GRID,17849,0,383.4574,0.0,-1151.38,0
GRID,17850,0,383.372,0.0,-1154.18,0
GRID,17851,0,383.2837,0.0,-1156.99,0
GRID,17852,0,383.1926,0.0,-1159.79,0
GRID,17853,0,383.0987,0.0,-1162.59,0
GRID,17854,0,383.0019,0.0,-1165.39,0
GRID,17855,0,382.9022,0.0,-1168.19,0
GRID,17856,0,382.7997,0.0,-1170.99,0
GRID,17857,0,382.6944,0.0,-1173.79,0
GRID,17858,0,382.5863,0.0,-1176.59,0
GRID,17859,0,382.4753,0.0,-1179.39,0
GRID,17860,0,382.3615,0.0,-1182.19,0
GRID,17861,0,382.2449,0.0,-1184.99,0
GRID,17862,0,382.1255,0.0,-1187.78,0
GRID,17863,0,382.0033,0.0,-1190.58,0
GRID,17864,0,381.8783,0.0,-1193.37,0
GRID,17865,0,381.7504,0.0,-1196.16,0
GRID,17866,0,381.6198,0.0,-1198.96,0
GRID,17867,0,381.4864,0.0,-1201.75,0
GRID,17868,0,381.3503,0.0,-1204.54,0
GRID,17869,0,381.1991,0.0,-1207.33,0
GRID,17870,0,381.0215,0.0,-1210.13,0
GRID,17871,0,380.8175,0.0,-1212.92,0
GRID,17872,0,380.587,0.0,-1215.71,0
GRID,17873,0,380.33,0.0,-1218.5,0
GRID,17874,0,380.0466,0.0,-1221.28,0
GRID,17875,0,379.7367,0.0,-1224.07,0
GRID,17876,0,379.4002,0.0,-1226.85,0
GRID,17877,0,379.0373,0.0,-1229.62,0
GRID,17878,0,378.6478,0.0,-1232.4,0
GRID,17879,0,378.232,0.0,-1235.17,0
GRID,17880,0,377.7899,0.0,-1237.94,0
GRID,17881,0,377.3214,0.0,-1240.7,0
GRID,17882,0,376.8266,0.0,-1243.46,0
GRID,17883,0,376.3056,0.0,-1246.21,0
GRID,17884,0,375.7584,0.0,-1248.96,0
GRID,17885,0,375.185,0.0,-1251.71,0
GRID,17886,0,374.5855,0.0,-1254.45,0
GRID,17887,0,373.96,0.0,-1257.18,0
GRID,17888,0,373.3084,0.0,-1259.91,0
GRID,17889,0,372.6308,0.0,-1262.64,0
GRID,17890,0,371.9274,0.0,-1265.35,0
GRID,17891,0,371.1981,0.0,-1268.06,0
GRID,17892,0,370.4431,0.0,-1270.76,0
GRID,17893,0,369.6624,0.0,-1273.46,0
GRID,17894,0,368.8559,0.0,-1276.15,0
GRID,17895,0,368.024,0.0,-1278.83,0
GRID,17896,0,367.1664,0.0,-1281.5,0
GRID,17897,0,366.2835,0.0,-1284.17,0
GRID,17898,0,365.3752,0.0,-1286.83,0
GRID,17899,0,364.4417,0.0,-1289.48,0
GRID,17900,0,363.4829,0.0,-1292.12,0
GRID,17901,0,362.4991,0.0,-1294.75,0
GRID,17902,0,361.4902,0.0,-1297.37,0
GRID,17903,0,360.4564,0.0,-1299.98,0
GRID,17904,0,359.3977,0.0,-1302.59,0
GRID,17905,0,358.3143,0.0,-1305.18,0
GRID,17906,0,357.2062,0.0,-1307.76,0
GRID,17907,0,356.0736,0.0,-1310.33,0
GRID,17908,0,354.9165,0.0,-1312.89,0
GRID,17909,0,353.7351,0.0,-1315.45,0
GRID,17910,0,352.5294,0.0,-1317.99,0
GRID,17911,0,351.2996,0.0,-1320.51,0
GRID,17912,0,350.0458,0.0,-1323.03,0
GRID,17913,0,348.768,0.0,-1325.54,0
GRID,17914,0,347.4664,0.0,-1328.03,0
GRID,17915,0,346.1412,0.0,-1330.51,0
GRID,17916,0,344.7923,0.0,-1332.98,0
GRID,17917,0,343.42,0.0,-1335.43,0
GRID,17918,0,342.0244,0.0,-1337.87,0
GRID,17919,0,340.6057,0.0,-1340.3,0
GRID,17920,0,339.1638,0.0,-1342.72,0
GRID,17921,0,337.699,0.0,-1345.12,0
GRID,17922,0,336.2113,0.0,-1347.51,0
GRID,17923,0,334.701,0.0,-1349.88,0
GRID,17924,0,333.1682,0.0,-1352.24,0
GRID,17925,0,331.613,0.0,-1354.59,0
GRID,17926,0,330.0355,0.0,-1356.92,0
GRID,17927,0,328.4359,0.0,-1359.23,0
GRID,17928,0,326.8143,0.0,-1361.53,0
GRID,17929,0,325.1709,0.0,-1363.82,0
GRID,17930,0,323.5058,0.0,-1366.09,0
GRID,17931,0,321.8192,0.0,-1368.34,0
GRID,17932,0,320.1112,0.0,-1370.58,0
GRID,17933,0,318.382,0.0,-1372.8,0
GRID,17934,0,316.6317,0.0,-1375.01,0
GRID,17935,0,314.8606,0.0,-1377.19,0
GRID,17936,0,313.0687,0.0,-1379.36,0
GRID,17937,0,311.2562,0.0,-1381.52,0
GRID,17938,0,309.4234,0.0,-1383.66,0
GRID,17939,0,307.5702,0.0,-1385.78,0
GRID,17940,0,305.697,0.0,-1387.88,0
GRID,17941,0,303.8038,0.0,-1389.96,0
GRID,17942,0,301.891,0.0,-1392.03,0
GRID,17943,0,299.9561,0.0,-1394.08,0
GRID,17944,0,298.0039,0.0,-1396.12,0
GRID,17945,0,296.0346,0.0,-1398.14,0
GRID,17946,0,294.0485,0.0,-1400.14,0
GRID,17947,0,292.101,0.0,-1402.09,0
GRID,17948,0,290.1536,0.0,-1404.04,0
GRID,17949,0,288.2062,0.0,-1405.98,0
GRID,17950,0,286.2588,0.0,-1407.93,0
GRID,17951,0,284.3114,0.0,-1409.88,0
GRID,17952,0,282.364,0.0,-1411.83,0
GRID,17953,0,280.4165,0.0,-1413.77,0
GRID,17954,0,278.4691,0.0,-1415.72,0
GRID,17955,0,276.5217,0.0,-1417.67,0
GRID,17956,0,274.5114,0.0,-1419.66,0
GRID,17957,0,272.4853,0.0,-1421.64,0
GRID,17958,0,270.4438,0.0,-1423.6,0
GRID,17959,0,268.3869,0.0,-1425.55,0
GRID,17960,0,266.3148,0.0,-1427.48,0
GRID,17961,0,264.2275,0.0,-1429.39,0
GRID,17962,0,262.1253,0.0,-1431.29,0
GRID,17963,0,260.0082,0.0,-1433.16,0
GRID,17964,0,257.8765,0.0,-1435.03,0
GRID,17965,0,255.7302,0.0,-1436.87,0
GRID,17966,0,253.5696,0.0,-1438.7,0
GRID,17967,0,251.3949,0.0,-1440.51,0
GRID,17968,0,249.2061,0.0,-1442.3,0
GRID,17969,0,247.0035,0.0,-1444.07,0
GRID,17970,0,244.7873,0.0,-1445.83,0
GRID,17971,0,242.5576,0.0,-1447.57,0
GRID,17972,0,240.3146,0.0,-1449.29,0
GRID,17973,0,238.0584,0.0,-1450.99,0
GRID,17974,0,235.7892,0.0,-1452.68,0
GRID,17975,0,233.5073,0.0,-1454.34,0
GRID,17976,0,231.2127,0.0,-1455.99,0
GRID,17977,0,228.9057,0.0,-1457.62,0
GRID,17978,0,226.5864,0.0,-1459.22,0
GRID,17979,0,224.255,0.0,-1460.81,0
GRID,17980,0,221.9117,0.0,-1462.39,0
GRID,17981,0,219.5567,0.0,-1463.94,0
GRID,17982,0,217.1901,0.0,-1465.47,0
GRID,17983,0,214.8122,0.0,-1466.98,0
GRID,17984,0,212.4231,0.0,-1468.48,0
GRID,17985,0,210.023,0.0,-1469.95,0
GRID,17986,0,207.6121,0.0,-1471.41,0
GRID,17987,0,205.1906,0.0,-1472.84,0
GRID,17988,0,202.7587,0.0,-1474.26,0
GRID,17989,0,200.3165,0.0,-1475.65,0
GRID,17990,0,197.8643,0.0,-1477.02,0
GRID,17991,0,195.4022,0.0,-1478.38,0
GRID,17992,0,192.9304,0.0,-1479.71,0
GRID,17993,0,190.4492,0.0,-1481.03,0
GRID,17994,0,187.9586,0.0,-1482.32,0
GRID,17995,0,185.459,0.0,-1483.59,0
GRID,17996,0,182.9505,0.0,-1484.84,0
GRID,17997,0,180.4333,0.0,-1486.08,0
GRID,17998,0,177.9076,0.0,-1487.29,0
GRID,17999,0,175.3736,0.0,-1488.47,0
GRID,18000,0,172.8316,0.0,-1489.64,0
GRID,18001,0,170.2815,0.0,-1490.79,0
GRID,18002,0,167.7238,0.0,-1491.92,0
GRID,18003,0,165.1586,0.0,-1493.02,0
GRID,18004,0,162.5861,0.0,-1494.11,0
GRID,18005,0,160.0034,0.0,-1495.17,0
GRID,18006,0,157.4095,0.0,-1496.2,0
GRID,18007,0,154.8049,0.0,-1497.21,0
GRID,18008,0,152.1896,0.0,-1498.2,0
GRID,18009,0,149.564,0.0,-1499.15,0
GRID,18010,0,146.9284,0.0,-1500.08,0
GRID,18011,0,144.2829,0.0,-1500.99,0
GRID,18012,0,141.6279,0.0,-1501.87,0
GRID,18013,0,138.9636,0.0,-1502.72,0
GRID,18014,0,136.2902,0.0,-1503.55,0
GRID,18015,0,133.6081,0.0,-1504.34,0
GRID,18016,0,130.9176,0.0,-1505.12,0
GRID,18017,0,128.2188,0.0,-1505.86,0
GRID,18018,0,125.5122,0.0,-1506.58,0
GRID,18019,0,122.7979,0.0,-1507.27,0
GRID,18020,0,120.0762,0.0,-1507.93,0
GRID,18021,0,117.3474,0.0,-1508.57,0
GRID,18022,0,114.6118,0.0,-1509.18,0
GRID,18023,0,111.8697,0.0,-1509.76,0
GRID,18024,0,109.1213,0.0,-1510.31,0
GRID,18025,0,106.367,0.0,-1510.84,0
GRID,18026,0,103.6069,0.0,-1511.34,0
GRID,18027,0,100.8415,0.0,-1511.81,0
GRID,18028,0,98.07087,0.0,-1512.26,0
GRID,18029,0,95.29543,0.0,-1512.67,0
GRID,18030,0,92.51543,0.0,-1513.06,0
GRID,18031,0,89.73115,0.0,-1513.42,0
GRID,18032,0,86.94288,0.0,-1513.75,0
GRID,18033,0,84.1509,0.0,-1514.05,0
GRID,18034,0,81.3555,0.0,-1514.33,0
GRID,18035,0,78.55696,0.0,-1514.58,0
GRID,18036,0,75.75559,0.0,-1514.8,0
GRID,18037,0,72.95165,0.0,-1514.99,0
GRID,18038,0,70.14544,0.0,-1515.15,0
GRID,18039,0,67.33725,0.0,-1515.29,0
GRID,18040,0,64.52736,0.0,-1515.4,0
GRID,18041,0,61.71608,0.0,-1515.47,0
GRID,18042,0,58.90368,0.0,-1515.52,0
GRID,18043,0,56.09045,0.0,-1515.55,0
GRID,18044,0,53.27669,0.0,-1515.54,0
GRID,18045,0,50.46269,0.0,-1515.51,0
GRID,18046,0,47.64873,0.0,-1515.44,0
GRID,18047,0,44.83512,0.0,-1515.35,0
GRID,18048,0,42.02212,0.0,-1515.23,0
GRID,18049,0,39.21005,0.0,-1515.08,0
GRID,18050,0,36.39918,0.0,-1514.91,0
GRID,18051,0,33.58982,0.0,-1514.7,0
GRID,18052,0,30.78224,0.0,-1514.47,0
GRID,18053,0,27.97674,0.0,-1514.21,0
GRID,18054,0,25.17362,0.0,-1513.92,0
GRID,18055,0,22.37317,0.0,-1513.6,0
GRID,18056,0,19.57568,0.0,-1513.26,0
GRID,18057,0,16.78144,0.0,-1512.88,0
GRID,18058,0,13.99072,0.0,-1512.48,0
GRID,18059,0,11.20382,0.0,-1512.05,0
GRID,18060,0,8.421012,0.0,-1511.59,0
GRID,18061,0,5.642585,0.0,-1511.11,0
GRID,18062,0,2.86882,0.0,-1510.59,0
GRID,18063,0,382.8767,0.0,-1052.83,0
GRID,18064,0,382.8767,0.0,-1055.66,0
GRID,18065,0,382.8767,0.0,-1058.5,0
GRID,18066,0,382.8767,0.0,-1061.33,0
GRID,18067,0,382.8767,0.0,-1064.16,0
GRID,18068,0,382.8767,0.0,-1066.99,0
GRID,18069,0,382.8767,0.0,-1069.82,0
GRID,18070,0,382.875,0.0,-1072.62,0
GRID,18071,0,382.8703,0.0,-1075.41,0
GRID,18072,0,382.8624,0.0,-1078.21,0
GRID,18073,0,382.8514,0.0,-1081.01,0
GRID,18074,0,382.8373,0.0,-1083.8,0
GRID,18075,0,382.8201,0.0,-1086.6,0
GRID,18076,0,382.7997,0.0,-1089.4,0
GRID,18077,0,382.7762,0.0,-1092.19,0
GRID,18078,0,382.7496,0.0,-1094.99,0
GRID,18079,0,382.7199,0.0,-1097.78,0
GRID,18080,0,382.687,0.0,-1100.58,0
GRID,18081,0,382.651,0.0,-1103.37,0
GRID,18082,0,382.6118,0.0,-1106.17,0
GRID,18083,0,382.5695,0.0,-1108.96,0
GRID,18084,0,382.5241,0.0,-1111.76,0
GRID,18085,0,382.4756,0.0,-1114.55,0
GRID,18086,0,382.424,0.0,-1117.35,0
GRID,18087,0,382.3692,0.0,-1120.14,0
GRID,18088,0,382.3113,0.0,-1122.93,0
GRID,18089,0,382.2503,0.0,-1125.72,0
GRID,18090,0,382.1862,0.0,-1128.52,0
GRID,18091,0,382.119,0.0,-1131.31,0
GRID,18092,0,382.0487,0.0,-1134.1,0
GRID,18093,0,381.9753,0.0,-1136.89,0
GRID,18094,0,381.8988,0.0,-1139.68,0
GRID,18095,0,381.8192,0.0,-1142.47,0
GRID,18096,0,381.7365,0.0,-1145.26,0
GRID,18097,0,381.6507,0.0,-1148.05,0
GRID,18098,0,381.5618,0.0,-1150.84,0
GRID,18099,0,381.4698,0.0,-1153.63,0
GRID,18100,0,381.3748,0.0,-1156.41,0
GRID,18101,0,381.2767,0.0,-1159.2,0
GRID,18102,0,381.1755,0.0,-1161.99,0
GRID,18103,0,381.0712,0.0,-1164.77,0
GRID,18104,0,380.9639,0.0,-1167.56,0
GRID,18105,0,380.8536,0.0,-1170.34,0
GRID,18106,0,380.7402,0.0,-1173.12,0
GRID,18107,0,380.6237,0.0,-1175.9,0
GRID,18108,0,380.5042,0.0,-1178.69,0
GRID,18109,0,380.3817,0.0,-1181.47,0
GRID,18110,0,380.2561,0.0,-1184.25,0
GRID,18111,0,380.1275,0.0,-1187.03,0
GRID,18112,0,379.9958,0.0,-1189.8,0
GRID,18113,0,379.8612,0.0,-1192.58,0
GRID,18114,0,379.7235,0.0,-1195.36,0
GRID,18115,0,379.5829,0.0,-1198.13,0
GRID,18116,0,379.4392,0.0,-1200.91,0
GRID,18117,0,379.2926,0.0,-1203.68,0
GRID,18118,0,379.131,0.0,-1206.46,0
GRID,18119,0,378.9433,0.0,-1209.24,0
GRID,18120,0,378.7294,0.0,-1212.01,0
GRID,18121,0,378.4893,0.0,-1214.78,0
GRID,18122,0,378.2231,0.0,-1217.55,0
GRID,18123,0,377.9307,0.0,-1220.32,0
GRID,18124,0,377.6121,0.0,-1223.09,0
GRID,18125,0,377.2673,0.0,-1225.85,0
GRID,18126,0,376.8963,0.0,-1228.61,0
GRID,18127,0,376.4991,0.0,-1231.37,0
GRID,18128,0,376.0758,0.0,-1234.12,0
GRID,18129,0,375.6264,0.0,-1236.87,0
GRID,18130,0,375.151,0.0,-1239.62,0
GRID,18131,0,374.6496,0.0,-1242.36,0
GRID,18132,0,374.1223,0.0,-1245.1,0
GRID,18133,0,373.5691,0.0,-1247.83,0
GRID,18134,0,372.99,0.0,-1250.56,0
GRID,18135,0,372.3851,0.0,-1253.28,0
GRID,18136,0,371.7544,0.0,-1255.99,0
GRID,18137,0,371.098,0.0,-1258.7,0
GRID,18138,0,370.4159,0.0,-1261.41,0
GRID,18139,0,369.7082,0.0,-1264.11,0
GRID,18140,0,368.975,0.0,-1266.8,0
GRID,18141,0,368.2163,0.0,-1269.49,0
GRID,18142,0,367.4321,0.0,-1272.16,0
GRID,18143,0,366.6227,0.0,-1274.84,0
GRID,18144,0,365.7879,0.0,-1277.5,0
GRID,18145,0,364.9279,0.0,-1280.16,0
GRID,18146,0,364.0427,0.0,-1282.8,0
GRID,18147,0,363.1325,0.0,-1285.44,0
GRID,18148,0,362.1973,0.0,-1288.07,0
GRID,18149,0,361.2372,0.0,-1290.7,0
GRID,18150,0,360.2523,0.0,-1293.31,0
GRID,18151,0,359.2426,0.0,-1295.92,0
GRID,18152,0,358.2083,0.0,-1298.51,0
GRID,18153,0,357.1494,0.0,-1301.1,0
GRID,18154,0,356.0661,0.0,-1303.67,0
GRID,18155,0,354.9583,0.0,-1306.24,0
GRID,18156,0,353.8263,0.0,-1308.79,0
GRID,18157,0,352.6701,0.0,-1311.34,0
GRID,18158,0,351.4899,0.0,-1313.87,0
GRID,18159,0,350.2857,0.0,-1316.39,0
GRID,18160,0,349.0576,0.0,-1318.91,0
GRID,18161,0,347.8057,0.0,-1321.41,0
GRID,18162,0,346.5302,0.0,-1323.89,0
GRID,18163,0,345.2312,0.0,-1326.37,0
GRID,18164,0,343.9087,0.0,-1328.84,0
GRID,18165,0,342.563,0.0,-1331.29,0
GRID,18166,0,341.1941,0.0,-1333.73,0
GRID,18167,0,339.8021,0.0,-1336.15,0
GRID,18168,0,338.3871,0.0,-1338.57,0
GRID,18169,0,336.9494,0.0,-1340.97,0
GRID,18170,0,335.489,0.0,-1343.35,0
GRID,18171,0,334.006,0.0,-1345.72,0
GRID,18172,0,332.5006,0.0,-1348.08,0
GRID,18173,0,330.9729,0.0,-1350.43,0
GRID,18174,0,329.4231,0.0,-1352.76,0
GRID,18175,0,327.8513,0.0,-1355.07,0
GRID,18176,0,326.2576,0.0,-1357.37,0
GRID,18177,0,324.6422,0.0,-1359.66,0
GRID,18178,0,323.0052,0.0,-1361.93,0
GRID,18179,0,321.3467,0.0,-1364.18,0
GRID,18180,0,319.667,0.0,-1366.42,0
GRID,18181,0,317.9661,0.0,-1368.65,0
GRID,18182,0,316.2442,0.0,-1370.85,0
GRID,18183,0,314.5016,0.0,-1373.04,0
GRID,18184,0,312.7382,0.0,-1375.22,0
GRID,18185,0,310.9544,0.0,-1377.38,0
GRID,18186,0,309.1503,0.0,-1379.52,0
GRID,18187,0,307.3259,0.0,-1381.64,0
GRID,18188,0,305.4815,0.0,-1383.75,0
GRID,18189,0,303.6172,0.0,-1385.84,0
GRID,18190,0,301.7332,0.0,-1387.91,0
GRID,18191,0,299.8298,0.0,-1389.96,0
GRID,18192,0,297.9043,0.0,-1392.0,0
GRID,18193,0,295.9619,0.0,-1394.03,0
GRID,18194,0,294.0027,0.0,-1396.04,0
GRID,18195,0,292.0271,0.0,-1398.03,0
GRID,18196,0,290.0893,0.0,-1399.97,0
GRID,18197,0,288.1516,0.0,-1401.91,0
GRID,18198,0,286.2139,0.0,-1403.84,0
GRID,18199,0,284.2761,0.0,-1405.78,0
GRID,18200,0,282.3384,0.0,-1407.72,0
GRID,18201,0,280.4006,0.0,-1409.66,0
GRID,18202,0,278.4629,0.0,-1411.59,0
GRID,18203,0,276.5251,0.0,-1413.53,0
GRID,18204,0,274.5874,0.0,-1415.47,0
GRID,18205,0,272.5881,0.0,-1417.45,0
GRID,18206,0,270.5734,0.0,-1419.42,0
GRID,18207,0,268.5436,0.0,-1421.37,0
GRID,18208,0,266.4987,0.0,-1423.31,0
GRID,18209,0,264.4388,0.0,-1425.23,0
GRID,18210,0,262.3642,0.0,-1427.13,0
GRID,18211,0,260.275,0.0,-1429.02,0
GRID,18212,0,258.1712,0.0,-1430.89,0
GRID,18213,0,256.0531,0.0,-1432.74,0
GRID,18214,0,253.9207,0.0,-1434.58,0
GRID,18215,0,251.7743,0.0,-1436.4,0
GRID,18216,0,249.6141,0.0,-1438.21,0
GRID,18217,0,247.4401,0.0,-1439.99,0
GRID,18218,0,245.2527,0.0,-1441.76,0
GRID,18219,0,243.0518,0.0,-1443.51,0
GRID,18220,0,240.8378,0.0,-1445.24,0
GRID,18221,0,238.6107,0.0,-1446.96,0
GRID,18222,0,236.3708,0.0,-1448.66,0
GRID,18223,0,234.1182,0.0,-1450.34,0
GRID,18224,0,231.853,0.0,-1452.0,0
GRID,18225,0,229.5755,0.0,-1453.64,0
GRID,18226,0,227.2858,0.0,-1455.27,0
GRID,18227,0,224.9841,0.0,-1456.87,0
GRID,18228,0,222.6705,0.0,-1458.46,0
GRID,18229,0,220.3453,0.0,-1460.03,0
GRID,18230,0,218.0087,0.0,-1461.58,0
GRID,18231,0,215.6607,0.0,-1463.11,0
GRID,18232,0,213.3016,0.0,-1464.63,0
GRID,18233,0,210.9316,0.0,-1466.12,0
GRID,18234,0,208.5508,0.0,-1467.59,0
GRID,18235,0,206.1594,0.0,-1469.05,0
GRID,18236,0,203.7577,0.0,-1470.49,0
GRID,18237,0,201.3457,0.0,-1471.9,0
GRID,18238,0,198.9238,0.0,-1473.3,0
GRID,18239,0,196.4919,0.0,-1474.68,0
GRID,18240,0,194.0505,0.0,-1476.03,0
GRID,18241,0,191.5995,0.0,-1477.37,0
GRID,18242,0,189.1393,0.0,-1478.69,0
GRID,18243,0,186.67,0.0,-1479.99,0
GRID,18244,0,184.1919,0.0,-1481.26,0
GRID,18245,0,181.705,0.0,-1482.52,0
GRID,18246,0,179.2096,0.0,-1483.76,0
GRID,18247,0,176.7059,0.0,-1484.97,0
GRID,18248,0,174.194,0.0,-1486.17,0
GRID,18249,0,171.6743,0.0,-1487.34,0
GRID,18250,0,169.1468,0.0,-1488.5,0
GRID,18251,0,166.6117,0.0,-1489.63,0
GRID,18252,0,164.0693,0.0,-1490.75,0
GRID,18253,0,161.5198,0.0,-1491.84,0
GRID,18254,0,158.9599,0.0,-1492.91,0
GRID,18255,0,156.3888,0.0,-1493.95,0
GRID,18256,0,153.8067,0.0,-1494.97,0
GRID,18257,0,151.2138,0.0,-1495.97,0
GRID,18258,0,148.6104,0.0,-1496.93,0
GRID,18259,0,145.9967,0.0,-1497.87,0
GRID,18260,0,143.3731,0.0,-1498.79,0
GRID,18261,0,140.7397,0.0,-1499.68,0
GRID,18262,0,138.0968,0.0,-1500.54,0
GRID,18263,0,135.4448,0.0,-1501.37,0
GRID,18264,0,132.7838,0.0,-1502.18,0
GRID,18265,0,130.1142,0.0,-1502.96,0
GRID,18266,0,127.4362,0.0,-1503.72,0
GRID,18267,0,124.7501,0.0,-1504.45,0
GRID,18268,0,122.0562,0.0,-1505.15,0
GRID,18269,0,119.3548,0.0,-1505.82,0
GRID,18270,0,116.6461,0.0,-1506.47,0
GRID,18271,0,113.9304,0.0,-1507.09,0
GRID,18272,0,111.208,0.0,-1507.68,0
GRID,18273,0,108.4792,0.0,-1508.25,0
GRID,18274,0,105.7442,0.0,-1508.79,0
GRID,18275,0,103.0034,0.0,-1509.3,0
GRID,18276,0,100.257,0.0,-1509.78,0
GRID,18277,0,97.50529,0.0,-1510.23,0
GRID,18278,0,94.74858,0.0,-1510.66,0
GRID,18279,0,91.98713,0.0,-1511.06,0
GRID,18280,0,89.22124,0.0,-1511.43,0
GRID,18281,0,86.45119,0.0,-1511.77,0
GRID,18282,0,83.67728,0.0,-1512.09,0
GRID,18283,0,80.89979,0.0,-1512.38,0
GRID,18284,0,78.119,0.0,-1512.64,0
GRID,18285,0,75.33522,0.0,-1512.87,0
GRID,18286,0,72.54871,0.0,-1513.07,0
GRID,18287,0,69.75978,0.0,-1513.25,0
GRID,18288,0,66.96872,0.0,-1513.39,0
GRID,18289,0,64.1758,0.0,-1513.51,0
GRID,18290,0,61.38134,0.0,-1513.6,0
GRID,18291,0,58.5856,0.0,-1513.66,0
GRID,18292,0,55.7889,0.0,-1513.7,0
GRID,18293,0,52.99152,0.0,-1513.7,0
GRID,18294,0,50.19374,0.0,-1513.68,0
GRID,18295,0,47.39587,0.0,-1513.63,0
GRID,18296,0,44.59819,0.0,-1513.55,0
GRID,18297,0,41.801,0.0,-1513.44,0
GRID,18298,0,39.00459,0.0,-1513.31,0
GRID,18299,0,36.20924,0.0,-1513.14,0
GRID,18300,0,33.41526,0.0,-1512.95,0
GRID,18301,0,30.62294,0.0,-1512.73,0
GRID,18302,0,27.83256,0.0,-1512.48,0
GRID,18303,0,25.04442,0.0,-1512.2,0
GRID,18304,0,22.25882,0.0,-1511.9,0
GRID,18305,0,19.47605,0.0,-1511.56,0
GRID,18306,0,16.69641,0.0,-1511.2,0
GRID,18307,0,13.92017,0.0,-1510.81,0
GRID,18308,0,11.14762,0.0,-1510.39,0
GRID,18309,0,8.379038,0.0,-1509.95,0
GRID,18310,0,5.614719,0.0,-1509.47,0
GRID,18311,0,2.854945,0.0,-1508.97,0
GRID,18312,0,381.075,0.0,-1052.82,0
GRID,18313,0,381.075,0.0,-1055.64,0
GRID,18314,0,381.075,0.0,-1058.46,0
GRID,18315,0,381.075,0.0,-1061.28,0
GRID,18316,0,381.075,0.0,-1064.09,0
GRID,18317,0,381.075,0.0,-1066.91,0
GRID,18318,0,381.075,0.0,-1069.73,0
GRID,18319,0,381.0732,0.0,-1072.51,0
GRID,18320,0,381.0682,0.0,-1075.29,0
GRID,18321,0,381.0597,0.0,-1078.07,0
GRID,18322,0,381.0479,0.0,-1080.86,0
GRID,18323,0,381.0328,0.0,-1083.64,0
GRID,18324,0,381.0144,0.0,-1086.42,0
GRID,18325,0,380.9925,0.0,-1089.2,0
GRID,18326,0,380.9674,0.0,-1091.98,0
GRID,18327,0,380.9389,0.0,-1094.76,0
GRID,18328,0,380.907,0.0,-1097.54,0
GRID,18329,0,380.8718,0.0,-1100.32,0
GRID,18330,0,380.8332,0.0,-1103.1,0
GRID,18331,0,380.7912,0.0,-1105.88,0
GRID,18332,0,380.7459,0.0,-1108.66,0
GRID,18333,0,380.6973,0.0,-1111.44,0
GRID,18334,0,380.6453,0.0,-1114.21,0
GRID,18335,0,380.59,0.0,-1116.99,0
GRID,18336,0,380.5313,0.0,-1119.77,0
GRID,18337,0,380.4693,0.0,-1122.55,0
GRID,18338,0,380.4039,0.0,-1125.32,0
GRID,18339,0,380.3352,0.0,-1128.1,0
GRID,18340,0,380.2632,0.0,-1130.88,0
GRID,18341,0,380.1879,0.0,-1133.65,0
GRID,18342,0,380.1092,0.0,-1136.43,0
GRID,18343,0,380.0272,0.0,-1139.2,0
GRID,18344,0,379.9419,0.0,-1141.98,0
GRID,18345,0,379.8533,0.0,-1144.75,0
GRID,18346,0,379.7614,0.0,-1147.52,0
GRID,18347,0,379.6662,0.0,-1150.3,0
GRID,18348,0,379.5677,0.0,-1153.07,0
GRID,18349,0,379.4658,0.0,-1155.84,0
GRID,18350,0,379.3607,0.0,-1158.61,0
GRID,18351,0,379.2523,0.0,-1161.38,0
GRID,18352,0,379.1406,0.0,-1164.15,0
GRID,18353,0,379.0256,0.0,-1166.92,0
GRID,18354,0,378.9074,0.0,-1169.68,0
GRID,18355,0,378.7859,0.0,-1172.45,0
GRID,18356,0,378.6611,0.0,-1175.22,0
GRID,18357,0,378.5331,0.0,-1177.98,0
GRID,18358,0,378.4018,0.0,-1180.74,0
GRID,18359,0,378.2672,0.0,-1183.51,0
GRID,18360,0,378.1294,0.0,-1186.27,0
GRID,18361,0,377.9884,0.0,-1189.03,0
GRID,18362,0,377.8441,0.0,-1191.79,0
GRID,18363,0,377.6967,0.0,-1194.55,0
GRID,18364,0,377.546,0.0,-1197.31,0
GRID,18365,0,377.392,0.0,-1200.07,0
GRID,18366,0,377.2349,0.0,-1202.83,0
GRID,18367,0,377.0629,0.0,-1205.59,0
GRID,18368,0,376.865,0.0,-1208.34,0
GRID,18369,0,376.6413,0.0,-1211.1,0
GRID,18370,0,376.3917,0.0,-1213.86,0
GRID,18371,0,376.1162,0.0,-1216.61,0
GRID,18372,0,375.8149,0.0,-1219.36,0
GRID,18373,0,375.4876,0.0,-1222.11,0
GRID,18374,0,375.1344,0.0,-1224.86,0
GRID,18375,0,374.7553,0.0,-1227.6,0
GRID,18376,0,374.3503,0.0,-1230.34,0
GRID,18377,0,373.9195,0.0,-1233.07,0
GRID,18378,0,373.4629,0.0,-1235.81,0
GRID,18379,0,372.9806,0.0,-1238.53,0
GRID,18380,0,372.4727,0.0,-1241.26,0
GRID,18381,0,371.939,0.0,-1243.98,0
GRID,18382,0,371.3798,0.0,-1246.69,0
GRID,18383,0,370.795,0.0,-1249.4,0
GRID,18384,0,370.1847,0.0,-1252.11,0
GRID,18385,0,369.5488,0.0,-1254.8,0
GRID,18386,0,368.8876,0.0,-1257.5,0
GRID,18387,0,368.2009,0.0,-1260.18,0
GRID,18388,0,367.489,0.0,-1262.86,0
GRID,18389,0,366.7518,0.0,-1265.54,0
GRID,18390,0,365.9894,0.0,-1268.21,0
GRID,18391,0,365.2019,0.0,-1270.87,0
GRID,18392,0,364.3894,0.0,-1273.52,0
GRID,18393,0,363.5518,0.0,-1276.17,0
GRID,18394,0,362.6893,0.0,-1278.81,0
GRID,18395,0,361.8019,0.0,-1281.44,0
GRID,18396,0,360.8898,0.0,-1284.06,0
GRID,18397,0,359.9529,0.0,-1286.67,0
GRID,18398,0,358.9915,0.0,-1289.28,0
GRID,18399,0,358.0055,0.0,-1291.87,0
GRID,18400,0,356.995,0.0,-1294.46,0
GRID,18401,0,355.9602,0.0,-1297.04,0
GRID,18402,0,354.9011,0.0,-1299.61,0
GRID,18403,0,353.8178,0.0,-1302.17,0
GRID,18404,0,352.7104,0.0,-1304.71,0
GRID,18405,0,351.579,0.0,-1307.25,0
GRID,18406,0,350.4238,0.0,-1309.78,0
GRID,18407,0,349.2447,0.0,-1312.3,0
GRID,18408,0,348.0419,0.0,-1314.8,0
GRID,18409,0,346.8156,0.0,-1317.3,0
GRID,18410,0,345.5657,0.0,-1319.78,0
GRID,18411,0,344.2925,0.0,-1322.25,0
GRID,18412,0,342.996,0.0,-1324.71,0
GRID,18413,0,341.6763,0.0,-1327.16,0
GRID,18414,0,340.3337,0.0,-1329.6,0
GRID,18415,0,338.9681,0.0,-1332.02,0
GRID,18416,0,337.5797,0.0,-1334.43,0
GRID,18417,0,336.1686,0.0,-1336.83,0
GRID,18418,0,334.735,0.0,-1339.21,0
GRID,18419,0,333.279,0.0,-1341.58,0
GRID,18420,0,331.8006,0.0,-1343.94,0
GRID,18421,0,330.3002,0.0,-1346.28,0
GRID,18422,0,328.7776,0.0,-1348.61,0
GRID,18423,0,327.2332,0.0,-1350.93,0
GRID,18424,0,325.6671,0.0,-1353.23,0
GRID,18425,0,324.0793,0.0,-1355.51,0
GRID,18426,0,322.47,0.0,-1357.78,0
GRID,18427,0,320.8394,0.0,-1360.04,0
GRID,18428,0,319.1876,0.0,-1362.28,0
GRID,18429,0,317.5148,0.0,-1364.51,0
GRID,18430,0,315.821,0.0,-1366.71,0
GRID,18431,0,314.1065,0.0,-1368.91,0
GRID,18432,0,312.3714,0.0,-1371.08,0
GRID,18433,0,310.6159,0.0,-1373.25,0
GRID,18434,0,308.8402,0.0,-1375.39,0
GRID,18435,0,307.0443,0.0,-1377.52,0
GRID,18436,0,305.2284,0.0,-1379.63,0
GRID,18437,0,303.3927,0.0,-1381.72,0
GRID,18438,0,301.5374,0.0,-1383.8,0
GRID,18439,0,299.6626,0.0,-1385.86,0
GRID,18440,0,297.7686,0.0,-1387.9,0
GRID,18441,0,295.8525,0.0,-1389.93,0
GRID,18442,0,293.9199,0.0,-1391.94,0
GRID,18443,0,291.9709,0.0,-1393.94,0
GRID,18444,0,290.0057,0.0,-1395.92,0
GRID,18445,0,288.0776,0.0,-1397.85,0
GRID,18446,0,286.1496,0.0,-1399.78,0
GRID,18447,0,284.2215,0.0,-1401.7,0
GRID,18448,0,282.2934,0.0,-1403.63,0
GRID,18449,0,280.3654,0.0,-1405.56,0
GRID,18450,0,278.4373,0.0,-1407.49,0
GRID,18451,0,276.5092,0.0,-1409.42,0
GRID,18452,0,274.5812,0.0,-1411.34,0
GRID,18453,0,272.6531,0.0,-1413.27,0
GRID,18454,0,270.6648,0.0,-1415.25,0
GRID,18455,0,268.6615,0.0,-1417.2,0
GRID,18456,0,266.6433,0.0,-1419.14,0
GRID,18457,0,264.6104,0.0,-1421.07,0
GRID,18458,0,262.5629,0.0,-1422.98,0
GRID,18459,0,260.501,0.0,-1424.88,0
GRID,18460,0,258.4247,0.0,-1426.76,0
GRID,18461,0,256.3342,0.0,-1428.62,0
GRID,18462,0,254.2296,0.0,-1430.46,0
GRID,18463,0,252.1112,0.0,-1432.29,0
GRID,18464,0,249.979,0.0,-1434.11,0
GRID,18465,0,247.8333,0.0,-1435.9,0
GRID,18466,0,245.6742,0.0,-1437.68,0
GRID,18467,0,243.5018,0.0,-1439.44,0
GRID,18468,0,241.3163,0.0,-1441.19,0
GRID,18469,0,239.118,0.0,-1442.92,0
GRID,18470,0,236.9069,0.0,-1444.63,0
GRID,18471,0,234.6832,0.0,-1446.32,0
GRID,18472,0,232.4471,0.0,-1448.0,0
GRID,18473,0,230.1987,0.0,-1449.66,0
GRID,18474,0,227.9382,0.0,-1451.3,0
GRID,18475,0,225.6659,0.0,-1452.92,0
GRID,18476,0,223.3818,0.0,-1454.52,0
GRID,18477,0,221.0861,0.0,-1456.11,0
GRID,18478,0,218.779,0.0,-1457.68,0
GRID,18479,0,216.4607,0.0,-1459.23,0
GRID,18480,0,214.1313,0.0,-1460.76,0
GRID,18481,0,211.791,0.0,-1462.27,0
GRID,18482,0,209.4401,0.0,-1463.76,0
GRID,18483,0,207.0786,0.0,-1465.24,0
GRID,18484,0,204.7068,0.0,-1466.69,0
GRID,18485,0,202.3248,0.0,-1468.13,0
GRID,18486,0,199.9328,0.0,-1469.55,0
GRID,18487,0,197.531,0.0,-1470.95,0
GRID,18488,0,195.1196,0.0,-1472.33,0
GRID,18489,0,192.6988,0.0,-1473.69,0
GRID,18490,0,190.2687,0.0,-1475.03,0
GRID,18491,0,187.8295,0.0,-1476.35,0
GRID,18492,0,185.3815,0.0,-1477.65,0
GRID,18493,0,182.9247,0.0,-1478.93,0
GRID,18494,0,180.4594,0.0,-1480.19,0
GRID,18495,0,177.9858,0.0,-1481.44,0
GRID,18496,0,175.5041,0.0,-1482.66,0
GRID,18497,0,173.0144,0.0,-1483.86,0
GRID,18498,0,170.517,0.0,-1485.04,0
GRID,18499,0,168.012,0.0,-1486.21,0
GRID,18500,0,165.4996,0.0,-1487.35,0
GRID,18501,0,162.98,0.0,-1488.47,0
GRID,18502,0,160.4534,0.0,-1489.57,0
GRID,18503,0,157.9165,0.0,-1490.65,0
GRID,18504,0,155.368,0.0,-1491.7,0
GRID,18505,0,152.8085,0.0,-1492.73,0
GRID,18506,0,150.2379,0.0,-1493.73,0
GRID,18507,0,147.6567,0.0,-1494.71,0
GRID,18508,0,145.0651,0.0,-1495.66,0
GRID,18509,0,142.4632,0.0,-1496.59,0
GRID,18510,0,139.8515,0.0,-1497.48,0
GRID,18511,0,137.2301,0.0,-1498.36,0
GRID,18512,0,134.5993,0.0,-1499.2,0
GRID,18513,0,131.9595,0.0,-1500.02,0
GRID,18514,0,129.3108,0.0,-1500.81,0
GRID,18515,0,126.6536,0.0,-1501.58,0
GRID,18516,0,123.9881,0.0,-1502.32,0
GRID,18517,0,121.3146,0.0,-1503.03,0
GRID,18518,0,118.6334,0.0,-1503.71,0
GRID,18519,0,115.9448,0.0,-1504.37,0
GRID,18520,0,113.249,0.0,-1505.0,0
GRID,18521,0,110.5463,0.0,-1505.61,0
GRID,18522,0,107.8371,0.0,-1506.18,0
GRID,18523,0,105.1215,0.0,-1506.73,0
GRID,18524,0,102.3999,0.0,-1507.25,0
GRID,18525,0,99.67254,0.0,-1507.74,0
GRID,18526,0,96.93972,0.0,-1508.21,0
GRID,18527,0,94.20172,0.0,-1508.65,0
GRID,18528,0,91.45882,0.0,-1509.06,0
GRID,18529,0,88.71133,0.0,-1509.44,0
GRID,18530,0,85.95951,0.0,-1509.8,0
GRID,18531,0,83.20366,0.0,-1510.12,0
GRID,18532,0,80.44408,0.0,-1510.42,0
GRID,18533,0,77.68104,0.0,-1510.69,0
GRID,18534,0,74.91485,0.0,-1510.94,0
GRID,18535,0,72.14578,0.0,-1511.15,0
GRID,18536,0,69.37413,0.0,-1511.34,0
GRID,18537,0,66.60018,0.0,-1511.5,0
GRID,18538,0,63.82424,0.0,-1511.63,0
GRID,18539,0,61.04659,0.0,-1511.73,0
GRID,18540,0,58.26753,0.0,-1511.8,0
GRID,18541,0,55.48735,0.0,-1511.85,0
GRID,18542,0,52.70634,0.0,-1511.87,0
GRID,18543,0,49.9248,0.0,-1511.85,0
GRID,18544,0,47.14301,0.0,-1511.82,0
GRID,18545,0,44.36127,0.0,-1511.75,0
GRID,18546,0,41.57988,0.0,-1511.65,0
GRID,18547,0,38.79913,0.0,-1511.53,0
GRID,18548,0,36.0193,0.0,-1511.38,0
GRID,18549,0,33.24071,0.0,-1511.2,0
GRID,18550,0,30.46363,0.0,-1510.99,0
GRID,18551,0,27.68837,0.0,-1510.75,0
GRID,18552,0,24.91521,0.0,-1510.48,0
GRID,18553,0,22.14447,0.0,-1510.19,0
GRID,18554,0,19.37643,0.0,-1509.87,0
GRID,18555,0,16.61138,0.0,-1509.52,0
GRID,18556,0,13.84962,0.0,-1509.14,0
GRID,18557,0,11.09141,0.0,-1508.73,0
GRID,18558,0,8.337064,0.0,-1508.3,0
GRID,18559,0,5.586853,0.0,-1507.84,0
GRID,18560,0,2.84107,0.0,-1507.35,0
GRID,18561,0,379.2733,0.0,-1052.81,0
GRID,18562,0,379.2733,0.0,-1055.61,0
GRID,18563,0,379.2733,0.0,-1058.42,0
GRID,18564,0,379.2733,0.0,-1061.22,0
GRID,18565,0,379.2733,0.0,-1064.03,0
GRID,18566,0,379.2733,0.0,-1066.84,0
GRID,18567,0,379.2733,0.0,-1069.64,0
GRID,18568,0,379.2715,0.0,-1072.41,0
GRID,18569,0,379.266,0.0,-1075.17,0
GRID,18570,0,379.257,0.0,-1077.94,0
GRID,18571,0,379.2445,0.0,-1080.7,0
GRID,18572,0,379.2283,0.0,-1083.47,0
GRID,18573,0,379.2086,0.0,-1086.23,0
GRID,18574,0,379.1854,0.0,-1089.0,0
GRID,18575,0,379.1585,0.0,-1091.76,0
GRID,18576,0,379.1281,0.0,-1094.53,0
GRID,18577,0,379.0941,0.0,-1097.29,0
GRID,18578,0,379.0565,0.0,-1100.06,0
GRID,18579,0,379.0154,0.0,-1102.82,0
GRID,18580,0,378.9707,0.0,-1105.59,0
GRID,18581,0,378.9223,0.0,-1108.35,0
GRID,18582,0,378.8704,0.0,-1111.11,0
GRID,18583,0,378.815,0.0,-1113.88,0
GRID,18584,0,378.7559,0.0,-1116.64,0
GRID,18585,0,378.6934,0.0,-1119.4,0
GRID,18586,0,378.6272,0.0,-1122.16,0
GRID,18587,0,378.5575,0.0,-1124.92,0
GRID,18588,0,378.4842,0.0,-1127.68,0
GRID,18589,0,378.4074,0.0,-1130.45,0
GRID,18590,0,378.3271,0.0,-1133.21,0
GRID,18591,0,378.2432,0.0,-1135.96,0
GRID,18592,0,378.1557,0.0,-1138.72,0
GRID,18593,0,378.0647,0.0,-1141.48,0
GRID,18594,0,377.9702,0.0,-1144.24,0
GRID,18595,0,377.8722,0.0,-1147.0,0
GRID,18596,0,377.7706,0.0,-1149.75,0
GRID,18597,0,377.6655,0.0,-1152.51,0
GRID,18598,0,377.5569,0.0,-1155.26,0
GRID,18599,0,377.4448,0.0,-1158.02,0
GRID,18600,0,377.3291,0.0,-1160.77,0
GRID,18601,0,377.21,0.0,-1163.52,0
GRID,18602,0,377.0874,0.0,-1166.28,0
GRID,18603,0,376.9612,0.0,-1169.03,0
GRID,18604,0,376.8316,0.0,-1171.78,0
GRID,18605,0,376.6985,0.0,-1174.53,0
GRID,18606,0,376.5619,0.0,-1177.28,0
GRID,18607,0,376.4219,0.0,-1180.02,0
GRID,18608,0,376.2784,0.0,-1182.77,0
GRID,18609,0,376.1314,0.0,-1185.52,0
GRID,18610,0,375.981,0.0,-1188.26,0
GRID,18611,0,375.8271,0.0,-1191.0,0
GRID,18612,0,375.6698,0.0,-1193.75,0
GRID,18613,0,375.509,0.0,-1196.49,0
GRID,18614,0,375.3448,0.0,-1199.23,0
GRID,18615,0,375.1772,0.0,-1201.97,0
GRID,18616,0,374.9948,0.0,-1204.71,0
GRID,18617,0,374.7868,0.0,-1207.45,0
GRID,18618,0,374.5532,0.0,-1210.19,0
GRID,18619,0,374.2941,0.0,-1212.93,0
GRID,18620,0,374.0093,0.0,-1215.67,0
GRID,18621,0,373.699,0.0,-1218.4,0
GRID,18622,0,373.363,0.0,-1221.13,0
GRID,18623,0,373.0015,0.0,-1223.86,0
GRID,18624,0,372.6143,0.0,-1226.59,0
GRID,18625,0,372.2015,0.0,-1229.31,0
GRID,18626,0,371.7632,0.0,-1232.03,0
GRID,18627,0,371.2995,0.0,-1234.74,0
GRID,18628,0,370.8103,0.0,-1237.45,0
GRID,18629,0,370.2957,0.0,-1240.16,0
GRID,18630,0,369.7558,0.0,-1242.86,0
GRID,18631,0,369.1905,0.0,-1245.55,0
GRID,18632,0,368.6,0.0,-1248.25,0
GRID,18633,0,367.9842,0.0,-1250.93,0
GRID,18634,0,367.3433,0.0,-1253.61,0
GRID,18635,0,366.6772,0.0,-1256.29,0
GRID,18636,0,365.986,0.0,-1258.96,0
GRID,18637,0,365.2698,0.0,-1261.62,0
GRID,18638,0,364.5287,0.0,-1264.28,0
GRID,18639,0,363.7626,0.0,-1266.93,0
GRID,18640,0,362.9717,0.0,-1269.57,0
GRID,18641,0,362.1561,0.0,-1272.21,0
GRID,18642,0,361.3157,0.0,-1274.84,0
GRID,18643,0,360.4507,0.0,-1277.46,0
GRID,18644,0,359.5611,0.0,-1280.07,0
GRID,18645,0,358.647,0.0,-1282.67,0
GRID,18646,0,357.7085,0.0,-1285.27,0
GRID,18647,0,356.7457,0.0,-1287.86,0
GRID,18648,0,355.7587,0.0,-1290.44,0
GRID,18649,0,354.7475,0.0,-1293.01,0
GRID,18650,0,353.7121,0.0,-1295.57,0
GRID,18651,0,352.6528,0.0,-1298.12,0
GRID,18652,0,351.5696,0.0,-1300.66,0
GRID,18653,0,350.4625,0.0,-1303.19,0
GRID,18654,0,349.3317,0.0,-1305.71,0
GRID,18655,0,348.1774,0.0,-1308.22,0
GRID,18656,0,346.9995,0.0,-1310.72,0
GRID,18657,0,345.7982,0.0,-1313.21,0
GRID,18658,0,344.5735,0.0,-1315.69,0
GRID,18659,0,343.3257,0.0,-1318.16,0
GRID,18660,0,342.0547,0.0,-1320.61,0
GRID,18661,0,340.7608,0.0,-1323.06,0
GRID,18662,0,339.4439,0.0,-1325.49,0
GRID,18663,0,338.1043,0.0,-1327.91,0
GRID,18664,0,336.7421,0.0,-1330.32,0
GRID,18665,0,335.3573,0.0,-1332.71,0
GRID,18666,0,333.9501,0.0,-1335.09,0
GRID,18667,0,332.5206,0.0,-1337.46,0
GRID,18668,0,331.069,0.0,-1339.81,0
GRID,18669,0,329.5953,0.0,-1342.16,0
GRID,18670,0,328.0997,0.0,-1344.48,0
GRID,18671,0,326.5823,0.0,-1346.8,0
GRID,18672,0,325.0433,0.0,-1349.1,0
GRID,18673,0,323.4828,0.0,-1351.38,0
GRID,18674,0,321.901,0.0,-1353.65,0
GRID,18675,0,320.2979,0.0,-1355.91,0
GRID,18676,0,318.6737,0.0,-1358.15,0
GRID,18677,0,317.0285,0.0,-1360.38,0
GRID,18678,0,315.3625,0.0,-1362.59,0
GRID,18679,0,313.6759,0.0,-1364.78,0
GRID,18680,0,311.9688,0.0,-1366.96,0
GRID,18681,0,310.2413,0.0,-1369.12,0
GRID,18682,0,308.4936,0.0,-1371.27,0
GRID,18683,0,306.7259,0.0,-1373.4,0
GRID,18684,0,304.9383,0.0,-1375.52,0
GRID,18685,0,303.131,0.0,-1377.61,0
GRID,18686,0,301.304,0.0,-1379.7,0
GRID,18687,0,299.4576,0.0,-1381.76,0
GRID,18688,0,297.592,0.0,-1383.81,0
GRID,18689,0,295.7074,0.0,-1385.83,0
GRID,18690,0,293.8007,0.0,-1387.85,0
GRID,18691,0,291.8779,0.0,-1389.85,0
GRID,18692,0,289.939,0.0,-1391.84,0
GRID,18693,0,287.9843,0.0,-1393.81,0
GRID,18694,0,286.066,0.0,-1395.73,0
GRID,18695,0,284.1476,0.0,-1397.65,0
GRID,18696,0,282.2292,0.0,-1399.57,0
GRID,18697,0,280.3108,0.0,-1401.48,0
GRID,18698,0,278.3924,0.0,-1403.4,0
GRID,18699,0,276.474,0.0,-1405.32,0
GRID,18700,0,274.5556,0.0,-1407.24,0
GRID,18701,0,272.6372,0.0,-1409.16,0
GRID,18702,0,270.7188,0.0,-1411.08,0
GRID,18703,0,268.7415,0.0,-1413.04,0
GRID,18704,0,266.7495,0.0,-1414.98,0
GRID,18705,0,264.7431,0.0,-1416.92,0
GRID,18706,0,262.7222,0.0,-1418.83,0
GRID,18707,0,260.687,0.0,-1420.73,0
GRID,18708,0,258.6377,0.0,-1422.62,0
GRID,18709,0,256.5744,0.0,-1424.49,0
GRID,18710,0,254.4972,0.0,-1426.34,0
GRID,18711,0,252.4062,0.0,-1428.18,0
GRID,18712,0,250.3017,0.0,-1430.01,0
GRID,18713,0,248.1837,0.0,-1431.81,0
GRID,18714,0,246.0525,0.0,-1433.6,0
GRID,18715,0,243.9082,0.0,-1435.37,0
GRID,18716,0,241.7509,0.0,-1437.13,0
GRID,18717,0,239.5809,0.0,-1438.87,0
GRID,18718,0,237.3982,0.0,-1440.59,0
GRID,18719,0,235.2031,0.0,-1442.3,0
GRID,18720,0,232.9956,0.0,-1443.99,0
GRID,18721,0,230.776,0.0,-1445.66,0
GRID,18722,0,228.5444,0.0,-1447.31,0
GRID,18723,0,226.301,0.0,-1448.95,0
GRID,18724,0,224.046,0.0,-1450.57,0
GRID,18725,0,221.7794,0.0,-1452.17,0
GRID,18726,0,219.5016,0.0,-1453.76,0
GRID,18727,0,217.2126,0.0,-1455.32,0
GRID,18728,0,214.9126,0.0,-1456.87,0
GRID,18729,0,212.6019,0.0,-1458.4,0
GRID,18730,0,210.2805,0.0,-1459.91,0
GRID,18731,0,207.9486,0.0,-1461.41,0
GRID,18732,0,205.6064,0.0,-1462.88,0
GRID,18733,0,203.2541,0.0,-1464.34,0
GRID,18734,0,200.8919,0.0,-1465.78,0
GRID,18735,0,198.5199,0.0,-1467.2,0
GRID,18736,0,196.1383,0.0,-1468.6,0
GRID,18737,0,193.7473,0.0,-1469.98,0
GRID,18738,0,191.3471,0.0,-1471.34,0
GRID,18739,0,188.9378,0.0,-1472.69,0
GRID,18740,0,186.5197,0.0,-1474.01,0
GRID,18741,0,184.0929,0.0,-1475.32,0
GRID,18742,0,181.6575,0.0,-1476.6,0
GRID,18743,0,179.2139,0.0,-1477.87,0
GRID,18744,0,176.7621,0.0,-1479.12,0
GRID,18745,0,174.3023,0.0,-1480.35,0
GRID,18746,0,171.8348,0.0,-1481.56,0
GRID,18747,0,169.3597,0.0,-1482.74,0
GRID,18748,0,166.8772,0.0,-1483.91,0
GRID,18749,0,164.3874,0.0,-1485.06,0
GRID,18750,0,161.8907,0.0,-1486.19,0
GRID,18751,0,159.3871,0.0,-1487.3,0
GRID,18752,0,156.873,0.0,-1488.39,0
GRID,18753,0,154.3473,0.0,-1489.45,0
GRID,18754,0,151.8102,0.0,-1490.49,0
GRID,18755,0,149.2621,0.0,-1491.5,0
GRID,18756,0,146.703,0.0,-1492.49,0
GRID,18757,0,144.1334,0.0,-1493.45,0
GRID,18758,0,141.5534,0.0,-1494.38,0
GRID,18759,0,138.9633,0.0,-1495.29,0
GRID,18760,0,136.3634,0.0,-1496.17,0
GRID,18761,0,133.7539,0.0,-1497.03,0
GRID,18762,0,131.1351,0.0,-1497.86,0
GRID,18763,0,128.5074,0.0,-1498.66,0
GRID,18764,0,125.871,0.0,-1499.44,0
GRID,18765,0,123.2261,0.0,-1500.19,0
GRID,18766,0,120.573,0.0,-1500.91,0
GRID,18767,0,117.9121,0.0,-1501.6,0
GRID,18768,0,115.2435,0.0,-1502.27,0
GRID,18769,0,112.5676,0.0,-1502.91,0
GRID,18770,0,109.8847,0.0,-1503.53,0
GRID,18771,0,107.195,0.0,-1504.12,0
GRID,18772,0,104.4988,0.0,-1504.67,0
GRID,18773,0,101.7964,0.0,-1505.21,0
GRID,18774,0,99.08807,0.0,-1505.71,0
GRID,18775,0,96.37414,0.0,-1506.19,0
GRID,18776,0,93.65486,0.0,-1506.64,0
GRID,18777,0,90.93052,0.0,-1507.06,0
GRID,18778,0,88.20141,0.0,-1507.45,0
GRID,18779,0,85.46782,0.0,-1507.82,0
GRID,18780,0,82.73005,0.0,-1508.16,0
GRID,18781,0,79.98837,0.0,-1508.47,0
GRID,18782,0,77.24308,0.0,-1508.75,0
GRID,18783,0,74.49448,0.0,-1509.0,0
GRID,18784,0,71.74284,0.0,-1509.23,0
GRID,18785,0,68.98847,0.0,-1509.43,0
GRID,18786,0,66.23165,0.0,-1509.6,0
GRID,18787,0,63.47268,0.0,-1509.74,0
GRID,18788,0,60.71185,0.0,-1509.86,0
GRID,18789,0,57.94946,0.0,-1509.94,0
GRID,18790,0,55.1858,0.0,-1510.0,0
GRID,18791,0,52.42117,0.0,-1510.03,0
GRID,18792,0,49.65585,0.0,-1510.03,0
GRID,18793,0,46.89015,0.0,-1510.0,0
GRID,18794,0,44.12435,0.0,-1509.95,0
GRID,18795,0,41.35876,0.0,-1509.86,0
GRID,18796,0,38.59367,0.0,-1509.75,0
GRID,18797,0,35.82937,0.0,-1509.61,0
GRID,18798,0,33.06615,0.0,-1509.44,0
GRID,18799,0,30.30433,0.0,-1509.24,0
GRID,18800,0,27.54418,0.0,-1509.02,0
GRID,18801,0,24.78601,0.0,-1508.77,0
GRID,18802,0,22.03012,0.0,-1508.49,0
GRID,18803,0,19.27681,0.0,-1508.18,0
GRID,18804,0,16.52636,0.0,-1507.84,0
GRID,18805,0,13.77906,0.0,-1507.47,0
GRID,18806,0,11.03521,0.0,-1507.08,0
GRID,18807,0,8.29509,0.0,-1506.65,0
GRID,18808,0,5.558988,0.0,-1506.2,0
GRID,18809,0,2.827195,0.0,-1505.73,0
GRID,18810,0,377.4717,0.0,-1052.79,0
GRID,18811,0,377.4717,0.0,-1055.59,0
GRID,18812,0,377.4717,0.0,-1058.38,0
GRID,18813,0,377.4717,0.0,-1061.17,0
GRID,18814,0,377.4717,0.0,-1063.97,0
GRID,18815,0,377.4717,0.0,-1066.76,0
GRID,18816,0,377.4717,0.0,-1069.55,0
GRID,18817,0,377.4697,0.0,-1072.3,0
GRID,18818,0,377.4639,0.0,-1075.05,0
GRID,18819,0,377.4543,0.0,-1077.8,0
GRID,18820,0,377.441,0.0,-1080.55,0
GRID,18821,0,377.4239,0.0,-1083.3,0
GRID,18822,0,377.4029,0.0,-1086.05,0
GRID,18823,0,377.3782,0.0,-1088.8,0
GRID,18824,0,377.3497,0.0,-1091.55,0
GRID,18825,0,377.3174,0.0,-1094.3,0
GRID,18826,0,377.2813,0.0,-1097.05,0
GRID,18827,0,377.2413,0.0,-1099.8,0
GRID,18828,0,377.1976,0.0,-1102.55,0
GRID,18829,0,377.1501,0.0,-1105.3,0
GRID,18830,0,377.0987,0.0,-1108.04,0
GRID,18831,0,377.0436,0.0,-1110.79,0
GRID,18832,0,376.9847,0.0,-1113.54,0
GRID,18833,0,376.9219,0.0,-1116.29,0
GRID,18834,0,376.8554,0.0,-1119.03,0
GRID,18835,0,376.7852,0.0,-1121.78,0
GRID,18836,0,376.7111,0.0,-1124.52,0
GRID,18837,0,376.6333,0.0,-1127.27,0
GRID,18838,0,376.5516,0.0,-1130.01,0
GRID,18839,0,376.4663,0.0,-1132.76,0
GRID,18840,0,376.3771,0.0,-1135.5,0
GRID,18841,0,376.2842,0.0,-1138.24,0
GRID,18842,0,376.1875,0.0,-1140.99,0
GRID,18843,0,376.0871,0.0,-1143.73,0
GRID,18844,0,375.9829,0.0,-1146.47,0
GRID,18845,0,375.875,0.0,-1149.21,0
GRID,18846,0,375.7634,0.0,-1151.95,0
GRID,18847,0,375.6479,0.0,-1154.69,0
GRID,18848,0,375.5288,0.0,-1157.43,0
GRID,18849,0,375.4059,0.0,-1160.16,0
GRID,18850,0,375.2794,0.0,-1162.9,0
GRID,18851,0,375.1491,0.0,-1165.64,0
GRID,18852,0,375.0151,0.0,-1168.37,0
GRID,18853,0,374.8773,0.0,-1171.1,0
GRID,18854,0,374.7359,0.0,-1173.84,0
GRID,18855,0,374.5908,0.0,-1176.57,0
GRID,18856,0,374.442,0.0,-1179.3,0
GRID,18857,0,374.2895,0.0,-1182.03,0
GRID,18858,0,374.1334,0.0,-1184.76,0
GRID,18859,0,373.9735,0.0,-1187.49,0
GRID,18860,0,373.81,0.0,-1190.22,0
GRID,18861,0,373.6429,0.0,-1192.94,0
GRID,18862,0,373.4721,0.0,-1195.67,0
GRID,18863,0,373.2976,0.0,-1198.39,0
GRID,18864,0,373.1196,0.0,-1201.11,0
GRID,18865,0,372.9267,0.0,-1203.84,0
GRID,18866,0,372.7085,0.0,-1206.56,0
GRID,18867,0,372.4651,0.0,-1209.29,0
GRID,18868,0,372.1964,0.0,-1212.01,0
GRID,18869,0,371.9024,0.0,-1214.72,0
GRID,18870,0,371.5831,0.0,-1217.44,0
GRID,18871,0,371.2385,0.0,-1220.15,0
GRID,18872,0,370.8685,0.0,-1222.86,0
GRID,18873,0,370.4733,0.0,-1225.57,0
GRID,18874,0,370.0527,0.0,-1228.28,0
GRID,18875,0,369.6069,0.0,-1230.98,0
GRID,18876,0,369.136,0.0,-1233.67,0
GRID,18877,0,368.6399,0.0,-1236.37,0
GRID,18878,0,368.1187,0.0,-1239.05,0
GRID,18879,0,367.5725,0.0,-1241.74,0
GRID,18880,0,367.0012,0.0,-1244.42,0
GRID,18881,0,366.405,0.0,-1247.09,0
GRID,18882,0,365.7838,0.0,-1249.76,0
GRID,18883,0,365.1377,0.0,-1252.42,0
GRID,18884,0,364.4667,0.0,-1255.08,0
GRID,18885,0,363.771,0.0,-1257.73,0
GRID,18886,0,363.0506,0.0,-1260.38,0
GRID,18887,0,362.3055,0.0,-1263.02,0
GRID,18888,0,361.5358,0.0,-1265.65,0
GRID,18889,0,360.7415,0.0,-1268.27,0
GRID,18890,0,359.9228,0.0,-1270.89,0
GRID,18891,0,359.0796,0.0,-1273.5,0
GRID,18892,0,358.2121,0.0,-1276.11,0
GRID,18893,0,357.3203,0.0,-1278.7,0
GRID,18894,0,356.4043,0.0,-1281.29,0
GRID,18895,0,355.4642,0.0,-1283.87,0
GRID,18896,0,354.5,0.0,-1286.44,0
GRID,18897,0,353.5119,0.0,-1289.0,0
GRID,18898,0,352.4999,0.0,-1291.55,0
GRID,18899,0,351.464,0.0,-1294.1,0
GRID,18900,0,350.4045,0.0,-1296.63,0
GRID,18901,0,349.3213,0.0,-1299.15,0
GRID,18902,0,348.2146,0.0,-1301.67,0
GRID,18903,0,347.0845,0.0,-1304.17,0
GRID,18904,0,345.931,0.0,-1306.67,0
GRID,18905,0,344.7543,0.0,-1309.15,0
GRID,18906,0,343.5544,0.0,-1311.62,0
GRID,18907,0,342.3315,0.0,-1314.08,0
GRID,18908,0,341.0856,0.0,-1316.53,0
GRID,18909,0,339.817,0.0,-1318.97,0
GRID,18910,0,338.5255,0.0,-1321.4,0
GRID,18911,0,337.2115,0.0,-1323.82,0
GRID,18912,0,335.875,0.0,-1326.22,0
GRID,18913,0,334.5161,0.0,-1328.61,0
GRID,18914,0,333.1349,0.0,-1330.99,0
GRID,18915,0,331.7316,0.0,-1333.35,0
GRID,18916,0,330.3063,0.0,-1335.71,0
GRID,18917,0,328.859,0.0,-1338.05,0
GRID,18918,0,327.39,0.0,-1340.37,0
GRID,18919,0,325.8993,0.0,-1342.68,0
GRID,18920,0,324.3871,0.0,-1344.98,0
GRID,18921,0,322.8535,0.0,-1347.27,0
GRID,18922,0,321.2986,0.0,-1349.54,0
GRID,18923,0,319.7227,0.0,-1351.79,0
GRID,18924,0,318.1257,0.0,-1354.03,0
GRID,18925,0,316.5079,0.0,-1356.26,0
GRID,18926,0,314.8694,0.0,-1358.47,0
GRID,18927,0,313.2103,0.0,-1360.67,0
GRID,18928,0,311.5308,0.0,-1362.85,0
GRID,18929,0,309.831,0.0,-1365.01,0
GRID,18930,0,308.1112,0.0,-1367.16,0
GRID,18931,0,306.3713,0.0,-1369.3,0
GRID,18932,0,304.6116,0.0,-1371.42,0
GRID,18933,0,302.8323,0.0,-1373.52,0
GRID,18934,0,301.0335,0.0,-1375.6,0
GRID,18935,0,299.2153,0.0,-1377.67,0
GRID,18936,0,297.3779,0.0,-1379.72,0
GRID,18937,0,295.5214,0.0,-1381.75,0
GRID,18938,0,293.6462,0.0,-1383.77,0
GRID,18939,0,291.7489,0.0,-1385.77,0
GRID,18940,0,289.8358,0.0,-1387.76,0
GRID,18941,0,287.9071,0.0,-1389.74,0
GRID,18942,0,285.963,0.0,-1391.7,0
GRID,18943,0,284.0543,0.0,-1393.61,0
GRID,18944,0,282.1455,0.0,-1395.52,0
GRID,18945,0,280.2368,0.0,-1397.43,0
GRID,18946,0,278.3281,0.0,-1399.33,0
GRID,18947,0,276.4194,0.0,-1401.24,0
GRID,18948,0,274.5107,0.0,-1403.15,0
GRID,18949,0,272.602,0.0,-1405.06,0
GRID,18950,0,270.6932,0.0,-1406.97,0
GRID,18951,0,268.7845,0.0,-1408.88,0
GRID,18952,0,266.8182,0.0,-1410.83,0
GRID,18953,0,264.8376,0.0,-1412.77,0
GRID,18954,0,262.8428,0.0,-1414.69,0
GRID,18955,0,260.8339,0.0,-1416.6,0
GRID,18956,0,258.8111,0.0,-1418.49,0
GRID,18957,0,256.7744,0.0,-1420.36,0
GRID,18958,0,254.7241,0.0,-1422.23,0
GRID,18959,0,252.6602,0.0,-1424.07,0
GRID,18960,0,250.5828,0.0,-1425.9,0
GRID,18961,0,248.4922,0.0,-1427.72,0
GRID,18962,0,246.3884,0.0,-1429.52,0
GRID,18963,0,244.2717,0.0,-1431.3,0
GRID,18964,0,242.1422,0.0,-1433.07,0
GRID,18965,0,240.0,0.0,-1434.82,0
GRID,18966,0,237.8454,0.0,-1436.55,0
GRID,18967,0,235.6784,0.0,-1438.27,0
GRID,18968,0,233.4992,0.0,-1439.97,0
GRID,18969,0,231.308,0.0,-1441.65,0
GRID,18970,0,229.1049,0.0,-1443.32,0
GRID,18971,0,226.8901,0.0,-1444.97,0
GRID,18972,0,224.6638,0.0,-1446.6,0
GRID,18973,0,222.4261,0.0,-1448.22,0
GRID,18974,0,220.1771,0.0,-1449.82,0
GRID,18975,0,217.9171,0.0,-1451.4,0
GRID,18976,0,215.6463,0.0,-1452.97,0
GRID,18977,0,213.3646,0.0,-1454.51,0
GRID,18978,0,211.0724,0.0,-1456.04,0
GRID,18979,0,208.7699,0.0,-1457.55,0
GRID,18980,0,206.4571,0.0,-1459.05,0
GRID,18981,0,204.1342,0.0,-1460.52,0
GRID,18982,0,201.8014,0.0,-1461.98,0
GRID,18983,0,199.459,0.0,-1463.42,0
GRID,18984,0,197.107,0.0,-1464.84,0
GRID,18985,0,194.7456,0.0,-1466.25,0
GRID,18986,0,192.375,0.0,-1467.63,0
GRID,18987,0,189.9954,0.0,-1469.0,0
GRID,18988,0,187.607,0.0,-1470.34,0
GRID,18989,0,185.2099,0.0,-1471.67,0
GRID,18990,0,182.8043,0.0,-1472.98,0
GRID,18991,0,180.3904,0.0,-1474.27,0
GRID,18992,0,177.9683,0.0,-1475.55,0
GRID,18993,0,175.5383,0.0,-1476.8,0
GRID,18994,0,173.1005,0.0,-1478.03,0
GRID,18995,0,170.6552,0.0,-1479.25,0
GRID,18996,0,168.2024,0.0,-1480.44,0
GRID,18997,0,165.7424,0.0,-1481.62,0
GRID,18998,0,163.2753,0.0,-1482.78,0
GRID,18999,0,160.8014,0.0,-1483.92,0
GRID,19000,0,158.3207,0.0,-1485.04,0
GRID,19001,0,155.8295,0.0,-1486.13,0
GRID,19002,0,153.3266,0.0,-1487.21,0
GRID,19003,0,150.812,0.0,-1488.25,0
GRID,19004,0,148.2862,0.0,-1489.27,0
GRID,19005,0,145.7494,0.0,-1490.27,0
GRID,19006,0,143.2017,0.0,-1491.24,0
GRID,19007,0,140.6435,0.0,-1492.18,0
GRID,19008,0,138.0751,0.0,-1493.1,0
GRID,19009,0,135.4966,0.0,-1493.99,0
GRID,19010,0,132.9084,0.0,-1494.86,0
GRID,19011,0,130.3108,0.0,-1495.7,0
GRID,19012,0,127.704,0.0,-1496.51,0
GRID,19013,0,125.0883,0.0,-1497.3,0
GRID,19014,0,122.464,0.0,-1498.06,0
GRID,19015,0,119.8314,0.0,-1498.79,0
GRID,19016,0,117.1907,0.0,-1499.49,0
GRID,19017,0,114.5422,0.0,-1500.17,0
GRID,19018,0,111.8862,0.0,-1500.83,0
GRID,19019,0,109.223,0.0,-1501.45,0
GRID,19020,0,106.5528,0.0,-1502.05,0
GRID,19021,0,103.876,0.0,-1502.62,0
GRID,19022,0,101.1929,0.0,-1503.16,0
GRID,19023,0,98.50361,0.0,-1503.68,0
GRID,19024,0,95.80856,0.0,-1504.17,0
GRID,19025,0,93.108,0.0,-1504.63,0
GRID,19026,0,90.40222,0.0,-1505.06,0
GRID,19027,0,87.6915,0.0,-1505.46,0
GRID,19028,0,84.97614,0.0,-1505.84,0
GRID,19029,0,82.25643,0.0,-1506.19,0
GRID,19030,0,79.53266,0.0,-1506.51,0
GRID,19031,0,76.80512,0.0,-1506.81,0
GRID,19032,0,74.07411,0.0,-1507.07,0
GRID,19033,0,71.3399,0.0,-1507.31,0
GRID,19034,0,68.60281,0.0,-1507.52,0
GRID,19035,0,65.86312,0.0,-1507.7,0
GRID,19036,0,63.12112,0.0,-1507.86,0
GRID,19037,0,60.37711,0.0,-1507.98,0
GRID,19038,0,57.63139,0.0,-1508.08,0
GRID,19039,0,54.88425,0.0,-1508.15,0
GRID,19040,0,52.13599,0.0,-1508.19,0
GRID,19041,0,49.3869,0.0,-1508.2,0
GRID,19042,0,46.63728,0.0,-1508.19,0
GRID,19043,0,43.88743,0.0,-1508.14,0
GRID,19044,0,41.13764,0.0,-1508.07,0
GRID,19045,0,38.3882,0.0,-1507.97,0
GRID,19046,0,35.63943,0.0,-1507.84,0
GRID,19047,0,32.8916,0.0,-1507.69,0
GRID,19048,0,30.14502,0.0,-1507.5,0
GRID,19049,0,27.39999,0.0,-1507.29,0
GRID,19050,0,24.65681,0.0,-1507.05,0
GRID,19051,0,21.91577,0.0,-1506.78,0
GRID,19052,0,19.17718,0.0,-1506.48,0
GRID,19053,0,16.44133,0.0,-1506.16,0
GRID,19054,0,13.70851,0.0,-1505.8,0
GRID,19055,0,10.97901,0.0,-1505.42,0
GRID,19056,0,8.253115,0.0,-1505.01,0
GRID,19057,0,5.531122,0.0,-1504.57,0
GRID,19058,0,2.81332,0.0,-1504.1,0
GRID,19059,0,375.67,0.0,-1052.78,0
GRID,19060,0,375.67,0.0,-1055.56,0
GRID,19061,0,375.67,0.0,-1058.34,0
GRID,19062,0,375.67,0.0,-1061.12,0
GRID,19063,0,375.67,0.0,-1063.9,0
GRID,19064,0,375.67,0.0,-1066.68,0
GRID,19065,0,375.67,0.0,-1069.46,0
GRID,19066,0,375.6679,0.0,-1072.2,0
GRID,19067,0,375.6618,0.0,-1074.93,0
GRID,19068,0,375.6517,0.0,-1077.67,0
GRID,19069,0,375.6375,0.0,-1080.4,0
GRID,19070,0,375.6194,0.0,-1083.13,0
GRID,19071,0,375.5972,0.0,-1085.87,0
GRID,19072,0,375.571,0.0,-1088.6,0
GRID,19073,0,375.5409,0.0,-1091.34,0
GRID,19074,0,375.5066,0.0,-1094.07,0
GRID,19075,0,375.4684,0.0,-1096.81,0
GRID,19076,0,375.4261,0.0,-1099.54,0
GRID,19077,0,375.3798,0.0,-1102.27,0
GRID,19078,0,375.3295,0.0,-1105.0,0
GRID,19079,0,375.2751,0.0,-1107.74,0
GRID,19080,0,375.2167,0.0,-1110.47,0
GRID,19081,0,375.1543,0.0,-1113.2,0
GRID,19082,0,375.0879,0.0,-1115.93,0
GRID,19083,0,375.0175,0.0,-1118.66,0
GRID,19084,0,374.9431,0.0,-1121.39,0
GRID,19085,0,374.8647,0.0,-1124.12,0
GRID,19086,0,374.7823,0.0,-1126.85,0
GRID,19087,0,374.6959,0.0,-1129.58,0
GRID,19088,0,374.6055,0.0,-1132.31,0
GRID,19089,0,374.5111,0.0,-1135.04,0
GRID,19090,0,374.4127,0.0,-1137.76,0
GRID,19091,0,374.3103,0.0,-1140.49,0
GRID,19092,0,374.204,0.0,-1143.22,0
GRID,19093,0,374.0937,0.0,-1145.94,0
GRID,19094,0,373.9794,0.0,-1148.67,0
GRID,19095,0,373.8612,0.0,-1151.39,0
GRID,19096,0,373.739,0.0,-1154.11,0
GRID,19097,0,373.6129,0.0,-1156.83,0
GRID,19098,0,373.4828,0.0,-1159.56,0
GRID,19099,0,373.3487,0.0,-1162.28,0
GRID,19100,0,373.2108,0.0,-1165.0,0
GRID,19101,0,373.0689,0.0,-1167.71,0
GRID,19102,0,372.9231,0.0,-1170.43,0
GRID,19103,0,372.7733,0.0,-1173.15,0
GRID,19104,0,372.6197,0.0,-1175.86,0
GRID,19105,0,372.4621,0.0,-1178.58,0
GRID,19106,0,372.3007,0.0,-1181.29,0
GRID,19107,0,372.1353,0.0,-1184.01,0
GRID,19108,0,371.9661,0.0,-1186.72,0
GRID,19109,0,371.793,0.0,-1189.43,0
GRID,19110,0,371.616,0.0,-1192.14,0
GRID,19111,0,371.4351,0.0,-1194.85,0
GRID,19112,0,371.2504,0.0,-1197.55,0
GRID,19113,0,371.0619,0.0,-1200.26,0
GRID,19114,0,370.8586,0.0,-1202.97,0
GRID,19115,0,370.6303,0.0,-1205.67,0
GRID,19116,0,370.377,0.0,-1208.38,0
GRID,19117,0,370.0988,0.0,-1211.08,0
GRID,19118,0,369.7955,0.0,-1213.78,0
GRID,19119,0,369.4673,0.0,-1216.48,0
GRID,19120,0,369.114,0.0,-1219.18,0
GRID,19121,0,368.7356,0.0,-1221.87,0
GRID,19122,0,368.3323,0.0,-1224.56,0
GRID,19123,0,367.9039,0.0,-1227.25,0
GRID,19124,0,367.4507,0.0,-1229.93,0
GRID,19125,0,366.9725,0.0,-1232.61,0
GRID,19126,0,366.4695,0.0,-1235.28,0
GRID,19127,0,365.9418,0.0,-1237.95,0
GRID,19128,0,365.3892,0.0,-1240.62,0
GRID,19129,0,364.8119,0.0,-1243.28,0
GRID,19130,0,364.21,0.0,-1245.94,0
GRID,19131,0,363.5833,0.0,-1248.59,0
GRID,19132,0,362.9321,0.0,-1251.23,0
GRID,19133,0,362.2563,0.0,-1253.87,0
GRID,19134,0,361.5561,0.0,-1256.51,0
GRID,19135,0,360.8314,0.0,-1259.13,0
GRID,19136,0,360.0823,0.0,-1261.76,0
GRID,19137,0,359.309,0.0,-1264.37,0
GRID,19138,0,358.5113,0.0,-1266.98,0
GRID,19139,0,357.6895,0.0,-1269.58,0
GRID,19140,0,356.8435,0.0,-1272.17,0
GRID,19141,0,355.9735,0.0,-1274.76,0
GRID,19142,0,355.0795,0.0,-1277.34,0
GRID,19143,0,354.1616,0.0,-1279.91,0
GRID,19144,0,353.2198,0.0,-1282.47,0
GRID,19145,0,352.2543,0.0,-1285.02,0
GRID,19146,0,351.2651,0.0,-1287.56,0
GRID,19147,0,350.2523,0.0,-1290.1,0
GRID,19148,0,349.2159,0.0,-1292.63,0
GRID,19149,0,348.1562,0.0,-1295.14,0
GRID,19150,0,347.0731,0.0,-1297.65,0
GRID,19151,0,345.9667,0.0,-1300.15,0
GRID,19152,0,344.8372,0.0,-1302.63,0
GRID,19153,0,343.6846,0.0,-1305.11,0
GRID,19154,0,342.5091,0.0,-1307.58,0
GRID,19155,0,341.3106,0.0,-1310.03,0
GRID,19156,0,340.0895,0.0,-1312.48,0
GRID,19157,0,338.8456,0.0,-1314.91,0
GRID,19158,0,337.5792,0.0,-1317.33,0
GRID,19159,0,336.2903,0.0,-1319.74,0
GRID,19160,0,334.9791,0.0,-1322.14,0
GRID,19161,0,333.6457,0.0,-1324.53,0
GRID,19162,0,332.2901,0.0,-1326.9,0
GRID,19163,0,330.9125,0.0,-1329.27,0
GRID,19164,0,329.5131,0.0,-1331.62,0
GRID,19165,0,328.0919,0.0,-1333.95,0
GRID,19166,0,326.649,0.0,-1336.28,0
GRID,19167,0,325.1846,0.0,-1338.59,0
GRID,19168,0,323.6988,0.0,-1340.88,0
GRID,19169,0,322.1918,0.0,-1343.17,0
GRID,19170,0,320.6636,0.0,-1345.44,0
GRID,19171,0,319.1144,0.0,-1347.69,0
GRID,19172,0,317.5444,0.0,-1349.93,0
GRID,19173,0,315.9536,0.0,-1352.16,0
GRID,19174,0,314.3422,0.0,-1354.37,0
GRID,19175,0,312.7103,0.0,-1356.57,0
GRID,19176,0,311.0581,0.0,-1358.75,0
GRID,19177,0,309.3857,0.0,-1360.92,0
GRID,19178,0,307.6933,0.0,-1363.07,0
GRID,19179,0,305.981,0.0,-1365.2,0
GRID,19180,0,304.249,0.0,-1367.32,0
GRID,19181,0,302.4974,0.0,-1369.43,0
GRID,19182,0,300.7264,0.0,-1371.52,0
GRID,19183,0,298.936,0.0,-1373.59,0
GRID,19184,0,297.1266,0.0,-1375.64,0
GRID,19185,0,295.2981,0.0,-1377.68,0
GRID,19186,0,293.4509,0.0,-1379.7,0
GRID,19187,0,291.585,0.0,-1381.7,0
GRID,19188,0,289.6971,0.0,-1383.7,0
GRID,19189,0,287.7938,0.0,-1385.68,0
GRID,19190,0,285.8753,0.0,-1387.64,0
GRID,19191,0,283.9416,0.0,-1389.59,0
GRID,19192,0,282.0426,0.0,-1391.49,0
GRID,19193,0,280.1435,0.0,-1393.39,0
GRID,19194,0,278.2445,0.0,-1395.29,0
GRID,19195,0,276.3454,0.0,-1397.19,0
GRID,19196,0,274.4464,0.0,-1399.08,0
GRID,19197,0,272.5473,0.0,-1400.98,0
GRID,19198,0,270.6483,0.0,-1402.88,0
GRID,19199,0,268.7493,0.0,-1404.78,0
GRID,19200,0,266.8502,0.0,-1406.68,0
GRID,19201,0,264.8949,0.0,-1408.62,0
GRID,19202,0,262.9257,0.0,-1410.55,0
GRID,19203,0,260.9425,0.0,-1412.46,0
GRID,19204,0,258.9457,0.0,-1414.36,0
GRID,19205,0,256.9352,0.0,-1416.24,0
GRID,19206,0,254.9112,0.0,-1418.11,0
GRID,19207,0,252.8738,0.0,-1419.96,0
GRID,19208,0,250.8231,0.0,-1421.8,0
GRID,19209,0,248.7594,0.0,-1423.62,0
GRID,19210,0,246.6826,0.0,-1425.43,0
GRID,19211,0,244.5931,0.0,-1427.22,0
GRID,19212,0,242.4909,0.0,-1429.0,0
GRID,19213,0,240.3762,0.0,-1430.76,0
GRID,19214,0,238.2491,0.0,-1432.5,0
GRID,19215,0,236.1099,0.0,-1434.23,0
GRID,19216,0,233.9586,0.0,-1435.94,0
GRID,19217,0,231.7954,0.0,-1437.64,0
GRID,19218,0,229.6204,0.0,-1439.32,0
GRID,19219,0,227.4339,0.0,-1440.98,0
GRID,19220,0,225.2359,0.0,-1442.63,0
GRID,19221,0,223.0266,0.0,-1444.26,0
GRID,19222,0,220.8062,0.0,-1445.87,0
GRID,19223,0,218.5748,0.0,-1447.47,0
GRID,19224,0,216.3327,0.0,-1449.05,0
GRID,19225,0,214.0799,0.0,-1450.61,0
GRID,19226,0,211.8166,0.0,-1452.16,0
GRID,19227,0,209.543,0.0,-1453.69,0
GRID,19228,0,207.2593,0.0,-1455.2,0
GRID,19229,0,204.9655,0.0,-1456.69,0
GRID,19230,0,202.662,0.0,-1458.17,0
GRID,19231,0,200.3488,0.0,-1459.63,0
GRID,19232,0,198.026,0.0,-1461.07,0
GRID,19233,0,195.694,0.0,-1462.49,0
GRID,19234,0,193.3529,0.0,-1463.89,0
GRID,19235,0,191.0027,0.0,-1465.28,0
GRID,19236,0,188.6437,0.0,-1466.65,0
GRID,19237,0,186.2761,0.0,-1468.0,0
GRID,19238,0,183.9001,0.0,-1469.33,0
GRID,19239,0,181.5157,0.0,-1470.65,0
GRID,19240,0,179.1232,0.0,-1471.94,0
GRID,19241,0,176.7228,0.0,-1473.22,0
GRID,19242,0,174.3146,0.0,-1474.48,0
GRID,19243,0,171.8988,0.0,-1475.72,0
GRID,19244,0,169.4756,0.0,-1476.94,0
GRID,19245,0,167.0451,0.0,-1478.15,0
GRID,19246,0,164.6076,0.0,-1479.33,0
GRID,19247,0,162.1632,0.0,-1480.49,0
GRID,19248,0,159.712,0.0,-1481.64,0
GRID,19249,0,157.2544,0.0,-1482.77,0
GRID,19250,0,154.7861,0.0,-1483.87,0
GRID,19251,0,152.3058,0.0,-1484.96,0
GRID,19252,0,149.8138,0.0,-1486.01,0
GRID,19253,0,147.3104,0.0,-1487.04,0
GRID,19254,0,144.7957,0.0,-1488.05,0
GRID,19255,0,142.27,0.0,-1489.03,0
GRID,19256,0,139.7337,0.0,-1489.98,0
GRID,19257,0,137.1869,0.0,-1490.91,0
GRID,19258,0,134.6299,0.0,-1491.81,0
GRID,19259,0,132.063,0.0,-1492.69,0
GRID,19260,0,129.4865,0.0,-1493.54,0
GRID,19261,0,126.9006,0.0,-1494.36,0
GRID,19262,0,124.3057,0.0,-1495.16,0
GRID,19263,0,121.702,0.0,-1495.93,0
GRID,19264,0,119.0898,0.0,-1496.67,0
GRID,19265,0,116.4693,0.0,-1497.39,0
GRID,19266,0,113.8409,0.0,-1498.07,0
GRID,19267,0,111.2048,0.0,-1498.74,0
GRID,19268,0,108.5613,0.0,-1499.37,0
GRID,19269,0,105.9107,0.0,-1499.98,0
GRID,19270,0,103.2533,0.0,-1500.56,0
GRID,19271,0,100.5893,0.0,-1501.12,0
GRID,19272,0,97.91915,0.0,-1501.64,0
GRID,19273,0,95.24298,0.0,-1502.14,0
GRID,19274,0,92.56114,0.0,-1502.61,0
GRID,19275,0,89.87391,0.0,-1503.06,0
GRID,19276,0,87.18159,0.0,-1503.48,0
GRID,19277,0,84.48446,0.0,-1503.86,0
GRID,19278,0,81.78281,0.0,-1504.23,0
GRID,19279,0,79.07695,0.0,-1504.56,0
GRID,19280,0,76.36716,0.0,-1504.86,0
GRID,19281,0,73.65373,0.0,-1505.14,0
GRID,19282,0,70.93697,0.0,-1505.39,0
GRID,19283,0,68.21715,0.0,-1505.61,0
GRID,19284,0,65.49458,0.0,-1505.81,0
GRID,19285,0,62.76956,0.0,-1505.97,0
GRID,19286,0,60.04237,0.0,-1506.11,0
GRID,19287,0,57.31332,0.0,-1506.22,0
GRID,19288,0,54.5827,0.0,-1506.3,0
GRID,19289,0,51.85081,0.0,-1506.35,0
GRID,19290,0,49.11796,0.0,-1506.38,0
GRID,19291,0,46.38442,0.0,-1506.37,0
GRID,19292,0,43.65051,0.0,-1506.34,0
GRID,19293,0,40.91652,0.0,-1506.28,0
GRID,19294,0,38.18274,0.0,-1506.19,0
GRID,19295,0,35.44949,0.0,-1506.08,0
GRID,19296,0,32.71705,0.0,-1505.93,0
GRID,19297,0,29.98572,0.0,-1505.76,0
GRID,19298,0,27.25581,0.0,-1505.56,0
GRID,19299,0,24.5276,0.0,-1505.33,0
GRID,19300,0,21.80142,0.0,-1505.07,0
GRID,19301,0,19.07756,0.0,-1504.79,0
GRID,19302,0,16.35631,0.0,-1504.47,0
GRID,19303,0,13.63796,0.0,-1504.13,0
GRID,19304,0,10.92281,0.0,-1503.76,0
GRID,19305,0,8.211141,0.0,-1503.36,0
GRID,19306,0,5.503256,0.0,-1502.94,0
GRID,19307,0,2.799445,0.0,-1502.48,0
GRID,19308,0,373.8683,0.0,-1052.77,0
GRID,19309,0,373.8683,0.0,-1055.53,0
GRID,19310,0,373.8683,0.0,-1058.3,0
GRID,19311,0,373.8683,0.0,-1061.07,0
GRID,19312,0,373.8683,0.0,-1063.84,0
GRID,19313,0,373.8683,0.0,-1066.6,0
GRID,19314,0,373.8683,0.0,-1069.37,0
GRID,19315,0,373.8661,0.0,-1072.09,0
GRID,19316,0,373.8597,0.0,-1074.81,0
GRID,19317,0,373.849,0.0,-1077.53,0
GRID,19318,0,373.8341,0.0,-1080.25,0
GRID,19319,0,373.8149,0.0,-1082.97,0
GRID,19320,0,373.7915,0.0,-1085.69,0
GRID,19321,0,373.7639,0.0,-1088.41,0
GRID,19322,0,373.732,0.0,-1091.12,0
GRID,19323,0,373.6959,0.0,-1093.84,0
GRID,19324,0,373.6555,0.0,-1096.56,0
GRID,19325,0,373.6109,0.0,-1099.28,0
GRID,19326,0,373.562,0.0,-1102.0,0
GRID,19327,0,373.5089,0.0,-1104.71,0
GRID,19328,0,373.4515,0.0,-1107.43,0
GRID,19329,0,373.3899,0.0,-1110.15,0
GRID,19330,0,373.324,0.0,-1112.86,0
GRID,19331,0,373.2539,0.0,-1115.58,0
GRID,19332,0,373.1796,0.0,-1118.29,0
GRID,19333,0,373.1011,0.0,-1121.01,0
GRID,19334,0,373.0183,0.0,-1123.72,0
GRID,19335,0,372.9313,0.0,-1126.44,0
GRID,19336,0,372.8401,0.0,-1129.15,0
GRID,19337,0,372.7446,0.0,-1131.86,0
GRID,19338,0,372.645,0.0,-1134.57,0
GRID,19339,0,372.5412,0.0,-1137.29,0
GRID,19340,0,372.4331,0.0,-1140.0,0
GRID,19341,0,372.3209,0.0,-1142.71,0
GRID,19342,0,372.2045,0.0,-1145.42,0
GRID,19343,0,372.0838,0.0,-1148.12,0
GRID,19344,0,371.959,0.0,-1150.83,0
GRID,19345,0,371.8301,0.0,-1153.54,0
GRID,19346,0,371.6969,0.0,-1156.24,0
GRID,19347,0,371.5596,0.0,-1158.95,0
GRID,19348,0,371.4181,0.0,-1161.65,0
GRID,19349,0,371.2725,0.0,-1164.36,0
GRID,19350,0,371.1227,0.0,-1167.06,0
GRID,19351,0,370.9688,0.0,-1169.76,0
GRID,19352,0,370.8107,0.0,-1172.46,0
GRID,19353,0,370.6486,0.0,-1175.16,0
GRID,19354,0,370.4822,0.0,-1177.86,0
GRID,19355,0,370.3118,0.0,-1180.55,0
GRID,19356,0,370.1373,0.0,-1183.25,0
GRID,19357,0,369.9587,0.0,-1185.95,0
GRID,19358,0,369.7759,0.0,-1188.64,0
GRID,19359,0,369.5891,0.0,-1191.33,0
GRID,19360,0,369.3982,0.0,-1194.02,0
GRID,19361,0,369.2032,0.0,-1196.71,0
GRID,19362,0,369.0042,0.0,-1199.4,0
GRID,19363,0,368.7905,0.0,-1202.09,0
GRID,19364,0,368.5521,0.0,-1204.78,0
GRID,19365,0,368.2889,0.0,-1207.47,0
GRID,19366,0,368.0011,0.0,-1210.16,0
GRID,19367,0,367.6886,0.0,-1212.84,0
GRID,19368,0,367.3514,0.0,-1215.52,0
GRID,19369,0,366.9894,0.0,-1218.2,0
GRID,19370,0,366.6027,0.0,-1220.87,0
GRID,19371,0,366.1913,0.0,-1223.55,0
GRID,19372,0,365.7551,0.0,-1226.22,0
GRID,19373,0,365.2944,0.0,-1228.88,0
GRID,19374,0,364.809,0.0,-1231.54,0
GRID,19375,0,364.2992,0.0,-1234.2,0
GRID,19376,0,363.7648,0.0,-1236.85,0
GRID,19377,0,363.2059,0.0,-1239.5,0
GRID,19378,0,362.6226,0.0,-1242.14,0
GRID,19379,0,362.0149,0.0,-1244.78,0
GRID,19380,0,361.3829,0.0,-1247.42,0
GRID,19381,0,360.7265,0.0,-1250.04,0
GRID,19382,0,360.0459,0.0,-1252.67,0
GRID,19383,0,359.3411,0.0,-1255.28,0
GRID,19384,0,358.6122,0.0,-1257.89,0
GRID,19385,0,357.8592,0.0,-1260.5,0
GRID,19386,0,357.0821,0.0,-1263.09,0
GRID,19387,0,356.2811,0.0,-1265.68,0
GRID,19388,0,355.4562,0.0,-1268.26,0
GRID,19389,0,354.6074,0.0,-1270.84,0
GRID,19390,0,353.7349,0.0,-1273.41,0
GRID,19391,0,352.8387,0.0,-1275.97,0
GRID,19392,0,351.9188,0.0,-1278.52,0
GRID,19393,0,350.9754,0.0,-1281.06,0
GRID,19394,0,350.0085,0.0,-1283.6,0
GRID,19395,0,349.0183,0.0,-1286.13,0
GRID,19396,0,348.0047,0.0,-1288.64,0
GRID,19397,0,346.9679,0.0,-1291.15,0
GRID,19398,0,345.9079,0.0,-1293.65,0
GRID,19399,0,344.8248,0.0,-1296.14,0
GRID,19400,0,343.7188,0.0,-1298.62,0
GRID,19401,0,342.5899,0.0,-1301.09,0
GRID,19402,0,341.4382,0.0,-1303.55,0
GRID,19403,0,340.2638,0.0,-1306.0,0
GRID,19404,0,339.0669,0.0,-1308.44,0
GRID,19405,0,337.8474,0.0,-1310.87,0
GRID,19406,0,336.6056,0.0,-1313.29,0
GRID,19407,0,335.3414,0.0,-1315.69,0
GRID,19408,0,334.0551,0.0,-1318.09,0
GRID,19409,0,332.7467,0.0,-1320.47,0
GRID,19410,0,331.4163,0.0,-1322.84,0
GRID,19411,0,330.0641,0.0,-1325.2,0
GRID,19412,0,328.6901,0.0,-1327.54,0
GRID,19413,0,327.2946,0.0,-1329.88,0
GRID,19414,0,325.8775,0.0,-1332.2,0
GRID,19415,0,324.439,0.0,-1334.51,0
GRID,19416,0,322.9793,0.0,-1336.8,0
GRID,19417,0,321.4984,0.0,-1339.08,0
GRID,19418,0,319.9965,0.0,-1341.35,0
GRID,19419,0,318.4737,0.0,-1343.61,0
GRID,19420,0,316.9302,0.0,-1345.85,0
GRID,19421,0,315.3661,0.0,-1348.07,0
GRID,19422,0,313.7814,0.0,-1350.28,0
GRID,19423,0,312.1765,0.0,-1352.48,0
GRID,19424,0,310.5512,0.0,-1354.66,0
GRID,19425,0,308.9059,0.0,-1356.83,0
GRID,19426,0,307.2406,0.0,-1358.98,0
GRID,19427,0,305.5556,0.0,-1361.12,0
GRID,19428,0,303.8509,0.0,-1363.24,0
GRID,19429,0,302.1267,0.0,-1365.35,0
GRID,19430,0,300.3831,0.0,-1367.44,0
GRID,19431,0,298.6204,0.0,-1369.51,0
GRID,19432,0,296.8386,0.0,-1371.57,0
GRID,19433,0,295.0378,0.0,-1373.61,0
GRID,19434,0,293.2183,0.0,-1375.64,0
GRID,19435,0,291.3803,0.0,-1377.65,0
GRID,19436,0,289.5238,0.0,-1379.64,0
GRID,19437,0,287.6453,0.0,-1381.62,0
GRID,19438,0,285.7518,0.0,-1383.59,0
GRID,19439,0,283.8434,0.0,-1385.54,0
GRID,19440,0,281.9202,0.0,-1387.48,0
GRID,19441,0,280.0309,0.0,-1389.37,0
GRID,19442,0,278.1415,0.0,-1391.26,0
GRID,19443,0,276.2521,0.0,-1393.15,0
GRID,19444,0,274.3628,0.0,-1395.04,0
GRID,19445,0,272.4734,0.0,-1396.93,0
GRID,19446,0,270.584,0.0,-1398.82,0
GRID,19447,0,268.6947,0.0,-1400.7,0
GRID,19448,0,266.8053,0.0,-1402.59,0
GRID,19449,0,264.9159,0.0,-1404.48,0
GRID,19450,0,262.9717,0.0,-1406.41,0
GRID,19451,0,261.0137,0.0,-1408.33,0
GRID,19452,0,259.0423,0.0,-1410.23,0
GRID,19453,0,257.0574,0.0,-1412.12,0
GRID,19454,0,255.0592,0.0,-1413.99,0
GRID,19455,0,253.0479,0.0,-1415.85,0
GRID,19456,0,251.0235,0.0,-1417.7,0
GRID,19457,0,248.9861,0.0,-1419.53,0
GRID,19458,0,246.936,0.0,-1421.34,0
GRID,19459,0,244.8731,0.0,-1423.14,0
GRID,19460,0,242.7978,0.0,-1424.92,0
GRID,19461,0,240.7101,0.0,-1426.69,0
GRID,19462,0,238.6102,0.0,-1428.45,0
GRID,19463,0,236.4983,0.0,-1430.19,0
GRID,19464,0,234.3744,0.0,-1431.91,0
GRID,19465,0,232.2388,0.0,-1433.62,0
GRID,19466,0,230.0915,0.0,-1435.31,0
GRID,19467,0,227.9328,0.0,-1436.98,0
GRID,19468,0,225.7628,0.0,-1438.64,0
GRID,19469,0,223.5816,0.0,-1440.29,0
GRID,19470,0,221.3894,0.0,-1441.91,0
GRID,19471,0,219.1863,0.0,-1443.52,0
GRID,19472,0,216.9725,0.0,-1445.12,0
GRID,19473,0,214.7482,0.0,-1446.7,0
GRID,19474,0,212.5135,0.0,-1448.26,0
GRID,19475,0,210.2686,0.0,-1449.8,0
GRID,19476,0,208.0136,0.0,-1451.33,0
GRID,19477,0,205.7487,0.0,-1452.84,0
GRID,19478,0,203.474,0.0,-1454.33,0
GRID,19479,0,201.1898,0.0,-1455.81,0
GRID,19480,0,198.8961,0.0,-1457.27,0
GRID,19481,0,196.5931,0.0,-1458.71,0
GRID,19482,0,194.2811,0.0,-1460.14,0
GRID,19483,0,191.9601,0.0,-1461.54,0
GRID,19484,0,189.6304,0.0,-1462.93,0
GRID,19485,0,187.2921,0.0,-1464.3,0
GRID,19486,0,184.9453,0.0,-1465.66,0
GRID,19487,0,182.5902,0.0,-1466.99,0
GRID,19488,0,180.2271,0.0,-1468.31,0
GRID,19489,0,177.856,0.0,-1469.61,0
GRID,19490,0,175.4772,0.0,-1470.9,0
GRID,19491,0,173.0908,0.0,-1472.16,0
GRID,19492,0,170.697,0.0,-1473.41,0
GRID,19493,0,168.2959,0.0,-1474.64,0
GRID,19494,0,165.8878,0.0,-1475.85,0
GRID,19495,0,163.4728,0.0,-1477.04,0
GRID,19496,0,161.051,0.0,-1478.21,0
GRID,19497,0,158.6227,0.0,-1479.36,0
GRID,19498,0,156.1881,0.0,-1480.5,0
GRID,19499,0,153.7426,0.0,-1481.62,0
GRID,19500,0,151.2851,0.0,-1482.71,0
GRID,19501,0,148.8156,0.0,-1483.77,0
GRID,19502,0,146.3345,0.0,-1484.81,0
GRID,19503,0,143.842,0.0,-1485.83,0
GRID,19504,0,141.3384,0.0,-1486.82,0
GRID,19505,0,138.8238,0.0,-1487.78,0
GRID,19506,0,136.2987,0.0,-1488.72,0
GRID,19507,0,133.7632,0.0,-1489.63,0
GRID,19508,0,131.2176,0.0,-1490.51,0
GRID,19509,0,128.6622,0.0,-1491.37,0
GRID,19510,0,126.0973,0.0,-1492.21,0
GRID,19511,0,123.5231,0.0,-1493.01,0
GRID,19512,0,120.94,0.0,-1493.79,0
GRID,19513,0,118.3482,0.0,-1494.55,0
GRID,19514,0,115.7479,0.0,-1495.28,0
GRID,19515,0,113.1396,0.0,-1495.98,0
GRID,19516,0,110.5234,0.0,-1496.65,0
GRID,19517,0,107.8996,0.0,-1497.3,0
GRID,19518,0,105.2686,0.0,-1497.92,0
GRID,19519,0,102.6306,0.0,-1498.51,0
GRID,19520,0,99.98583,0.0,-1499.07,0
GRID,19521,0,97.33468,0.0,-1499.61,0
GRID,19522,0,94.6774,0.0,-1500.12,0
GRID,19523,0,92.01428,0.0,-1500.6,0
GRID,19524,0,89.34561,0.0,-1501.06,0
GRID,19525,0,86.67168,0.0,-1501.49,0
GRID,19526,0,83.99277,0.0,-1501.89,0
GRID,19527,0,81.3092,0.0,-1502.26,0
GRID,19528,0,78.62124,0.0,-1502.6,0
GRID,19529,0,75.9292,0.0,-1502.92,0
GRID,19530,0,73.23336,0.0,-1503.21,0
GRID,19531,0,70.53403,0.0,-1503.47,0
GRID,19532,0,67.83149,0.0,-1503.7,0
GRID,19533,0,65.12605,0.0,-1503.91,0
GRID,19534,0,62.41799,0.0,-1504.09,0
GRID,19535,0,59.70763,0.0,-1504.24,0
GRID,19536,0,56.99525,0.0,-1504.36,0
GRID,19537,0,54.28115,0.0,-1504.45,0
GRID,19538,0,51.56564,0.0,-1504.52,0
GRID,19539,0,48.84901,0.0,-1504.55,0
GRID,19540,0,46.13156,0.0,-1504.56,0
GRID,19541,0,43.41359,0.0,-1504.54,0
GRID,19542,0,40.6954,0.0,-1504.49,0
GRID,19543,0,37.97728,0.0,-1504.42,0
GRID,19544,0,35.25955,0.0,-1504.31,0
GRID,19545,0,32.54249,0.0,-1504.18,0
GRID,19546,0,29.82642,0.0,-1504.02,0
GRID,19547,0,27.11162,0.0,-1503.83,0
GRID,19548,0,24.3984,0.0,-1503.61,0
GRID,19549,0,21.68708,0.0,-1503.37,0
GRID,19550,0,18.97794,0.0,-1503.09,0
GRID,19551,0,16.27128,0.0,-1502.79,0
GRID,19552,0,13.56741,0.0,-1502.46,0
GRID,19553,0,10.8666,0.0,-1502.1,0
GRID,19554,0,8.169167,0.0,-1501.72,0
GRID,19555,0,5.475391,0.0,-1501.3,0
GRID,19556,0,2.78557,0.0,-1500.86,0
GRID,19557,0,372.0667,0.0,-1052.75,0
GRID,19558,0,372.0667,0.0,-1055.51,0
GRID,19559,0,372.0667,0.0,-1058.26,0
GRID,19560,0,372.0667,0.0,-1061.02,0
GRID,19561,0,372.0667,0.0,-1063.77,0
GRID,19562,0,372.0667,0.0,-1066.53,0
GRID,19563,0,372.0667,0.0,-1069.28,0
GRID,19564,0,372.0643,0.0,-1071.98,0
GRID,19565,0,372.0575,0.0,-1074.69,0
GRID,19566,0,372.0463,0.0,-1077.39,0
GRID,19567,0,372.0306,0.0,-1080.1,0
GRID,19568,0,372.0104,0.0,-1082.8,0
GRID,19569,0,371.9858,0.0,-1085.5,0
GRID,19570,0,371.9567,0.0,-1088.21,0
GRID,19571,0,371.9232,0.0,-1090.91,0
GRID,19572,0,371.8851,0.0,-1093.61,0
GRID,19573,0,371.8427,0.0,-1096.32,0
GRID,19574,0,371.7957,0.0,-1099.02,0
GRID,19575,0,371.7442,0.0,-1101.72,0
GRID,19576,0,371.6883,0.0,-1104.42,0
GRID,19577,0,371.6279,0.0,-1107.12,0
GRID,19578,0,371.563,0.0,-1109.82,0
GRID,19579,0,371.4937,0.0,-1112.53,0
GRID,19580,0,371.4199,0.0,-1115.23,0
GRID,19581,0,371.3417,0.0,-1117.93,0
GRID,19582,0,371.259,0.0,-1120.62,0
GRID,19583,0,371.1719,0.0,-1123.32,0
GRID,19584,0,371.0803,0.0,-1126.02,0
GRID,19585,0,370.9843,0.0,-1128.72,0
GRID,19586,0,370.8838,0.0,-1131.41,0
GRID,19587,0,370.779,0.0,-1134.11,0
GRID,19588,0,370.6697,0.0,-1136.81,0
GRID,19589,0,370.5559,0.0,-1139.5,0
GRID,19590,0,370.4378,0.0,-1142.2,0
GRID,19591,0,370.3152,0.0,-1144.89,0
GRID,19592,0,370.1883,0.0,-1147.58,0
GRID,19593,0,370.0569,0.0,-1150.27,0
GRID,19594,0,369.9211,0.0,-1152.96,0
GRID,19595,0,369.781,0.0,-1155.65,0
GRID,19596,0,369.6364,0.0,-1158.34,0
GRID,19597,0,369.4875,0.0,-1161.03,0
GRID,19598,0,369.3342,0.0,-1163.72,0
GRID,19599,0,369.1765,0.0,-1166.4,0
GRID,19600,0,369.0145,0.0,-1169.09,0
GRID,19601,0,368.8481,0.0,-1171.77,0
GRID,19602,0,368.6774,0.0,-1174.45,0
GRID,19603,0,368.5024,0.0,-1177.14,0
GRID,19604,0,368.323,0.0,-1179.82,0
GRID,19605,0,368.1393,0.0,-1182.5,0
GRID,19606,0,367.9512,0.0,-1185.17,0
GRID,19607,0,367.7589,0.0,-1187.85,0
GRID,19608,0,367.5622,0.0,-1190.53,0
GRID,19609,0,367.3613,0.0,-1193.2,0
GRID,19610,0,367.156,0.0,-1195.87,0
GRID,19611,0,366.9465,0.0,-1198.55,0
GRID,19612,0,366.7224,0.0,-1201.22,0
GRID,19613,0,366.4738,0.0,-1203.89,0
GRID,19614,0,366.2009,0.0,-1206.56,0
GRID,19615,0,365.9035,0.0,-1209.23,0
GRID,19616,0,365.5817,0.0,-1211.9,0
GRID,19617,0,365.2355,0.0,-1214.56,0
GRID,19618,0,364.8649,0.0,-1217.22,0
GRID,19619,0,364.4698,0.0,-1219.88,0
GRID,19620,0,364.0503,0.0,-1222.53,0
GRID,19621,0,363.6063,0.0,-1225.19,0
GRID,19622,0,363.1381,0.0,-1227.83,0
GRID,19623,0,362.6456,0.0,-1230.48,0
GRID,19624,0,362.1288,0.0,-1233.12,0
GRID,19625,0,361.5878,0.0,-1235.75,0
GRID,19626,0,361.0226,0.0,-1238.38,0
GRID,19627,0,360.4333,0.0,-1241.01,0
GRID,19628,0,359.8199,0.0,-1243.63,0
GRID,19629,0,359.1825,0.0,-1246.24,0
GRID,19630,0,358.521,0.0,-1248.85,0
GRID,19631,0,357.8355,0.0,-1251.46,0
GRID,19632,0,357.1262,0.0,-1254.06,0
GRID,19633,0,356.393,0.0,-1256.65,0
GRID,19634,0,355.636,0.0,-1259.23,0
GRID,19635,0,354.8553,0.0,-1261.81,0
GRID,19636,0,354.0509,0.0,-1264.39,0
GRID,19637,0,353.2229,0.0,-1266.95,0
GRID,19638,0,352.3714,0.0,-1269.51,0
GRID,19639,0,351.4963,0.0,-1272.06,0
GRID,19640,0,350.5979,0.0,-1274.6,0
GRID,19641,0,349.6761,0.0,-1277.14,0
GRID,19642,0,348.731,0.0,-1279.66,0
GRID,19643,0,347.7628,0.0,-1282.18,0
GRID,19644,0,346.7715,0.0,-1284.69,0
GRID,19645,0,345.7571,0.0,-1287.19,0
GRID,19646,0,344.7198,0.0,-1289.68,0
GRID,19647,0,343.6596,0.0,-1292.16,0
GRID,19648,0,342.5766,0.0,-1294.64,0
GRID,19649,0,341.4709,0.0,-1297.1,0
GRID,19650,0,340.3426,0.0,-1299.55,0
GRID,19651,0,339.1918,0.0,-1302.0,0
GRID,19652,0,338.0186,0.0,-1304.43,0
GRID,19653,0,336.8231,0.0,-1306.85,0
GRID,19654,0,335.6054,0.0,-1309.26,0
GRID,19655,0,334.3655,0.0,-1311.66,0
GRID,19656,0,333.1037,0.0,-1314.05,0
GRID,19657,0,331.8199,0.0,-1316.43,0
GRID,19658,0,330.5143,0.0,-1318.8,0
GRID,19659,0,329.187,0.0,-1321.15,0
GRID,19660,0,327.8381,0.0,-1323.49,0
GRID,19661,0,326.4678,0.0,-1325.82,0
GRID,19662,0,325.0761,0.0,-1328.14,0
GRID,19663,0,323.6631,0.0,-1330.45,0
GRID,19664,0,322.229,0.0,-1332.74,0
GRID,19665,0,320.7739,0.0,-1335.02,0
GRID,19666,0,319.298,0.0,-1337.28,0
GRID,19667,0,317.8012,0.0,-1339.54,0
GRID,19668,0,316.2839,0.0,-1341.78,0
GRID,19669,0,314.746,0.0,-1344.0,0
GRID,19670,0,313.1878,0.0,-1346.21,0
GRID,19671,0,311.6093,0.0,-1348.41,0
GRID,19672,0,310.0107,0.0,-1350.59,0
GRID,19673,0,308.3921,0.0,-1352.76,0
GRID,19674,0,306.7537,0.0,-1354.91,0
GRID,19675,0,305.0955,0.0,-1357.05,0
GRID,19676,0,303.4178,0.0,-1359.18,0
GRID,19677,0,301.7207,0.0,-1361.28,0
GRID,19678,0,300.0044,0.0,-1363.38,0
GRID,19679,0,298.2689,0.0,-1365.45,0
GRID,19680,0,296.5144,0.0,-1367.51,0
GRID,19681,0,294.7411,0.0,-1369.56,0
GRID,19682,0,292.9491,0.0,-1371.59,0
GRID,19683,0,291.1386,0.0,-1373.6,0
GRID,19684,0,289.3097,0.0,-1375.6,0
GRID,19685,0,287.4626,0.0,-1377.58,0
GRID,19686,0,285.5936,0.0,-1379.54,0
GRID,19687,0,283.7098,0.0,-1381.5,0
GRID,19688,0,281.8115,0.0,-1383.44,0
GRID,19689,0,279.8989,0.0,-1385.37,0
GRID,19690,0,278.0192,0.0,-1387.25,0
GRID,19691,0,276.1395,0.0,-1389.13,0
GRID,19692,0,274.2598,0.0,-1391.01,0
GRID,19693,0,272.3801,0.0,-1392.89,0
GRID,19694,0,270.5004,0.0,-1394.77,0
GRID,19695,0,268.6207,0.0,-1396.65,0
GRID,19696,0,266.741,0.0,-1398.53,0
GRID,19697,0,264.8613,0.0,-1400.41,0
GRID,19698,0,262.9816,0.0,-1402.29,0
GRID,19699,0,261.0484,0.0,-1404.21,0
GRID,19700,0,259.1018,0.0,-1406.11,0
GRID,19701,0,257.142,0.0,-1408.0,0
GRID,19702,0,255.1692,0.0,-1409.88,0
GRID,19703,0,253.1833,0.0,-1411.75,0
GRID,19704,0,251.1846,0.0,-1413.6,0
GRID,19705,0,249.1732,0.0,-1415.43,0
GRID,19706,0,247.1491,0.0,-1417.25,0
GRID,19707,0,245.1125,0.0,-1419.06,0
GRID,19708,0,243.0636,0.0,-1420.85,0
GRID,19709,0,241.0025,0.0,-1422.63,0
GRID,19710,0,238.9293,0.0,-1424.39,0
GRID,19711,0,236.8442,0.0,-1426.14,0
GRID,19712,0,234.7474,0.0,-1427.87,0
GRID,19713,0,232.6389,0.0,-1429.59,0
GRID,19714,0,230.519,0.0,-1431.29,0
GRID,19715,0,228.3877,0.0,-1432.98,0
GRID,19716,0,226.2452,0.0,-1434.65,0
GRID,19717,0,224.0917,0.0,-1436.3,0
GRID,19718,0,221.9273,0.0,-1437.94,0
GRID,19719,0,219.7521,0.0,-1439.57,0
GRID,19720,0,217.5664,0.0,-1441.18,0
GRID,19721,0,215.3702,0.0,-1442.77,0
GRID,19722,0,213.1638,0.0,-1444.34,0
GRID,19723,0,210.9472,0.0,-1445.9,0
GRID,19724,0,208.7206,0.0,-1447.45,0
GRID,19725,0,206.4842,0.0,-1448.97,0
GRID,19726,0,204.2381,0.0,-1450.48,0
GRID,19727,0,201.9825,0.0,-1451.98,0
GRID,19728,0,199.7176,0.0,-1453.45,0
GRID,19729,0,197.4434,0.0,-1454.91,0
GRID,19730,0,195.1602,0.0,-1456.36,0
GRID,19731,0,192.8682,0.0,-1457.78,0
GRID,19732,0,190.5674,0.0,-1459.19,0
GRID,19733,0,188.2581,0.0,-1460.58,0
GRID,19734,0,185.9404,0.0,-1461.96,0
GRID,19735,0,183.6144,0.0,-1463.32,0
GRID,19736,0,181.2804,0.0,-1464.66,0
GRID,19737,0,178.9385,0.0,-1465.98,0
GRID,19738,0,176.5889,0.0,-1467.28,0
GRID,19739,0,174.2317,0.0,-1468.57,0
GRID,19740,0,171.8671,0.0,-1469.84,0
GRID,19741,0,169.4952,0.0,-1471.09,0
GRID,19742,0,167.1163,0.0,-1472.33,0
GRID,19743,0,164.7305,0.0,-1473.55,0
GRID,19744,0,162.338,0.0,-1474.74,0
GRID,19745,0,159.9389,0.0,-1475.93,0
GRID,19746,0,157.5334,0.0,-1477.09,0
GRID,19747,0,155.1217,0.0,-1478.23,0
GRID,19748,0,152.6992,0.0,-1479.36,0
GRID,19749,0,150.2643,0.0,-1480.46,0
GRID,19750,0,147.8174,0.0,-1481.53,0
GRID,19751,0,145.3587,0.0,-1482.58,0
GRID,19752,0,142.8883,0.0,-1483.61,0
GRID,19753,0,140.4067,0.0,-1484.6,0
GRID,19754,0,137.914,0.0,-1485.58,0
GRID,19755,0,135.4105,0.0,-1486.53,0
GRID,19756,0,132.8964,0.0,-1487.45,0
GRID,19757,0,130.3721,0.0,-1488.34,0
GRID,19758,0,127.8378,0.0,-1489.21,0
GRID,19759,0,125.2939,0.0,-1490.06,0
GRID,19760,0,122.7405,0.0,-1490.87,0
GRID,19761,0,120.1779,0.0,-1491.66,0
GRID,19762,0,117.6065,0.0,-1492.43,0
GRID,19763,0,115.0266,0.0,-1493.17,0
GRID,19764,0,112.4383,0.0,-1493.88,0
GRID,19765,0,109.842,0.0,-1494.56,0
GRID,19766,0,107.2379,0.0,-1495.22,0
GRID,19767,0,104.6265,0.0,-1495.85,0
GRID,19768,0,102.0078,0.0,-1496.45,0
GRID,19769,0,99.38232,0.0,-1497.03,0
GRID,19770,0,96.75022,0.0,-1497.58,0
GRID,19771,0,94.11183,0.0,-1498.1,0
GRID,19772,0,91.46743,0.0,-1498.59,0
GRID,19773,0,88.81731,0.0,-1499.06,0
GRID,19774,0,86.16176,0.0,-1499.5,0
GRID,19775,0,83.50109,0.0,-1499.91,0
GRID,19776,0,80.83558,0.0,-1500.29,0
GRID,19777,0,78.16553,0.0,-1500.65,0
GRID,19778,0,75.49124,0.0,-1500.98,0
GRID,19779,0,72.81299,0.0,-1501.28,0
GRID,19780,0,70.13109,0.0,-1501.55,0
GRID,19781,0,67.44584,0.0,-1501.8,0
GRID,19782,0,64.75751,0.0,-1502.01,0
GRID,19783,0,62.06643,0.0,-1502.2,0
GRID,19784,0,59.37288,0.0,-1502.36,0
GRID,19785,0,56.67717,0.0,-1502.5,0
GRID,19786,0,53.9796,0.0,-1502.6,0
GRID,19787,0,51.28046,0.0,-1502.68,0
GRID,19788,0,48.58006,0.0,-1502.73,0
GRID,19789,0,45.8787,0.0,-1502.75,0
GRID,19790,0,43.17667,0.0,-1502.74,0
GRID,19791,0,40.47427,0.0,-1502.7,0
GRID,19792,0,37.77182,0.0,-1502.64,0
GRID,19793,0,35.06961,0.0,-1502.55,0
GRID,19794,0,32.36794,0.0,-1502.43,0
GRID,19795,0,29.66711,0.0,-1502.28,0
GRID,19796,0,26.96743,0.0,-1502.1,0
GRID,19797,0,24.2692,0.0,-1501.89,0
GRID,19798,0,21.57273,0.0,-1501.66,0
GRID,19799,0,18.87832,0.0,-1501.4,0
GRID,19800,0,16.18626,0.0,-1501.11,0
GRID,19801,0,13.49686,0.0,-1500.79,0
GRID,19802,0,10.8104,0.0,-1500.44,0
GRID,19803,0,8.127193,0.0,-1500.07,0
GRID,19804,0,5.447525,0.0,-1499.67,0
GRID,19805,0,2.771695,0.0,-1499.24,0
GRID,19806,0,370.265,0.0,-1052.74,0
GRID,19807,0,370.265,0.0,-1055.48,0
GRID,19808,0,370.265,0.0,-1058.22,0
GRID,19809,0,370.265,0.0,-1060.97,0
GRID,19810,0,370.265,0.0,-1063.71,0
GRID,19811,0,370.265,0.0,-1066.45,0
GRID,19812,0,370.265,0.0,-1069.19,0
GRID,19813,0,370.2625,0.0,-1071.88,0
GRID,19814,0,370.2554,0.0,-1074.57,0
GRID,19815,0,370.2436,0.0,-1077.26,0
GRID,19816,0,370.2271,0.0,-1079.94,0
GRID,19817,0,370.206,0.0,-1082.63,0
GRID,19818,0,370.1801,0.0,-1085.32,0
GRID,19819,0,370.1496,0.0,-1088.01,0
GRID,19820,0,370.1143,0.0,-1090.7,0
GRID,19821,0,370.0744,0.0,-1093.38,0
GRID,19822,0,370.0298,0.0,-1096.07,0
GRID,19823,0,369.9805,0.0,-1098.76,0
GRID,19824,0,369.9265,0.0,-1101.45,0
GRID,19825,0,369.8677,0.0,-1104.13,0
GRID,19826,0,369.8043,0.0,-1106.82,0
GRID,19827,0,369.7362,0.0,-1109.5,0
GRID,19828,0,369.6634,0.0,-1112.19,0
GRID,19829,0,369.5859,0.0,-1114.87,0
GRID,19830,0,369.5038,0.0,-1117.56,0
GRID,19831,0,369.417,0.0,-1120.24,0
GRID,19832,0,369.3255,0.0,-1122.92,0
GRID,19833,0,369.2293,0.0,-1125.6,0
GRID,19834,0,369.1285,0.0,-1128.29,0
GRID,19835,0,369.023,0.0,-1130.97,0
GRID,19836,0,368.9129,0.0,-1133.65,0
GRID,19837,0,368.7981,0.0,-1136.33,0
GRID,19838,0,368.6787,0.0,-1139.01,0
GRID,19839,0,368.5547,0.0,-1141.68,0
GRID,19840,0,368.426,0.0,-1144.36,0
GRID,19841,0,368.2927,0.0,-1147.04,0
GRID,19842,0,368.1547,0.0,-1149.71,0
GRID,19843,0,368.0122,0.0,-1152.39,0
GRID,19844,0,367.865,0.0,-1155.06,0
GRID,19845,0,367.7132,0.0,-1157.73,0
GRID,19846,0,367.5569,0.0,-1160.41,0
GRID,19847,0,367.3959,0.0,-1163.08,0
GRID,19848,0,367.2304,0.0,-1165.75,0
GRID,19849,0,367.0602,0.0,-1168.41,0
GRID,19850,0,366.8856,0.0,-1171.08,0
GRID,19851,0,366.7063,0.0,-1173.75,0
GRID,19852,0,366.5225,0.0,-1176.41,0
GRID,19853,0,366.3341,0.0,-1179.08,0
GRID,19854,0,366.1412,0.0,-1181.74,0
GRID,19855,0,365.9438,0.0,-1184.4,0
GRID,19856,0,365.7418,0.0,-1187.06,0
GRID,19857,0,365.5353,0.0,-1189.72,0
GRID,19858,0,365.3243,0.0,-1192.38,0
GRID,19859,0,365.1088,0.0,-1195.03,0
GRID,19860,0,364.8889,0.0,-1197.69,0
GRID,19861,0,364.6543,0.0,-1200.35,0
GRID,19862,0,364.3956,0.0,-1203.0,0
GRID,19863,0,364.1128,0.0,-1205.65,0
GRID,19864,0,363.8059,0.0,-1208.31,0
GRID,19865,0,363.4748,0.0,-1210.95,0
GRID,19866,0,363.1196,0.0,-1213.6,0
GRID,19867,0,362.7403,0.0,-1216.24,0
GRID,19868,0,362.3369,0.0,-1218.88,0
GRID,19869,0,361.9092,0.0,-1221.52,0
GRID,19870,0,361.4576,0.0,-1224.15,0
GRID,19871,0,360.9818,0.0,-1226.78,0
GRID,19872,0,360.4821,0.0,-1229.41,0
GRID,19873,0,359.9584,0.0,-1232.03,0
GRID,19874,0,359.4108,0.0,-1234.65,0
GRID,19875,0,358.8394,0.0,-1237.26,0
GRID,19876,0,358.244,0.0,-1239.87,0
GRID,19877,0,357.6249,0.0,-1242.47,0
GRID,19878,0,356.982,0.0,-1245.07,0
GRID,19879,0,356.3154,0.0,-1247.66,0
GRID,19880,0,355.6251,0.0,-1250.25,0
GRID,19881,0,354.9112,0.0,-1252.83,0
GRID,19882,0,354.1738,0.0,-1255.41,0
GRID,19883,0,353.4128,0.0,-1257.97,0
GRID,19884,0,352.6285,0.0,-1260.53,0
GRID,19885,0,351.8207,0.0,-1263.09,0
GRID,19886,0,350.9896,0.0,-1265.64,0
GRID,19887,0,350.1353,0.0,-1268.18,0
GRID,19888,0,349.2577,0.0,-1270.71,0
GRID,19889,0,348.3571,0.0,-1273.23,0
GRID,19890,0,347.4333,0.0,-1275.75,0
GRID,19891,0,346.4867,0.0,-1278.26,0
GRID,19892,0,345.5171,0.0,-1280.76,0
GRID,19893,0,344.5247,0.0,-1283.25,0
GRID,19894,0,343.5095,0.0,-1285.74,0
GRID,19895,0,342.4717,0.0,-1288.21,0
GRID,19896,0,341.4112,0.0,-1290.68,0
GRID,19897,0,340.3283,0.0,-1293.13,0
GRID,19898,0,339.223,0.0,-1295.58,0
GRID,19899,0,338.0953,0.0,-1298.01,0
GRID,19900,0,336.9454,0.0,-1300.44,0
GRID,19901,0,335.7734,0.0,-1302.86,0
GRID,19902,0,334.5794,0.0,-1305.26,0
GRID,19903,0,333.3634,0.0,-1307.66,0
GRID,19904,0,332.1255,0.0,-1310.04,0
GRID,19905,0,330.8659,0.0,-1312.41,0
GRID,19906,0,329.5847,0.0,-1314.77,0
GRID,19907,0,328.2819,0.0,-1317.12,0
GRID,19908,0,326.9577,0.0,-1319.46,0
GRID,19909,0,325.6121,0.0,-1321.79,0
GRID,19910,0,324.2454,0.0,-1324.1,0
GRID,19911,0,322.8575,0.0,-1326.4,0
GRID,19912,0,321.4487,0.0,-1328.69,0
GRID,19913,0,320.019,0.0,-1330.97,0
GRID,19914,0,318.5686,0.0,-1333.23,0
GRID,19915,0,317.0975,0.0,-1335.48,0
GRID,19916,0,315.6059,0.0,-1337.72,0
GRID,19917,0,314.094,0.0,-1339.95,0
GRID,19918,0,312.5618,0.0,-1342.16,0
GRID,19919,0,311.0095,0.0,-1344.35,0
GRID,19920,0,309.4372,0.0,-1346.53,0
GRID,19921,0,307.845,0.0,-1348.7,0
GRID,19922,0,306.233,0.0,-1350.86,0
GRID,19923,0,304.6015,0.0,-1353.0,0
GRID,19924,0,302.9505,0.0,-1355.12,0
GRID,19925,0,301.2801,0.0,-1357.23,0
GRID,19926,0,299.5906,0.0,-1359.32,0
GRID,19927,0,297.882,0.0,-1361.4,0
GRID,19928,0,296.1546,0.0,-1363.47,0
GRID,19929,0,294.4084,0.0,-1365.51,0
GRID,19930,0,292.6436,0.0,-1367.55,0
GRID,19931,0,290.8604,0.0,-1369.56,0
GRID,19932,0,289.0588,0.0,-1371.56,0
GRID,19933,0,287.2391,0.0,-1373.54,0
GRID,19934,0,285.4014,0.0,-1375.51,0
GRID,19935,0,283.5418,0.0,-1377.47,0
GRID,19936,0,281.6678,0.0,-1379.41,0
GRID,19937,0,279.7797,0.0,-1381.34,0
GRID,19938,0,277.8775,0.0,-1383.26,0
GRID,19939,0,276.0075,0.0,-1385.13,0
GRID,19940,0,274.1375,0.0,-1387.0,0
GRID,19941,0,272.2674,0.0,-1388.87,0
GRID,19942,0,270.3974,0.0,-1390.74,0
GRID,19943,0,268.5274,0.0,-1392.61,0
GRID,19944,0,266.6574,0.0,-1394.48,0
GRID,19945,0,264.7874,0.0,-1396.35,0
GRID,19946,0,262.9173,0.0,-1398.22,0
GRID,19947,0,261.0473,0.0,-1400.09,0
GRID,19948,0,259.1251,0.0,-1402.0,0
GRID,19949,0,257.1899,0.0,-1403.89,0
GRID,19950,0,255.2418,0.0,-1405.77,0
GRID,19951,0,253.2809,0.0,-1407.64,0
GRID,19952,0,251.3074,0.0,-1409.5,0
GRID,19953,0,249.3213,0.0,-1411.34,0
GRID,19954,0,247.3229,0.0,-1413.17,0
GRID,19955,0,245.3121,0.0,-1414.98,0
GRID,19956,0,243.2891,0.0,-1416.78,0
GRID,19957,0,241.2541,0.0,-1418.56,0
GRID,19958,0,239.2072,0.0,-1420.33,0
GRID,19959,0,237.1485,0.0,-1422.09,0
GRID,19960,0,235.0782,0.0,-1423.83,0
GRID,19961,0,232.9965,0.0,-1425.56,0
GRID,19962,0,230.9034,0.0,-1427.27,0
GRID,19963,0,228.7992,0.0,-1428.97,0
GRID,19964,0,226.6839,0.0,-1430.65,0
GRID,19965,0,224.5576,0.0,-1432.31,0
GRID,19966,0,222.4206,0.0,-1433.97,0
GRID,19967,0,220.273,0.0,-1435.6,0
GRID,19968,0,218.1149,0.0,-1437.22,0
GRID,19969,0,215.9465,0.0,-1438.83,0
GRID,19970,0,213.7679,0.0,-1440.42,0
GRID,19971,0,211.5793,0.0,-1441.99,0
GRID,19972,0,209.3808,0.0,-1443.55,0
GRID,19973,0,207.1726,0.0,-1445.09,0
GRID,19974,0,204.9548,0.0,-1446.61,0
GRID,19975,0,202.7275,0.0,-1448.12,0
GRID,19976,0,200.491,0.0,-1449.62,0
GRID,19977,0,198.2453,0.0,-1451.1,0
GRID,19978,0,195.9907,0.0,-1452.56,0
GRID,19979,0,193.7273,0.0,-1454.0,0
GRID,19980,0,191.4552,0.0,-1455.43,0
GRID,19981,0,189.1747,0.0,-1456.84,0
GRID,19982,0,186.8858,0.0,-1458.23,0
GRID,19983,0,184.5887,0.0,-1459.61,0
GRID,19984,0,182.2836,0.0,-1460.97,0
GRID,19985,0,179.9706,0.0,-1462.32,0
GRID,19986,0,177.6499,0.0,-1463.64,0
GRID,19987,0,175.3217,0.0,-1464.95,0
GRID,19988,0,172.9861,0.0,-1466.25,0
GRID,19989,0,170.6433,0.0,-1467.52,0
GRID,19990,0,168.2934,0.0,-1468.78,0
GRID,19991,0,165.9367,0.0,-1470.02,0
GRID,19992,0,163.5732,0.0,-1471.25,0
GRID,19993,0,161.2032,0.0,-1472.45,0
GRID,19994,0,158.8268,0.0,-1473.64,0
GRID,19995,0,156.4441,0.0,-1474.81,0
GRID,19996,0,154.0554,0.0,-1475.97,0
GRID,19997,0,151.6557,0.0,-1477.1,0
GRID,19998,0,149.2436,0.0,-1478.21,0
GRID,19999,0,146.8192,0.0,-1479.29,0
GRID,20000,0,144.3828,0.0,-1480.35,0
GRID,20001,0,141.9347,0.0,-1481.38,0
GRID,20002,0,139.475,0.0,-1482.39,0
GRID,20003,0,137.0042,0.0,-1483.38,0
GRID,20004,0,134.5223,0.0,-1484.33,0
GRID,20005,0,132.0297,0.0,-1485.27,0
GRID,20006,0,129.5267,0.0,-1486.17,0
GRID,20007,0,127.0135,0.0,-1487.05,0
GRID,20008,0,124.4905,0.0,-1487.9,0
GRID,20009,0,121.9579,0.0,-1488.73,0
GRID,20010,0,119.4159,0.0,-1489.53,0
GRID,20011,0,116.8649,0.0,-1490.31,0
GRID,20012,0,114.3052,0.0,-1491.06,0
GRID,20013,0,111.737,0.0,-1491.78,0
GRID,20014,0,109.1606,0.0,-1492.47,0
GRID,20015,0,106.5763,0.0,-1493.14,0
GRID,20016,0,103.9843,0.0,-1493.78,0
GRID,20017,0,101.3851,0.0,-1494.4,0
GRID,20018,0,98.7788,0.0,-1494.98,0
GRID,20019,0,96.16576,0.0,-1495.54,0
GRID,20020,0,93.54625,0.0,-1496.08,0
GRID,20021,0,90.92057,0.0,-1496.58,0
GRID,20022,0,88.289,0.0,-1497.06,0
GRID,20023,0,85.65185,0.0,-1497.51,0
GRID,20024,0,83.00941,0.0,-1497.93,0
GRID,20025,0,80.36196,0.0,-1498.33,0
GRID,20026,0,77.70982,0.0,-1498.7,0
GRID,20027,0,75.05328,0.0,-1499.04,0
GRID,20028,0,72.39262,0.0,-1499.35,0
GRID,20029,0,69.72816,0.0,-1499.63,0
GRID,20030,0,67.06018,0.0,-1499.89,0
GRID,20031,0,64.38898,0.0,-1500.12,0
GRID,20032,0,61.71487,0.0,-1500.32,0
GRID,20033,0,59.03814,0.0,-1500.49,0
GRID,20034,0,56.3591,0.0,-1500.63,0
GRID,20035,0,53.67805,0.0,-1500.75,0
GRID,20036,0,50.99529,0.0,-1500.84,0
GRID,20037,0,48.31112,0.0,-1500.9,0
GRID,20038,0,45.62583,0.0,-1500.93,0
GRID,20039,0,42.93975,0.0,-1500.94,0
GRID,20040,0,40.25315,0.0,-1500.91,0
GRID,20041,0,37.56636,0.0,-1500.86,0
GRID,20042,0,34.87967,0.0,-1500.78,0
GRID,20043,0,32.19338,0.0,-1500.67,0
GRID,20044,0,29.50781,0.0,-1500.53,0
GRID,20045,0,26.82324,0.0,-1500.37,0
GRID,20046,0,24.14,0.0,-1500.18,0
GRID,20047,0,21.45838,0.0,-1499.95,0
GRID,20048,0,18.77869,0.0,-1499.7,0
GRID,20049,0,16.10123,0.0,-1499.43,0
GRID,20050,0,13.4263,0.0,-1499.12,0
GRID,20051,0,10.7542,0.0,-1498.79,0
GRID,20052,0,8.085218,0.0,-1498.42,0
GRID,20053,0,5.419659,0.0,-1498.04,0
GRID,20054,0,2.75782,0.0,-1497.62,0
GRID,20055,0,368.4633,0.0,-1052.73,0
GRID,20056,0,368.4633,0.0,-1055.46,0
GRID,20057,0,368.4633,0.0,-1058.19,0
GRID,20058,0,368.4633,0.0,-1060.91,0
GRID,20059,0,368.4633,0.0,-1063.64,0
GRID,20060,0,368.4633,0.0,-1066.37,0
GRID,20061,0,368.4633,0.0,-1069.1,0
GRID,20062,0,368.4608,0.0,-1071.77,0
GRID,20063,0,368.4533,0.0,-1074.45,0
GRID,20064,0,368.4409,0.0,-1077.12,0
GRID,20065,0,368.4236,0.0,-1079.79,0
GRID,20066,0,368.4015,0.0,-1082.47,0
GRID,20067,0,368.3744,0.0,-1085.14,0
GRID,20068,0,368.3424,0.0,-1087.81,0
GRID,20069,0,368.3055,0.0,-1090.48,0
GRID,20070,0,368.2637,0.0,-1093.16,0
GRID,20071,0,368.2169,0.0,-1095.83,0
GRID,20072,0,368.1653,0.0,-1098.5,0
GRID,20073,0,368.1087,0.0,-1101.17,0
GRID,20074,0,368.0472,0.0,-1103.84,0
GRID,20075,0,367.9807,0.0,-1106.51,0
GRID,20076,0,367.9094,0.0,-1109.18,0
GRID,20077,0,367.8331,0.0,-1111.85,0
GRID,20078,0,367.7519,0.0,-1114.52,0
GRID,20079,0,367.6659,0.0,-1117.19,0
GRID,20080,0,367.5749,0.0,-1119.85,0
GRID,20081,0,367.4791,0.0,-1122.52,0
GRID,20082,0,367.3783,0.0,-1125.19,0
GRID,20083,0,367.2727,0.0,-1127.85,0
GRID,20084,0,367.1622,0.0,-1130.52,0
GRID,20085,0,367.0469,0.0,-1133.18,0
GRID,20086,0,366.9266,0.0,-1135.85,0
GRID,20087,0,366.8015,0.0,-1138.51,0
GRID,20088,0,366.6716,0.0,-1141.17,0
GRID,20089,0,366.5367,0.0,-1143.83,0
GRID,20090,0,366.3971,0.0,-1146.49,0
GRID,20091,0,366.2526,0.0,-1149.15,0
GRID,20092,0,366.1032,0.0,-1151.81,0
GRID,20093,0,365.949,0.0,-1154.47,0
GRID,20094,0,365.7901,0.0,-1157.13,0
GRID,20095,0,365.6262,0.0,-1159.78,0
GRID,20096,0,365.4576,0.0,-1162.44,0
GRID,20097,0,365.2842,0.0,-1165.09,0
GRID,20098,0,365.106,0.0,-1167.74,0
GRID,20099,0,364.923,0.0,-1170.39,0
GRID,20100,0,364.7352,0.0,-1173.04,0
GRID,20101,0,364.5426,0.0,-1175.69,0
GRID,20102,0,364.3453,0.0,-1178.34,0
GRID,20103,0,364.1432,0.0,-1180.99,0
GRID,20104,0,363.9363,0.0,-1183.63,0
GRID,20105,0,363.7247,0.0,-1186.27,0
GRID,20106,0,363.5084,0.0,-1188.92,0
GRID,20107,0,363.2874,0.0,-1191.56,0
GRID,20108,0,363.0616,0.0,-1194.2,0
GRID,20109,0,362.8312,0.0,-1196.83,0
GRID,20110,0,362.5862,0.0,-1199.47,0
GRID,20111,0,362.3173,0.0,-1202.11,0
GRID,20112,0,362.0247,0.0,-1204.75,0
GRID,20113,0,361.7082,0.0,-1207.38,0
GRID,20114,0,361.3679,0.0,-1210.01,0
GRID,20115,0,361.0038,0.0,-1212.64,0
GRID,20116,0,360.6158,0.0,-1215.27,0
GRID,20117,0,360.2039,0.0,-1217.89,0
GRID,20118,0,359.7682,0.0,-1220.51,0
GRID,20119,0,359.3088,0.0,-1223.12,0
GRID,20120,0,358.8256,0.0,-1225.74,0
GRID,20121,0,358.3186,0.0,-1228.34,0
GRID,20122,0,357.7881,0.0,-1230.95,0
GRID,20123,0,357.2339,0.0,-1233.55,0
GRID,20124,0,356.6561,0.0,-1236.14,0
GRID,20125,0,356.0547,0.0,-1238.73,0
GRID,20126,0,355.4299,0.0,-1241.32,0
GRID,20127,0,354.7816,0.0,-1243.9,0
GRID,20128,0,354.1098,0.0,-1246.47,0
GRID,20129,0,353.4147,0.0,-1249.04,0
GRID,20130,0,352.6963,0.0,-1251.61,0
GRID,20131,0,351.9546,0.0,-1254.16,0
GRID,20132,0,351.1897,0.0,-1256.71,0
GRID,20133,0,350.4016,0.0,-1259.26,0
GRID,20134,0,349.5905,0.0,-1261.79,0
GRID,20135,0,348.7563,0.0,-1264.32,0
GRID,20136,0,347.8992,0.0,-1266.84,0
GRID,20137,0,347.0191,0.0,-1269.36,0
GRID,20138,0,346.1163,0.0,-1271.87,0
GRID,20139,0,345.1906,0.0,-1274.37,0
GRID,20140,0,344.2423,0.0,-1276.86,0
GRID,20141,0,343.2713,0.0,-1279.34,0
GRID,20142,0,342.2779,0.0,-1281.82,0
GRID,20143,0,341.2619,0.0,-1284.28,0
GRID,20144,0,340.2236,0.0,-1286.74,0
GRID,20145,0,339.1629,0.0,-1289.19,0
GRID,20146,0,338.0801,0.0,-1291.63,0
GRID,20147,0,336.9751,0.0,-1294.05,0
GRID,20148,0,335.848,0.0,-1296.47,0
GRID,20149,0,334.699,0.0,-1298.88,0
GRID,20150,0,333.5282,0.0,-1301.28,0
GRID,20151,0,332.3356,0.0,-1303.67,0
GRID,20152,0,331.1213,0.0,-1306.05,0
GRID,20153,0,329.8855,0.0,-1308.42,0
GRID,20154,0,328.6281,0.0,-1310.77,0
GRID,20155,0,327.3494,0.0,-1313.12,0
GRID,20156,0,326.0495,0.0,-1315.45,0
GRID,20157,0,324.7283,0.0,-1317.77,0
GRID,20158,0,323.3861,0.0,-1320.08,0
GRID,20159,0,322.023,0.0,-1322.38,0
GRID,20160,0,320.639,0.0,-1324.67,0
GRID,20161,0,319.2343,0.0,-1326.94,0
GRID,20162,0,317.809,0.0,-1329.2,0
GRID,20163,0,316.3632,0.0,-1331.45,0
GRID,20164,0,314.8971,0.0,-1333.68,0
GRID,20165,0,313.4107,0.0,-1335.91,0
GRID,20166,0,311.9041,0.0,-1338.12,0
GRID,20167,0,310.3776,0.0,-1340.31,0
GRID,20168,0,308.8312,0.0,-1342.49,0
GRID,20169,0,307.265,0.0,-1344.66,0
GRID,20170,0,305.6792,0.0,-1346.81,0
GRID,20171,0,304.0739,0.0,-1348.95,0
GRID,20172,0,302.4493,0.0,-1351.08,0
GRID,20173,0,300.8054,0.0,-1353.19,0
GRID,20174,0,299.1424,0.0,-1355.28,0
GRID,20175,0,297.4605,0.0,-1357.36,0
GRID,20176,0,295.7597,0.0,-1359.43,0
GRID,20177,0,294.0404,0.0,-1361.48,0
GRID,20178,0,292.3025,0.0,-1363.51,0
GRID,20179,0,290.5462,0.0,-1365.53,0
GRID,20180,0,288.7716,0.0,-1367.53,0
GRID,20181,0,286.979,0.0,-1369.52,0
GRID,20182,0,285.1685,0.0,-1371.49,0
GRID,20183,0,283.3402,0.0,-1373.45,0
GRID,20184,0,281.49,0.0,-1375.39,0
GRID,20185,0,279.6258,0.0,-1377.32,0
GRID,20186,0,277.7478,0.0,-1379.24,0
GRID,20187,0,275.8561,0.0,-1381.15,0
GRID,20188,0,273.9958,0.0,-1383.01,0
GRID,20189,0,272.1354,0.0,-1384.87,0
GRID,20190,0,270.2751,0.0,-1386.73,0
GRID,20191,0,268.4147,0.0,-1388.59,0
GRID,20192,0,266.5544,0.0,-1390.45,0
GRID,20193,0,264.6941,0.0,-1392.31,0
GRID,20194,0,262.8337,0.0,-1394.17,0
GRID,20195,0,260.9734,0.0,-1396.03,0
GRID,20196,0,259.113,0.0,-1397.89,0
GRID,20197,0,257.2018,0.0,-1399.79,0
GRID,20198,0,255.2779,0.0,-1401.67,0
GRID,20199,0,253.3415,0.0,-1403.55,0
GRID,20200,0,251.3926,0.0,-1405.41,0
GRID,20201,0,249.4315,0.0,-1407.25,0
GRID,20202,0,247.4581,0.0,-1409.08,0
GRID,20203,0,245.4726,0.0,-1410.9,0
GRID,20204,0,243.4751,0.0,-1412.71,0
GRID,20205,0,241.4657,0.0,-1414.5,0
GRID,20206,0,239.4446,0.0,-1416.27,0
GRID,20207,0,237.4119,0.0,-1418.04,0
GRID,20208,0,235.3677,0.0,-1419.79,0
GRID,20209,0,233.3123,0.0,-1421.52,0
GRID,20210,0,231.2456,0.0,-1423.24,0
GRID,20211,0,229.1679,0.0,-1424.95,0
GRID,20212,0,227.0794,0.0,-1426.64,0
GRID,20213,0,224.98,0.0,-1428.32,0
GRID,20214,0,222.87,0.0,-1429.98,0
GRID,20215,0,220.7496,0.0,-1431.63,0
GRID,20216,0,218.6187,0.0,-1433.26,0
GRID,20217,0,216.4777,0.0,-1434.88,0
GRID,20218,0,214.3266,0.0,-1436.48,0
GRID,20219,0,212.1656,0.0,-1438.06,0
GRID,20220,0,209.9948,0.0,-1439.64,0
GRID,20221,0,207.8144,0.0,-1441.19,0
GRID,20222,0,205.6246,0.0,-1442.73,0
GRID,20223,0,203.4253,0.0,-1444.26,0
GRID,20224,0,201.2169,0.0,-1445.77,0
GRID,20225,0,198.9995,0.0,-1447.26,0
GRID,20226,0,196.7731,0.0,-1448.74,0
GRID,20227,0,194.5381,0.0,-1450.2,0
GRID,20228,0,192.2944,0.0,-1451.65,0
GRID,20229,0,190.0423,0.0,-1453.08,0
GRID,20230,0,187.782,0.0,-1454.49,0
GRID,20231,0,185.5135,0.0,-1455.89,0
GRID,20232,0,183.237,0.0,-1457.27,0
GRID,20233,0,180.9527,0.0,-1458.63,0
GRID,20234,0,178.6608,0.0,-1459.98,0
GRID,20235,0,176.3613,0.0,-1461.31,0
GRID,20236,0,174.0545,0.0,-1462.63,0
GRID,20237,0,171.7406,0.0,-1463.92,0
GRID,20238,0,169.4195,0.0,-1465.2,0
GRID,20239,0,167.0917,0.0,-1466.47,0
GRID,20240,0,164.7571,0.0,-1467.72,0
GRID,20241,0,162.4159,0.0,-1468.95,0
GRID,20242,0,160.0684,0.0,-1470.16,0
GRID,20243,0,157.7146,0.0,-1471.36,0
GRID,20244,0,155.3548,0.0,-1472.54,0
GRID,20245,0,152.989,0.0,-1473.7,0
GRID,20246,0,150.6123,0.0,-1474.84,0
GRID,20247,0,148.2228,0.0,-1475.96,0
GRID,20248,0,145.821,0.0,-1477.05,0
GRID,20249,0,143.4069,0.0,-1478.12,0
GRID,20250,0,140.981,0.0,-1479.16,0
GRID,20251,0,138.5434,0.0,-1480.18,0
GRID,20252,0,136.0943,0.0,-1481.17,0
GRID,20253,0,133.6341,0.0,-1482.14,0
GRID,20254,0,131.163,0.0,-1483.08,0
GRID,20255,0,128.6812,0.0,-1484.0,0
GRID,20256,0,126.1892,0.0,-1484.89,0
GRID,20257,0,123.6871,0.0,-1485.75,0
GRID,20258,0,121.1752,0.0,-1486.59,0
GRID,20259,0,118.6539,0.0,-1487.4,0
GRID,20260,0,116.1233,0.0,-1488.19,0
GRID,20261,0,113.5838,0.0,-1488.95,0
GRID,20262,0,111.0357,0.0,-1489.68,0
GRID,20263,0,108.4792,0.0,-1490.38,0
GRID,20264,0,105.9146,0.0,-1491.06,0
GRID,20265,0,103.3422,0.0,-1491.72,0
GRID,20266,0,100.7624,0.0,-1492.34,0
GRID,20267,0,98.17529,0.0,-1492.94,0
GRID,20268,0,95.58129,0.0,-1493.51,0
GRID,20269,0,92.98067,0.0,-1494.05,0
GRID,20270,0,90.37371,0.0,-1494.57,0
GRID,20271,0,87.7607,0.0,-1495.06,0
GRID,20272,0,85.14194,0.0,-1495.52,0
GRID,20273,0,82.51772,0.0,-1495.96,0
GRID,20274,0,79.88835,0.0,-1496.36,0
GRID,20275,0,77.25411,0.0,-1496.74,0
GRID,20276,0,74.61532,0.0,-1497.09,0
GRID,20277,0,71.97225,0.0,-1497.42,0
GRID,20278,0,69.32522,0.0,-1497.71,0
GRID,20279,0,66.67452,0.0,-1497.98,0
GRID,20280,0,64.02045,0.0,-1498.22,0
GRID,20281,0,61.36331,0.0,-1498.43,0
GRID,20282,0,58.7034,0.0,-1498.62,0
GRID,20283,0,56.04103,0.0,-1498.77,0
GRID,20284,0,53.3765,0.0,-1498.9,0
GRID,20285,0,50.71011,0.0,-1499.0,0
GRID,20286,0,48.04217,0.0,-1499.07,0
GRID,20287,0,45.37297,0.0,-1499.12,0
GRID,20288,0,42.70282,0.0,-1499.13,0
GRID,20289,0,40.03203,0.0,-1499.12,0
GRID,20290,0,37.3609,0.0,-1499.08,0
GRID,20291,0,34.68973,0.0,-1499.01,0
GRID,20292,0,32.01883,0.0,-1498.92,0
GRID,20293,0,29.3485,0.0,-1498.79,0
GRID,20294,0,26.67906,0.0,-1498.64,0
GRID,20295,0,24.01079,0.0,-1498.46,0
GRID,20296,0,21.34403,0.0,-1498.25,0
GRID,20297,0,18.67907,0.0,-1498.01,0
GRID,20298,0,16.01621,0.0,-1497.74,0
GRID,20299,0,13.35575,0.0,-1497.45,0
GRID,20300,0,10.698,0.0,-1497.13,0
GRID,20301,0,8.043244,0.0,-1496.78,0
GRID,20302,0,5.391793,0.0,-1496.4,0
GRID,20303,0,2.743945,0.0,-1496.0,0
GRID,20304,0,366.6617,0.0,-1052.72,0
GRID,20305,0,366.6617,0.0,-1055.43,0
GRID,20306,0,366.6617,0.0,-1058.15,0
GRID,20307,0,366.6617,0.0,-1060.86,0
GRID,20308,0,366.6617,0.0,-1063.58,0
GRID,20309,0,366.6617,0.0,-1066.29,0
GRID,20310,0,366.6617,0.0,-1069.01,0
GRID,20311,0,366.659,0.0,-1071.67,0
GRID,20312,0,366.6512,0.0,-1074.33,0
GRID,20313,0,366.6382,0.0,-1076.98,0
GRID,20314,0,366.6202,0.0,-1079.64,0
GRID,20315,0,366.597,0.0,-1082.3,0
GRID,20316,0,366.5687,0.0,-1084.96,0
GRID,20317,0,366.5352,0.0,-1087.61,0
GRID,20318,0,366.4966,0.0,-1090.27,0
GRID,20319,0,366.4529,0.0,-1092.93,0
GRID,20320,0,366.404,0.0,-1095.58,0
GRID,20321,0,366.35,0.0,-1098.24,0
GRID,20322,0,366.2909,0.0,-1100.89,0
GRID,20323,0,366.2266,0.0,-1103.55,0
GRID,20324,0,366.1571,0.0,-1106.2,0
GRID,20325,0,366.0825,0.0,-1108.86,0
GRID,20326,0,366.0028,0.0,-1111.51,0
GRID,20327,0,365.9179,0.0,-1114.17,0
GRID,20328,0,365.8279,0.0,-1116.82,0
GRID,20329,0,365.7329,0.0,-1119.47,0
GRID,20330,0,365.6327,0.0,-1122.12,0
GRID,20331,0,365.5273,0.0,-1124.77,0
GRID,20332,0,365.4169,0.0,-1127.42,0
GRID,20333,0,365.3014,0.0,-1130.07,0
GRID,20334,0,365.1808,0.0,-1132.72,0
GRID,20335,0,365.0551,0.0,-1135.37,0
GRID,20336,0,364.9243,0.0,-1138.02,0
GRID,20337,0,364.7885,0.0,-1140.66,0
GRID,20338,0,364.6475,0.0,-1143.31,0
GRID,20339,0,364.5015,0.0,-1145.95,0
GRID,20340,0,364.3504,0.0,-1148.6,0
GRID,20341,0,364.1943,0.0,-1151.24,0
GRID,20342,0,364.0331,0.0,-1153.88,0
GRID,20343,0,363.8669,0.0,-1156.52,0
GRID,20344,0,363.6956,0.0,-1159.16,0
GRID,20345,0,363.5193,0.0,-1161.8,0
GRID,20346,0,363.338,0.0,-1164.43,0
GRID,20347,0,363.1517,0.0,-1167.07,0
GRID,20348,0,362.9604,0.0,-1169.7,0
GRID,20349,0,362.764,0.0,-1172.34,0
GRID,20350,0,362.5627,0.0,-1174.97,0
GRID,20351,0,362.3564,0.0,-1177.6,0
GRID,20352,0,362.1451,0.0,-1180.23,0
GRID,20353,0,361.9289,0.0,-1182.86,0
GRID,20354,0,361.7077,0.0,-1185.48,0
GRID,20355,0,361.4815,0.0,-1188.11,0
GRID,20356,0,361.2505,0.0,-1190.73,0
GRID,20357,0,361.0144,0.0,-1193.36,0
GRID,20358,0,360.7735,0.0,-1195.98,0
GRID,20359,0,360.5181,0.0,-1198.6,0
GRID,20360,0,360.2391,0.0,-1201.22,0
GRID,20361,0,359.9366,0.0,-1203.84,0
GRID,20362,0,359.6106,0.0,-1206.45,0
GRID,20363,0,359.261,0.0,-1209.07,0
GRID,20364,0,358.8879,0.0,-1211.68,0
GRID,20365,0,358.4912,0.0,-1214.29,0
GRID,20366,0,358.071,0.0,-1216.89,0
GRID,20367,0,357.6272,0.0,-1219.5,0
GRID,20368,0,357.16,0.0,-1222.09,0
GRID,20369,0,356.6693,0.0,-1224.69,0
GRID,20370,0,356.1552,0.0,-1227.28,0
GRID,20371,0,355.6177,0.0,-1229.87,0
GRID,20372,0,355.0569,0.0,-1232.45,0
GRID,20373,0,354.4728,0.0,-1235.02,0
GRID,20374,0,353.8654,0.0,-1237.6,0
GRID,20375,0,353.2349,0.0,-1240.16,0
GRID,20376,0,352.5811,0.0,-1242.73,0
GRID,20377,0,351.9043,0.0,-1245.28,0
GRID,20378,0,351.2043,0.0,-1247.83,0
GRID,20379,0,350.4813,0.0,-1250.38,0
GRID,20380,0,349.7354,0.0,-1252.92,0
GRID,20381,0,348.9665,0.0,-1255.45,0
GRID,20382,0,348.1748,0.0,-1257.98,0
GRID,20383,0,347.3603,0.0,-1260.5,0
GRID,20384,0,346.523,0.0,-1263.01,0
GRID,20385,0,345.6631,0.0,-1265.51,0
GRID,20386,0,344.7805,0.0,-1268.01,0
GRID,20387,0,343.8754,0.0,-1270.5,0
GRID,20388,0,342.9479,0.0,-1272.98,0
GRID,20389,0,341.9979,0.0,-1275.46,0
GRID,20390,0,341.0256,0.0,-1277.92,0
GRID,20391,0,340.0311,0.0,-1280.38,0
GRID,20392,0,339.0143,0.0,-1282.83,0
GRID,20393,0,337.9755,0.0,-1285.27,0
GRID,20394,0,336.9146,0.0,-1287.7,0
GRID,20395,0,335.8318,0.0,-1290.12,0
GRID,20396,0,334.7272,0.0,-1292.53,0
GRID,20397,0,333.6007,0.0,-1294.93,0
GRID,20398,0,332.4527,0.0,-1297.33,0
GRID,20399,0,331.283,0.0,-1299.71,0
GRID,20400,0,330.0918,0.0,-1302.08,0
GRID,20401,0,328.8793,0.0,-1304.44,0
GRID,20402,0,327.6454,0.0,-1306.79,0
GRID,20403,0,326.3904,0.0,-1309.13,0
GRID,20404,0,325.1142,0.0,-1311.46,0
GRID,20405,0,323.817,0.0,-1313.78,0
GRID,20406,0,322.499,0.0,-1316.08,0
GRID,20407,0,321.1601,0.0,-1318.38,0
GRID,20408,0,319.8006,0.0,-1320.66,0
GRID,20409,0,318.4205,0.0,-1322.93,0
GRID,20410,0,317.02,0.0,-1325.19,0
GRID,20411,0,315.599,0.0,-1327.43,0
GRID,20412,0,314.1579,0.0,-1329.66,0
GRID,20413,0,312.6966,0.0,-1331.88,0
GRID,20414,0,311.2154,0.0,-1334.09,0
GRID,20415,0,309.7143,0.0,-1336.29,0
GRID,20416,0,308.1934,0.0,-1338.47,0
GRID,20417,0,306.6529,0.0,-1340.63,0
GRID,20418,0,305.0929,0.0,-1342.79,0
GRID,20419,0,303.5135,0.0,-1344.92,0
GRID,20420,0,301.9148,0.0,-1347.05,0
GRID,20421,0,300.297,0.0,-1349.16,0
GRID,20422,0,298.6603,0.0,-1351.26,0
GRID,20423,0,297.0046,0.0,-1353.34,0
GRID,20424,0,295.3303,0.0,-1355.4,0
GRID,20425,0,293.6374,0.0,-1357.45,0
GRID,20426,0,291.9261,0.0,-1359.49,0
GRID,20427,0,290.1965,0.0,-1361.51,0
GRID,20428,0,288.4487,0.0,-1363.52,0
GRID,20429,0,286.6829,0.0,-1365.51,0
GRID,20430,0,284.8993,0.0,-1367.48,0
GRID,20431,0,283.0979,0.0,-1369.44,0
GRID,20432,0,281.279,0.0,-1371.38,0
GRID,20433,0,279.4382,0.0,-1373.31,0
GRID,20434,0,277.5838,0.0,-1375.24,0
GRID,20435,0,275.7159,0.0,-1377.14,0
GRID,20436,0,273.8347,0.0,-1379.04,0
GRID,20437,0,271.9841,0.0,-1380.89,0
GRID,20438,0,270.1334,0.0,-1382.74,0
GRID,20439,0,268.2827,0.0,-1384.59,0
GRID,20440,0,266.4321,0.0,-1386.44,0
GRID,20441,0,264.5814,0.0,-1388.29,0
GRID,20442,0,262.7307,0.0,-1390.14,0
GRID,20443,0,260.8801,0.0,-1391.99,0
GRID,20444,0,259.0294,0.0,-1393.84,0
GRID,20445,0,257.1787,0.0,-1395.69,0
GRID,20446,0,255.2785,0.0,-1397.58,0
GRID,20447,0,253.366,0.0,-1399.46,0
GRID,20448,0,251.4413,0.0,-1401.32,0
GRID,20449,0,249.5044,0.0,-1403.17,0
GRID,20450,0,247.5555,0.0,-1405.0,0
GRID,20451,0,245.5948,0.0,-1406.83,0
GRID,20452,0,243.6222,0.0,-1408.64,0
GRID,20453,0,241.638,0.0,-1410.43,0
GRID,20454,0,239.6423,0.0,-1412.22,0
GRID,20455,0,237.6351,0.0,-1413.99,0
GRID,20456,0,235.6166,0.0,-1415.74,0
GRID,20457,0,233.5869,0.0,-1417.48,0
GRID,20458,0,231.5463,0.0,-1419.21,0
GRID,20459,0,229.4947,0.0,-1420.93,0
GRID,20460,0,227.4325,0.0,-1422.63,0
GRID,20461,0,225.3596,0.0,-1424.31,0
GRID,20462,0,223.2762,0.0,-1425.99,0
GRID,20463,0,221.1824,0.0,-1427.64,0
GRID,20464,0,219.0785,0.0,-1429.29,0
GRID,20465,0,216.9645,0.0,-1430.92,0
GRID,20466,0,214.8405,0.0,-1432.53,0
GRID,20467,0,212.7067,0.0,-1434.13,0
GRID,20468,0,210.5633,0.0,-1435.71,0
GRID,20469,0,208.4104,0.0,-1437.28,0
GRID,20470,0,206.2481,0.0,-1438.84,0
GRID,20471,0,204.0765,0.0,-1440.38,0
GRID,20472,0,201.8959,0.0,-1441.9,0
GRID,20473,0,199.7063,0.0,-1443.41,0
GRID,20474,0,197.508,0.0,-1444.9,0
GRID,20475,0,195.3009,0.0,-1446.38,0
GRID,20476,0,193.0854,0.0,-1447.84,0
GRID,20477,0,190.8615,0.0,-1449.29,0
GRID,20478,0,188.6294,0.0,-1450.72,0
GRID,20479,0,186.3892,0.0,-1452.14,0
GRID,20480,0,184.1412,0.0,-1453.54,0
GRID,20481,0,181.8853,0.0,-1454.92,0
GRID,20482,0,179.6219,0.0,-1456.29,0
GRID,20483,0,177.351,0.0,-1457.64,0
GRID,20484,0,175.0727,0.0,-1458.98,0
GRID,20485,0,172.7874,0.0,-1460.3,0
GRID,20486,0,170.495,0.0,-1461.6,0
GRID,20487,0,168.1958,0.0,-1462.89,0
GRID,20488,0,165.8899,0.0,-1464.16,0
GRID,20489,0,163.5775,0.0,-1465.41,0
GRID,20490,0,161.2586,0.0,-1466.65,0
GRID,20491,0,158.9336,0.0,-1467.87,0
GRID,20492,0,156.6025,0.0,-1469.07,0
GRID,20493,0,154.2655,0.0,-1470.26,0
GRID,20494,0,151.9227,0.0,-1471.43,0
GRID,20495,0,149.5688,0.0,-1472.58,0
GRID,20496,0,147.2021,0.0,-1473.71,0
GRID,20497,0,144.8228,0.0,-1474.81,0
GRID,20498,0,142.4311,0.0,-1475.89,0
GRID,20499,0,140.0273,0.0,-1476.94,0
GRID,20500,0,137.6117,0.0,-1477.97,0
GRID,20501,0,135.1845,0.0,-1478.97,0
GRID,20502,0,132.7459,0.0,-1479.95,0
GRID,20503,0,130.2962,0.0,-1480.9,0
GRID,20504,0,127.8358,0.0,-1481.83,0
GRID,20505,0,125.3649,0.0,-1482.73,0
GRID,20506,0,122.8837,0.0,-1483.6,0
GRID,20507,0,120.3926,0.0,-1484.45,0
GRID,20508,0,117.8918,0.0,-1485.27,0
GRID,20509,0,115.3817,0.0,-1486.07,0
GRID,20510,0,112.8624,0.0,-1486.84,0
GRID,20511,0,110.3344,0.0,-1487.58,0
GRID,20512,0,107.7978,0.0,-1488.3,0
GRID,20513,0,105.2529,0.0,-1488.99,0
GRID,20514,0,102.7001,0.0,-1489.65,0
GRID,20515,0,100.1396,0.0,-1490.28,0
GRID,20516,0,97.57177,0.0,-1490.89,0
GRID,20517,0,94.99683,0.0,-1491.48,0
GRID,20518,0,92.41509,0.0,-1492.03,0
GRID,20519,0,89.82685,0.0,-1492.56,0
GRID,20520,0,87.2324,0.0,-1493.06,0
GRID,20521,0,84.63203,0.0,-1493.53,0
GRID,20522,0,82.02604,0.0,-1493.98,0
GRID,20523,0,79.41473,0.0,-1494.4,0
GRID,20524,0,76.7984,0.0,-1494.79,0
GRID,20525,0,74.17736,0.0,-1495.15,0
GRID,20526,0,71.55188,0.0,-1495.48,0
GRID,20527,0,68.92229,0.0,-1495.79,0
GRID,20528,0,66.28886,0.0,-1496.07,0
GRID,20529,0,63.65191,0.0,-1496.32,0
GRID,20530,0,61.01175,0.0,-1496.55,0
GRID,20531,0,58.36866,0.0,-1496.74,0
GRID,20532,0,55.72296,0.0,-1496.91,0
GRID,20533,0,53.07495,0.0,-1497.05,0
GRID,20534,0,50.42494,0.0,-1497.16,0
GRID,20535,0,47.77322,0.0,-1497.25,0
GRID,20536,0,45.12011,0.0,-1497.3,0
GRID,20537,0,42.4659,0.0,-1497.33,0
GRID,20538,0,39.81091,0.0,-1497.33,0
GRID,20539,0,37.15544,0.0,-1497.3,0
GRID,20540,0,34.49979,0.0,-1497.25,0
GRID,20541,0,31.84427,0.0,-1497.16,0
GRID,20542,0,29.1892,0.0,-1497.05,0
GRID,20543,0,26.53487,0.0,-1496.91,0
GRID,20544,0,23.88159,0.0,-1496.74,0
GRID,20545,0,21.22968,0.0,-1496.54,0
GRID,20546,0,18.57945,0.0,-1496.32,0
GRID,20547,0,15.93118,0.0,-1496.06,0
GRID,20548,0,13.2852,0.0,-1495.78,0
GRID,20549,0,10.64179,0.0,-1495.47,0
GRID,20550,0,8.00127,0.0,-1495.13,0
GRID,20551,0,5.363928,0.0,-1494.77,0
GRID,20552,0,2.73007,0.0,-1494.37,0
GRID,20553,0,364.86,0.0,-1052.7,0
GRID,20554,0,364.86,0.0,-1055.41,0
GRID,20555,0,364.86,0.0,-1058.11,0
GRID,20556,0,364.86,0.0,-1060.81,0
GRID,20557,0,364.86,0.0,-1063.51,0
GRID,20558,0,364.86,0.0,-1066.22,0
GRID,20559,0,364.86,0.0,-1068.92,0
GRID,20560,0,364.8572,0.0,-1071.56,0
GRID,20561,0,364.849,0.0,-1074.2,0
GRID,20562,0,364.8356,0.0,-1076.85,0
GRID,20563,0,364.8167,0.0,-1079.49,0
GRID,20564,0,364.7925,0.0,-1082.13,0
GRID,20565,0,364.763,0.0,-1084.77,0
GRID,20566,0,364.7281,0.0,-1087.41,0
GRID,20567,0,364.6878,0.0,-1090.06,0
GRID,20568,0,364.6422,0.0,-1092.7,0
GRID,20569,0,364.5912,0.0,-1095.34,0
GRID,20570,0,364.5348,0.0,-1097.98,0
GRID,20571,0,364.4731,0.0,-1100.62,0
GRID,20572,0,364.406,0.0,-1103.26,0
GRID,20573,0,364.3335,0.0,-1105.9,0
GRID,20574,0,364.2557,0.0,-1108.54,0
GRID,20575,0,364.1725,0.0,-1111.17,0
GRID,20576,0,364.0839,0.0,-1113.81,0
GRID,20577,0,363.99,0.0,-1116.45,0
GRID,20578,0,363.8908,0.0,-1119.09,0
GRID,20579,0,363.7862,0.0,-1121.72,0
GRID,20580,0,363.6764,0.0,-1124.36,0
GRID,20581,0,363.5611,0.0,-1126.99,0
GRID,20582,0,363.4406,0.0,-1129.62,0
GRID,20583,0,363.3148,0.0,-1132.26,0
GRID,20584,0,363.1836,0.0,-1134.89,0
GRID,20585,0,363.0471,0.0,-1137.52,0
GRID,20586,0,362.9053,0.0,-1140.15,0
GRID,20587,0,362.7583,0.0,-1142.78,0
GRID,20588,0,362.6059,0.0,-1145.41,0
GRID,20589,0,362.4483,0.0,-1148.04,0
GRID,20590,0,362.2853,0.0,-1150.66,0
GRID,20591,0,362.1171,0.0,-1153.29,0
GRID,20592,0,361.9437,0.0,-1155.91,0
GRID,20593,0,361.765,0.0,-1158.54,0
GRID,20594,0,361.581,0.0,-1161.16,0
GRID,20595,0,361.3918,0.0,-1163.78,0
GRID,20596,0,361.1974,0.0,-1166.4,0
GRID,20597,0,360.9978,0.0,-1169.02,0
GRID,20598,0,360.7929,0.0,-1171.63,0
GRID,20599,0,360.5828,0.0,-1174.25,0
GRID,20600,0,360.3676,0.0,-1176.86,0
GRID,20601,0,360.1471,0.0,-1179.47,0
GRID,20602,0,359.9215,0.0,-1182.09,0
GRID,20603,0,359.6906,0.0,-1184.7,0
GRID,20604,0,359.4547,0.0,-1187.3,0
GRID,20605,0,359.2135,0.0,-1189.91,0
GRID,20606,0,358.9672,0.0,-1192.52,0
GRID,20607,0,358.7158,0.0,-1195.12,0
GRID,20608,0,358.45,0.0,-1197.73,0
GRID,20609,0,358.1609,0.0,-1200.33,0
GRID,20610,0,357.8485,0.0,-1202.93,0
GRID,20611,0,357.5129,0.0,-1205.53,0
GRID,20612,0,357.1541,0.0,-1208.13,0
GRID,20613,0,356.772,0.0,-1210.72,0
GRID,20614,0,356.3667,0.0,-1213.31,0
GRID,20615,0,355.9381,0.0,-1215.9,0
GRID,20616,0,355.4862,0.0,-1218.48,0
GRID,20617,0,355.0112,0.0,-1221.06,0
GRID,20618,0,354.513,0.0,-1223.64,0
GRID,20619,0,353.9917,0.0,-1226.21,0
GRID,20620,0,353.4473,0.0,-1228.78,0
GRID,20621,0,352.8799,0.0,-1231.35,0
GRID,20622,0,352.2895,0.0,-1233.91,0
GRID,20623,0,351.6762,0.0,-1236.46,0
GRID,20624,0,351.0399,0.0,-1239.01,0
GRID,20625,0,350.3807,0.0,-1241.55,0
GRID,20626,0,349.6987,0.0,-1244.09,0
GRID,20627,0,348.9939,0.0,-1246.63,0
GRID,20628,0,348.2664,0.0,-1249.15,0
GRID,20629,0,347.5162,0.0,-1251.68,0
GRID,20630,0,346.7434,0.0,-1254.19,0
GRID,20631,0,345.948,0.0,-1256.7,0
GRID,20632,0,345.1301,0.0,-1259.2,0
GRID,20633,0,344.2897,0.0,-1261.69,0
GRID,20634,0,343.427,0.0,-1264.18,0
GRID,20635,0,342.542,0.0,-1266.66,0
GRID,20636,0,341.6346,0.0,-1269.13,0
GRID,20637,0,340.7051,0.0,-1271.6,0
GRID,20638,0,339.7535,0.0,-1274.05,0
GRID,20639,0,338.7799,0.0,-1276.5,0
GRID,20640,0,337.7843,0.0,-1278.94,0
GRID,20641,0,336.7667,0.0,-1281.37,0
GRID,20642,0,335.7274,0.0,-1283.8,0
GRID,20643,0,334.6663,0.0,-1286.21,0
GRID,20644,0,333.5836,0.0,-1288.61,0
GRID,20645,0,332.4792,0.0,-1291.01,0
GRID,20646,0,331.3535,0.0,-1293.39,0
GRID,20647,0,330.2063,0.0,-1295.77,0
GRID,20648,0,329.0378,0.0,-1298.13,0
GRID,20649,0,327.8481,0.0,-1300.49,0
GRID,20650,0,326.6373,0.0,-1302.83,0
GRID,20651,0,325.4054,0.0,-1305.17,0
GRID,20652,0,324.1526,0.0,-1307.49,0
GRID,20653,0,322.879,0.0,-1309.8,0
GRID,20654,0,321.5846,0.0,-1312.1,0
GRID,20655,0,320.2697,0.0,-1314.39,0
GRID,20656,0,318.9341,0.0,-1316.67,0
GRID,20657,0,317.5782,0.0,-1318.94,0
GRID,20658,0,316.202,0.0,-1321.19,0
GRID,20659,0,314.8056,0.0,-1323.43,0
GRID,20660,0,313.3891,0.0,-1325.66,0
GRID,20661,0,311.9526,0.0,-1327.88,0
GRID,20662,0,310.4962,0.0,-1330.09,0
GRID,20663,0,309.0201,0.0,-1332.28,0
GRID,20664,0,307.5244,0.0,-1334.46,0
GRID,20665,0,306.0092,0.0,-1336.62,0
GRID,20666,0,304.4746,0.0,-1338.77,0
GRID,20667,0,302.9207,0.0,-1340.91,0
GRID,20668,0,301.3477,0.0,-1343.03,0
GRID,20669,0,299.7557,0.0,-1345.14,0
GRID,20670,0,298.1448,0.0,-1347.24,0
GRID,20671,0,296.5152,0.0,-1349.32,0
GRID,20672,0,294.8669,0.0,-1351.39,0
GRID,20673,0,293.2002,0.0,-1353.44,0
GRID,20674,0,291.5151,0.0,-1355.48,0
GRID,20675,0,289.8118,0.0,-1357.5,0
GRID,20676,0,288.0905,0.0,-1359.51,0
GRID,20677,0,286.3513,0.0,-1361.5,0
GRID,20678,0,284.5942,0.0,-1363.48,0
GRID,20679,0,282.8195,0.0,-1365.44,0
GRID,20680,0,281.0273,0.0,-1367.39,0
GRID,20681,0,279.2178,0.0,-1369.32,0
GRID,20682,0,277.3864,0.0,-1371.24,0
GRID,20683,0,275.5418,0.0,-1373.15,0
GRID,20684,0,273.684,0.0,-1375.04,0
GRID,20685,0,271.8134,0.0,-1376.93,0
GRID,20686,0,269.9724,0.0,-1378.77,0
GRID,20687,0,268.1314,0.0,-1380.61,0
GRID,20688,0,266.2904,0.0,-1382.45,0
GRID,20689,0,264.4494,0.0,-1384.29,0
GRID,20690,0,262.6084,0.0,-1386.13,0
GRID,20691,0,260.7674,0.0,-1387.97,0
GRID,20692,0,258.9264,0.0,-1389.81,0
GRID,20693,0,257.0854,0.0,-1391.66,0
GRID,20694,0,255.2444,0.0,-1393.5,0
GRID,20695,0,253.3553,0.0,-1395.37,0
GRID,20696,0,251.4541,0.0,-1397.24,0
GRID,20697,0,249.541,0.0,-1399.09,0
GRID,20698,0,247.6161,0.0,-1400.93,0
GRID,20699,0,245.6796,0.0,-1402.76,0
GRID,20700,0,243.7315,0.0,-1404.57,0
GRID,20701,0,241.7719,0.0,-1406.37,0
GRID,20702,0,239.801,0.0,-1408.16,0
GRID,20703,0,237.8188,0.0,-1409.94,0
GRID,20704,0,235.8255,0.0,-1411.7,0
GRID,20705,0,233.8213,0.0,-1413.45,0
GRID,20706,0,231.8061,0.0,-1415.18,0
GRID,20707,0,229.7803,0.0,-1416.9,0
GRID,20708,0,227.7439,0.0,-1418.61,0
GRID,20709,0,225.697,0.0,-1420.31,0
GRID,20710,0,223.6398,0.0,-1421.99,0
GRID,20711,0,221.5723,0.0,-1423.66,0
GRID,20712,0,219.4948,0.0,-1425.31,0
GRID,20713,0,217.4074,0.0,-1426.95,0
GRID,20714,0,215.3102,0.0,-1428.57,0
GRID,20715,0,213.2033,0.0,-1430.18,0
GRID,20716,0,211.0868,0.0,-1431.78,0
GRID,20717,0,208.961,0.0,-1433.36,0
GRID,20718,0,206.8259,0.0,-1434.93,0
GRID,20719,0,204.6817,0.0,-1436.48,0
GRID,20720,0,202.5285,0.0,-1438.02,0
GRID,20721,0,200.3665,0.0,-1439.54,0
GRID,20722,0,198.1957,0.0,-1441.05,0
GRID,20723,0,196.0164,0.0,-1442.55,0
GRID,20724,0,193.8287,0.0,-1444.02,0
GRID,20725,0,191.6327,0.0,-1445.49,0
GRID,20726,0,189.4286,0.0,-1446.94,0
GRID,20727,0,187.2165,0.0,-1448.37,0
GRID,20728,0,184.9965,0.0,-1449.79,0
GRID,20729,0,182.7689,0.0,-1451.19,0
GRID,20730,0,180.5336,0.0,-1452.58,0
GRID,20731,0,178.291,0.0,-1453.95,0
GRID,20732,0,176.0411,0.0,-1455.3,0
GRID,20733,0,173.7842,0.0,-1456.64,0
GRID,20734,0,171.5202,0.0,-1457.97,0
GRID,20735,0,169.2495,0.0,-1459.27,0
GRID,20736,0,166.972,0.0,-1460.57,0
GRID,20737,0,164.6881,0.0,-1461.84,0
GRID,20738,0,162.3978,0.0,-1463.1,0
GRID,20739,0,160.1013,0.0,-1464.35,0
GRID,20740,0,157.7988,0.0,-1465.58,0
GRID,20741,0,155.4903,0.0,-1466.79,0
GRID,20742,0,153.1762,0.0,-1467.98,0
GRID,20743,0,150.8564,0.0,-1469.16,0
GRID,20744,0,148.5254,0.0,-1470.32,0
GRID,20745,0,146.1813,0.0,-1471.46,0
GRID,20746,0,143.8246,0.0,-1472.57,0
GRID,20747,0,141.4552,0.0,-1473.66,0
GRID,20748,0,139.0736,0.0,-1474.72,0
GRID,20749,0,136.68,0.0,-1475.76,0
GRID,20750,0,134.2746,0.0,-1476.77,0
GRID,20751,0,131.8577,0.0,-1477.76,0
GRID,20752,0,129.4295,0.0,-1478.72,0
GRID,20753,0,126.9904,0.0,-1479.66,0
GRID,20754,0,124.5405,0.0,-1480.57,0
GRID,20755,0,122.0803,0.0,-1481.45,0
GRID,20756,0,119.61,0.0,-1482.31,0
GRID,20757,0,117.1298,0.0,-1483.14,0
GRID,20758,0,114.6401,0.0,-1483.95,0
GRID,20759,0,112.1411,0.0,-1484.73,0
GRID,20760,0,109.6331,0.0,-1485.48,0
GRID,20761,0,107.1164,0.0,-1486.21,0
GRID,20762,0,104.5912,0.0,-1486.91,0
GRID,20763,0,102.058,0.0,-1487.58,0
GRID,20764,0,99.51689,0.0,-1488.23,0
GRID,20765,0,96.96825,0.0,-1488.85,0
GRID,20766,0,94.41237,0.0,-1489.44,0
GRID,20767,0,91.84951,0.0,-1490.01,0
GRID,20768,0,89.27999,0.0,-1490.55,0
GRID,20769,0,86.70409,0.0,-1491.06,0
GRID,20770,0,84.12211,0.0,-1491.54,0
GRID,20771,0,81.53435,0.0,-1492.0,0
GRID,20772,0,78.94111,0.0,-1492.43,0
GRID,20773,0,76.3427,0.0,-1492.83,0
GRID,20774,0,73.73939,0.0,-1493.21,0
GRID,20775,0,71.13151,0.0,-1493.55,0
GRID,20776,0,68.51935,0.0,-1493.87,0
GRID,20777,0,65.9032,0.0,-1494.16,0
GRID,20778,0,63.28338,0.0,-1494.43,0
GRID,20779,0,60.66018,0.0,-1494.66,0
GRID,20780,0,58.03392,0.0,-1494.87,0
GRID,20781,0,55.40489,0.0,-1495.05,0
GRID,20782,0,52.7734,0.0,-1495.2,0
GRID,20783,0,50.13976,0.0,-1495.33,0
GRID,20784,0,47.50428,0.0,-1495.42,0
GRID,20785,0,44.86725,0.0,-1495.49,0
GRID,20786,0,42.22898,0.0,-1495.53,0
GRID,20787,0,39.58979,0.0,-1495.54,0
GRID,20788,0,36.94998,0.0,-1495.53,0
GRID,20789,0,34.30985,0.0,-1495.48,0
GRID,20790,0,31.66972,0.0,-1495.41,0
GRID,20791,0,29.02989,0.0,-1495.31,0
GRID,20792,0,26.39068,0.0,-1495.18,0
GRID,20793,0,23.75239,0.0,-1495.02,0
GRID,20794,0,21.11533,0.0,-1494.84,0
GRID,20795,0,18.47982,0.0,-1494.62,0
GRID,20796,0,15.84616,0.0,-1494.38,0
GRID,20797,0,13.21465,0.0,-1494.11,0
GRID,20798,0,10.58559,0.0,-1493.81,0
GRID,20799,0,7.959296,0.0,-1493.49,0
GRID,20800,0,5.336062,0.0,-1493.13,0
GRID,20801,0,2.716196,0.0,-1492.75,0
GRID,20802,0,363.0583,0.0,-1052.69,0
GRID,20803,0,363.0583,0.0,-1055.38,0
GRID,20804,0,363.0583,0.0,-1058.07,0
GRID,20805,0,363.0583,0.0,-1060.76,0
GRID,20806,0,363.0583,0.0,-1063.45,0
GRID,20807,0,363.0583,0.0,-1066.14,0
GRID,20808,0,363.0583,0.0,-1068.83,0
GRID,20809,0,363.0554,0.0,-1071.46,0
GRID,20810,0,363.0469,0.0,-1074.08,0
GRID,20811,0,363.0329,0.0,-1076.71,0
GRID,20812,0,363.0132,0.0,-1079.34,0
GRID,20813,0,362.988,0.0,-1081.96,0
GRID,20814,0,362.9573,0.0,-1084.59,0
GRID,20815,0,362.9209,0.0,-1087.22,0
GRID,20816,0,362.879,0.0,-1089.84,0
GRID,20817,0,362.8314,0.0,-1092.47,0
GRID,20818,0,362.7783,0.0,-1095.09,0
GRID,20819,0,362.7196,0.0,-1097.72,0
GRID,20820,0,362.6553,0.0,-1100.34,0
GRID,20821,0,362.5854,0.0,-1102.97,0
GRID,20822,0,362.5099,0.0,-1105.59,0
GRID,20823,0,362.4288,0.0,-1108.21,0
GRID,20824,0,362.3421,0.0,-1110.84,0
GRID,20825,0,362.2499,0.0,-1113.46,0
GRID,20826,0,362.1521,0.0,-1116.08,0
GRID,20827,0,362.0488,0.0,-1118.7,0
GRID,20828,0,361.9398,0.0,-1121.32,0
GRID,20829,0,361.8254,0.0,-1123.94,0
GRID,20830,0,361.7054,0.0,-1126.56,0
GRID,20831,0,361.5798,0.0,-1129.18,0
GRID,20832,0,361.4487,0.0,-1131.79,0
GRID,20833,0,361.3121,0.0,-1134.41,0
GRID,20834,0,361.1699,0.0,-1137.03,0
GRID,20835,0,361.0222,0.0,-1139.64,0
GRID,20836,0,360.869,0.0,-1142.25,0
GRID,20837,0,360.7103,0.0,-1144.87,0
GRID,20838,0,360.5461,0.0,-1147.48,0
GRID,20839,0,360.3764,0.0,-1150.09,0
GRID,20840,0,360.2012,0.0,-1152.7,0
GRID,20841,0,360.0205,0.0,-1155.3,0
GRID,20842,0,359.8344,0.0,-1157.91,0
GRID,20843,0,359.6427,0.0,-1160.52,0
GRID,20844,0,359.4457,0.0,-1163.12,0
GRID,20845,0,359.2431,0.0,-1165.72,0
GRID,20846,0,359.0352,0.0,-1168.33,0
GRID,20847,0,358.8218,0.0,-1170.93,0
GRID,20848,0,358.603,0.0,-1173.53,0
GRID,20849,0,358.3787,0.0,-1176.12,0
GRID,20850,0,358.1491,0.0,-1178.72,0
GRID,20851,0,357.914,0.0,-1181.31,0
GRID,20852,0,357.6736,0.0,-1183.91,0
GRID,20853,0,357.4278,0.0,-1186.5,0
GRID,20854,0,357.1766,0.0,-1189.09,0
GRID,20855,0,356.92,0.0,-1191.68,0
GRID,20856,0,356.6582,0.0,-1194.26,0
GRID,20857,0,356.3819,0.0,-1196.85,0
GRID,20858,0,356.0826,0.0,-1199.44,0
GRID,20859,0,355.7604,0.0,-1202.02,0
GRID,20860,0,355.4153,0.0,-1204.6,0
GRID,20861,0,355.0472,0.0,-1207.18,0
GRID,20862,0,354.6562,0.0,-1209.76,0
GRID,20863,0,354.2421,0.0,-1212.33,0
GRID,20864,0,353.8052,0.0,-1214.9,0
GRID,20865,0,353.3452,0.0,-1217.47,0
GRID,20866,0,352.8624,0.0,-1220.03,0
GRID,20867,0,352.3567,0.0,-1222.59,0
GRID,20868,0,351.8282,0.0,-1225.15,0
GRID,20869,0,351.277,0.0,-1227.7,0
GRID,20870,0,350.7029,0.0,-1230.24,0
GRID,20871,0,350.1062,0.0,-1232.79,0
GRID,20872,0,349.4869,0.0,-1235.32,0
GRID,20873,0,348.8449,0.0,-1237.86,0
GRID,20874,0,348.1803,0.0,-1240.38,0
GRID,20875,0,347.4931,0.0,-1242.9,0
GRID,20876,0,346.7835,0.0,-1245.42,0
GRID,20877,0,346.0514,0.0,-1247.93,0
GRID,20878,0,345.297,0.0,-1250.43,0
GRID,20879,0,344.5202,0.0,-1252.93,0
GRID,20880,0,343.7212,0.0,-1255.42,0
GRID,20881,0,342.8999,0.0,-1257.9,0
GRID,20882,0,342.0565,0.0,-1260.38,0
GRID,20883,0,341.1909,0.0,-1262.85,0
GRID,20884,0,340.3034,0.0,-1265.31,0
GRID,20885,0,339.3938,0.0,-1267.77,0
GRID,20886,0,338.4624,0.0,-1270.21,0
GRID,20887,0,337.5091,0.0,-1272.65,0
GRID,20888,0,336.5341,0.0,-1275.08,0
GRID,20889,0,335.5375,0.0,-1277.51,0
GRID,20890,0,334.5191,0.0,-1279.92,0
GRID,20891,0,333.4793,0.0,-1282.33,0
GRID,20892,0,332.418,0.0,-1284.72,0
GRID,20893,0,331.3353,0.0,-1287.11,0
GRID,20894,0,330.2313,0.0,-1289.49,0
GRID,20895,0,329.1062,0.0,-1291.85,0
GRID,20896,0,327.9599,0.0,-1294.21,0
GRID,20897,0,326.7926,0.0,-1296.56,0
GRID,20898,0,325.6043,0.0,-1298.9,0
GRID,20899,0,324.3952,0.0,-1301.23,0
GRID,20900,0,323.1654,0.0,-1303.54,0
GRID,20901,0,321.9149,0.0,-1305.85,0
GRID,20902,0,320.6438,0.0,-1308.15,0
GRID,20903,0,319.3522,0.0,-1310.43,0
GRID,20904,0,318.0403,0.0,-1312.7,0
GRID,20905,0,316.7082,0.0,-1314.97,0
GRID,20906,0,315.3558,0.0,-1317.22,0
GRID,20907,0,313.9835,0.0,-1319.45,0
GRID,20908,0,312.5912,0.0,-1321.68,0
GRID,20909,0,311.1791,0.0,-1323.89,0
GRID,20910,0,309.7472,0.0,-1326.1,0
GRID,20911,0,308.2958,0.0,-1328.29,0
GRID,20912,0,306.8248,0.0,-1330.46,0
GRID,20913,0,305.3345,0.0,-1332.62,0
GRID,20914,0,303.825,0.0,-1334.78,0
GRID,20915,0,302.2963,0.0,-1336.91,0
GRID,20916,0,300.7486,0.0,-1339.04,0
GRID,20917,0,299.182,0.0,-1341.15,0
GRID,20918,0,297.5966,0.0,-1343.24,0
GRID,20919,0,295.9926,0.0,-1345.32,0
GRID,20920,0,294.3701,0.0,-1347.39,0
GRID,20921,0,292.7292,0.0,-1349.44,0
GRID,20922,0,291.07,0.0,-1351.48,0
GRID,20923,0,289.3928,0.0,-1353.51,0
GRID,20924,0,287.6976,0.0,-1355.52,0
GRID,20925,0,285.9845,0.0,-1357.51,0
GRID,20926,0,284.2538,0.0,-1359.49,0
GRID,20927,0,282.5055,0.0,-1361.45,0
GRID,20928,0,280.7397,0.0,-1363.4,0
GRID,20929,0,278.9567,0.0,-1365.33,0
GRID,20930,0,277.1566,0.0,-1367.25,0
GRID,20931,0,275.3346,0.0,-1369.16,0
GRID,20932,0,273.4998,0.0,-1371.06,0
GRID,20933,0,271.6522,0.0,-1372.94,0
GRID,20934,0,269.792,0.0,-1374.82,0
GRID,20935,0,267.9607,0.0,-1376.65,0
GRID,20936,0,266.1294,0.0,-1378.48,0
GRID,20937,0,264.2981,0.0,-1380.31,0
GRID,20938,0,262.4667,0.0,-1382.14,0
GRID,20939,0,260.6354,0.0,-1383.97,0
GRID,20940,0,258.8041,0.0,-1385.81,0
GRID,20941,0,256.9728,0.0,-1387.64,0
GRID,20942,0,255.1415,0.0,-1389.47,0
GRID,20943,0,253.3101,0.0,-1391.3,0
GRID,20944,0,251.432,0.0,-1393.16,0
GRID,20945,0,249.5421,0.0,-1395.02,0
GRID,20946,0,247.6407,0.0,-1396.86,0
GRID,20947,0,245.7279,0.0,-1398.69,0
GRID,20948,0,243.8037,0.0,-1400.51,0
GRID,20949,0,241.8682,0.0,-1402.31,0
GRID,20950,0,239.9216,0.0,-1404.11,0
GRID,20951,0,237.964,0.0,-1405.89,0
GRID,20952,0,235.9954,0.0,-1407.66,0
GRID,20953,0,234.016,0.0,-1409.41,0
GRID,20954,0,232.026,0.0,-1411.15,0
GRID,20955,0,230.0253,0.0,-1412.88,0
GRID,20956,0,228.0143,0.0,-1414.6,0
GRID,20957,0,225.993,0.0,-1416.3,0
GRID,20958,0,223.9615,0.0,-1417.99,0
GRID,20959,0,221.92,0.0,-1419.66,0
GRID,20960,0,219.8685,0.0,-1421.33,0
GRID,20961,0,217.8072,0.0,-1422.97,0
GRID,20962,0,215.7363,0.0,-1424.61,0
GRID,20963,0,213.6559,0.0,-1426.23,0
GRID,20964,0,211.566,0.0,-1427.84,0
GRID,20965,0,209.4669,0.0,-1429.43,0
GRID,20966,0,207.3587,0.0,-1431.01,0
GRID,20967,0,205.2415,0.0,-1432.58,0
GRID,20968,0,203.1153,0.0,-1434.13,0
GRID,20969,0,200.9805,0.0,-1435.66,0
GRID,20970,0,198.8371,0.0,-1437.19,0
GRID,20971,0,196.6852,0.0,-1438.69,0
GRID,20972,0,194.5249,0.0,-1440.19,0
GRID,20973,0,192.3565,0.0,-1441.67,0
GRID,20974,0,190.18,0.0,-1443.13,0
GRID,20975,0,187.9957,0.0,-1444.58,0
GRID,20976,0,185.8035,0.0,-1446.02,0
GRID,20977,0,183.6038,0.0,-1447.44,0
GRID,20978,0,181.3965,0.0,-1448.84,0
GRID,20979,0,179.182,0.0,-1450.23,0
GRID,20980,0,176.9602,0.0,-1451.6,0
GRID,20981,0,174.7313,0.0,-1452.96,0
GRID,20982,0,172.4956,0.0,-1454.31,0
GRID,20983,0,170.253,0.0,-1455.64,0
GRID,20984,0,168.0039,0.0,-1456.95,0
GRID,20985,0,165.7483,0.0,-1458.25,0
GRID,20986,0,163.4863,0.0,-1459.53,0
GRID,20987,0,161.2182,0.0,-1460.8,0
GRID,20988,0,158.9441,0.0,-1462.05,0
GRID,20989,0,156.664,0.0,-1463.28,0
GRID,20990,0,154.3782,0.0,-1464.5,0
GRID,20991,0,152.0868,0.0,-1465.71,0
GRID,20992,0,149.79,0.0,-1466.9,0
GRID,20993,0,147.4819,0.0,-1468.07,0
GRID,20994,0,145.1606,0.0,-1469.21,0
GRID,20995,0,142.8263,0.0,-1470.33,0
GRID,20996,0,140.4794,0.0,-1471.43,0
GRID,20997,0,138.12,0.0,-1472.5,0
GRID,20998,0,135.7484,0.0,-1473.55,0
GRID,20999,0,133.3648,0.0,-1474.57,0
GRID,21000,0,130.9695,0.0,-1475.57,0
GRID,21001,0,128.5628,0.0,-1476.54,0
GRID,21002,0,126.1449,0.0,-1477.48,0
GRID,21003,0,123.7162,0.0,-1478.4,0
GRID,21004,0,121.2769,0.0,-1479.3,0
GRID,21005,0,118.8274,0.0,-1480.17,0
GRID,21006,0,116.3678,0.0,-1481.01,0
GRID,21007,0,113.8985,0.0,-1481.83,0
GRID,21008,0,111.4197,0.0,-1482.62,0
GRID,21009,0,108.9318,0.0,-1483.38,0
GRID,21010,0,106.435,0.0,-1484.12,0
GRID,21011,0,103.9296,0.0,-1484.83,0
GRID,21012,0,101.4159,0.0,-1485.52,0
GRID,21013,0,98.89416,0.0,-1486.17,0
GRID,21014,0,96.36474,0.0,-1486.8,0
GRID,21015,0,93.8279,0.0,-1487.41,0
GRID,21016,0,91.28394,0.0,-1487.99,0
GRID,21017,0,88.73313,0.0,-1488.54,0
GRID,21018,0,86.17579,0.0,-1489.06,0
GRID,21019,0,83.6122,0.0,-1489.55,0
GRID,21020,0,81.04267,0.0,-1490.02,0
GRID,21021,0,78.4675,0.0,-1490.46,0
GRID,21022,0,75.88699,0.0,-1490.88,0
GRID,21023,0,73.30143,0.0,-1491.26,0
GRID,21024,0,70.71114,0.0,-1491.62,0
GRID,21025,0,68.11641,0.0,-1491.95,0
GRID,21026,0,65.51755,0.0,-1492.26,0
GRID,21027,0,62.91485,0.0,-1492.53,0
GRID,21028,0,60.30862,0.0,-1492.78,0
GRID,21029,0,57.69918,0.0,-1493.0,0
GRID,21030,0,55.08682,0.0,-1493.19,0
GRID,21031,0,52.47185,0.0,-1493.35,0
GRID,21032,0,49.85459,0.0,-1493.49,0
GRID,21033,0,47.23533,0.0,-1493.6,0
GRID,21034,0,44.61438,0.0,-1493.68,0
GRID,21035,0,41.99206,0.0,-1493.73,0
GRID,21036,0,39.36867,0.0,-1493.75,0
GRID,21037,0,36.74451,0.0,-1493.75,0
GRID,21038,0,34.11991,0.0,-1493.72,0
GRID,21039,0,31.49517,0.0,-1493.65,0
GRID,21040,0,28.87059,0.0,-1493.57,0
GRID,21041,0,26.24649,0.0,-1493.45,0
GRID,21042,0,23.62318,0.0,-1493.3,0
GRID,21043,0,21.00098,0.0,-1493.13,0
GRID,21044,0,18.3802,0.0,-1492.93,0
GRID,21045,0,15.76113,0.0,-1492.7,0
GRID,21046,0,13.1441,0.0,-1492.44,0
GRID,21047,0,10.52939,0.0,-1492.16,0
GRID,21048,0,7.917321,0.0,-1491.84,0
GRID,21049,0,5.308196,0.0,-1491.5,0
GRID,21050,0,2.702321,0.0,-1491.13,0
GRID,21051,0,361.2567,0.0,-1052.68,0
GRID,21052,0,361.2567,0.0,-1055.35,0
GRID,21053,0,361.2567,0.0,-1058.03,0
GRID,21054,0,361.2567,0.0,-1060.71,0
GRID,21055,0,361.2567,0.0,-1063.38,0
GRID,21056,0,361.2567,0.0,-1066.06,0
GRID,21057,0,361.2567,0.0,-1068.74,0
GRID,21058,0,361.2536,0.0,-1071.35,0
GRID,21059,0,361.2448,0.0,-1073.96,0
GRID,21060,0,361.2302,0.0,-1076.57,0
GRID,21061,0,361.2098,0.0,-1079.18,0
GRID,21062,0,361.1836,0.0,-1081.8,0
GRID,21063,0,361.1515,0.0,-1084.41,0
GRID,21064,0,361.1137,0.0,-1087.02,0
GRID,21065,0,361.0701,0.0,-1089.63,0
GRID,21066,0,361.0207,0.0,-1092.24,0
GRID,21067,0,360.9654,0.0,-1094.85,0
GRID,21068,0,360.9044,0.0,-1097.46,0
GRID,21069,0,360.8375,0.0,-1100.07,0
GRID,21070,0,360.7648,0.0,-1102.68,0
GRID,21071,0,360.6863,0.0,-1105.28,0
GRID,21072,0,360.602,0.0,-1107.89,0
GRID,21073,0,360.5118,0.0,-1110.5,0
GRID,21074,0,360.4159,0.0,-1113.11,0
GRID,21075,0,360.3142,0.0,-1115.71,0
GRID,21076,0,360.2067,0.0,-1118.32,0
GRID,21077,0,360.0934,0.0,-1120.92,0
GRID,21078,0,359.9744,0.0,-1123.52,0
GRID,21079,0,359.8496,0.0,-1126.13,0
GRID,21080,0,359.719,0.0,-1128.73,0
GRID,21081,0,359.5826,0.0,-1131.33,0
GRID,21082,0,359.4406,0.0,-1133.93,0
GRID,21083,0,359.2927,0.0,-1136.53,0
GRID,21084,0,359.1391,0.0,-1139.13,0
GRID,21085,0,358.9798,0.0,-1141.73,0
GRID,21086,0,358.8147,0.0,-1144.32,0
GRID,21087,0,358.6439,0.0,-1146.92,0
GRID,21088,0,358.4674,0.0,-1149.51,0
GRID,21089,0,358.2852,0.0,-1152.11,0
GRID,21090,0,358.0973,0.0,-1154.7,0
GRID,21091,0,357.9037,0.0,-1157.29,0
GRID,21092,0,357.7045,0.0,-1159.88,0
GRID,21093,0,357.4995,0.0,-1162.47,0
GRID,21094,0,357.2889,0.0,-1165.05,0
GRID,21095,0,357.0726,0.0,-1167.64,0
GRID,21096,0,356.8507,0.0,-1170.22,0
GRID,21097,0,356.6231,0.0,-1172.8,0
GRID,21098,0,356.3899,0.0,-1175.39,0
GRID,21099,0,356.151,0.0,-1177.96,0
GRID,21100,0,355.9066,0.0,-1180.54,0
GRID,21101,0,355.6565,0.0,-1183.12,0
GRID,21102,0,355.4009,0.0,-1185.69,0
GRID,21103,0,355.1396,0.0,-1188.27,0
GRID,21104,0,354.8728,0.0,-1190.84,0
GRID,21105,0,354.6005,0.0,-1193.41,0
GRID,21106,0,354.3138,0.0,-1195.98,0
GRID,21107,0,354.0044,0.0,-1198.55,0
GRID,21108,0,353.6723,0.0,-1201.11,0
GRID,21109,0,353.3176,0.0,-1203.68,0
GRID,21110,0,352.9403,0.0,-1206.24,0
GRID,21111,0,352.5403,0.0,-1208.8,0
GRID,21112,0,352.1176,0.0,-1211.35,0
GRID,21113,0,351.6723,0.0,-1213.91,0
GRID,21114,0,351.2042,0.0,-1216.46,0
GRID,21115,0,350.7136,0.0,-1219.0,0
GRID,21116,0,350.2005,0.0,-1221.54,0
GRID,21117,0,349.6648,0.0,-1224.08,0
GRID,21118,0,349.1066,0.0,-1226.61,0
GRID,21119,0,348.526,0.0,-1229.14,0
GRID,21120,0,347.923,0.0,-1231.67,0
GRID,21121,0,347.2976,0.0,-1234.19,0
GRID,21122,0,346.6498,0.0,-1236.7,0
GRID,21123,0,345.9798,0.0,-1239.21,0
GRID,21124,0,345.2876,0.0,-1241.71,0
GRID,21125,0,344.5731,0.0,-1244.21,0
GRID,21126,0,343.8365,0.0,-1246.7,0
GRID,21127,0,343.0778,0.0,-1249.19,0
GRID,21128,0,342.297,0.0,-1251.67,0
GRID,21129,0,341.4943,0.0,-1254.14,0
GRID,21130,0,340.6697,0.0,-1256.61,0
GRID,21131,0,339.8232,0.0,-1259.07,0
GRID,21132,0,338.9548,0.0,-1261.52,0
GRID,21133,0,338.0648,0.0,-1263.96,0
GRID,21134,0,337.153,0.0,-1266.4,0
GRID,21135,0,336.2197,0.0,-1268.83,0
GRID,21136,0,335.2648,0.0,-1271.25,0
GRID,21137,0,334.2884,0.0,-1273.66,0
GRID,21138,0,333.2906,0.0,-1276.07,0
GRID,21139,0,332.2716,0.0,-1278.47,0
GRID,21140,0,331.2312,0.0,-1280.85,0
GRID,21141,0,330.1697,0.0,-1283.23,0
GRID,21142,0,329.0871,0.0,-1285.6,0
GRID,21143,0,327.9834,0.0,-1287.96,0
GRID,21144,0,326.8589,0.0,-1290.31,0
GRID,21145,0,325.7135,0.0,-1292.66,0
GRID,21146,0,324.5474,0.0,-1294.99,0
GRID,21147,0,323.3606,0.0,-1297.31,0
GRID,21148,0,322.1532,0.0,-1299.62,0
GRID,21149,0,320.9253,0.0,-1301.92,0
GRID,21150,0,319.6771,0.0,-1304.21,0
GRID,21151,0,318.4085,0.0,-1306.49,0
GRID,21152,0,317.1198,0.0,-1308.76,0
GRID,21153,0,315.811,0.0,-1311.01,0
GRID,21154,0,314.4822,0.0,-1313.26,0
GRID,21155,0,313.1335,0.0,-1315.49,0
GRID,21156,0,311.765,0.0,-1317.72,0
GRID,21157,0,310.3768,0.0,-1319.93,0
GRID,21158,0,308.9691,0.0,-1322.13,0
GRID,21159,0,307.5419,0.0,-1324.31,0
GRID,21160,0,306.0953,0.0,-1326.49,0
GRID,21161,0,304.6295,0.0,-1328.65,0
GRID,21162,0,303.1446,0.0,-1330.79,0
GRID,21163,0,301.6408,0.0,-1332.93,0
GRID,21164,0,300.118,0.0,-1335.05,0
GRID,21165,0,298.5765,0.0,-1337.16,0
GRID,21166,0,297.0163,0.0,-1339.26,0
GRID,21167,0,295.4375,0.0,-1341.34,0
GRID,21168,0,293.8404,0.0,-1343.4,0
GRID,21169,0,292.225,0.0,-1345.46,0
GRID,21170,0,290.5914,0.0,-1347.5,0
GRID,21171,0,288.9399,0.0,-1349.52,0
GRID,21172,0,287.2705,0.0,-1351.53,0
GRID,21173,0,285.5833,0.0,-1353.53,0
GRID,21174,0,283.8786,0.0,-1355.51,0
GRID,21175,0,282.1563,0.0,-1357.48,0
GRID,21176,0,280.4167,0.0,-1359.43,0
GRID,21177,0,278.66,0.0,-1361.36,0
GRID,21178,0,276.8861,0.0,-1363.28,0
GRID,21179,0,275.0954,0.0,-1365.19,0
GRID,21180,0,273.2828,0.0,-1367.08,0
GRID,21181,0,271.4577,0.0,-1368.97,0
GRID,21182,0,269.6203,0.0,-1370.84,0
GRID,21183,0,267.7706,0.0,-1372.71,0
GRID,21184,0,265.949,0.0,-1374.53,0
GRID,21185,0,264.1273,0.0,-1376.35,0
GRID,21186,0,262.3057,0.0,-1378.17,0
GRID,21187,0,260.4841,0.0,-1379.99,0
GRID,21188,0,258.6624,0.0,-1381.82,0
GRID,21189,0,256.8408,0.0,-1383.64,0
GRID,21190,0,255.0191,0.0,-1385.46,0
GRID,21191,0,253.1975,0.0,-1387.28,0
GRID,21192,0,251.3759,0.0,-1389.1,0
GRID,21193,0,249.5087,0.0,-1390.96,0
GRID,21194,0,247.6302,0.0,-1392.8,0
GRID,21195,0,245.7405,0.0,-1394.63,0
GRID,21196,0,243.8396,0.0,-1396.45,0
GRID,21197,0,241.9278,0.0,-1398.26,0
GRID,21198,0,240.005,0.0,-1400.06,0
GRID,21199,0,238.0713,0.0,-1401.84,0
GRID,21200,0,236.127,0.0,-1403.61,0
GRID,21201,0,234.172,0.0,-1405.37,0
GRID,21202,0,232.2065,0.0,-1407.12,0
GRID,21203,0,230.2306,0.0,-1408.86,0
GRID,21204,0,228.2445,0.0,-1410.58,0
GRID,21205,0,226.2483,0.0,-1412.29,0
GRID,21206,0,224.2421,0.0,-1413.98,0
GRID,21207,0,222.226,0.0,-1415.67,0
GRID,21208,0,220.2001,0.0,-1417.34,0
GRID,21209,0,218.1647,0.0,-1419.0,0
GRID,21210,0,216.1197,0.0,-1420.64,0
GRID,21211,0,214.0653,0.0,-1422.27,0
GRID,21212,0,212.0016,0.0,-1423.89,0
GRID,21213,0,209.9288,0.0,-1425.49,0
GRID,21214,0,207.847,0.0,-1427.08,0
GRID,21215,0,205.7564,0.0,-1428.66,0
GRID,21216,0,203.657,0.0,-1430.22,0
GRID,21217,0,201.549,0.0,-1431.77,0
GRID,21218,0,199.4325,0.0,-1433.31,0
GRID,21219,0,197.3076,0.0,-1434.83,0
GRID,21220,0,195.1746,0.0,-1436.34,0
GRID,21221,0,193.0334,0.0,-1437.83,0
GRID,21222,0,190.8843,0.0,-1439.31,0
GRID,21223,0,188.7274,0.0,-1440.78,0
GRID,21224,0,186.5628,0.0,-1442.23,0
GRID,21225,0,184.3906,0.0,-1443.66,0
GRID,21226,0,182.2111,0.0,-1445.08,0
GRID,21227,0,180.0242,0.0,-1446.49,0
GRID,21228,0,177.8303,0.0,-1447.88,0
GRID,21229,0,175.6293,0.0,-1449.26,0
GRID,21230,0,173.4215,0.0,-1450.62,0
GRID,21231,0,171.207,0.0,-1451.97,0
GRID,21232,0,168.9859,0.0,-1453.31,0
GRID,21233,0,166.7584,0.0,-1454.62,0
GRID,21234,0,164.5245,0.0,-1455.93,0
GRID,21235,0,162.2846,0.0,-1457.22,0
GRID,21236,0,160.0386,0.0,-1458.49,0
GRID,21237,0,157.7868,0.0,-1459.75,0
GRID,21238,0,155.5292,0.0,-1460.99,0
GRID,21239,0,153.2661,0.0,-1462.22,0
GRID,21240,0,150.9975,0.0,-1463.43,0
GRID,21241,0,148.7237,0.0,-1464.63,0
GRID,21242,0,146.4385,0.0,-1465.81,0
GRID,21243,0,144.1399,0.0,-1466.96,0
GRID,21244,0,141.8281,0.0,-1468.09,0
GRID,21245,0,139.5035,0.0,-1469.2,0
GRID,21246,0,137.1663,0.0,-1470.28,0
GRID,21247,0,134.8167,0.0,-1471.34,0
GRID,21248,0,132.4549,0.0,-1472.37,0
GRID,21249,0,130.0813,0.0,-1473.37,0
GRID,21250,0,127.6961,0.0,-1474.36,0
GRID,21251,0,125.2995,0.0,-1475.31,0
GRID,21252,0,122.8919,0.0,-1476.24,0
GRID,21253,0,120.4736,0.0,-1477.15,0
GRID,21254,0,118.0447,0.0,-1478.03,0
GRID,21255,0,115.6057,0.0,-1478.88,0
GRID,21256,0,113.1568,0.0,-1479.71,0
GRID,21257,0,110.6983,0.0,-1480.51,0
GRID,21258,0,108.2305,0.0,-1481.28,0
GRID,21259,0,105.7536,0.0,-1482.03,0
GRID,21260,0,103.2679,0.0,-1482.75,0
GRID,21261,0,100.7737,0.0,-1483.45,0
GRID,21262,0,98.27142,0.0,-1484.12,0
GRID,21263,0,95.76122,0.0,-1484.76,0
GRID,21264,0,93.24344,0.0,-1485.38,0
GRID,21265,0,90.71836,0.0,-1485.96,0
GRID,21266,0,88.18627,0.0,-1486.52,0
GRID,21267,0,85.64748,0.0,-1487.06,0
GRID,21268,0,83.10229,0.0,-1487.57,0
GRID,21269,0,80.55099,0.0,-1488.05,0
GRID,21270,0,77.99388,0.0,-1488.5,0
GRID,21271,0,75.43128,0.0,-1488.92,0
GRID,21272,0,72.86347,0.0,-1489.32,0
GRID,21273,0,70.29077,0.0,-1489.69,0
GRID,21274,0,67.71348,0.0,-1490.03,0
GRID,21275,0,65.13189,0.0,-1490.35,0
GRID,21276,0,62.54631,0.0,-1490.63,0
GRID,21277,0,59.95706,0.0,-1490.89,0
GRID,21278,0,57.36443,0.0,-1491.13,0
GRID,21279,0,54.76875,0.0,-1491.33,0
GRID,21280,0,52.1703,0.0,-1491.5,0
GRID,21281,0,49.56941,0.0,-1491.65,0
GRID,21282,0,46.96638,0.0,-1491.77,0
GRID,21283,0,44.36152,0.0,-1491.86,0
GRID,21284,0,41.75514,0.0,-1491.93,0
GRID,21285,0,39.14755,0.0,-1491.96,0
GRID,21286,0,36.53905,0.0,-1491.97,0
GRID,21287,0,33.92997,0.0,-1491.95,0
GRID,21288,0,31.32061,0.0,-1491.9,0
GRID,21289,0,28.71129,0.0,-1491.82,0
GRID,21290,0,26.10231,0.0,-1491.72,0
GRID,21291,0,23.49398,0.0,-1491.59,0
GRID,21292,0,20.88663,0.0,-1491.42,0
GRID,21293,0,18.28058,0.0,-1491.23,0
GRID,21294,0,15.67611,0.0,-1491.02,0
GRID,21295,0,13.07354,0.0,-1490.77,0
GRID,21296,0,10.47319,0.0,-1490.5,0
GRID,21297,0,7.875347,0.0,-1490.2,0
GRID,21298,0,5.280331,0.0,-1489.87,0
GRID,21299,0,2.688446,0.0,-1489.51,0
GRID,21300,0,359.455,0.0,-1052.66,0
GRID,21301,0,359.455,0.0,-1055.33,0
GRID,21302,0,359.455,0.0,-1057.99,0
GRID,21303,0,359.455,0.0,-1060.66,0
GRID,21304,0,359.455,0.0,-1063.32,0
GRID,21305,0,359.455,0.0,-1065.98,0
GRID,21306,0,359.455,0.0,-1068.65,0
GRID,21307,0,359.4518,0.0,-1071.24,0
GRID,21308,0,359.4427,0.0,-1073.84,0
GRID,21309,0,359.4275,0.0,-1076.44,0
GRID,21310,0,359.4063,0.0,-1079.03,0
GRID,21311,0,359.3791,0.0,-1081.63,0
GRID,21312,0,359.3458,0.0,-1084.22,0
GRID,21313,0,359.3066,0.0,-1086.82,0
GRID,21314,0,359.2613,0.0,-1089.41,0
GRID,21315,0,359.2099,0.0,-1092.01,0
GRID,21316,0,359.1526,0.0,-1094.6,0
GRID,21317,0,359.0892,0.0,-1097.2,0
GRID,21318,0,359.0197,0.0,-1099.79,0
GRID,21319,0,358.9442,0.0,-1102.38,0
GRID,21320,0,358.8627,0.0,-1104.98,0
GRID,21321,0,358.7751,0.0,-1107.57,0
GRID,21322,0,358.6815,0.0,-1110.16,0
GRID,21323,0,358.5819,0.0,-1112.75,0
GRID,21324,0,358.4763,0.0,-1115.34,0
GRID,21325,0,358.3647,0.0,-1117.93,0
GRID,21326,0,358.247,0.0,-1120.52,0
GRID,21327,0,358.1234,0.0,-1123.11,0
GRID,21328,0,357.9938,0.0,-1125.7,0
GRID,21329,0,357.8582,0.0,-1128.28,0
GRID,21330,0,357.7166,0.0,-1130.87,0
GRID,21331,0,357.569,0.0,-1133.45,0
GRID,21332,0,357.4155,0.0,-1136.04,0
GRID,21333,0,357.256,0.0,-1138.62,0
GRID,21334,0,357.0906,0.0,-1141.2,0
GRID,21335,0,356.9191,0.0,-1143.78,0
GRID,21336,0,356.7418,0.0,-1146.36,0
GRID,21337,0,356.5585,0.0,-1148.94,0
GRID,21338,0,356.3693,0.0,-1151.51,0
GRID,21339,0,356.1742,0.0,-1154.09,0
GRID,21340,0,355.9731,0.0,-1156.66,0
GRID,21341,0,355.7662,0.0,-1159.24,0
GRID,21342,0,355.5533,0.0,-1161.81,0
GRID,21343,0,355.3346,0.0,-1164.38,0
GRID,21344,0,355.11,0.0,-1166.95,0
GRID,21345,0,354.8795,0.0,-1169.52,0
GRID,21346,0,354.6432,0.0,-1172.08,0
GRID,21347,0,354.401,0.0,-1174.65,0
GRID,21348,0,354.153,0.0,-1177.21,0
GRID,21349,0,353.8991,0.0,-1179.77,0
GRID,21350,0,353.6395,0.0,-1182.33,0
GRID,21351,0,353.374,0.0,-1184.89,0
GRID,21352,0,353.1027,0.0,-1187.44,0
GRID,21353,0,352.8257,0.0,-1190.0,0
GRID,21354,0,352.5428,0.0,-1192.55,0
GRID,21355,0,352.2457,0.0,-1195.11,0
GRID,21356,0,351.9261,0.0,-1197.66,0
GRID,21357,0,351.5843,0.0,-1200.21,0
GRID,21358,0,351.22,0.0,-1202.75,0
GRID,21359,0,350.8334,0.0,-1205.3,0
GRID,21360,0,350.4244,0.0,-1207.84,0
GRID,21361,0,349.9931,0.0,-1210.38,0
GRID,21362,0,349.5393,0.0,-1212.91,0
GRID,21363,0,349.0632,0.0,-1215.44,0
GRID,21364,0,348.5648,0.0,-1217.97,0
GRID,21365,0,348.0442,0.0,-1220.5,0
GRID,21366,0,347.5013,0.0,-1223.02,0
GRID,21367,0,346.9362,0.0,-1225.53,0
GRID,21368,0,346.349,0.0,-1228.04,0
GRID,21369,0,345.7397,0.0,-1230.55,0
GRID,21370,0,345.1083,0.0,-1233.05,0
GRID,21371,0,344.4548,0.0,-1235.55,0
GRID,21372,0,343.7794,0.0,-1238.04,0
GRID,21373,0,343.082,0.0,-1240.52,0
GRID,21374,0,342.3627,0.0,-1243.0,0
GRID,21375,0,341.6215,0.0,-1245.48,0
GRID,21376,0,340.8586,0.0,-1247.95,0
GRID,21377,0,340.0739,0.0,-1250.41,0
GRID,21378,0,339.2675,0.0,-1252.86,0
GRID,21379,0,338.4395,0.0,-1255.31,0
GRID,21380,0,337.5899,0.0,-1257.75,0
GRID,21381,0,336.7188,0.0,-1260.19,0
GRID,21382,0,335.8262,0.0,-1262.61,0
GRID,21383,0,334.9122,0.0,-1265.03,0
GRID,21384,0,333.9769,0.0,-1267.44,0
GRID,21385,0,333.0204,0.0,-1269.85,0
GRID,21386,0,332.0427,0.0,-1272.24,0
GRID,21387,0,331.0438,0.0,-1274.63,0
GRID,21388,0,330.024,0.0,-1277.01,0
GRID,21389,0,328.9831,0.0,-1279.38,0
GRID,21390,0,327.9214,0.0,-1281.74,0
GRID,21391,0,326.8388,0.0,-1284.1,0
GRID,21392,0,325.7355,0.0,-1286.44,0
GRID,21393,0,324.6116,0.0,-1288.77,0
GRID,21394,0,323.4671,0.0,-1291.1,0
GRID,21395,0,322.3022,0.0,-1293.41,0
GRID,21396,0,321.1168,0.0,-1295.72,0
GRID,21397,0,319.9112,0.0,-1298.01,0
GRID,21398,0,318.6853,0.0,-1300.3,0
GRID,21399,0,317.4393,0.0,-1302.57,0
GRID,21400,0,316.1733,0.0,-1304.83,0
GRID,21401,0,314.8874,0.0,-1307.08,0
GRID,21402,0,313.5817,0.0,-1309.33,0
GRID,21403,0,312.2562,0.0,-1311.55,0
GRID,21404,0,310.9111,0.0,-1313.77,0
GRID,21405,0,309.5465,0.0,-1315.98,0
GRID,21406,0,308.1624,0.0,-1318.17,0
GRID,21407,0,306.7591,0.0,-1320.36,0
GRID,21408,0,305.3365,0.0,-1322.53,0
GRID,21409,0,303.8949,0.0,-1324.69,0
GRID,21410,0,302.4343,0.0,-1326.83,0
GRID,21411,0,300.9548,0.0,-1328.96,0
GRID,21412,0,299.4566,0.0,-1331.08,0
GRID,21413,0,297.9397,0.0,-1333.19,0
GRID,21414,0,296.4043,0.0,-1335.29,0
GRID,21415,0,294.8505,0.0,-1337.37,0
GRID,21416,0,293.2784,0.0,-1339.43,0
GRID,21417,0,291.6882,0.0,-1341.49,0
GRID,21418,0,290.0799,0.0,-1343.53,0
GRID,21419,0,288.4537,0.0,-1345.55,0
GRID,21420,0,286.8098,0.0,-1347.56,0
GRID,21421,0,285.1482,0.0,-1349.56,0
GRID,21422,0,283.4691,0.0,-1351.54,0
GRID,21423,0,281.7726,0.0,-1353.51,0
GRID,21424,0,280.0589,0.0,-1355.46,0
GRID,21425,0,278.328,0.0,-1357.4,0
GRID,21426,0,276.5802,0.0,-1359.32,0
GRID,21427,0,274.8155,0.0,-1361.23,0
GRID,21428,0,273.0342,0.0,-1363.12,0
GRID,21429,0,271.231,0.0,-1365.01,0
GRID,21430,0,269.4157,0.0,-1366.88,0
GRID,21431,0,267.5884,0.0,-1368.75,0
GRID,21432,0,265.7493,0.0,-1370.6,0
GRID,21433,0,263.9373,0.0,-1372.41,0
GRID,21434,0,262.1253,0.0,-1374.22,0
GRID,21435,0,260.3134,0.0,-1376.03,0
GRID,21436,0,258.5014,0.0,-1377.84,0
GRID,21437,0,256.6894,0.0,-1379.66,0
GRID,21438,0,254.8775,0.0,-1381.47,0
GRID,21439,0,253.0655,0.0,-1383.28,0
GRID,21440,0,251.2535,0.0,-1385.09,0
GRID,21441,0,249.4416,0.0,-1386.9,0
GRID,21442,0,247.5854,0.0,-1388.75,0
GRID,21443,0,245.7183,0.0,-1390.58,0
GRID,21444,0,243.8402,0.0,-1392.4,0
GRID,21445,0,241.9514,0.0,-1394.22,0
GRID,21446,0,240.0518,0.0,-1396.01,0
GRID,21447,0,238.1417,0.0,-1397.8,0
GRID,21448,0,236.221,0.0,-1399.58,0
GRID,21449,0,234.29,0.0,-1401.34,0
GRID,21450,0,232.3486,0.0,-1403.09,0
GRID,21451,0,230.397,0.0,-1404.83,0
GRID,21452,0,228.4353,0.0,-1406.56,0
GRID,21453,0,226.4638,0.0,-1408.28,0
GRID,21454,0,224.4823,0.0,-1409.98,0
GRID,21455,0,222.4912,0.0,-1411.67,0
GRID,21456,0,220.4905,0.0,-1413.35,0
GRID,21457,0,218.4803,0.0,-1415.01,0
GRID,21458,0,216.4608,0.0,-1416.67,0
GRID,21459,0,214.4321,0.0,-1418.31,0
GRID,21460,0,212.3942,0.0,-1419.93,0
GRID,21461,0,210.3473,0.0,-1421.55,0
GRID,21462,0,208.2916,0.0,-1423.15,0
GRID,21463,0,206.2272,0.0,-1424.73,0
GRID,21464,0,204.1541,0.0,-1426.31,0
GRID,21465,0,202.0725,0.0,-1427.87,0
GRID,21466,0,199.9826,0.0,-1429.42,0
GRID,21467,0,197.8845,0.0,-1430.95,0
GRID,21468,0,195.7782,0.0,-1432.47,0
GRID,21469,0,193.664,0.0,-1433.98,0
GRID,21470,0,191.5419,0.0,-1435.47,0
GRID,21471,0,189.4121,0.0,-1436.95,0
GRID,21472,0,187.2747,0.0,-1438.42,0
GRID,21473,0,185.1299,0.0,-1439.87,0
GRID,21474,0,182.9777,0.0,-1441.31,0
GRID,21475,0,180.8183,0.0,-1442.73,0
GRID,21476,0,178.6519,0.0,-1444.14,0
GRID,21477,0,176.4786,0.0,-1445.54,0
GRID,21478,0,174.2985,0.0,-1446.92,0
GRID,21479,0,172.1117,0.0,-1448.29,0
GRID,21480,0,169.9184,0.0,-1449.64,0
GRID,21481,0,167.7187,0.0,-1450.98,0
GRID,21482,0,165.5128,0.0,-1452.3,0
GRID,21483,0,163.3008,0.0,-1453.61,0
GRID,21484,0,161.0828,0.0,-1454.9,0
GRID,21485,0,158.859,0.0,-1456.18,0
GRID,21486,0,156.6295,0.0,-1457.45,0
GRID,21487,0,154.3944,0.0,-1458.7,0
GRID,21488,0,152.1539,0.0,-1459.93,0
GRID,21489,0,149.9082,0.0,-1461.15,0
GRID,21490,0,147.6573,0.0,-1462.36,0
GRID,21491,0,145.395,0.0,-1463.55,0
GRID,21492,0,143.1191,0.0,-1464.71,0
GRID,21493,0,140.8299,0.0,-1465.85,0
GRID,21494,0,138.5277,0.0,-1466.97,0
GRID,21495,0,136.2126,0.0,-1468.06,0
GRID,21496,0,133.885,0.0,-1469.12,0
GRID,21497,0,131.5451,0.0,-1470.17,0
GRID,21498,0,129.1931,0.0,-1471.18,0
GRID,21499,0,126.8293,0.0,-1472.17,0
GRID,21500,0,124.454,0.0,-1473.14,0
GRID,21501,0,122.0676,0.0,-1474.08,0
GRID,21502,0,119.6702,0.0,-1475.0,0
GRID,21503,0,117.2621,0.0,-1475.88,0
GRID,21504,0,114.8437,0.0,-1476.75,0
GRID,21505,0,112.4152,0.0,-1477.59,0
GRID,21506,0,109.977,0.0,-1478.4,0
GRID,21507,0,107.5292,0.0,-1479.18,0
GRID,21508,0,105.0721,0.0,-1479.94,0
GRID,21509,0,102.6062,0.0,-1480.68,0
GRID,21510,0,100.1316,0.0,-1481.38,0
GRID,21511,0,97.64869,0.0,-1482.06,0
GRID,21512,0,95.15771,0.0,-1482.72,0
GRID,21513,0,92.65898,0.0,-1483.34,0
GRID,21514,0,90.15278,0.0,-1483.94,0
GRID,21515,0,87.63942,0.0,-1484.51,0
GRID,21516,0,85.11918,0.0,-1485.06,0
GRID,21517,0,82.59238,0.0,-1485.58,0
GRID,21518,0,80.0593,0.0,-1486.07,0
GRID,21519,0,77.52027,0.0,-1486.53,0
GRID,21520,0,74.97557,0.0,-1486.97,0
GRID,21521,0,72.42551,0.0,-1487.38,0
GRID,21522,0,69.8704,0.0,-1487.76,0
GRID,21523,0,67.31054,0.0,-1488.11,0
GRID,21524,0,64.74623,0.0,-1488.44,0
GRID,21525,0,62.17778,0.0,-1488.74,0
GRID,21526,0,59.6055,0.0,-1489.01,0
GRID,21527,0,57.02969,0.0,-1489.25,0
GRID,21528,0,54.45067,0.0,-1489.47,0
GRID,21529,0,51.86875,0.0,-1489.65,0
GRID,21530,0,49.28424,0.0,-1489.81,0
GRID,21531,0,46.69744,0.0,-1489.95,0
GRID,21532,0,44.10866,0.0,-1490.05,0
GRID,21533,0,41.51822,0.0,-1490.12,0
GRID,21534,0,38.92642,0.0,-1490.17,0
GRID,21535,0,36.33359,0.0,-1490.19,0
GRID,21536,0,33.74003,0.0,-1490.18,0
GRID,21537,0,31.14606,0.0,-1490.15,0
GRID,21538,0,28.55198,0.0,-1490.08,0
GRID,21539,0,25.95812,0.0,-1489.99,0
GRID,21540,0,23.36478,0.0,-1489.87,0
GRID,21541,0,20.77229,0.0,-1489.72,0
GRID,21542,0,18.18095,0.0,-1489.54,0
GRID,21543,0,15.59108,0.0,-1489.33,0
GRID,21544,0,13.00299,0.0,-1489.1,0
GRID,21545,0,10.41698,0.0,-1488.84,0
GRID,21546,0,7.833373,0.0,-1488.55,0
GRID,21547,0,5.252465,0.0,-1488.23,0
GRID,21548,0,2.674571,0.0,-1487.89,0
GRID,21549,0,357.6533,0.0,-1052.65,0
GRID,21550,0,357.6533,0.0,-1055.3,0
GRID,21551,0,357.6533,0.0,-1057.95,0
GRID,21552,0,357.6533,0.0,-1060.6,0
GRID,21553,0,357.6533,0.0,-1063.26,0
GRID,21554,0,357.6533,0.0,-1065.91,0
GRID,21555,0,357.6533,0.0,-1068.56,0
GRID,21556,0,357.6501,0.0,-1071.14,0
GRID,21557,0,357.6406,0.0,-1073.72,0
GRID,21558,0,357.6248,0.0,-1076.3,0
GRID,21559,0,357.6028,0.0,-1078.88,0
GRID,21560,0,357.5746,0.0,-1081.46,0
GRID,21561,0,357.5401,0.0,-1084.04,0
GRID,21562,0,357.4994,0.0,-1086.62,0
GRID,21563,0,357.4524,0.0,-1089.2,0
GRID,21564,0,357.3992,0.0,-1091.78,0
GRID,21565,0,357.3397,0.0,-1094.36,0
GRID,21566,0,357.274,0.0,-1096.94,0
GRID,21567,0,357.2019,0.0,-1099.52,0
GRID,21568,0,357.1236,0.0,-1102.09,0
GRID,21569,0,357.0391,0.0,-1104.67,0
GRID,21570,0,356.9483,0.0,-1107.25,0
GRID,21571,0,356.8512,0.0,-1109.82,0
GRID,21572,0,356.7479,0.0,-1112.4,0
GRID,21573,0,356.6384,0.0,-1114.97,0
GRID,21574,0,356.5226,0.0,-1117.55,0
GRID,21575,0,356.4006,0.0,-1120.12,0
GRID,21576,0,356.2724,0.0,-1122.69,0
GRID,21577,0,356.138,0.0,-1125.26,0
GRID,21578,0,355.9974,0.0,-1127.83,0
GRID,21579,0,355.8505,0.0,-1130.4,0
GRID,21580,0,355.6975,0.0,-1132.97,0
GRID,21581,0,355.5383,0.0,-1135.54,0
GRID,21582,0,355.3729,0.0,-1138.11,0
GRID,21583,0,355.2013,0.0,-1140.67,0
GRID,21584,0,355.0236,0.0,-1143.24,0
GRID,21585,0,354.8396,0.0,-1145.8,0
GRID,21586,0,354.6496,0.0,-1148.36,0
GRID,21587,0,354.4533,0.0,-1150.92,0
GRID,21588,0,354.251,0.0,-1153.48,0
GRID,21589,0,354.0425,0.0,-1156.04,0
GRID,21590,0,353.8279,0.0,-1158.6,0
GRID,21591,0,353.6071,0.0,-1161.15,0
GRID,21592,0,353.3803,0.0,-1163.71,0
GRID,21593,0,353.1474,0.0,-1166.26,0
GRID,21594,0,352.9084,0.0,-1168.81,0
GRID,21595,0,352.6633,0.0,-1171.36,0
GRID,21596,0,352.4122,0.0,-1173.91,0
GRID,21597,0,352.1549,0.0,-1176.45,0
GRID,21598,0,351.8917,0.0,-1179.0,0
GRID,21599,0,351.6224,0.0,-1181.54,0
GRID,21600,0,351.3471,0.0,-1184.08,0
GRID,21601,0,351.0658,0.0,-1186.62,0
GRID,21602,0,350.7785,0.0,-1189.16,0
GRID,21603,0,350.4851,0.0,-1191.7,0
GRID,21604,0,350.1776,0.0,-1194.23,0
GRID,21605,0,349.8479,0.0,-1196.77,0
GRID,21606,0,349.4962,0.0,-1199.3,0
GRID,21607,0,349.1224,0.0,-1201.83,0
GRID,21608,0,348.7265,0.0,-1204.35,0
GRID,21609,0,348.3085,0.0,-1206.88,0
GRID,21610,0,347.8685,0.0,-1209.4,0
GRID,21611,0,347.4064,0.0,-1211.92,0
GRID,21612,0,346.9222,0.0,-1214.43,0
GRID,21613,0,346.4161,0.0,-1216.94,0
GRID,21614,0,345.8879,0.0,-1219.45,0
GRID,21615,0,345.3378,0.0,-1221.95,0
GRID,21616,0,344.7659,0.0,-1224.45,0
GRID,21617,0,344.172,0.0,-1226.94,0
GRID,21618,0,343.5564,0.0,-1229.43,0
GRID,21619,0,342.919,0.0,-1231.91,0
GRID,21620,0,342.2598,0.0,-1234.39,0
GRID,21621,0,341.5789,0.0,-1236.87,0
GRID,21622,0,340.8764,0.0,-1239.33,0
GRID,21623,0,340.1523,0.0,-1241.8,0
GRID,21624,0,339.4066,0.0,-1244.25,0
GRID,21625,0,338.6394,0.0,-1246.7,0
GRID,21626,0,337.8507,0.0,-1249.15,0
GRID,21627,0,337.0407,0.0,-1251.58,0
GRID,21628,0,336.2093,0.0,-1254.01,0
GRID,21629,0,335.3566,0.0,-1256.44,0
GRID,21630,0,334.4827,0.0,-1258.85,0
GRID,21631,0,333.5876,0.0,-1261.26,0
GRID,21632,0,332.6714,0.0,-1263.67,0
GRID,21633,0,331.7342,0.0,-1266.06,0
GRID,21634,0,330.776,0.0,-1268.45,0
GRID,21635,0,329.7969,0.0,-1270.83,0
GRID,21636,0,328.797,0.0,-1273.2,0
GRID,21637,0,327.7764,0.0,-1275.56,0
GRID,21638,0,326.735,0.0,-1277.91,0
GRID,21639,0,325.6731,0.0,-1280.26,0
GRID,21640,0,324.5906,0.0,-1282.59,0
GRID,21641,0,323.4876,0.0,-1284.92,0
GRID,21642,0,322.3643,0.0,-1287.23,0
GRID,21643,0,321.2207,0.0,-1289.54,0
GRID,21644,0,320.0569,0.0,-1291.84,0
GRID,21645,0,318.8731,0.0,-1294.13,0
GRID,21646,0,317.6691,0.0,-1296.4,0
GRID,21647,0,316.4453,0.0,-1298.67,0
GRID,21648,0,315.2016,0.0,-1300.93,0
GRID,21649,0,313.9381,0.0,-1303.18,0
GRID,21650,0,312.655,0.0,-1305.41,0
GRID,21651,0,311.3523,0.0,-1307.64,0
GRID,21652,0,310.0302,0.0,-1309.85,0
GRID,21653,0,308.6887,0.0,-1312.05,0
GRID,21654,0,307.328,0.0,-1314.24,0
GRID,21655,0,305.948,0.0,-1316.42,0
GRID,21656,0,304.5491,0.0,-1318.59,0
GRID,21657,0,303.1312,0.0,-1320.74,0
GRID,21658,0,301.6944,0.0,-1322.89,0
GRID,21659,0,300.239,0.0,-1325.02,0
GRID,21660,0,298.7649,0.0,-1327.13,0
GRID,21661,0,297.2723,0.0,-1329.24,0
GRID,21662,0,295.7614,0.0,-1331.33,0
GRID,21663,0,294.2322,0.0,-1333.41,0
GRID,21664,0,292.6848,0.0,-1335.48,0
GRID,21665,0,291.1193,0.0,-1337.53,0
GRID,21666,0,289.536,0.0,-1339.57,0
GRID,21667,0,287.9348,0.0,-1341.59,0
GRID,21668,0,286.316,0.0,-1343.6,0
GRID,21669,0,284.6796,0.0,-1345.6,0
GRID,21670,0,283.0258,0.0,-1347.59,0
GRID,21671,0,281.3548,0.0,-1349.55,0
GRID,21672,0,279.6666,0.0,-1351.51,0
GRID,21673,0,277.9614,0.0,-1353.45,0
GRID,21674,0,276.2393,0.0,-1355.37,0
GRID,21675,0,274.5004,0.0,-1357.28,0
GRID,21676,0,272.7449,0.0,-1359.18,0
GRID,21677,0,270.973,0.0,-1361.06,0
GRID,21678,0,269.1793,0.0,-1362.93,0
GRID,21679,0,267.3737,0.0,-1364.79,0
GRID,21680,0,265.5566,0.0,-1366.65,0
GRID,21681,0,263.7279,0.0,-1368.49,0
GRID,21682,0,261.9256,0.0,-1370.29,0
GRID,21683,0,260.1233,0.0,-1372.09,0
GRID,21684,0,258.321,0.0,-1373.89,0
GRID,21685,0,256.5187,0.0,-1375.7,0
GRID,21686,0,254.7164,0.0,-1377.5,0
GRID,21687,0,252.9141,0.0,-1379.3,0
GRID,21688,0,251.1118,0.0,-1381.1,0
GRID,21689,0,249.3096,0.0,-1382.9,0
GRID,21690,0,247.5073,0.0,-1384.71,0
GRID,21691,0,245.6621,0.0,-1386.54,0
GRID,21692,0,243.8063,0.0,-1388.36,0
GRID,21693,0,241.94,0.0,-1390.18,0
GRID,21694,0,240.0631,0.0,-1391.98,0
GRID,21695,0,238.1759,0.0,-1393.77,0
GRID,21696,0,236.2784,0.0,-1395.55,0
GRID,21697,0,234.3707,0.0,-1397.31,0
GRID,21698,0,232.4529,0.0,-1399.07,0
GRID,21699,0,230.5251,0.0,-1400.81,0
GRID,21700,0,228.5875,0.0,-1402.54,0
GRID,21701,0,226.64,0.0,-1404.27,0
GRID,21702,0,224.683,0.0,-1405.97,0
GRID,21703,0,222.7164,0.0,-1407.67,0
GRID,21704,0,220.7403,0.0,-1409.35,0
GRID,21705,0,218.755,0.0,-1411.03,0
GRID,21706,0,216.7605,0.0,-1412.69,0
GRID,21707,0,214.757,0.0,-1414.34,0
GRID,21708,0,212.7445,0.0,-1415.97,0
GRID,21709,0,210.7231,0.0,-1417.59,0
GRID,21710,0,208.693,0.0,-1419.2,0
GRID,21711,0,206.6544,0.0,-1420.8,0
GRID,21712,0,204.6073,0.0,-1422.39,0
GRID,21713,0,202.5518,0.0,-1423.96,0
GRID,21714,0,200.4881,0.0,-1425.52,0
GRID,21715,0,198.4163,0.0,-1427.06,0
GRID,21716,0,196.3365,0.0,-1428.6,0
GRID,21717,0,194.2488,0.0,-1430.12,0
GRID,21718,0,192.1534,0.0,-1431.62,0
GRID,21719,0,190.0504,0.0,-1433.12,0
GRID,21720,0,187.9399,0.0,-1434.6,0
GRID,21721,0,185.822,0.0,-1436.06,0
GRID,21722,0,183.6969,0.0,-1437.52,0
GRID,21723,0,181.5648,0.0,-1438.96,0
GRID,21724,0,179.4256,0.0,-1440.38,0
GRID,21725,0,177.2796,0.0,-1441.79,0
GRID,21726,0,175.1269,0.0,-1443.19,0
GRID,21727,0,172.9676,0.0,-1444.58,0
GRID,21728,0,170.8019,0.0,-1445.95,0
GRID,21729,0,168.6298,0.0,-1447.3,0
GRID,21730,0,166.4516,0.0,-1448.65,0
GRID,21731,0,164.2672,0.0,-1449.98,0
GRID,21732,0,162.077,0.0,-1451.29,0
GRID,21733,0,159.881,0.0,-1452.59,0
GRID,21734,0,157.6794,0.0,-1453.88,0
GRID,21735,0,155.4722,0.0,-1455.15,0
GRID,21736,0,153.2596,0.0,-1456.41,0
GRID,21737,0,151.0418,0.0,-1457.65,0
GRID,21738,0,148.8189,0.0,-1458.88,0
GRID,21739,0,146.591,0.0,-1460.09,0
GRID,21740,0,144.3515,0.0,-1461.29,0
GRID,21741,0,142.0984,0.0,-1462.46,0
GRID,21742,0,139.8317,0.0,-1463.61,0
GRID,21743,0,137.5518,0.0,-1464.74,0
GRID,21744,0,135.259,0.0,-1465.84,0
GRID,21745,0,132.9533,0.0,-1466.91,0
GRID,21746,0,130.6352,0.0,-1467.96,0
GRID,21747,0,128.3049,0.0,-1468.99,0
GRID,21748,0,125.9626,0.0,-1469.99,0
GRID,21749,0,123.6086,0.0,-1470.97,0
GRID,21750,0,121.2432,0.0,-1471.92,0
GRID,21751,0,118.8668,0.0,-1472.84,0
GRID,21752,0,116.4795,0.0,-1473.74,0
GRID,21753,0,114.0817,0.0,-1474.62,0
GRID,21754,0,111.6736,0.0,-1475.47,0
GRID,21755,0,109.2556,0.0,-1476.29,0
GRID,21756,0,106.8279,0.0,-1477.08,0
GRID,21757,0,104.3907,0.0,-1477.85,0
GRID,21758,0,101.9445,0.0,-1478.6,0
GRID,21759,0,99.48949,0.0,-1479.32,0
GRID,21760,0,97.02595,0.0,-1480.01,0
GRID,21761,0,94.55419,0.0,-1480.67,0
GRID,21762,0,92.07451,0.0,-1481.31,0
GRID,21763,0,89.5872,0.0,-1481.92,0
GRID,21764,0,87.09256,0.0,-1482.5,0
GRID,21765,0,84.59088,0.0,-1483.06,0
GRID,21766,0,82.08246,0.0,-1483.59,0
GRID,21767,0,79.56762,0.0,-1484.09,0
GRID,21768,0,77.04665,0.0,-1484.57,0
GRID,21769,0,74.51986,0.0,-1485.01,0
GRID,21770,0,71.98755,0.0,-1485.43,0
GRID,21771,0,69.45003,0.0,-1485.83,0
GRID,21772,0,66.9076,0.0,-1486.19,0
GRID,21773,0,64.36057,0.0,-1486.53,0
GRID,21774,0,61.80925,0.0,-1486.84,0
GRID,21775,0,59.25394,0.0,-1487.12,0
GRID,21776,0,56.69495,0.0,-1487.38,0
GRID,21777,0,54.1326,0.0,-1487.61,0
GRID,21778,0,51.5672,0.0,-1487.81,0
GRID,21779,0,48.99906,0.0,-1487.98,0
GRID,21780,0,46.42849,0.0,-1488.12,0
GRID,21781,0,43.8558,0.0,-1488.24,0
GRID,21782,0,41.2813,0.0,-1488.32,0
GRID,21783,0,38.7053,0.0,-1488.38,0
GRID,21784,0,36.12813,0.0,-1488.41,0
GRID,21785,0,33.55009,0.0,-1488.42,0
GRID,21786,0,30.9715,0.0,-1488.39,0
GRID,21787,0,28.39268,0.0,-1488.34,0
GRID,21788,0,25.81393,0.0,-1488.26,0
GRID,21789,0,23.23558,0.0,-1488.15,0
GRID,21790,0,20.65794,0.0,-1488.01,0
GRID,21791,0,18.08133,0.0,-1487.85,0
GRID,21792,0,15.50606,0.0,-1487.65,0
GRID,21793,0,12.93244,0.0,-1487.43,0
GRID,21794,0,10.36078,0.0,-1487.18,0
GRID,21795,0,7.791398,0.0,-1486.9,0
GRID,21796,0,5.224599,0.0,-1486.6,0
GRID,21797,0,2.660696,0.0,-1486.26,0
GRID,21798,0,355.8517,0.0,-1052.64,0
GRID,21799,0,355.8517,0.0,-1055.28,0
GRID,21800,0,355.8517,0.0,-1057.91,0
GRID,21801,0,355.8517,0.0,-1060.55,0
GRID,21802,0,355.8517,0.0,-1063.19,0
GRID,21803,0,355.8517,0.0,-1065.83,0
GRID,21804,0,355.8517,0.0,-1068.47,0
GRID,21805,0,355.8483,0.0,-1071.03,0
GRID,21806,0,355.8384,0.0,-1073.6,0
GRID,21807,0,355.8221,0.0,-1076.16,0
GRID,21808,0,355.7994,0.0,-1078.73,0
GRID,21809,0,355.7701,0.0,-1081.29,0
GRID,21810,0,355.7344,0.0,-1083.86,0
GRID,21811,0,355.6922,0.0,-1086.42,0
GRID,21812,0,355.6436,0.0,-1088.99,0
GRID,21813,0,355.5885,0.0,-1091.55,0
GRID,21814,0,355.5268,0.0,-1094.11,0
GRID,21815,0,355.4587,0.0,-1096.68,0
GRID,21816,0,355.3841,0.0,-1099.24,0
GRID,21817,0,355.3031,0.0,-1101.8,0
GRID,21818,0,355.2155,0.0,-1104.36,0
GRID,21819,0,355.1214,0.0,-1106.93,0
GRID,21820,0,355.0209,0.0,-1109.49,0
GRID,21821,0,354.9139,0.0,-1112.05,0
GRID,21822,0,354.8005,0.0,-1114.6,0
GRID,21823,0,354.6806,0.0,-1117.16,0
GRID,21824,0,354.5542,0.0,-1119.72,0
GRID,21825,0,354.4214,0.0,-1122.28,0
GRID,21826,0,354.2822,0.0,-1124.83,0
GRID,21827,0,354.1366,0.0,-1127.39,0
GRID,21828,0,353.9845,0.0,-1129.94,0
GRID,21829,0,353.826,0.0,-1132.49,0
GRID,21830,0,353.6611,0.0,-1135.05,0
GRID,21831,0,353.4898,0.0,-1137.6,0
GRID,21832,0,353.3121,0.0,-1140.15,0
GRID,21833,0,353.128,0.0,-1142.69,0
GRID,21834,0,352.9375,0.0,-1145.24,0
GRID,21835,0,352.7406,0.0,-1147.79,0
GRID,21836,0,352.5374,0.0,-1150.33,0
GRID,21837,0,352.3278,0.0,-1152.88,0
GRID,21838,0,352.1119,0.0,-1155.42,0
GRID,21839,0,351.8896,0.0,-1157.96,0
GRID,21840,0,351.661,0.0,-1160.5,0
GRID,21841,0,351.426,0.0,-1163.03,0
GRID,21842,0,351.1848,0.0,-1165.57,0
GRID,21843,0,350.9373,0.0,-1168.11,0
GRID,21844,0,350.6834,0.0,-1170.64,0
GRID,21845,0,350.4233,0.0,-1173.17,0
GRID,21846,0,350.1569,0.0,-1175.7,0
GRID,21847,0,349.8843,0.0,-1178.23,0
GRID,21848,0,349.6053,0.0,-1180.75,0
GRID,21849,0,349.3202,0.0,-1183.28,0
GRID,21850,0,349.0288,0.0,-1185.8,0
GRID,21851,0,348.7313,0.0,-1188.32,0
GRID,21852,0,348.4275,0.0,-1190.84,0
GRID,21853,0,348.1095,0.0,-1193.36,0
GRID,21854,0,347.7697,0.0,-1195.88,0
GRID,21855,0,347.4081,0.0,-1198.39,0
GRID,21856,0,347.0247,0.0,-1200.9,0
GRID,21857,0,346.6196,0.0,-1203.41,0
GRID,21858,0,346.1927,0.0,-1205.92,0
GRID,21859,0,345.744,0.0,-1208.42,0
GRID,21860,0,345.2735,0.0,-1210.92,0
GRID,21861,0,344.7812,0.0,-1213.42,0
GRID,21862,0,344.2673,0.0,-1215.91,0
GRID,21863,0,343.7316,0.0,-1218.4,0
GRID,21864,0,343.1744,0.0,-1220.88,0
GRID,21865,0,342.5955,0.0,-1223.36,0
GRID,21866,0,341.9951,0.0,-1225.84,0
GRID,21867,0,341.3731,0.0,-1228.31,0
GRID,21868,0,340.7297,0.0,-1230.78,0
GRID,21869,0,340.0648,0.0,-1233.24,0
GRID,21870,0,339.3785,0.0,-1235.69,0
GRID,21871,0,338.6708,0.0,-1238.14,0
GRID,21872,0,337.9419,0.0,-1240.59,0
GRID,21873,0,337.1916,0.0,-1243.03,0
GRID,21874,0,336.4202,0.0,-1245.46,0
GRID,21875,0,335.6276,0.0,-1247.88,0
GRID,21876,0,334.8138,0.0,-1250.3,0
GRID,21877,0,333.9791,0.0,-1252.72,0
GRID,21878,0,333.1233,0.0,-1255.12,0
GRID,21879,0,332.2466,0.0,-1257.52,0
GRID,21880,0,331.349,0.0,-1259.91,0
GRID,21881,0,330.4306,0.0,-1262.3,0
GRID,21882,0,329.4915,0.0,-1264.68,0
GRID,21883,0,328.5316,0.0,-1267.04,0
GRID,21884,0,327.5512,0.0,-1269.41,0
GRID,21885,0,326.5502,0.0,-1271.76,0
GRID,21886,0,325.5288,0.0,-1274.1,0
GRID,21887,0,324.4869,0.0,-1276.44,0
GRID,21888,0,323.4247,0.0,-1278.77,0
GRID,21889,0,322.3423,0.0,-1281.08,0
GRID,21890,0,321.2397,0.0,-1283.39,0
GRID,21891,0,320.117,0.0,-1285.69,0
GRID,21892,0,318.9743,0.0,-1287.98,0
GRID,21893,0,317.8117,0.0,-1290.27,0
GRID,21894,0,316.6293,0.0,-1292.54,0
GRID,21895,0,315.4271,0.0,-1294.8,0
GRID,21896,0,314.2052,0.0,-1297.05,0
GRID,21897,0,312.9638,0.0,-1299.29,0
GRID,21898,0,311.7029,0.0,-1301.52,0
GRID,21899,0,310.4226,0.0,-1303.74,0
GRID,21900,0,309.123,0.0,-1305.95,0
GRID,21901,0,307.8042,0.0,-1308.14,0
GRID,21902,0,306.4663,0.0,-1310.33,0
GRID,21903,0,305.1094,0.0,-1312.5,0
GRID,21904,0,303.7337,0.0,-1314.67,0
GRID,21905,0,302.3391,0.0,-1316.82,0
GRID,21906,0,300.9258,0.0,-1318.96,0
GRID,21907,0,299.494,0.0,-1321.09,0
GRID,21908,0,298.0437,0.0,-1323.2,0
GRID,21909,0,296.575,0.0,-1325.3,0
GRID,21910,0,295.0881,0.0,-1327.39,0
GRID,21911,0,293.5831,0.0,-1329.47,0
GRID,21912,0,292.06,0.0,-1331.54,0
GRID,21913,0,290.519,0.0,-1333.59,0
GRID,21914,0,288.9602,0.0,-1335.63,0
GRID,21915,0,287.3838,0.0,-1337.65,0
GRID,21916,0,285.7897,0.0,-1339.66,0
GRID,21917,0,284.1782,0.0,-1341.66,0
GRID,21918,0,282.5495,0.0,-1343.64,0
GRID,21919,0,280.9035,0.0,-1345.61,0
GRID,21920,0,279.2405,0.0,-1347.57,0
GRID,21921,0,277.5606,0.0,-1349.51,0
GRID,21922,0,275.8639,0.0,-1351.43,0
GRID,21923,0,274.1506,0.0,-1353.35,0
GRID,21924,0,272.4206,0.0,-1355.24,0
GRID,21925,0,270.6744,0.0,-1357.13,0
GRID,21926,0,268.9118,0.0,-1358.99,0
GRID,21927,0,267.1275,0.0,-1360.85,0
GRID,21928,0,265.3317,0.0,-1362.71,0
GRID,21929,0,263.5247,0.0,-1364.55,0
GRID,21930,0,261.7065,0.0,-1366.38,0
GRID,21931,0,259.9139,0.0,-1368.17,0
GRID,21932,0,258.1213,0.0,-1369.96,0
GRID,21933,0,256.3287,0.0,-1371.75,0
GRID,21934,0,254.536,0.0,-1373.55,0
GRID,21935,0,252.7434,0.0,-1375.34,0
GRID,21936,0,250.9508,0.0,-1377.13,0
GRID,21937,0,249.1582,0.0,-1378.92,0
GRID,21938,0,247.3656,0.0,-1380.72,0
GRID,21939,0,245.573,0.0,-1382.51,0
GRID,21940,0,243.7388,0.0,-1384.33,0
GRID,21941,0,241.8944,0.0,-1386.15,0
GRID,21942,0,240.0397,0.0,-1387.95,0
GRID,21943,0,238.1749,0.0,-1389.74,0
GRID,21944,0,236.3,0.0,-1391.52,0
GRID,21945,0,234.4151,0.0,-1393.29,0
GRID,21946,0,232.5204,0.0,-1395.05,0
GRID,21947,0,230.6159,0.0,-1396.8,0
GRID,21948,0,228.7017,0.0,-1398.53,0
GRID,21949,0,226.778,0.0,-1400.26,0
GRID,21950,0,224.8447,0.0,-1401.97,0
GRID,21951,0,222.9022,0.0,-1403.67,0
GRID,21952,0,220.9504,0.0,-1405.36,0
GRID,21953,0,218.9895,0.0,-1407.04,0
GRID,21954,0,217.0195,0.0,-1408.71,0
GRID,21955,0,215.0407,0.0,-1410.36,0
GRID,21956,0,213.0531,0.0,-1412.0,0
GRID,21957,0,211.0569,0.0,-1413.64,0
GRID,21958,0,209.052,0.0,-1415.25,0
GRID,21959,0,207.0388,0.0,-1416.86,0
GRID,21960,0,205.0172,0.0,-1418.46,0
GRID,21961,0,202.9874,0.0,-1420.04,0
GRID,21962,0,200.9495,0.0,-1421.61,0
GRID,21963,0,198.9036,0.0,-1423.16,0
GRID,21964,0,196.8499,0.0,-1424.71,0
GRID,21965,0,194.7884,0.0,-1426.24,0
GRID,21966,0,192.7194,0.0,-1427.76,0
GRID,21967,0,190.6428,0.0,-1429.27,0
GRID,21968,0,188.5589,0.0,-1430.76,0
GRID,21969,0,186.4677,0.0,-1432.24,0
GRID,21970,0,184.3694,0.0,-1433.71,0
GRID,21971,0,182.264,0.0,-1435.16,0
GRID,21972,0,180.1518,0.0,-1436.6,0
GRID,21973,0,178.0329,0.0,-1438.03,0
GRID,21974,0,175.9073,0.0,-1439.44,0
GRID,21975,0,173.7752,0.0,-1440.85,0
GRID,21976,0,171.6368,0.0,-1442.23,0
GRID,21977,0,169.4921,0.0,-1443.61,0
GRID,21978,0,167.3412,0.0,-1444.97,0
GRID,21979,0,165.1844,0.0,-1446.32,0
GRID,21980,0,163.0217,0.0,-1447.65,0
GRID,21981,0,160.8533,0.0,-1448.97,0
GRID,21982,0,158.6792,0.0,-1450.28,0
GRID,21983,0,156.4997,0.0,-1451.57,0
GRID,21984,0,154.3149,0.0,-1452.85,0
GRID,21985,0,152.1248,0.0,-1454.11,0
GRID,21986,0,149.9297,0.0,-1455.37,0
GRID,21987,0,147.7296,0.0,-1456.6,0
GRID,21988,0,145.5247,0.0,-1457.83,0
GRID,21989,0,143.3081,0.0,-1459.03,0
GRID,21990,0,141.0776,0.0,-1460.21,0
GRID,21991,0,138.8335,0.0,-1461.37,0
GRID,21992,0,136.576,0.0,-1462.51,0
GRID,21993,0,134.3053,0.0,-1463.62,0
GRID,21994,0,132.0217,0.0,-1464.7,0
GRID,21995,0,129.7254,0.0,-1465.76,0
GRID,21996,0,127.4167,0.0,-1466.8,0
GRID,21997,0,125.0959,0.0,-1467.81,0
GRID,21998,0,122.7632,0.0,-1468.8,0
GRID,21999,0,120.4189,0.0,-1469.76,0
GRID,22000,0,118.0634,0.0,-1470.69,0
GRID,22001,0,115.6969,0.0,-1471.6,0
GRID,22002,0,113.3196,0.0,-1472.49,0
GRID,22003,0,110.932,0.0,-1473.35,0
GRID,22004,0,108.5342,0.0,-1474.18,0
GRID,22005,0,106.1266,0.0,-1474.99,0
GRID,22006,0,103.7093,0.0,-1475.77,0
GRID,22007,0,101.2828,0.0,-1476.52,0
GRID,22008,0,98.84737,0.0,-1477.25,0
GRID,22009,0,96.40322,0.0,-1477.95,0
GRID,22010,0,93.95068,0.0,-1478.63,0
GRID,22011,0,91.49005,0.0,-1479.27,0
GRID,22012,0,89.02162,0.0,-1479.9,0
GRID,22013,0,86.5457,0.0,-1480.49,0
GRID,22014,0,84.06257,0.0,-1481.06,0
GRID,22015,0,81.57255,0.0,-1481.6,0
GRID,22016,0,79.07593,0.0,-1482.11,0
GRID,22017,0,76.57303,0.0,-1482.6,0
GRID,22018,0,74.06415,0.0,-1483.06,0
GRID,22019,0,71.54959,0.0,-1483.49,0
GRID,22020,0,69.02966,0.0,-1483.9,0
GRID,22021,0,66.50467,0.0,-1484.27,0
GRID,22022,0,63.97492,0.0,-1484.62,0
GRID,22023,0,61.44071,0.0,-1484.95,0
GRID,22024,0,58.90237,0.0,-1485.24,0
GRID,22025,0,56.36021,0.0,-1485.51,0
GRID,22026,0,53.81453,0.0,-1485.74,0
GRID,22027,0,51.26565,0.0,-1485.96,0
GRID,22028,0,48.71389,0.0,-1486.14,0
GRID,22029,0,46.15954,0.0,-1486.29,0
GRID,22030,0,43.60293,0.0,-1486.42,0
GRID,22031,0,41.04438,0.0,-1486.52,0
GRID,22032,0,38.48418,0.0,-1486.59,0
GRID,22033,0,35.92267,0.0,-1486.64,0
GRID,22034,0,33.36015,0.0,-1486.65,0
GRID,22035,0,30.79695,0.0,-1486.64,0
GRID,22036,0,28.23337,0.0,-1486.6,0
GRID,22037,0,25.66974,0.0,-1486.53,0
GRID,22038,0,23.10637,0.0,-1486.43,0
GRID,22039,0,20.54359,0.0,-1486.31,0
GRID,22040,0,17.98171,0.0,-1486.15,0
GRID,22041,0,15.42103,0.0,-1485.97,0
GRID,22042,0,12.86189,0.0,-1485.76,0
GRID,22043,0,10.30458,0.0,-1485.52,0
GRID,22044,0,7.749424,0.0,-1485.26,0
GRID,22045,0,5.196733,0.0,-1484.96,0
GRID,22046,0,2.646821,0.0,-1484.64,0
GRID,22047,0,354.05,0.0,-1052.63,0
GRID,22048,0,354.05,0.0,-1055.25,0
GRID,22049,0,354.05,0.0,-1057.88,0
GRID,22050,0,354.05,0.0,-1060.5,0
GRID,22051,0,354.05,0.0,-1063.13,0
GRID,22052,0,354.05,0.0,-1065.75,0
GRID,22053,0,354.05,0.0,-1068.38,0
GRID,22054,0,354.0465,0.0,-1070.93,0
GRID,22055,0,354.0363,0.0,-1073.48,0
GRID,22056,0,354.0194,0.0,-1076.03,0
GRID,22057,0,353.9959,0.0,-1078.58,0
GRID,22058,0,353.9656,0.0,-1081.13,0
GRID,22059,0,353.9287,0.0,-1083.68,0
GRID,22060,0,353.8851,0.0,-1086.23,0
GRID,22061,0,353.8347,0.0,-1088.77,0
GRID,22062,0,353.7777,0.0,-1091.32,0
GRID,22063,0,353.714,0.0,-1093.87,0
GRID,22064,0,353.6435,0.0,-1096.42,0
GRID,22065,0,353.5664,0.0,-1098.97,0
GRID,22066,0,353.4825,0.0,-1101.51,0
GRID,22067,0,353.3919,0.0,-1104.06,0
GRID,22068,0,353.2946,0.0,-1106.6,0
GRID,22069,0,353.1906,0.0,-1109.15,0
GRID,22070,0,353.0799,0.0,-1111.69,0
GRID,22071,0,352.9625,0.0,-1114.24,0
GRID,22072,0,352.8385,0.0,-1116.78,0
GRID,22073,0,352.7078,0.0,-1119.32,0
GRID,22074,0,352.5704,0.0,-1121.86,0
GRID,22075,0,352.4264,0.0,-1124.4,0
GRID,22076,0,352.2758,0.0,-1126.94,0
GRID,22077,0,352.1184,0.0,-1129.48,0
GRID,22078,0,351.9545,0.0,-1132.01,0
GRID,22079,0,351.7839,0.0,-1134.55,0
GRID,22080,0,351.6067,0.0,-1137.09,0
GRID,22081,0,351.4228,0.0,-1139.62,0
GRID,22082,0,351.2324,0.0,-1142.15,0
GRID,22083,0,351.0353,0.0,-1144.68,0
GRID,22084,0,350.8317,0.0,-1147.21,0
GRID,22085,0,350.6214,0.0,-1149.74,0
GRID,22086,0,350.4046,0.0,-1152.27,0
GRID,22087,0,350.1812,0.0,-1154.79,0
GRID,22088,0,349.9513,0.0,-1157.32,0
GRID,22089,0,349.7148,0.0,-1159.84,0
GRID,22090,0,349.4718,0.0,-1162.36,0
GRID,22091,0,349.2222,0.0,-1164.88,0
GRID,22092,0,348.9661,0.0,-1167.4,0
GRID,22093,0,348.7035,0.0,-1169.92,0
GRID,22094,0,348.4345,0.0,-1172.43,0
GRID,22095,0,348.1589,0.0,-1174.94,0
GRID,22096,0,347.8768,0.0,-1177.46,0
GRID,22097,0,347.5883,0.0,-1179.96,0
GRID,22098,0,347.2933,0.0,-1182.47,0
GRID,22099,0,346.9919,0.0,-1184.98,0
GRID,22100,0,346.6841,0.0,-1187.48,0
GRID,22101,0,346.3698,0.0,-1189.98,0
GRID,22102,0,346.0414,0.0,-1192.48,0
GRID,22103,0,345.6914,0.0,-1194.98,0
GRID,22104,0,345.32,0.0,-1197.48,0
GRID,22105,0,344.9271,0.0,-1199.98,0
GRID,22106,0,344.5127,0.0,-1202.47,0
GRID,22107,0,344.0768,0.0,-1204.96,0
GRID,22108,0,343.6194,0.0,-1207.44,0
GRID,22109,0,343.1406,0.0,-1209.93,0
GRID,22110,0,342.6402,0.0,-1212.41,0
GRID,22111,0,342.1185,0.0,-1214.88,0
GRID,22112,0,341.5754,0.0,-1217.35,0
GRID,22113,0,341.0109,0.0,-1219.82,0
GRID,22114,0,340.4251,0.0,-1222.28,0
GRID,22115,0,339.8181,0.0,-1224.74,0
GRID,22116,0,339.1898,0.0,-1227.19,0
GRID,22117,0,338.5404,0.0,-1229.64,0
GRID,22118,0,337.8698,0.0,-1232.08,0
GRID,22119,0,337.1781,0.0,-1234.52,0
GRID,22120,0,336.4653,0.0,-1236.95,0
GRID,22121,0,335.7315,0.0,-1239.38,0
GRID,22122,0,334.9767,0.0,-1241.8,0
GRID,22123,0,334.201,0.0,-1244.22,0
GRID,22124,0,333.4044,0.0,-1246.62,0
GRID,22125,0,332.587,0.0,-1249.03,0
GRID,22126,0,331.7489,0.0,-1251.42,0
GRID,22127,0,330.89,0.0,-1253.81,0
GRID,22128,0,330.0105,0.0,-1256.19,0
GRID,22129,0,329.1104,0.0,-1258.57,0
GRID,22130,0,328.1898,0.0,-1260.93,0
GRID,22131,0,327.2487,0.0,-1263.29,0
GRID,22132,0,326.2873,0.0,-1265.64,0
GRID,22133,0,325.3055,0.0,-1267.99,0
GRID,22134,0,324.3034,0.0,-1270.32,0
GRID,22135,0,323.2812,0.0,-1272.65,0
GRID,22136,0,322.2388,0.0,-1274.97,0
GRID,22137,0,321.1764,0.0,-1277.28,0
GRID,22138,0,320.0941,0.0,-1279.58,0
GRID,22139,0,318.9918,0.0,-1281.87,0
GRID,22140,0,317.8697,0.0,-1284.15,0
GRID,22141,0,316.728,0.0,-1286.43,0
GRID,22142,0,315.5665,0.0,-1288.69,0
GRID,22143,0,314.3855,0.0,-1290.95,0
GRID,22144,0,313.1851,0.0,-1293.19,0
GRID,22145,0,311.9652,0.0,-1295.42,0
GRID,22146,0,310.726,0.0,-1297.65,0
GRID,22147,0,309.4677,0.0,-1299.86,0
GRID,22148,0,308.1902,0.0,-1302.07,0
GRID,22149,0,306.8937,0.0,-1304.26,0
GRID,22150,0,305.5782,0.0,-1306.44,0
GRID,22151,0,304.2439,0.0,-1308.61,0
GRID,22152,0,302.8909,0.0,-1310.77,0
GRID,22153,0,301.5193,0.0,-1312.91,0
GRID,22154,0,300.1291,0.0,-1315.05,0
GRID,22155,0,298.7205,0.0,-1317.17,0
GRID,22156,0,297.2936,0.0,-1319.29,0
GRID,22157,0,295.8484,0.0,-1321.39,0
GRID,22158,0,294.3852,0.0,-1323.47,0
GRID,22159,0,292.9039,0.0,-1325.55,0
GRID,22160,0,291.4048,0.0,-1327.61,0
GRID,22161,0,289.8879,0.0,-1329.66,0
GRID,22162,0,288.3533,0.0,-1331.7,0
GRID,22163,0,286.8011,0.0,-1333.72,0
GRID,22164,0,285.2315,0.0,-1335.73,0
GRID,22165,0,283.6446,0.0,-1337.73,0
GRID,22166,0,282.0405,0.0,-1339.71,0
GRID,22167,0,280.4193,0.0,-1341.68,0
GRID,22168,0,278.7812,0.0,-1343.64,0
GRID,22169,0,277.1263,0.0,-1345.58,0
GRID,22170,0,275.4547,0.0,-1347.51,0
GRID,22171,0,273.7665,0.0,-1349.42,0
GRID,22172,0,272.0618,0.0,-1351.32,0
GRID,22173,0,270.3409,0.0,-1353.2,0
GRID,22174,0,268.6038,0.0,-1355.07,0
GRID,22175,0,266.8506,0.0,-1356.93,0
GRID,22176,0,265.0757,0.0,-1358.78,0
GRID,22177,0,263.2897,0.0,-1360.62,0
GRID,22178,0,261.4928,0.0,-1362.45,0
GRID,22179,0,259.6851,0.0,-1364.27,0
GRID,22180,0,257.9022,0.0,-1366.05,0
GRID,22181,0,256.1193,0.0,-1367.83,0
GRID,22182,0,254.3363,0.0,-1369.61,0
GRID,22183,0,252.5534,0.0,-1371.4,0
GRID,22184,0,250.7704,0.0,-1373.18,0
GRID,22185,0,248.9875,0.0,-1374.96,0
GRID,22186,0,247.2046,0.0,-1376.75,0
GRID,22187,0,245.4216,0.0,-1378.53,0
GRID,22188,0,243.6387,0.0,-1380.31,0
GRID,22189,0,241.8156,0.0,-1382.12,0
GRID,22190,0,239.9825,0.0,-1383.93,0
GRID,22191,0,238.1395,0.0,-1385.72,0
GRID,22192,0,236.2866,0.0,-1387.5,0
GRID,22193,0,234.4241,0.0,-1389.27,0
GRID,22194,0,232.5519,0.0,-1391.03,0
GRID,22195,0,230.6701,0.0,-1392.78,0
GRID,22196,0,228.7789,0.0,-1394.52,0
GRID,22197,0,226.8783,0.0,-1396.25,0
GRID,22198,0,224.9684,0.0,-1397.97,0
GRID,22199,0,223.0494,0.0,-1399.67,0
GRID,22200,0,221.1214,0.0,-1401.37,0
GRID,22201,0,219.1844,0.0,-1403.05,0
GRID,22202,0,217.2386,0.0,-1404.73,0
GRID,22203,0,215.2841,0.0,-1406.39,0
GRID,22204,0,213.3209,0.0,-1408.04,0
GRID,22205,0,211.3493,0.0,-1409.67,0
GRID,22206,0,209.3693,0.0,-1411.3,0
GRID,22207,0,207.381,0.0,-1412.92,0
GRID,22208,0,205.3845,0.0,-1414.52,0
GRID,22209,0,203.3799,0.0,-1416.11,0
GRID,22210,0,201.3675,0.0,-1417.69,0
GRID,22211,0,199.3472,0.0,-1419.26,0
GRID,22212,0,197.3191,0.0,-1420.81,0
GRID,22213,0,195.2835,0.0,-1422.35,0
GRID,22214,0,193.2404,0.0,-1423.88,0
GRID,22215,0,191.1899,0.0,-1425.4,0
GRID,22216,0,189.1322,0.0,-1426.91,0
GRID,22217,0,187.0673,0.0,-1428.4,0
GRID,22218,0,184.9955,0.0,-1429.88,0
GRID,22219,0,182.9167,0.0,-1431.35,0
GRID,22220,0,180.8311,0.0,-1432.81,0
GRID,22221,0,178.7389,0.0,-1434.25,0
GRID,22222,0,176.6402,0.0,-1435.68,0
GRID,22223,0,174.535,0.0,-1437.1,0
GRID,22224,0,172.4235,0.0,-1438.5,0
GRID,22225,0,170.3059,0.0,-1439.89,0
GRID,22226,0,168.1822,0.0,-1441.27,0
GRID,22227,0,166.0526,0.0,-1442.64,0
GRID,22228,0,163.9172,0.0,-1443.99,0
GRID,22229,0,161.7761,0.0,-1445.33,0
GRID,22230,0,159.6295,0.0,-1446.65,0
GRID,22231,0,157.4775,0.0,-1447.96,0
GRID,22232,0,155.3201,0.0,-1449.26,0
GRID,22233,0,153.1576,0.0,-1450.55,0
GRID,22234,0,150.99,0.0,-1451.82,0
GRID,22235,0,148.8175,0.0,-1453.08,0
GRID,22236,0,146.6403,0.0,-1454.33,0
GRID,22237,0,144.4583,0.0,-1455.56,0
GRID,22238,0,142.2646,0.0,-1456.77,0
GRID,22239,0,140.0569,0.0,-1457.96,0
GRID,22240,0,137.8353,0.0,-1459.13,0
GRID,22241,0,135.6001,0.0,-1460.28,0
GRID,22242,0,133.3516,0.0,-1461.4,0
GRID,22243,0,131.09,0.0,-1462.49,0
GRID,22244,0,128.8156,0.0,-1463.56,0
GRID,22245,0,126.5285,0.0,-1464.61,0
GRID,22246,0,124.2291,0.0,-1465.63,0
GRID,22247,0,121.9177,0.0,-1466.62,0
GRID,22248,0,119.5946,0.0,-1467.6,0
GRID,22249,0,117.26,0.0,-1468.54,0
GRID,22250,0,114.9143,0.0,-1469.46,0
GRID,22251,0,112.5576,0.0,-1470.36,0
GRID,22252,0,110.1904,0.0,-1471.23,0
GRID,22253,0,107.8128,0.0,-1472.07,0
GRID,22254,0,105.4252,0.0,-1472.89,0
GRID,22255,0,103.0279,0.0,-1473.68,0
GRID,22256,0,100.6212,0.0,-1474.44,0
GRID,22257,0,98.20525,0.0,-1475.18,0
GRID,22258,0,95.78048,0.0,-1475.89,0
GRID,22259,0,93.34716,0.0,-1476.58,0
GRID,22260,0,90.90559,0.0,-1477.24,0
GRID,22261,0,88.45604,0.0,-1477.87,0
GRID,22262,0,85.99884,0.0,-1478.48,0
GRID,22263,0,83.53427,0.0,-1479.06,0
GRID,22264,0,81.06264,0.0,-1479.61,0
GRID,22265,0,78.58425,0.0,-1480.14,0
GRID,22266,0,76.09942,0.0,-1480.63,0
GRID,22267,0,73.60844,0.0,-1481.11,0
GRID,22268,0,71.11163,0.0,-1481.55,0
GRID,22269,0,68.60929,0.0,-1481.97,0
GRID,22270,0,66.10173,0.0,-1482.35,0
GRID,22271,0,63.58926,0.0,-1482.72,0
GRID,22272,0,61.07218,0.0,-1483.05,0
GRID,22273,0,58.55081,0.0,-1483.35,0
GRID,22274,0,56.02547,0.0,-1483.63,0
GRID,22275,0,53.49646,0.0,-1483.88,0
GRID,22276,0,50.9641,0.0,-1484.11,0
GRID,22277,0,48.42871,0.0,-1484.3,0
GRID,22278,0,45.8906,0.0,-1484.47,0
GRID,22279,0,43.35007,0.0,-1484.61,0
GRID,22280,0,40.80745,0.0,-1484.72,0
GRID,22281,0,38.26306,0.0,-1484.8,0
GRID,22282,0,35.71721,0.0,-1484.86,0
GRID,22283,0,33.17021,0.0,-1484.88,0
GRID,22284,0,30.62239,0.0,-1484.88,0
GRID,22285,0,28.07407,0.0,-1484.85,0
GRID,22286,0,25.52556,0.0,-1484.8,0
GRID,22287,0,22.97717,0.0,-1484.71,0
GRID,22288,0,20.42924,0.0,-1484.6,0
GRID,22289,0,17.88208,0.0,-1484.46,0
GRID,22290,0,15.33601,0.0,-1484.29,0
GRID,22291,0,12.79134,0.0,-1484.09,0
GRID,22292,0,10.24838,0.0,-1483.87,0
GRID,22293,0,7.70745,0.0,-1483.61,0
GRID,22294,0,5.168868,0.0,-1483.33,0
GRID,22295,0,2.632946,0.0,-1483.02,0
GRID,22296,0,352.2483,0.0,-1052.61,0
GRID,22297,0,352.2483,0.0,-1055.23,0
GRID,22298,0,352.2483,0.0,-1057.84,0
GRID,22299,0,352.2483,0.0,-1060.45,0
GRID,22300,0,352.2483,0.0,-1063.06,0
GRID,22301,0,352.2483,0.0,-1065.68,0
GRID,22302,0,352.2483,0.0,-1068.29,0
GRID,22303,0,352.2447,0.0,-1070.82,0
GRID,22304,0,352.2342,0.0,-1073.36,0
GRID,22305,0,352.2168,0.0,-1075.89,0
GRID,22306,0,352.1924,0.0,-1078.43,0
GRID,22307,0,352.1612,0.0,-1080.96,0
GRID,22308,0,352.123,0.0,-1083.49,0
GRID,22309,0,352.0779,0.0,-1086.03,0
GRID,22310,0,352.0259,0.0,-1088.56,0
GRID,22311,0,351.967,0.0,-1091.09,0
GRID,22312,0,351.9011,0.0,-1093.63,0
GRID,22313,0,351.8283,0.0,-1096.16,0
GRID,22314,0,351.7486,0.0,-1098.69,0
GRID,22315,0,351.6619,0.0,-1101.22,0
GRID,22316,0,351.5683,0.0,-1103.75,0
GRID,22317,0,351.4677,0.0,-1106.28,0
GRID,22318,0,351.3603,0.0,-1108.81,0
GRID,22319,0,351.2459,0.0,-1111.34,0
GRID,22320,0,351.1246,0.0,-1113.87,0
GRID,22321,0,350.9965,0.0,-1116.39,0
GRID,22322,0,350.8614,0.0,-1118.92,0
GRID,22323,0,350.7195,0.0,-1121.44,0
GRID,22324,0,350.5706,0.0,-1123.97,0
GRID,22325,0,350.4149,0.0,-1126.49,0
GRID,22326,0,350.2524,0.0,-1129.01,0
GRID,22327,0,350.083,0.0,-1131.54,0
GRID,22328,0,349.9067,0.0,-1134.06,0
GRID,22329,0,349.7236,0.0,-1136.57,0
GRID,22330,0,349.5336,0.0,-1139.09,0
GRID,22331,0,349.3368,0.0,-1141.61,0
GRID,22332,0,349.1332,0.0,-1144.12,0
GRID,22333,0,348.9227,0.0,-1146.64,0
GRID,22334,0,348.7055,0.0,-1149.15,0
GRID,22335,0,348.4814,0.0,-1151.66,0
GRID,22336,0,348.2506,0.0,-1154.17,0
GRID,22337,0,348.013,0.0,-1156.68,0
GRID,22338,0,347.7686,0.0,-1159.19,0
GRID,22339,0,347.5175,0.0,-1161.69,0
GRID,22340,0,347.2596,0.0,-1164.19,0
GRID,22341,0,346.995,0.0,-1166.69,0
GRID,22342,0,346.7237,0.0,-1169.19,0
GRID,22343,0,346.4456,0.0,-1171.69,0
GRID,22344,0,346.1608,0.0,-1174.19,0
GRID,22345,0,345.8694,0.0,-1176.68,0
GRID,22346,0,345.5712,0.0,-1179.18,0
GRID,22347,0,345.2664,0.0,-1181.67,0
GRID,22348,0,344.955,0.0,-1184.16,0
GRID,22349,0,344.6369,0.0,-1186.64,0
GRID,22350,0,344.3121,0.0,-1189.13,0
GRID,22351,0,343.9733,0.0,-1191.61,0
GRID,22352,0,343.6132,0.0,-1194.09,0
GRID,22353,0,343.2319,0.0,-1196.57,0
GRID,22354,0,342.8294,0.0,-1199.05,0
GRID,22355,0,342.4058,0.0,-1201.53,0
GRID,22356,0,341.9609,0.0,-1204.0,0
GRID,22357,0,341.4949,0.0,-1206.47,0
GRID,22358,0,341.0077,0.0,-1208.93,0
GRID,22359,0,340.4992,0.0,-1211.39,0
GRID,22360,0,339.9697,0.0,-1213.85,0
GRID,22361,0,339.4191,0.0,-1216.3,0
GRID,22362,0,338.8474,0.0,-1218.75,0
GRID,22363,0,338.2548,0.0,-1221.2,0
GRID,22364,0,337.6411,0.0,-1223.64,0
GRID,22365,0,337.0066,0.0,-1226.07,0
GRID,22366,0,336.3511,0.0,-1228.5,0
GRID,22367,0,335.6748,0.0,-1230.93,0
GRID,22368,0,334.9776,0.0,-1233.35,0
GRID,22369,0,334.2597,0.0,-1235.76,0
GRID,22370,0,333.5211,0.0,-1238.17,0
GRID,22371,0,332.7617,0.0,-1240.58,0
GRID,22372,0,331.9818,0.0,-1242.97,0
GRID,22373,0,331.1812,0.0,-1245.36,0
GRID,22374,0,330.3602,0.0,-1247.75,0
GRID,22375,0,329.5187,0.0,-1250.12,0
GRID,22376,0,328.6567,0.0,-1252.5,0
GRID,22377,0,327.7744,0.0,-1254.86,0
GRID,22378,0,326.8718,0.0,-1257.22,0
GRID,22379,0,325.949,0.0,-1259.57,0
GRID,22380,0,325.006,0.0,-1261.91,0
GRID,22381,0,324.0429,0.0,-1264.24,0
GRID,22382,0,323.0597,0.0,-1266.57,0
GRID,22383,0,322.0566,0.0,-1268.89,0
GRID,22384,0,321.0336,0.0,-1271.19,0
GRID,22385,0,319.9908,0.0,-1273.5,0
GRID,22386,0,318.9281,0.0,-1275.79,0
GRID,22387,0,317.8458,0.0,-1278.07,0
GRID,22388,0,316.7439,0.0,-1280.35,0
GRID,22389,0,315.6225,0.0,-1282.61,0
GRID,22390,0,314.4816,0.0,-1284.87,0
GRID,22391,0,313.3213,0.0,-1287.12,0
GRID,22392,0,312.1418,0.0,-1289.36,0
GRID,22393,0,310.943,0.0,-1291.58,0
GRID,22394,0,309.7252,0.0,-1293.8,0
GRID,22395,0,308.4883,0.0,-1296.01,0
GRID,22396,0,307.2324,0.0,-1298.21,0
GRID,22397,0,305.9578,0.0,-1300.39,0
GRID,22398,0,304.6643,0.0,-1302.57,0
GRID,22399,0,303.3522,0.0,-1304.73,0
GRID,22400,0,302.0215,0.0,-1306.89,0
GRID,22401,0,300.6724,0.0,-1309.03,0
GRID,22402,0,299.3049,0.0,-1311.16,0
GRID,22403,0,297.9191,0.0,-1313.28,0
GRID,22404,0,296.5151,0.0,-1315.39,0
GRID,22405,0,295.0931,0.0,-1317.49,0
GRID,22406,0,293.6531,0.0,-1319.57,0
GRID,22407,0,292.1953,0.0,-1321.64,0
GRID,22408,0,290.7197,0.0,-1323.7,0
GRID,22409,0,289.2265,0.0,-1325.75,0
GRID,22410,0,287.7157,0.0,-1327.79,0
GRID,22411,0,286.1876,0.0,-1329.81,0
GRID,22412,0,284.642,0.0,-1331.82,0
GRID,22413,0,283.0793,0.0,-1333.81,0
GRID,22414,0,281.4995,0.0,-1335.8,0
GRID,22415,0,279.9028,0.0,-1337.77,0
GRID,22416,0,278.2892,0.0,-1339.72,0
GRID,22417,0,276.6589,0.0,-1341.66,0
GRID,22418,0,275.012,0.0,-1343.59,0
GRID,22419,0,273.3487,0.0,-1345.51,0
GRID,22420,0,271.669,0.0,-1347.41,0
GRID,22421,0,269.9731,0.0,-1349.29,0
GRID,22422,0,268.2611,0.0,-1351.16,0
GRID,22423,0,266.5332,0.0,-1353.02,0
GRID,22424,0,264.7894,0.0,-1354.86,0
GRID,22425,0,263.0239,0.0,-1356.7,0
GRID,22426,0,261.2477,0.0,-1358.53,0
GRID,22427,0,259.4609,0.0,-1360.35,0
GRID,22428,0,257.6638,0.0,-1362.16,0
GRID,22429,0,255.8905,0.0,-1363.93,0
GRID,22430,0,254.1172,0.0,-1365.7,0
GRID,22431,0,252.344,0.0,-1367.48,0
GRID,22432,0,250.5707,0.0,-1369.25,0
GRID,22433,0,248.7974,0.0,-1371.02,0
GRID,22434,0,247.0242,0.0,-1372.79,0
GRID,22435,0,245.2509,0.0,-1374.57,0
GRID,22436,0,243.4776,0.0,-1376.34,0
GRID,22437,0,241.7044,0.0,-1378.11,0
GRID,22438,0,239.8923,0.0,-1379.92,0
GRID,22439,0,238.0705,0.0,-1381.71,0
GRID,22440,0,236.2392,0.0,-1383.49,0
GRID,22441,0,234.3984,0.0,-1385.26,0
GRID,22442,0,232.5481,0.0,-1387.03,0
GRID,22443,0,230.6886,0.0,-1388.78,0
GRID,22444,0,228.8198,0.0,-1390.52,0
GRID,22445,0,226.9419,0.0,-1392.25,0
GRID,22446,0,225.0549,0.0,-1393.97,0
GRID,22447,0,223.1589,0.0,-1395.68,0
GRID,22448,0,221.2541,0.0,-1397.38,0
GRID,22449,0,219.3406,0.0,-1399.07,0
GRID,22450,0,217.4184,0.0,-1400.74,0
GRID,22451,0,215.4877,0.0,-1402.41,0
GRID,22452,0,213.5486,0.0,-1404.07,0
GRID,22453,0,211.6011,0.0,-1405.71,0
GRID,22454,0,209.6455,0.0,-1407.34,0
GRID,22455,0,207.6817,0.0,-1408.97,0
GRID,22456,0,205.7099,0.0,-1410.58,0
GRID,22457,0,203.7302,0.0,-1412.18,0
GRID,22458,0,201.7427,0.0,-1413.76,0
GRID,22459,0,199.7476,0.0,-1415.34,0
GRID,22460,0,197.7449,0.0,-1416.9,0
GRID,22461,0,195.7347,0.0,-1418.46,0
GRID,22462,0,193.7172,0.0,-1420.0,0
GRID,22463,0,191.6924,0.0,-1421.53,0
GRID,22464,0,189.6605,0.0,-1423.05,0
GRID,22465,0,187.6216,0.0,-1424.55,0
GRID,22466,0,185.5758,0.0,-1426.04,0
GRID,22467,0,183.5232,0.0,-1427.53,0
GRID,22468,0,181.464,0.0,-1428.99,0
GRID,22469,0,179.3982,0.0,-1430.45,0
GRID,22470,0,177.326,0.0,-1431.9,0
GRID,22471,0,175.2474,0.0,-1433.33,0
GRID,22472,0,173.1627,0.0,-1434.75,0
GRID,22473,0,171.0719,0.0,-1436.15,0
GRID,22474,0,168.9751,0.0,-1437.55,0
GRID,22475,0,166.8724,0.0,-1438.93,0
GRID,22476,0,164.764,0.0,-1440.3,0
GRID,22477,0,162.6501,0.0,-1441.66,0
GRID,22478,0,160.5306,0.0,-1443.0,0
GRID,22479,0,158.4058,0.0,-1444.33,0
GRID,22480,0,156.2757,0.0,-1445.65,0
GRID,22481,0,154.1405,0.0,-1446.96,0
GRID,22482,0,152.0003,0.0,-1448.25,0
GRID,22483,0,149.8552,0.0,-1449.53,0
GRID,22484,0,147.7054,0.0,-1450.8,0
GRID,22485,0,145.5509,0.0,-1452.05,0
GRID,22486,0,143.392,0.0,-1453.29,0
GRID,22487,0,141.2212,0.0,-1454.51,0
GRID,22488,0,139.0361,0.0,-1455.72,0
GRID,22489,0,136.8371,0.0,-1456.89,0
GRID,22490,0,134.6243,0.0,-1458.05,0
GRID,22491,0,132.3979,0.0,-1459.17,0
GRID,22492,0,130.1583,0.0,-1460.28,0
GRID,22493,0,127.9057,0.0,-1461.36,0
GRID,22494,0,125.6403,0.0,-1462.42,0
GRID,22495,0,123.3624,0.0,-1463.45,0
GRID,22496,0,121.0723,0.0,-1464.45,0
GRID,22497,0,118.7703,0.0,-1465.43,0
GRID,22498,0,116.4566,0.0,-1466.39,0
GRID,22499,0,114.1316,0.0,-1467.32,0
GRID,22500,0,111.7956,0.0,-1468.23,0
GRID,22501,0,109.4488,0.0,-1469.11,0
GRID,22502,0,107.0915,0.0,-1469.96,0
GRID,22503,0,104.7239,0.0,-1470.79,0
GRID,22504,0,102.3465,0.0,-1471.59,0
GRID,22505,0,99.95948,0.0,-1472.37,0
GRID,22506,0,97.56313,0.0,-1473.12,0
GRID,22507,0,95.15775,0.0,-1473.84,0
GRID,22508,0,92.74365,0.0,-1474.54,0
GRID,22509,0,90.32112,0.0,-1475.21,0
GRID,22510,0,87.89047,0.0,-1475.85,0
GRID,22511,0,85.45198,0.0,-1476.47,0
GRID,22512,0,83.00597,0.0,-1477.06,0
GRID,22513,0,80.55272,0.0,-1477.62,0
GRID,22514,0,78.09257,0.0,-1478.16,0
GRID,22515,0,75.6258,0.0,-1478.67,0
GRID,22516,0,73.15273,0.0,-1479.15,0
GRID,22517,0,70.67367,0.0,-1479.61,0
GRID,22518,0,68.18892,0.0,-1480.03,0
GRID,22519,0,65.69879,0.0,-1480.43,0
GRID,22520,0,63.2036,0.0,-1480.81,0
GRID,22521,0,60.70365,0.0,-1481.15,0
GRID,22522,0,58.19925,0.0,-1481.47,0
GRID,22523,0,55.69073,0.0,-1481.76,0
GRID,22524,0,53.17839,0.0,-1482.02,0
GRID,22525,0,50.66255,0.0,-1482.26,0
GRID,22526,0,48.14353,0.0,-1482.46,0
GRID,22527,0,45.62165,0.0,-1482.64,0
GRID,22528,0,43.09721,0.0,-1482.79,0
GRID,22529,0,40.57053,0.0,-1482.92,0
GRID,22530,0,38.04194,0.0,-1483.01,0
GRID,22531,0,35.51175,0.0,-1483.08,0
GRID,22532,0,32.98027,0.0,-1483.12,0
GRID,22533,0,30.44784,0.0,-1483.13,0
GRID,22534,0,27.91477,0.0,-1483.11,0
GRID,22535,0,25.38137,0.0,-1483.07,0
GRID,22536,0,22.84797,0.0,-1482.99,0
GRID,22537,0,20.31489,0.0,-1482.89,0
GRID,22538,0,17.78246,0.0,-1482.76,0
GRID,22539,0,15.25098,0.0,-1482.61,0
GRID,22540,0,12.72078,0.0,-1482.42,0
GRID,22541,0,10.19218,0.0,-1482.21,0
GRID,22542,0,7.665476,0.0,-1481.97,0
GRID,22543,0,5.141002,0.0,-1481.7,0
GRID,22544,0,2.619071,0.0,-1481.4,0
GRID,22545,0,350.4467,0.0,-1052.6,0
GRID,22546,0,350.4467,0.0,-1055.2,0
GRID,22547,0,350.4467,0.0,-1057.8,0
GRID,22548,0,350.4467,0.0,-1060.4,0
GRID,22549,0,350.4467,0.0,-1063.0,0
GRID,22550,0,350.4467,0.0,-1065.6,0
GRID,22551,0,350.4467,0.0,-1068.2,0
GRID,22552,0,350.4429,0.0,-1070.72,0
GRID,22553,0,350.4321,0.0,-1073.24,0
GRID,22554,0,350.4141,0.0,-1075.75,0
GRID,22555,0,350.3889,0.0,-1078.27,0
GRID,22556,0,350.3567,0.0,-1080.79,0
GRID,22557,0,350.3173,0.0,-1083.31,0
GRID,22558,0,350.2707,0.0,-1085.83,0
GRID,22559,0,350.2171,0.0,-1088.35,0
GRID,22560,0,350.1562,0.0,-1090.86,0
GRID,22561,0,350.0882,0.0,-1093.38,0
GRID,22562,0,350.0131,0.0,-1095.9,0
GRID,22563,0,349.9308,0.0,-1098.41,0
GRID,22564,0,349.8413,0.0,-1100.93,0
GRID,22565,0,349.7447,0.0,-1103.44,0
GRID,22566,0,349.6409,0.0,-1105.96,0
GRID,22567,0,349.5299,0.0,-1108.47,0
GRID,22568,0,349.4119,0.0,-1110.99,0
GRID,22569,0,349.2867,0.0,-1113.5,0
GRID,22570,0,349.1544,0.0,-1116.01,0
GRID,22571,0,349.015,0.0,-1118.52,0
GRID,22572,0,348.8685,0.0,-1121.03,0
GRID,22573,0,348.7149,0.0,-1123.54,0
GRID,22574,0,348.5541,0.0,-1126.04,0
GRID,22575,0,348.3863,0.0,-1128.55,0
GRID,22576,0,348.2114,0.0,-1131.06,0
GRID,22577,0,348.0295,0.0,-1133.56,0
GRID,22578,0,347.8405,0.0,-1136.06,0
GRID,22579,0,347.6444,0.0,-1138.57,0
GRID,22580,0,347.4412,0.0,-1141.07,0
GRID,22581,0,347.231,0.0,-1143.56,0
GRID,22582,0,347.0138,0.0,-1146.06,0
GRID,22583,0,346.7895,0.0,-1148.56,0
GRID,22584,0,346.5583,0.0,-1151.05,0
GRID,22585,0,346.32,0.0,-1153.55,0
GRID,22586,0,346.0747,0.0,-1156.04,0
GRID,22587,0,345.8225,0.0,-1158.53,0
GRID,22588,0,345.5632,0.0,-1161.02,0
GRID,22589,0,345.297,0.0,-1163.5,0
GRID,22590,0,345.0239,0.0,-1165.99,0
GRID,22591,0,344.7438,0.0,-1168.47,0
GRID,22592,0,344.4568,0.0,-1170.95,0
GRID,22593,0,344.1628,0.0,-1173.43,0
GRID,22594,0,343.8619,0.0,-1175.91,0
GRID,22595,0,343.5542,0.0,-1178.39,0
GRID,22596,0,343.2395,0.0,-1180.86,0
GRID,22597,0,342.918,0.0,-1183.33,0
GRID,22598,0,342.5897,0.0,-1185.8,0
GRID,22599,0,342.2545,0.0,-1188.27,0
GRID,22600,0,341.9051,0.0,-1190.74,0
GRID,22601,0,341.5349,0.0,-1193.2,0
GRID,22602,0,341.1438,0.0,-1195.67,0
GRID,22603,0,340.7318,0.0,-1198.13,0
GRID,22604,0,340.2989,0.0,-1200.58,0
GRID,22605,0,339.8451,0.0,-1203.04,0
GRID,22606,0,339.3703,0.0,-1205.49,0
GRID,22607,0,338.8747,0.0,-1207.94,0
GRID,22608,0,338.3582,0.0,-1210.38,0
GRID,22609,0,337.8209,0.0,-1212.82,0
GRID,22610,0,337.2628,0.0,-1215.25,0
GRID,22611,0,336.6839,0.0,-1217.69,0
GRID,22612,0,336.0844,0.0,-1220.11,0
GRID,22613,0,335.4641,0.0,-1222.54,0
GRID,22614,0,334.8233,0.0,-1224.95,0
GRID,22615,0,334.1618,0.0,-1227.37,0
GRID,22616,0,333.4798,0.0,-1229.77,0
GRID,22617,0,332.7772,0.0,-1232.18,0
GRID,22618,0,332.0541,0.0,-1234.57,0
GRID,22619,0,331.3106,0.0,-1236.96,0
GRID,22620,0,330.5468,0.0,-1239.35,0
GRID,22621,0,329.7626,0.0,-1241.73,0
GRID,22622,0,328.9581,0.0,-1244.1,0
GRID,22623,0,328.1333,0.0,-1246.47,0
GRID,22624,0,327.2884,0.0,-1248.83,0
GRID,22625,0,326.4234,0.0,-1251.18,0
GRID,22626,0,325.5383,0.0,-1253.53,0
GRID,22627,0,324.6332,0.0,-1255.87,0
GRID,22628,0,323.7082,0.0,-1258.2,0
GRID,22629,0,322.7633,0.0,-1260.52,0
GRID,22630,0,321.7985,0.0,-1262.84,0
GRID,22631,0,320.814,0.0,-1265.15,0
GRID,22632,0,319.8098,0.0,-1267.45,0
GRID,22633,0,318.786,0.0,-1269.74,0
GRID,22634,0,317.7427,0.0,-1272.02,0
GRID,22635,0,316.6798,0.0,-1274.3,0
GRID,22636,0,315.5976,0.0,-1276.57,0
GRID,22637,0,314.496,0.0,-1278.83,0
GRID,22638,0,313.3752,0.0,-1281.07,0
GRID,22639,0,312.2352,0.0,-1283.31,0
GRID,22640,0,311.0761,0.0,-1285.54,0
GRID,22641,0,309.898,0.0,-1287.76,0
GRID,22642,0,308.701,0.0,-1289.98,0
GRID,22643,0,307.4851,0.0,-1292.18,0
GRID,22644,0,306.2505,0.0,-1294.37,0
GRID,22645,0,304.9972,0.0,-1296.55,0
GRID,22646,0,303.7253,0.0,-1298.72,0
GRID,22647,0,302.435,0.0,-1300.88,0
GRID,22648,0,301.1262,0.0,-1303.03,0
GRID,22649,0,299.7992,0.0,-1305.17,0
GRID,22650,0,298.4539,0.0,-1307.29,0
GRID,22651,0,297.0905,0.0,-1309.41,0
GRID,22652,0,295.7091,0.0,-1311.51,0
GRID,22653,0,294.3098,0.0,-1313.61,0
GRID,22654,0,292.8927,0.0,-1315.69,0
GRID,22655,0,291.4579,0.0,-1317.76,0
GRID,22656,0,290.0054,0.0,-1319.81,0
GRID,22657,0,288.5355,0.0,-1321.86,0
GRID,22658,0,287.0482,0.0,-1323.89,0
GRID,22659,0,285.5436,0.0,-1325.91,0
GRID,22660,0,284.0218,0.0,-1327.92,0
GRID,22661,0,282.4829,0.0,-1329.91,0
GRID,22662,0,280.9271,0.0,-1331.9,0
GRID,22663,0,279.3544,0.0,-1333.86,0
GRID,22664,0,277.765,0.0,-1335.82,0
GRID,22665,0,276.1591,0.0,-1337.76,0
GRID,22666,0,274.5366,0.0,-1339.69,0
GRID,22667,0,272.8978,0.0,-1341.6,0
GRID,22668,0,271.2427,0.0,-1343.51,0
GRID,22669,0,269.5715,0.0,-1345.39,0
GRID,22670,0,267.8844,0.0,-1347.27,0
GRID,22671,0,266.1813,0.0,-1349.12,0
GRID,22672,0,264.4626,0.0,-1350.97,0
GRID,22673,0,262.7282,0.0,-1352.8,0
GRID,22674,0,260.9721,0.0,-1354.62,0
GRID,22675,0,259.2057,0.0,-1356.44,0
GRID,22676,0,257.4291,0.0,-1358.25,0
GRID,22677,0,255.6424,0.0,-1360.04,0
GRID,22678,0,253.8788,0.0,-1361.81,0
GRID,22679,0,252.1152,0.0,-1363.57,0
GRID,22680,0,250.3516,0.0,-1365.34,0
GRID,22681,0,248.588,0.0,-1367.1,0
GRID,22682,0,246.8244,0.0,-1368.86,0
GRID,22683,0,245.0609,0.0,-1370.63,0
GRID,22684,0,243.2973,0.0,-1372.39,0
GRID,22685,0,241.5337,0.0,-1374.15,0
GRID,22686,0,239.7701,0.0,-1375.92,0
GRID,22687,0,237.969,0.0,-1377.71,0
GRID,22688,0,236.1586,0.0,-1379.49,0
GRID,22689,0,234.3389,0.0,-1381.26,0
GRID,22690,0,232.5101,0.0,-1383.03,0
GRID,22691,0,230.6722,0.0,-1384.78,0
GRID,22692,0,228.8253,0.0,-1386.52,0
GRID,22693,0,226.9695,0.0,-1388.25,0
GRID,22694,0,225.1049,0.0,-1389.98,0
GRID,22695,0,223.2315,0.0,-1391.69,0
GRID,22696,0,221.3494,0.0,-1393.39,0
GRID,22697,0,219.4588,0.0,-1395.08,0
GRID,22698,0,217.5598,0.0,-1396.76,0
GRID,22699,0,215.6524,0.0,-1398.44,0
GRID,22700,0,213.7368,0.0,-1400.1,0
GRID,22701,0,211.8131,0.0,-1401.75,0
GRID,22702,0,209.8813,0.0,-1403.39,0
GRID,22703,0,207.9416,0.0,-1405.01,0
GRID,22704,0,205.9941,0.0,-1406.63,0
GRID,22705,0,204.0388,0.0,-1408.24,0
GRID,22706,0,202.0759,0.0,-1409.83,0
GRID,22707,0,200.1055,0.0,-1411.42,0
GRID,22708,0,198.1277,0.0,-1412.99,0
GRID,22709,0,196.1426,0.0,-1414.55,0
GRID,22710,0,194.1502,0.0,-1416.1,0
GRID,22711,0,192.1508,0.0,-1417.64,0
GRID,22712,0,190.1444,0.0,-1419.17,0
GRID,22713,0,188.1311,0.0,-1420.69,0
GRID,22714,0,186.111,0.0,-1422.19,0
GRID,22715,0,184.0843,0.0,-1423.69,0
GRID,22716,0,182.051,0.0,-1425.17,0
GRID,22717,0,180.0113,0.0,-1426.64,0
GRID,22718,0,177.9653,0.0,-1428.1,0
GRID,22719,0,175.9131,0.0,-1429.54,0
GRID,22720,0,173.8547,0.0,-1430.98,0
GRID,22721,0,171.7904,0.0,-1432.4,0
GRID,22722,0,169.7202,0.0,-1433.81,0
GRID,22723,0,167.6442,0.0,-1435.21,0
GRID,22724,0,165.5626,0.0,-1436.59,0
GRID,22725,0,163.4755,0.0,-1437.97,0
GRID,22726,0,161.3829,0.0,-1439.33,0
GRID,22727,0,159.285,0.0,-1440.68,0
GRID,22728,0,157.182,0.0,-1442.01,0
GRID,22729,0,155.0739,0.0,-1443.34,0
GRID,22730,0,152.9609,0.0,-1444.65,0
GRID,22731,0,150.843,0.0,-1445.95,0
GRID,22732,0,148.7204,0.0,-1447.24,0
GRID,22733,0,146.5933,0.0,-1448.51,0
GRID,22734,0,144.4616,0.0,-1449.77,0
GRID,22735,0,142.3256,0.0,-1451.02,0
GRID,22736,0,140.1777,0.0,-1452.26,0
GRID,22737,0,138.0154,0.0,-1453.47,0
GRID,22738,0,135.8389,0.0,-1454.65,0
GRID,22739,0,133.6484,0.0,-1455.81,0
GRID,22740,0,131.4443,0.0,-1456.95,0
GRID,22741,0,129.2267,0.0,-1458.07,0
GRID,22742,0,126.9959,0.0,-1459.16,0
GRID,22743,0,124.7521,0.0,-1460.22,0
GRID,22744,0,122.4957,0.0,-1461.26,0
GRID,22745,0,120.2268,0.0,-1462.28,0
GRID,22746,0,117.9459,0.0,-1463.27,0
GRID,22747,0,115.6532,0.0,-1464.24,0
GRID,22748,0,113.349,0.0,-1465.18,0
GRID,22749,0,111.0336,0.0,-1466.09,0
GRID,22750,0,108.7071,0.0,-1466.98,0
GRID,22751,0,106.3701,0.0,-1467.85,0
GRID,22752,0,104.0226,0.0,-1468.69,0
GRID,22753,0,101.6651,0.0,-1469.5,0
GRID,22754,0,99.29781,0.0,-1470.29,0
GRID,22755,0,96.92101,0.0,-1471.05,0
GRID,22756,0,94.53502,0.0,-1471.78,0
GRID,22757,0,92.14013,0.0,-1472.49,0
GRID,22758,0,89.73666,0.0,-1473.17,0
GRID,22759,0,87.32489,0.0,-1473.83,0
GRID,22760,0,84.90512,0.0,-1474.46,0
GRID,22761,0,82.47766,0.0,-1475.06,0
GRID,22762,0,80.04281,0.0,-1475.63,0
GRID,22763,0,77.60088,0.0,-1476.18,0
GRID,22764,0,75.15218,0.0,-1476.7,0
GRID,22765,0,72.69702,0.0,-1477.2,0
GRID,22766,0,70.23571,0.0,-1477.66,0
GRID,22767,0,67.76855,0.0,-1478.1,0
GRID,22768,0,65.29586,0.0,-1478.51,0
GRID,22769,0,62.81794,0.0,-1478.9,0
GRID,22770,0,60.33511,0.0,-1479.26,0
GRID,22771,0,57.84769,0.0,-1479.59,0
GRID,22772,0,55.35598,0.0,-1479.89,0
GRID,22773,0,52.86032,0.0,-1480.16,0
GRID,22774,0,50.361,0.0,-1480.41,0
GRID,22775,0,47.85836,0.0,-1480.63,0
GRID,22776,0,45.3527,0.0,-1480.82,0
GRID,22777,0,42.84435,0.0,-1480.98,0
GRID,22778,0,40.33361,0.0,-1481.11,0
GRID,22779,0,37.82082,0.0,-1481.22,0
GRID,22780,0,35.30628,0.0,-1481.3,0
GRID,22781,0,32.79033,0.0,-1481.35,0
GRID,22782,0,30.27329,0.0,-1481.38,0
GRID,22783,0,27.75546,0.0,-1481.37,0
GRID,22784,0,25.23718,0.0,-1481.34,0
GRID,22785,0,22.71877,0.0,-1481.28,0
GRID,22786,0,20.20054,0.0,-1481.19,0
GRID,22787,0,17.68284,0.0,-1481.07,0
GRID,22788,0,15.16596,0.0,-1480.92,0
GRID,22789,0,12.65023,0.0,-1480.75,0
GRID,22790,0,10.13597,0.0,-1480.55,0
GRID,22791,0,7.623501,0.0,-1480.32,0
GRID,22792,0,5.113136,0.0,-1480.06,0
GRID,22793,0,2.605196,0.0,-1479.78,0
GRID,22794,0,348.645,0.0,-1052.59,0
GRID,22795,0,348.645,0.0,-1055.17,0
GRID,22796,0,348.645,0.0,-1057.76,0
GRID,22797,0,348.645,0.0,-1060.35,0
GRID,22798,0,348.645,0.0,-1062.93,0
GRID,22799,0,348.645,0.0,-1065.52,0
GRID,22800,0,348.645,0.0,-1068.11,0
GRID,22801,0,348.6411,0.0,-1070.61,0
GRID,22802,0,348.6299,0.0,-1073.11,0
GRID,22803,0,348.6114,0.0,-1075.62,0
GRID,22804,0,348.5855,0.0,-1078.12,0
GRID,22805,0,348.5522,0.0,-1080.62,0
GRID,22806,0,348.5116,0.0,-1083.13,0
GRID,22807,0,348.4636,0.0,-1085.63,0
GRID,22808,0,348.4082,0.0,-1088.13,0
GRID,22809,0,348.3455,0.0,-1090.64,0
GRID,22810,0,348.2754,0.0,-1093.14,0
GRID,22811,0,348.1979,0.0,-1095.64,0
GRID,22812,0,348.113,0.0,-1098.14,0
GRID,22813,0,348.0207,0.0,-1100.64,0
GRID,22814,0,347.9211,0.0,-1103.14,0
GRID,22815,0,347.814,0.0,-1105.64,0
GRID,22816,0,347.6996,0.0,-1108.13,0
GRID,22817,0,347.5779,0.0,-1110.63,0
GRID,22818,0,347.4488,0.0,-1113.13,0
GRID,22819,0,347.3124,0.0,-1115.62,0
GRID,22820,0,347.1686,0.0,-1118.12,0
GRID,22821,0,347.0175,0.0,-1120.61,0
GRID,22822,0,346.8591,0.0,-1123.11,0
GRID,22823,0,346.6933,0.0,-1125.6,0
GRID,22824,0,346.5203,0.0,-1128.09,0
GRID,22825,0,346.3399,0.0,-1130.58,0
GRID,22826,0,346.1523,0.0,-1133.07,0
GRID,22827,0,345.9573,0.0,-1135.55,0
GRID,22828,0,345.7551,0.0,-1138.04,0
GRID,22829,0,345.5456,0.0,-1140.52,0
GRID,22830,0,345.3289,0.0,-1143.01,0
GRID,22831,0,345.1048,0.0,-1145.49,0
GRID,22832,0,344.8736,0.0,-1147.97,0
GRID,22833,0,344.6351,0.0,-1150.45,0
GRID,22834,0,344.3894,0.0,-1152.92,0
GRID,22835,0,344.1364,0.0,-1155.4,0
GRID,22836,0,343.8763,0.0,-1157.87,0
GRID,22837,0,343.6089,0.0,-1160.35,0
GRID,22838,0,343.3344,0.0,-1162.82,0
GRID,22839,0,343.0527,0.0,-1165.28,0
GRID,22840,0,342.7639,0.0,-1167.75,0
GRID,22841,0,342.4679,0.0,-1170.22,0
GRID,22842,0,342.1648,0.0,-1172.68,0
GRID,22843,0,341.8545,0.0,-1175.14,0
GRID,22844,0,341.5371,0.0,-1177.6,0
GRID,22845,0,341.2126,0.0,-1180.06,0
GRID,22846,0,340.8811,0.0,-1182.51,0
GRID,22847,0,340.5425,0.0,-1184.96,0
GRID,22848,0,340.1968,0.0,-1187.41,0
GRID,22849,0,339.837,0.0,-1189.86,0
GRID,22850,0,339.4567,0.0,-1192.31,0
GRID,22851,0,339.0557,0.0,-1194.76,0
GRID,22852,0,338.6342,0.0,-1197.2,0
GRID,22853,0,338.192,0.0,-1199.64,0
GRID,22854,0,337.7292,0.0,-1202.08,0
GRID,22855,0,337.2458,0.0,-1204.51,0
GRID,22856,0,336.7418,0.0,-1206.94,0
GRID,22857,0,336.2172,0.0,-1209.37,0
GRID,22858,0,335.6721,0.0,-1211.79,0
GRID,22859,0,335.1065,0.0,-1214.21,0
GRID,22860,0,334.5205,0.0,-1216.62,0
GRID,22861,0,333.914,0.0,-1219.03,0
GRID,22862,0,333.2872,0.0,-1221.43,0
GRID,22863,0,332.64,0.0,-1223.83,0
GRID,22864,0,331.9725,0.0,-1226.23,0
GRID,22865,0,331.2847,0.0,-1228.62,0
GRID,22866,0,330.5767,0.0,-1231.0,0
GRID,22867,0,329.8486,0.0,-1233.38,0
GRID,22868,0,329.1002,0.0,-1235.76,0
GRID,22869,0,328.3318,0.0,-1238.12,0
GRID,22870,0,327.5434,0.0,-1240.49,0
GRID,22871,0,326.7349,0.0,-1242.84,0
GRID,22872,0,325.9065,0.0,-1245.19,0
GRID,22873,0,325.0582,0.0,-1247.53,0
GRID,22874,0,324.1901,0.0,-1249.87,0
GRID,22875,0,323.3022,0.0,-1252.2,0
GRID,22876,0,322.3946,0.0,-1254.52,0
GRID,22877,0,321.4674,0.0,-1256.83,0
GRID,22878,0,320.5205,0.0,-1259.14,0
GRID,22879,0,319.5541,0.0,-1261.44,0
GRID,22880,0,318.5683,0.0,-1263.73,0
GRID,22881,0,317.563,0.0,-1266.01,0
GRID,22882,0,316.5384,0.0,-1268.29,0
GRID,22883,0,315.4946,0.0,-1270.55,0
GRID,22884,0,314.4315,0.0,-1272.81,0
GRID,22885,0,313.3493,0.0,-1275.06,0
GRID,22886,0,312.2481,0.0,-1277.3,0
GRID,22887,0,311.1279,0.0,-1279.53,0
GRID,22888,0,309.9888,0.0,-1281.76,0
GRID,22889,0,308.8309,0.0,-1283.97,0
GRID,22890,0,307.6543,0.0,-1286.17,0
GRID,22891,0,306.459,0.0,-1288.37,0
GRID,22892,0,305.2451,0.0,-1290.55,0
GRID,22893,0,304.0128,0.0,-1292.73,0
GRID,22894,0,302.762,0.0,-1294.89,0
GRID,22895,0,301.4929,0.0,-1297.05,0
GRID,22896,0,300.2057,0.0,-1299.19,0
GRID,22897,0,298.9002,0.0,-1301.32,0
GRID,22898,0,297.5768,0.0,-1303.44,0
GRID,22899,0,296.2354,0.0,-1305.56,0
GRID,22900,0,294.8761,0.0,-1307.66,0
GRID,22901,0,293.4991,0.0,-1309.74,0
GRID,22902,0,292.1045,0.0,-1311.82,0
GRID,22903,0,290.6922,0.0,-1313.89,0
GRID,22904,0,289.2626,0.0,-1315.94,0
GRID,22905,0,287.8156,0.0,-1317.98,0
GRID,22906,0,286.3513,0.0,-1320.01,0
GRID,22907,0,284.8699,0.0,-1322.03,0
GRID,22908,0,283.3715,0.0,-1324.04,0
GRID,22909,0,281.8561,0.0,-1326.03,0
GRID,22910,0,280.3239,0.0,-1328.01,0
GRID,22911,0,278.7749,0.0,-1329.98,0
GRID,22912,0,277.2094,0.0,-1331.93,0
GRID,22913,0,275.6273,0.0,-1333.87,0
GRID,22914,0,274.0289,0.0,-1335.8,0
GRID,22915,0,272.4143,0.0,-1337.72,0
GRID,22916,0,270.7835,0.0,-1339.62,0
GRID,22917,0,269.1367,0.0,-1341.51,0
GRID,22918,0,267.4741,0.0,-1343.38,0
GRID,22919,0,265.7956,0.0,-1345.24,0
GRID,22920,0,264.1016,0.0,-1347.08,0
GRID,22921,0,262.392,0.0,-1348.92,0
GRID,22922,0,260.6671,0.0,-1350.73,0
GRID,22923,0,258.9203,0.0,-1352.55,0
GRID,22924,0,257.1637,0.0,-1354.35,0
GRID,22925,0,255.3972,0.0,-1356.15,0
GRID,22926,0,253.621,0.0,-1357.93,0
GRID,22927,0,251.8671,0.0,-1359.69,0
GRID,22928,0,250.1132,0.0,-1361.44,0
GRID,22929,0,248.3593,0.0,-1363.2,0
GRID,22930,0,246.6054,0.0,-1364.95,0
GRID,22931,0,244.8514,0.0,-1366.7,0
GRID,22932,0,243.0975,0.0,-1368.46,0
GRID,22933,0,241.3436,0.0,-1370.21,0
GRID,22934,0,239.5897,0.0,-1371.97,0
GRID,22935,0,237.8358,0.0,-1373.72,0
GRID,22936,0,236.0457,0.0,-1375.5,0
GRID,22937,0,234.2467,0.0,-1377.27,0
GRID,22938,0,232.4387,0.0,-1379.03,0
GRID,22939,0,230.6219,0.0,-1380.79,0
GRID,22940,0,228.7963,0.0,-1382.53,0
GRID,22941,0,226.9621,0.0,-1384.26,0
GRID,22942,0,225.1192,0.0,-1385.99,0
GRID,22943,0,223.2678,0.0,-1387.7,0
GRID,22944,0,221.408,0.0,-1389.41,0
GRID,22945,0,219.5399,0.0,-1391.1,0
GRID,22946,0,217.6635,0.0,-1392.79,0
GRID,22947,0,215.779,0.0,-1394.46,0
GRID,22948,0,213.8864,0.0,-1396.13,0
GRID,22949,0,211.9859,0.0,-1397.78,0
GRID,22950,0,210.0776,0.0,-1399.43,0
GRID,22951,0,208.1615,0.0,-1401.06,0
GRID,22952,0,206.2378,0.0,-1402.68,0
GRID,22953,0,204.3065,0.0,-1404.3,0
GRID,22954,0,202.3677,0.0,-1405.9,0
GRID,22955,0,200.4216,0.0,-1407.49,0
GRID,22956,0,198.4683,0.0,-1409.07,0
GRID,22957,0,196.5078,0.0,-1410.64,0
GRID,22958,0,194.5402,0.0,-1412.2,0
GRID,22959,0,192.5658,0.0,-1413.75,0
GRID,22960,0,190.5844,0.0,-1415.29,0
GRID,22961,0,188.5964,0.0,-1416.82,0
GRID,22962,0,186.6017,0.0,-1418.33,0
GRID,22963,0,184.6004,0.0,-1419.84,0
GRID,22964,0,182.5928,0.0,-1421.33,0
GRID,22965,0,180.5788,0.0,-1422.81,0
GRID,22966,0,178.5587,0.0,-1424.28,0
GRID,22967,0,176.5324,0.0,-1425.74,0
GRID,22968,0,174.5001,0.0,-1427.19,0
GRID,22969,0,172.462,0.0,-1428.63,0
GRID,22970,0,170.4181,0.0,-1430.05,0
GRID,22971,0,168.3685,0.0,-1431.46,0
GRID,22972,0,166.3134,0.0,-1432.86,0
GRID,22973,0,164.2528,0.0,-1434.25,0
GRID,22974,0,162.1869,0.0,-1435.63,0
GRID,22975,0,160.1157,0.0,-1437.0,0
GRID,22976,0,158.0395,0.0,-1438.35,0
GRID,22977,0,155.9583,0.0,-1439.7,0
GRID,22978,0,153.8721,0.0,-1441.03,0
GRID,22979,0,151.7813,0.0,-1442.34,0
GRID,22980,0,149.6857,0.0,-1443.65,0
GRID,22981,0,147.5856,0.0,-1444.95,0
GRID,22982,0,145.4811,0.0,-1446.23,0
GRID,22983,0,143.3723,0.0,-1447.5,0
GRID,22984,0,141.2593,0.0,-1448.76,0
GRID,22985,0,139.1343,0.0,-1450.0,0
GRID,22986,0,136.9946,0.0,-1451.22,0
GRID,22987,0,134.8407,0.0,-1452.41,0
GRID,22988,0,132.6726,0.0,-1453.58,0
GRID,22989,0,130.4906,0.0,-1454.73,0
GRID,22990,0,128.295,0.0,-1455.86,0
GRID,22991,0,126.086,0.0,-1456.96,0
GRID,22992,0,123.8639,0.0,-1458.03,0
GRID,22993,0,121.6289,0.0,-1459.08,0
GRID,22994,0,119.3814,0.0,-1460.11,0
GRID,22995,0,117.1216,0.0,-1461.11,0
GRID,22996,0,114.8498,0.0,-1462.09,0
GRID,22997,0,112.5664,0.0,-1463.04,0
GRID,22998,0,110.2715,0.0,-1463.96,0
GRID,22999,0,107.9655,0.0,-1464.86,0
GRID,23000,0,105.6487,0.0,-1465.74,0
GRID,23001,0,103.3213,0.0,-1466.59,0
GRID,23002,0,100.9837,0.0,-1467.41,0
GRID,23003,0,98.63613,0.0,-1468.21,0
GRID,23004,0,96.27888,0.0,-1468.98,0
GRID,23005,0,93.91228,0.0,-1469.73,0
GRID,23006,0,91.53662,0.0,-1470.45,0
GRID,23007,0,89.1522,0.0,-1471.14,0
GRID,23008,0,86.75931,0.0,-1471.81,0
GRID,23009,0,84.35826,0.0,-1472.45,0
GRID,23010,0,81.94936,0.0,-1473.06,0
GRID,23011,0,79.5329,0.0,-1473.65,0
GRID,23012,0,77.1092,0.0,-1474.2,0
GRID,23013,0,74.67857,0.0,-1474.74,0
GRID,23014,0,72.24131,0.0,-1475.24,0
GRID,23015,0,69.79775,0.0,-1475.72,0
GRID,23016,0,67.34818,0.0,-1476.17,0
GRID,23017,0,64.89292,0.0,-1476.59,0
GRID,23018,0,62.43228,0.0,-1476.99,0
GRID,23019,0,59.96658,0.0,-1477.36,0
GRID,23020,0,57.49613,0.0,-1477.7,0
GRID,23021,0,55.02124,0.0,-1478.01,0
GRID,23022,0,52.54225,0.0,-1478.3,0
GRID,23023,0,50.05945,0.0,-1478.56,0
GRID,23024,0,47.57318,0.0,-1478.79,0
GRID,23025,0,45.08375,0.0,-1478.99,0
GRID,23026,0,42.59148,0.0,-1479.17,0
GRID,23027,0,40.09669,0.0,-1479.31,0
GRID,23028,0,37.5997,0.0,-1479.43,0
GRID,23029,0,35.10082,0.0,-1479.52,0
GRID,23030,0,32.60039,0.0,-1479.59,0
GRID,23031,0,30.09873,0.0,-1479.62,0
GRID,23032,0,27.59616,0.0,-1479.63,0
GRID,23033,0,25.09299,0.0,-1479.61,0
GRID,23034,0,22.58956,0.0,-1479.56,0
GRID,23035,0,20.08619,0.0,-1479.48,0
GRID,23036,0,17.58321,0.0,-1479.38,0
GRID,23037,0,15.08093,0.0,-1479.24,0
GRID,23038,0,12.57968,0.0,-1479.08,0
GRID,23039,0,10.07977,0.0,-1478.89,0
GRID,23040,0,7.581527,0.0,-1478.67,0
GRID,23041,0,5.085271,0.0,-1478.43,0
GRID,23042,0,2.591321,0.0,-1478.16,0
GRID,23043,0,346.8433,0.0,-1052.57,0
GRID,23044,0,346.8433,0.0,-1055.15,0
GRID,23045,0,346.8433,0.0,-1057.72,0
GRID,23046,0,346.8433,0.0,-1060.3,0
GRID,23047,0,346.8433,0.0,-1062.87,0
GRID,23048,0,346.8433,0.0,-1065.44,0
GRID,23049,0,346.8433,0.0,-1068.02,0
GRID,23050,0,346.8394,0.0,-1070.51,0
GRID,23051,0,346.8278,0.0,-1072.99,0
GRID,23052,0,346.8087,0.0,-1075.48,0
GRID,23053,0,346.782,0.0,-1077.97,0
GRID,23054,0,346.7477,0.0,-1080.46,0
GRID,23055,0,346.7059,0.0,-1082.95,0
GRID,23056,0,346.6564,0.0,-1085.43,0
GRID,23057,0,346.5994,0.0,-1087.92,0
GRID,23058,0,346.5347,0.0,-1090.41,0
GRID,23059,0,346.4625,0.0,-1092.89,0
GRID,23060,0,346.3827,0.0,-1095.38,0
GRID,23061,0,346.2952,0.0,-1097.86,0
GRID,23062,0,346.2001,0.0,-1100.35,0
GRID,23063,0,346.0975,0.0,-1102.83,0
GRID,23064,0,345.9872,0.0,-1105.31,0
GRID,23065,0,345.8693,0.0,-1107.8,0
GRID,23066,0,345.7439,0.0,-1110.28,0
GRID,23067,0,345.6109,0.0,-1112.76,0
GRID,23068,0,345.4703,0.0,-1115.24,0
GRID,23069,0,345.3222,0.0,-1117.72,0
GRID,23070,0,345.1665,0.0,-1120.2,0
GRID,23071,0,345.0033,0.0,-1122.67,0
GRID,23072,0,344.8325,0.0,-1125.15,0
GRID,23073,0,344.6542,0.0,-1127.62,0
GRID,23074,0,344.4684,0.0,-1130.1,0
GRID,23075,0,344.2751,0.0,-1132.57,0
GRID,23076,0,344.0742,0.0,-1135.04,0
GRID,23077,0,343.8659,0.0,-1137.51,0
GRID,23078,0,343.65,0.0,-1139.98,0
GRID,23079,0,343.4267,0.0,-1142.45,0
GRID,23080,0,343.1959,0.0,-1144.91,0
GRID,23081,0,342.9576,0.0,-1147.38,0
GRID,23082,0,342.7119,0.0,-1149.84,0
GRID,23083,0,342.4587,0.0,-1152.3,0
GRID,23084,0,342.1981,0.0,-1154.76,0
GRID,23085,0,341.9301,0.0,-1157.22,0
GRID,23086,0,341.6547,0.0,-1159.67,0
GRID,23087,0,341.3718,0.0,-1162.13,0
GRID,23088,0,341.0816,0.0,-1164.58,0
GRID,23089,0,340.784,0.0,-1167.03,0
GRID,23090,0,340.479,0.0,-1169.48,0
GRID,23091,0,340.1667,0.0,-1171.92,0
GRID,23092,0,339.8471,0.0,-1174.37,0
GRID,23093,0,339.5201,0.0,-1176.81,0
GRID,23094,0,339.1858,0.0,-1179.25,0
GRID,23095,0,338.8441,0.0,-1181.69,0
GRID,23096,0,338.4953,0.0,-1184.12,0
GRID,23097,0,338.1391,0.0,-1186.56,0
GRID,23098,0,337.7689,0.0,-1188.99,0
GRID,23099,0,337.3785,0.0,-1191.42,0
GRID,23100,0,336.9676,0.0,-1193.85,0
GRID,23101,0,336.5365,0.0,-1196.28,0
GRID,23102,0,336.0851,0.0,-1198.7,0
GRID,23103,0,335.6133,0.0,-1201.12,0
GRID,23104,0,335.1213,0.0,-1203.53,0
GRID,23105,0,334.6089,0.0,-1205.95,0
GRID,23106,0,334.0762,0.0,-1208.35,0
GRID,23107,0,333.5233,0.0,-1210.76,0
GRID,23108,0,332.9503,0.0,-1213.16,0
GRID,23109,0,332.357,0.0,-1215.55,0
GRID,23110,0,331.7436,0.0,-1217.95,0
GRID,23111,0,331.1102,0.0,-1220.33,0
GRID,23112,0,330.4567,0.0,-1222.72,0
GRID,23113,0,329.7832,0.0,-1225.09,0
GRID,23114,0,329.0897,0.0,-1227.47,0
GRID,23115,0,328.3763,0.0,-1229.83,0
GRID,23116,0,327.643,0.0,-1232.19,0
GRID,23117,0,326.8898,0.0,-1234.55,0
GRID,23118,0,326.1169,0.0,-1236.9,0
GRID,23119,0,325.3242,0.0,-1239.24,0
GRID,23120,0,324.5117,0.0,-1241.58,0
GRID,23121,0,323.6797,0.0,-1243.91,0
GRID,23122,0,322.828,0.0,-1246.24,0
GRID,23123,0,321.9568,0.0,-1248.55,0
GRID,23124,0,321.0662,0.0,-1250.86,0
GRID,23125,0,320.156,0.0,-1253.17,0
GRID,23126,0,319.2266,0.0,-1255.46,0
GRID,23127,0,318.2778,0.0,-1257.75,0
GRID,23128,0,317.3098,0.0,-1260.03,0
GRID,23129,0,316.3225,0.0,-1262.31,0
GRID,23130,0,315.3162,0.0,-1264.57,0
GRID,23131,0,314.2908,0.0,-1266.83,0
GRID,23132,0,313.2465,0.0,-1269.08,0
GRID,23133,0,312.1832,0.0,-1271.32,0
GRID,23134,0,311.1011,0.0,-1273.56,0
GRID,23135,0,310.0002,0.0,-1275.78,0
GRID,23136,0,308.8806,0.0,-1277.99,0
GRID,23137,0,307.7424,0.0,-1280.2,0
GRID,23138,0,306.5857,0.0,-1282.4,0
GRID,23139,0,305.4105,0.0,-1284.58,0
GRID,23140,0,304.2169,0.0,-1286.76,0
GRID,23141,0,303.0051,0.0,-1288.93,0
GRID,23142,0,301.775,0.0,-1291.09,0
GRID,23143,0,300.5268,0.0,-1293.24,0
GRID,23144,0,299.2605,0.0,-1295.37,0
GRID,23145,0,297.9763,0.0,-1297.5,0
GRID,23146,0,296.6742,0.0,-1299.62,0
GRID,23147,0,295.3544,0.0,-1301.72,0
GRID,23148,0,294.0169,0.0,-1303.82,0
GRID,23149,0,292.6617,0.0,-1305.9,0
GRID,23150,0,291.2891,0.0,-1307.98,0
GRID,23151,0,289.8991,0.0,-1310.04,0
GRID,23152,0,288.4918,0.0,-1312.09,0
GRID,23153,0,287.0673,0.0,-1314.13,0
GRID,23154,0,285.6257,0.0,-1316.15,0
GRID,23155,0,284.1671,0.0,-1318.17,0
GRID,23156,0,282.6916,0.0,-1320.17,0
GRID,23157,0,281.1993,0.0,-1322.16,0
GRID,23158,0,279.6903,0.0,-1324.14,0
GRID,23159,0,278.1648,0.0,-1326.11,0
GRID,23160,0,276.6227,0.0,-1328.06,0
GRID,23161,0,275.0643,0.0,-1330.0,0
GRID,23162,0,273.4896,0.0,-1331.93,0
GRID,23163,0,271.8988,0.0,-1333.84,0
GRID,23164,0,270.292,0.0,-1335.74,0
GRID,23165,0,268.6692,0.0,-1337.63,0
GRID,23166,0,267.0308,0.0,-1339.5,0
GRID,23167,0,265.3766,0.0,-1341.37,0
GRID,23168,0,263.7069,0.0,-1343.21,0
GRID,23169,0,262.0218,0.0,-1345.04,0
GRID,23170,0,260.3214,0.0,-1346.86,0
GRID,23171,0,258.6059,0.0,-1348.67,0
GRID,23172,0,256.8685,0.0,-1350.47,0
GRID,23173,0,255.1217,0.0,-1352.26,0
GRID,23174,0,253.3653,0.0,-1354.05,0
GRID,23175,0,251.5997,0.0,-1355.82,0
GRID,23176,0,249.8554,0.0,-1357.57,0
GRID,23177,0,248.1112,0.0,-1359.31,0
GRID,23178,0,246.3669,0.0,-1361.06,0
GRID,23179,0,244.6227,0.0,-1362.8,0
GRID,23180,0,242.8785,0.0,-1364.55,0
GRID,23181,0,241.1342,0.0,-1366.29,0
GRID,23182,0,239.39,0.0,-1368.03,0
GRID,23183,0,237.6457,0.0,-1369.78,0
GRID,23184,0,235.9015,0.0,-1371.52,0
GRID,23185,0,234.1224,0.0,-1373.29,0
GRID,23186,0,232.3347,0.0,-1375.05,0
GRID,23187,0,230.5384,0.0,-1376.81,0
GRID,23188,0,228.7336,0.0,-1378.55,0
GRID,23189,0,226.9204,0.0,-1380.28,0
GRID,23190,0,225.0988,0.0,-1382.01,0
GRID,23191,0,223.2689,0.0,-1383.72,0
GRID,23192,0,221.4308,0.0,-1385.43,0
GRID,23193,0,219.5846,0.0,-1387.13,0
GRID,23194,0,217.7304,0.0,-1388.81,0
GRID,23195,0,215.8682,0.0,-1390.49,0
GRID,23196,0,213.9982,0.0,-1392.16,0
GRID,23197,0,212.1205,0.0,-1393.82,0
GRID,23198,0,210.2351,0.0,-1395.47,0
GRID,23199,0,208.3421,0.0,-1397.11,0
GRID,23200,0,206.4417,0.0,-1398.73,0
GRID,23201,0,204.5339,0.0,-1400.35,0
GRID,23202,0,202.6189,0.0,-1401.96,0
GRID,23203,0,200.6967,0.0,-1403.56,0
GRID,23204,0,198.7674,0.0,-1405.15,0
GRID,23205,0,196.8311,0.0,-1406.73,0
GRID,23206,0,194.8879,0.0,-1408.29,0
GRID,23207,0,192.9379,0.0,-1409.85,0
GRID,23208,0,190.9813,0.0,-1411.4,0
GRID,23209,0,189.0181,0.0,-1412.93,0
GRID,23210,0,187.0484,0.0,-1414.46,0
GRID,23211,0,185.0722,0.0,-1415.97,0
GRID,23212,0,183.0899,0.0,-1417.48,0
GRID,23213,0,181.1013,0.0,-1418.97,0
GRID,23214,0,179.1066,0.0,-1420.45,0
GRID,23215,0,177.106,0.0,-1421.93,0
GRID,23216,0,175.0995,0.0,-1423.39,0
GRID,23217,0,173.0872,0.0,-1424.84,0
GRID,23218,0,171.0693,0.0,-1426.27,0
GRID,23219,0,169.0458,0.0,-1427.7,0
GRID,23220,0,167.0168,0.0,-1429.12,0
GRID,23221,0,164.9825,0.0,-1430.52,0
GRID,23222,0,162.943,0.0,-1431.92,0
GRID,23223,0,160.8983,0.0,-1433.3,0
GRID,23224,0,158.8486,0.0,-1434.67,0
GRID,23225,0,156.7939,0.0,-1436.03,0
GRID,23226,0,154.7345,0.0,-1437.38,0
GRID,23227,0,152.6704,0.0,-1438.71,0
GRID,23228,0,150.6016,0.0,-1440.04,0
GRID,23229,0,148.5284,0.0,-1441.35,0
GRID,23230,0,146.4508,0.0,-1442.65,0
GRID,23231,0,144.369,0.0,-1443.94,0
GRID,23232,0,142.283,0.0,-1445.22,0
GRID,23233,0,140.193,0.0,-1446.49,0
GRID,23234,0,138.0908,0.0,-1447.74,0
GRID,23235,0,135.9739,0.0,-1448.97,0
GRID,23236,0,133.8424,0.0,-1450.17,0
GRID,23237,0,131.6967,0.0,-1451.35,0
GRID,23238,0,129.5369,0.0,-1452.51,0
GRID,23239,0,127.3633,0.0,-1453.64,0
GRID,23240,0,125.1762,0.0,-1454.75,0
GRID,23241,0,122.9757,0.0,-1455.84,0
GRID,23242,0,120.7622,0.0,-1456.9,0
GRID,23243,0,118.536,0.0,-1457.94,0
GRID,23244,0,116.2973,0.0,-1458.95,0
GRID,23245,0,114.0465,0.0,-1459.93,0
GRID,23246,0,111.7838,0.0,-1460.9,0
GRID,23247,0,109.5095,0.0,-1461.83,0
GRID,23248,0,107.2239,0.0,-1462.74,0
GRID,23249,0,104.9273,0.0,-1463.63,0
GRID,23250,0,102.62,0.0,-1464.49,0
GRID,23251,0,100.3023,0.0,-1465.32,0
GRID,23252,0,97.97445,0.0,-1466.13,0
GRID,23253,0,95.63676,0.0,-1466.92,0
GRID,23254,0,93.28955,0.0,-1467.67,0
GRID,23255,0,90.9331,0.0,-1468.4,0
GRID,23256,0,88.56773,0.0,-1469.11,0
GRID,23257,0,86.19373,0.0,-1469.78,0
GRID,23258,0,83.81141,0.0,-1470.43,0
GRID,23259,0,81.42105,0.0,-1471.06,0
GRID,23260,0,79.02299,0.0,-1471.66,0
GRID,23261,0,76.61752,0.0,-1472.23,0
GRID,23262,0,74.20495,0.0,-1472.77,0
GRID,23263,0,71.7856,0.0,-1473.29,0
GRID,23264,0,69.35979,0.0,-1473.78,0
GRID,23265,0,66.92781,0.0,-1474.24,0
GRID,23266,0,64.48999,0.0,-1474.67,0
GRID,23267,0,62.04663,0.0,-1475.08,0
GRID,23268,0,59.59805,0.0,-1475.46,0
GRID,23269,0,57.14456,0.0,-1475.82,0
GRID,23270,0,54.6865,0.0,-1476.14,0
GRID,23271,0,52.22417,0.0,-1476.44,0
GRID,23272,0,49.7579,0.0,-1476.71,0
GRID,23273,0,47.28801,0.0,-1476.95,0
GRID,23274,0,44.81481,0.0,-1477.17,0
GRID,23275,0,42.33862,0.0,-1477.35,0
GRID,23276,0,39.85977,0.0,-1477.51,0
GRID,23277,0,37.37858,0.0,-1477.64,0
GRID,23278,0,34.89536,0.0,-1477.74,0
GRID,23279,0,32.41046,0.0,-1477.82,0
GRID,23280,0,29.92418,0.0,-1477.87,0
GRID,23281,0,27.43685,0.0,-1477.89,0
GRID,23282,0,24.94881,0.0,-1477.88,0
GRID,23283,0,22.46036,0.0,-1477.84,0
GRID,23284,0,19.97185,0.0,-1477.78,0
GRID,23285,0,17.48359,0.0,-1477.68,0
GRID,23286,0,14.99591,0.0,-1477.56,0
GRID,23287,0,12.50913,0.0,-1477.41,0
GRID,23288,0,10.02357,0.0,-1477.23,0
GRID,23289,0,7.539553,0.0,-1477.03,0
GRID,23290,0,5.057405,0.0,-1476.8,0
GRID,23291,0,2.577446,0.0,-1476.53,0
GRID,23292,0,345.0417,0.0,-1052.56,0
GRID,23293,0,345.0417,0.0,-1055.12,0
GRID,23294,0,345.0417,0.0,-1057.68,0
GRID,23295,0,345.0417,0.0,-1060.24,0
GRID,23296,0,345.0417,0.0,-1062.8,0
GRID,23297,0,345.0417,0.0,-1065.37,0
GRID,23298,0,345.0417,0.0,-1067.93,0
GRID,23299,0,345.0376,0.0,-1070.4,0
GRID,23300,0,345.0257,0.0,-1072.87,0
GRID,23301,0,345.006,0.0,-1075.35,0
GRID,23302,0,344.9785,0.0,-1077.82,0
GRID,23303,0,344.9432,0.0,-1080.29,0
GRID,23304,0,344.9002,0.0,-1082.76,0
GRID,23305,0,344.8493,0.0,-1085.23,0
GRID,23306,0,344.7905,0.0,-1087.71,0
GRID,23307,0,344.724,0.0,-1090.18,0
GRID,23308,0,344.6496,0.0,-1092.65,0
GRID,23309,0,344.5674,0.0,-1095.12,0
GRID,23310,0,344.4774,0.0,-1097.59,0
GRID,23311,0,344.3796,0.0,-1100.06,0
GRID,23312,0,344.2739,0.0,-1102.52,0
GRID,23313,0,344.1603,0.0,-1104.99,0
GRID,23314,0,344.039,0.0,-1107.46,0
GRID,23315,0,343.9099,0.0,-1109.93,0
GRID,23316,0,343.773,0.0,-1112.39,0
GRID,23317,0,343.6283,0.0,-1114.85,0
GRID,23318,0,343.4758,0.0,-1117.32,0
GRID,23319,0,343.3155,0.0,-1119.78,0
GRID,23320,0,343.1475,0.0,-1122.24,0
GRID,23321,0,342.9717,0.0,-1124.7,0
GRID,23322,0,342.7882,0.0,-1127.16,0
GRID,23323,0,342.5969,0.0,-1129.62,0
GRID,23324,0,342.3979,0.0,-1132.08,0
GRID,23325,0,342.1911,0.0,-1134.53,0
GRID,23326,0,341.9766,0.0,-1136.98,0
GRID,23327,0,341.7544,0.0,-1139.44,0
GRID,23328,0,341.5245,0.0,-1141.89,0
GRID,23329,0,341.2869,0.0,-1144.34,0
GRID,23330,0,341.0417,0.0,-1146.79,0
GRID,23331,0,340.7887,0.0,-1149.23,0
GRID,23332,0,340.5281,0.0,-1151.68,0
GRID,23333,0,340.2598,0.0,-1154.12,0
GRID,23334,0,339.9839,0.0,-1156.56,0
GRID,23335,0,339.7004,0.0,-1159.0,0
GRID,23336,0,339.4092,0.0,-1161.44,0
GRID,23337,0,339.1105,0.0,-1163.87,0
GRID,23338,0,338.8041,0.0,-1166.31,0
GRID,23339,0,338.4902,0.0,-1168.74,0
GRID,23340,0,338.1687,0.0,-1171.17,0
GRID,23341,0,337.8396,0.0,-1173.6,0
GRID,23342,0,337.503,0.0,-1176.02,0
GRID,23343,0,337.1589,0.0,-1178.45,0
GRID,23344,0,336.8072,0.0,-1180.87,0
GRID,23345,0,336.4481,0.0,-1183.29,0
GRID,23346,0,336.0814,0.0,-1185.7,0
GRID,23347,0,335.7008,0.0,-1188.12,0
GRID,23348,0,335.3002,0.0,-1190.53,0
GRID,23349,0,334.8796,0.0,-1192.94,0
GRID,23350,0,334.4389,0.0,-1195.35,0
GRID,23351,0,333.9782,0.0,-1197.76,0
GRID,23352,0,333.4974,0.0,-1200.16,0
GRID,23353,0,332.9967,0.0,-1202.56,0
GRID,23354,0,332.476,0.0,-1204.95,0
GRID,23355,0,331.9352,0.0,-1207.34,0
GRID,23356,0,331.3746,0.0,-1209.73,0
GRID,23357,0,330.794,0.0,-1212.11,0
GRID,23358,0,330.1935,0.0,-1214.49,0
GRID,23359,0,329.5733,0.0,-1216.86,0
GRID,23360,0,328.9332,0.0,-1219.23,0
GRID,23361,0,328.2734,0.0,-1221.6,0
GRID,23362,0,327.5939,0.0,-1223.96,0
GRID,23363,0,326.8947,0.0,-1226.31,0
GRID,23364,0,326.1759,0.0,-1228.66,0
GRID,23365,0,325.4374,0.0,-1231.0,0
GRID,23366,0,324.6794,0.0,-1233.34,0
GRID,23367,0,323.9019,0.0,-1235.67,0
GRID,23368,0,323.105,0.0,-1238.0,0
GRID,23369,0,322.2886,0.0,-1240.32,0
GRID,23370,0,321.4529,0.0,-1242.63,0
GRID,23371,0,320.5978,0.0,-1244.94,0
GRID,23372,0,319.7236,0.0,-1247.24,0
GRID,23373,0,318.8301,0.0,-1249.53,0
GRID,23374,0,317.9175,0.0,-1251.82,0
GRID,23375,0,316.9858,0.0,-1254.1,0
GRID,23376,0,316.035,0.0,-1256.37,0
GRID,23377,0,315.0654,0.0,-1258.63,0
GRID,23378,0,314.0768,0.0,-1260.89,0
GRID,23379,0,313.0694,0.0,-1263.14,0
GRID,23380,0,312.0433,0.0,-1265.38,0
GRID,23381,0,310.9984,0.0,-1267.61,0
GRID,23382,0,309.9349,0.0,-1269.83,0
GRID,23383,0,308.8528,0.0,-1272.05,0
GRID,23384,0,307.7523,0.0,-1274.26,0
GRID,23385,0,306.6333,0.0,-1276.45,0
GRID,23386,0,305.496,0.0,-1278.64,0
GRID,23387,0,304.3405,0.0,-1280.82,0
GRID,23388,0,303.1667,0.0,-1282.99,0
GRID,23389,0,301.9749,0.0,-1285.15,0
GRID,23390,0,300.765,0.0,-1287.31,0
GRID,23391,0,299.5372,0.0,-1289.45,0
GRID,23392,0,298.2916,0.0,-1291.58,0
GRID,23393,0,297.0281,0.0,-1293.7,0
GRID,23394,0,295.747,0.0,-1295.81,0
GRID,23395,0,294.4483,0.0,-1297.91,0
GRID,23396,0,293.132,0.0,-1300.0,0
GRID,23397,0,291.7984,0.0,-1302.08,0
GRID,23398,0,290.4474,0.0,-1304.15,0
GRID,23399,0,289.0791,0.0,-1306.21,0
GRID,23400,0,287.6938,0.0,-1308.25,0
GRID,23401,0,286.2914,0.0,-1310.29,0
GRID,23402,0,284.872,0.0,-1312.31,0
GRID,23403,0,283.4358,0.0,-1314.32,0
GRID,23404,0,281.9829,0.0,-1316.32,0
GRID,23405,0,280.5133,0.0,-1318.31,0
GRID,23406,0,279.0272,0.0,-1320.29,0
GRID,23407,0,277.5246,0.0,-1322.25,0
GRID,23408,0,276.0057,0.0,-1324.2,0
GRID,23409,0,274.4705,0.0,-1326.14,0
GRID,23410,0,272.9192,0.0,-1328.07,0
GRID,23411,0,271.3519,0.0,-1329.98,0
GRID,23412,0,269.7686,0.0,-1331.88,0
GRID,23413,0,268.1696,0.0,-1333.77,0
GRID,23414,0,266.555,0.0,-1335.64,0
GRID,23415,0,264.9248,0.0,-1337.5,0
GRID,23416,0,263.2792,0.0,-1339.35,0
GRID,23417,0,261.6182,0.0,-1341.19,0
GRID,23418,0,259.942,0.0,-1343.01,0
GRID,23419,0,258.2508,0.0,-1344.81,0
GRID,23420,0,256.5447,0.0,-1346.6,0
GRID,23421,0,254.8167,0.0,-1348.39,0
GRID,23422,0,253.0796,0.0,-1350.18,0
GRID,23423,0,251.3335,0.0,-1351.95,0
GRID,23424,0,249.5783,0.0,-1353.71,0
GRID,23425,0,247.8437,0.0,-1355.45,0
GRID,23426,0,246.1092,0.0,-1357.18,0
GRID,23427,0,244.3746,0.0,-1358.92,0
GRID,23428,0,242.64,0.0,-1360.65,0
GRID,23429,0,240.9055,0.0,-1362.39,0
GRID,23430,0,239.1709,0.0,-1364.12,0
GRID,23431,0,237.4363,0.0,-1365.86,0
GRID,23432,0,235.7018,0.0,-1367.59,0
GRID,23433,0,233.9672,0.0,-1369.33,0
GRID,23434,0,232.1992,0.0,-1371.08,0
GRID,23435,0,230.4228,0.0,-1372.84,0
GRID,23436,0,228.6382,0.0,-1374.58,0
GRID,23437,0,226.8454,0.0,-1376.31,0
GRID,23438,0,225.0445,0.0,-1378.04,0
GRID,23439,0,223.2355,0.0,-1379.75,0
GRID,23440,0,221.4186,0.0,-1381.46,0
GRID,23441,0,219.5938,0.0,-1383.16,0
GRID,23442,0,217.7612,0.0,-1384.85,0
GRID,23443,0,215.9209,0.0,-1386.53,0
GRID,23444,0,214.0729,0.0,-1388.2,0
GRID,23445,0,212.2174,0.0,-1389.86,0
GRID,23446,0,210.3545,0.0,-1391.51,0
GRID,23447,0,208.4842,0.0,-1393.15,0
GRID,23448,0,206.6066,0.0,-1394.79,0
GRID,23449,0,204.7219,0.0,-1396.41,0
GRID,23450,0,202.8301,0.0,-1398.02,0
GRID,23451,0,200.9313,0.0,-1399.63,0
GRID,23452,0,199.0256,0.0,-1401.22,0
GRID,23453,0,197.1131,0.0,-1402.81,0
GRID,23454,0,195.1939,0.0,-1404.38,0
GRID,23455,0,193.268,0.0,-1405.95,0
GRID,23456,0,191.3356,0.0,-1407.5,0
GRID,23457,0,189.3968,0.0,-1409.04,0
GRID,23458,0,187.4517,0.0,-1410.58,0
GRID,23459,0,185.5003,0.0,-1412.1,0
GRID,23460,0,183.5428,0.0,-1413.62,0
GRID,23461,0,181.5793,0.0,-1415.12,0
GRID,23462,0,179.6098,0.0,-1416.61,0
GRID,23463,0,177.6344,0.0,-1418.1,0
GRID,23464,0,175.6533,0.0,-1419.57,0
GRID,23465,0,173.6666,0.0,-1421.03,0
GRID,23466,0,171.6743,0.0,-1422.48,0
GRID,23467,0,169.6765,0.0,-1423.92,0
GRID,23468,0,167.6735,0.0,-1425.35,0
GRID,23469,0,165.6651,0.0,-1426.77,0
GRID,23470,0,163.6517,0.0,-1428.18,0
GRID,23471,0,161.6331,0.0,-1429.58,0
GRID,23472,0,159.6097,0.0,-1430.96,0
GRID,23473,0,157.5814,0.0,-1432.34,0
GRID,23474,0,155.5484,0.0,-1433.7,0
GRID,23475,0,153.5108,0.0,-1435.06,0
GRID,23476,0,151.4686,0.0,-1436.4,0
GRID,23477,0,149.422,0.0,-1437.73,0
GRID,23478,0,147.3711,0.0,-1439.05,0
GRID,23479,0,145.3161,0.0,-1440.36,0
GRID,23480,0,143.2569,0.0,-1441.66,0
GRID,23481,0,141.1937,0.0,-1442.95,0
GRID,23482,0,139.1266,0.0,-1444.22,0
GRID,23483,0,137.0474,0.0,-1445.48,0
GRID,23484,0,134.9532,0.0,-1446.72,0
GRID,23485,0,132.8442,0.0,-1447.93,0
GRID,23486,0,130.7209,0.0,-1449.12,0
GRID,23487,0,128.5832,0.0,-1450.29,0
GRID,23488,0,126.4317,0.0,-1451.43,0
GRID,23489,0,124.2663,0.0,-1452.55,0
GRID,23490,0,122.0875,0.0,-1453.65,0
GRID,23491,0,119.8955,0.0,-1454.72,0
GRID,23492,0,117.6905,0.0,-1455.76,0
GRID,23493,0,115.473,0.0,-1456.79,0
GRID,23494,0,113.2431,0.0,-1457.78,0
GRID,23495,0,111.0011,0.0,-1458.76,0
GRID,23496,0,108.7475,0.0,-1459.7,0
GRID,23497,0,106.4823,0.0,-1460.62,0
GRID,23498,0,104.206,0.0,-1461.52,0
GRID,23499,0,101.9187,0.0,-1462.39,0
GRID,23500,0,99.6209,0.0,-1463.24,0
GRID,23501,0,97.31277,0.0,-1464.06,0
GRID,23502,0,94.99464,0.0,-1464.85,0
GRID,23503,0,92.66681,0.0,-1465.62,0
GRID,23504,0,90.32959,0.0,-1466.36,0
GRID,23505,0,87.98327,0.0,-1467.07,0
GRID,23506,0,85.62815,0.0,-1467.76,0
GRID,23507,0,83.26455,0.0,-1468.42,0
GRID,23508,0,80.89275,0.0,-1469.06,0
GRID,23509,0,78.51307,0.0,-1469.67,0
GRID,23510,0,76.12583,0.0,-1470.25,0
GRID,23511,0,73.73133,0.0,-1470.8,0
GRID,23512,0,71.32989,0.0,-1471.33,0
GRID,23513,0,68.92182,0.0,-1471.83,0
GRID,23514,0,66.50744,0.0,-1472.31,0
GRID,23515,0,64.08705,0.0,-1472.75,0
GRID,23516,0,61.66097,0.0,-1473.17,0
GRID,23517,0,59.22951,0.0,-1473.57,0
GRID,23518,0,56.793,0.0,-1473.93,0
GRID,23519,0,54.35176,0.0,-1474.27,0
GRID,23520,0,51.9061,0.0,-1474.58,0
GRID,23521,0,49.45635,0.0,-1474.86,0
GRID,23522,0,47.00283,0.0,-1475.11,0
GRID,23523,0,44.54586,0.0,-1475.34,0
GRID,23524,0,42.08576,0.0,-1475.54,0
GRID,23525,0,39.62285,0.0,-1475.71,0
GRID,23526,0,37.15745,0.0,-1475.85,0
GRID,23527,0,34.6899,0.0,-1475.97,0
GRID,23528,0,32.22052,0.0,-1476.05,0
GRID,23529,0,29.74962,0.0,-1476.11,0
GRID,23530,0,27.27755,0.0,-1476.14,0
GRID,23531,0,24.80462,0.0,-1476.15,0
GRID,23532,0,22.33116,0.0,-1476.12,0
GRID,23533,0,19.8575,0.0,-1476.07,0
GRID,23534,0,17.38397,0.0,-1475.99,0
GRID,23535,0,14.91088,0.0,-1475.88,0
GRID,23536,0,12.43858,0.0,-1475.74,0
GRID,23537,0,9.967366,0.0,-1475.58,0
GRID,23538,0,7.497579,0.0,-1475.38,0
GRID,23539,0,5.029539,0.0,-1475.16,0
GRID,23540,0,2.563571,0.0,-1474.91,0
GRID,23541,0,343.24,0.0,-1052.55,0
GRID,23542,0,343.24,0.0,-1055.1,0
GRID,23543,0,343.24,0.0,-1057.64,0
GRID,23544,0,343.24,0.0,-1060.19,0
GRID,23545,0,343.24,0.0,-1062.74,0
GRID,23546,0,343.24,0.0,-1065.29,0
GRID,23547,0,343.24,0.0,-1067.84,0
GRID,23548,0,343.2358,0.0,-1070.29,0
GRID,23549,0,343.2236,0.0,-1072.75,0
GRID,23550,0,343.2033,0.0,-1075.21,0
GRID,23551,0,343.1751,0.0,-1077.67,0
GRID,23552,0,343.1388,0.0,-1080.12,0
GRID,23553,0,343.0944,0.0,-1082.58,0
GRID,23554,0,343.0421,0.0,-1085.04,0
GRID,23555,0,342.9817,0.0,-1087.49,0
GRID,23556,0,342.9133,0.0,-1089.95,0
GRID,23557,0,342.8368,0.0,-1092.4,0
GRID,23558,0,342.7522,0.0,-1094.86,0
GRID,23559,0,342.6596,0.0,-1097.31,0
GRID,23560,0,342.559,0.0,-1099.77,0
GRID,23561,0,342.4502,0.0,-1102.22,0
GRID,23562,0,342.3335,0.0,-1104.67,0
GRID,23563,0,342.2087,0.0,-1107.12,0
GRID,23564,0,342.0759,0.0,-1109.57,0
GRID,23565,0,341.935,0.0,-1112.02,0
GRID,23566,0,341.7862,0.0,-1114.47,0
GRID,23567,0,341.6294,0.0,-1116.92,0
GRID,23568,0,341.4645,0.0,-1119.36,0
GRID,23569,0,341.2917,0.0,-1121.81,0
GRID,23570,0,341.1109,0.0,-1124.25,0
GRID,23571,0,340.9221,0.0,-1126.7,0
GRID,23572,0,340.7254,0.0,-1129.14,0
GRID,23573,0,340.5207,0.0,-1131.58,0
GRID,23574,0,340.308,0.0,-1134.02,0
GRID,23575,0,340.0874,0.0,-1136.46,0
GRID,23576,0,339.8589,0.0,-1138.89,0
GRID,23577,0,339.6224,0.0,-1141.33,0
GRID,23578,0,339.378,0.0,-1143.76,0
GRID,23579,0,339.1257,0.0,-1146.19,0
GRID,23580,0,338.8655,0.0,-1148.62,0
GRID,23581,0,338.5975,0.0,-1151.05,0
GRID,23582,0,338.3215,0.0,-1153.48,0
GRID,23583,0,338.0378,0.0,-1155.9,0
GRID,23584,0,337.7461,0.0,-1158.33,0
GRID,23585,0,337.4467,0.0,-1160.75,0
GRID,23586,0,337.1394,0.0,-1163.17,0
GRID,23587,0,336.8243,0.0,-1165.59,0
GRID,23588,0,336.5013,0.0,-1168.0,0
GRID,23589,0,336.1706,0.0,-1170.41,0
GRID,23590,0,335.8322,0.0,-1172.82,0
GRID,23591,0,335.4859,0.0,-1175.23,0
GRID,23592,0,335.132,0.0,-1177.64,0
GRID,23593,0,334.7703,0.0,-1180.04,0
GRID,23594,0,334.4009,0.0,-1182.45,0
GRID,23595,0,334.0238,0.0,-1184.85,0
GRID,23596,0,333.6327,0.0,-1187.24,0
GRID,23597,0,333.222,0.0,-1189.64,0
GRID,23598,0,332.7915,0.0,-1192.03,0
GRID,23599,0,332.3412,0.0,-1194.43,0
GRID,23600,0,331.8713,0.0,-1196.81,0
GRID,23601,0,331.3816,0.0,-1199.2,0
GRID,23602,0,330.8722,0.0,-1201.58,0
GRID,23603,0,330.343,0.0,-1203.95,0
GRID,23604,0,329.7942,0.0,-1206.33,0
GRID,23605,0,329.2258,0.0,-1208.7,0
GRID,23606,0,328.6377,0.0,-1211.06,0
GRID,23607,0,328.0301,0.0,-1213.42,0
GRID,23608,0,327.4029,0.0,-1215.78,0
GRID,23609,0,326.7563,0.0,-1218.13,0
GRID,23610,0,326.0902,0.0,-1220.48,0
GRID,23611,0,325.4046,0.0,-1222.82,0
GRID,23612,0,324.6997,0.0,-1225.16,0
GRID,23613,0,323.9754,0.0,-1227.49,0
GRID,23614,0,323.2319,0.0,-1229.81,0
GRID,23615,0,322.469,0.0,-1232.13,0
GRID,23616,0,321.687,0.0,-1234.45,0
GRID,23617,0,320.8857,0.0,-1236.76,0
GRID,23618,0,320.0654,0.0,-1239.06,0
GRID,23619,0,319.226,0.0,-1241.35,0
GRID,23620,0,318.3676,0.0,-1243.64,0
GRID,23621,0,317.4903,0.0,-1245.92,0
GRID,23622,0,316.594,0.0,-1248.2,0
GRID,23623,0,315.6789,0.0,-1250.47,0
GRID,23624,0,314.745,0.0,-1252.73,0
GRID,23625,0,313.7923,0.0,-1254.98,0
GRID,23626,0,312.821,0.0,-1257.23,0
GRID,23627,0,311.8311,0.0,-1259.47,0
GRID,23628,0,310.8226,0.0,-1261.7,0
GRID,23629,0,309.7957,0.0,-1263.92,0
GRID,23630,0,308.7503,0.0,-1266.14,0
GRID,23631,0,307.6866,0.0,-1268.35,0
GRID,23632,0,306.6046,0.0,-1270.54,0
GRID,23633,0,305.5044,0.0,-1272.73,0
GRID,23634,0,304.386,0.0,-1274.91,0
GRID,23635,0,303.2496,0.0,-1277.09,0
GRID,23636,0,302.0953,0.0,-1279.25,0
GRID,23637,0,300.923,0.0,-1281.4,0
GRID,23638,0,299.7329,0.0,-1283.55,0
GRID,23639,0,298.525,0.0,-1285.68,0
GRID,23640,0,297.2995,0.0,-1287.81,0
GRID,23641,0,296.0563,0.0,-1289.92,0
GRID,23642,0,294.7957,0.0,-1292.03,0
GRID,23643,0,293.5177,0.0,-1294.12,0
GRID,23644,0,292.2223,0.0,-1296.21,0
GRID,23645,0,290.9096,0.0,-1298.28,0
GRID,23646,0,289.5798,0.0,-1300.34,0
GRID,23647,0,288.233,0.0,-1302.4,0
GRID,23648,0,286.8691,0.0,-1304.44,0
GRID,23649,0,285.4884,0.0,-1306.47,0
GRID,23650,0,284.0909,0.0,-1308.49,0
GRID,23651,0,282.6767,0.0,-1310.5,0
GRID,23652,0,281.2459,0.0,-1312.49,0
GRID,23653,0,279.7987,0.0,-1314.48,0
GRID,23654,0,278.335,0.0,-1316.45,0
GRID,23655,0,276.855,0.0,-1318.41,0
GRID,23656,0,275.3588,0.0,-1320.36,0
GRID,23657,0,273.8466,0.0,-1322.3,0
GRID,23658,0,272.3183,0.0,-1324.22,0
GRID,23659,0,270.7741,0.0,-1326.13,0
GRID,23660,0,269.2141,0.0,-1328.03,0
GRID,23661,0,267.6385,0.0,-1329.92,0
GRID,23662,0,266.0473,0.0,-1331.79,0
GRID,23663,0,264.4407,0.0,-1333.66,0
GRID,23664,0,262.8188,0.0,-1335.5,0
GRID,23665,0,261.1817,0.0,-1337.34,0
GRID,23666,0,259.5295,0.0,-1339.16,0
GRID,23667,0,257.8623,0.0,-1340.97,0
GRID,23668,0,256.1802,0.0,-1342.76,0
GRID,23669,0,254.4835,0.0,-1344.54,0
GRID,23670,0,252.765,0.0,-1346.32,0
GRID,23671,0,251.0376,0.0,-1348.09,0
GRID,23672,0,249.3016,0.0,-1349.85,0
GRID,23673,0,247.5569,0.0,-1351.6,0
GRID,23674,0,245.832,0.0,-1353.33,0
GRID,23675,0,244.1071,0.0,-1355.05,0
GRID,23676,0,242.3822,0.0,-1356.78,0
GRID,23677,0,240.6573,0.0,-1358.5,0
GRID,23678,0,238.9325,0.0,-1360.23,0
GRID,23679,0,237.2076,0.0,-1361.95,0
GRID,23680,0,235.4827,0.0,-1363.68,0
GRID,23681,0,233.7578,0.0,-1365.4,0
GRID,23682,0,232.0329,0.0,-1367.13,0
GRID,23683,0,230.2759,0.0,-1368.88,0
GRID,23684,0,228.5109,0.0,-1370.62,0
GRID,23685,0,226.7379,0.0,-1372.35,0
GRID,23686,0,224.9571,0.0,-1374.07,0
GRID,23687,0,223.1685,0.0,-1375.79,0
GRID,23688,0,221.3722,0.0,-1377.5,0
GRID,23689,0,219.5683,0.0,-1379.19,0
GRID,23690,0,217.7568,0.0,-1380.88,0
GRID,23691,0,215.9378,0.0,-1382.57,0
GRID,23692,0,214.1113,0.0,-1384.24,0
GRID,23693,0,212.2776,0.0,-1385.9,0
GRID,23694,0,210.4366,0.0,-1387.56,0
GRID,23695,0,208.5885,0.0,-1389.2,0
GRID,23696,0,206.7333,0.0,-1390.84,0
GRID,23697,0,204.8711,0.0,-1392.47,0
GRID,23698,0,203.0021,0.0,-1394.08,0
GRID,23699,0,201.1263,0.0,-1395.69,0
GRID,23700,0,199.2437,0.0,-1397.29,0
GRID,23701,0,197.3545,0.0,-1398.88,0
GRID,23702,0,195.4588,0.0,-1400.46,0
GRID,23703,0,193.5566,0.0,-1402.04,0
GRID,23704,0,191.6481,0.0,-1403.6,0
GRID,23705,0,189.7333,0.0,-1405.15,0
GRID,23706,0,187.8124,0.0,-1406.69,0
GRID,23707,0,185.8853,0.0,-1408.22,0
GRID,23708,0,183.9523,0.0,-1409.75,0
GRID,23709,0,182.0134,0.0,-1411.26,0
GRID,23710,0,180.0687,0.0,-1412.76,0
GRID,23711,0,178.1182,0.0,-1414.26,0
GRID,23712,0,176.1622,0.0,-1415.74,0
GRID,23713,0,174.2006,0.0,-1417.21,0
GRID,23714,0,172.2337,0.0,-1418.68,0
GRID,23715,0,170.2613,0.0,-1420.13,0
GRID,23716,0,168.2838,0.0,-1421.57,0
GRID,23717,0,166.3011,0.0,-1423.0,0
GRID,23718,0,164.3134,0.0,-1424.43,0
GRID,23719,0,162.3208,0.0,-1425.84,0
GRID,23720,0,160.3233,0.0,-1427.24,0
GRID,23721,0,158.3211,0.0,-1428.63,0
GRID,23722,0,156.3142,0.0,-1430.01,0
GRID,23723,0,154.3028,0.0,-1431.38,0
GRID,23724,0,152.287,0.0,-1432.74,0
GRID,23725,0,150.2668,0.0,-1434.09,0
GRID,23726,0,148.2424,0.0,-1435.42,0
GRID,23727,0,146.2139,0.0,-1436.75,0
GRID,23728,0,144.1813,0.0,-1438.07,0
GRID,23729,0,142.1447,0.0,-1439.37,0
GRID,23730,0,140.1044,0.0,-1440.67,0
GRID,23731,0,138.0603,0.0,-1441.95,0
GRID,23732,0,136.0039,0.0,-1443.22,0
GRID,23733,0,133.9324,0.0,-1444.47,0
GRID,23734,0,131.846,0.0,-1445.69,0
GRID,23735,0,129.745,0.0,-1446.89,0
GRID,23736,0,127.6296,0.0,-1448.07,0
GRID,23737,0,125.5,0.0,-1449.22,0
GRID,23738,0,123.3565,0.0,-1450.35,0
GRID,23739,0,121.1993,0.0,-1451.46,0
GRID,23740,0,119.0287,0.0,-1452.54,0
GRID,23741,0,116.8451,0.0,-1453.59,0
GRID,23742,0,114.6486,0.0,-1454.62,0
GRID,23743,0,112.4397,0.0,-1455.63,0
GRID,23744,0,110.2185,0.0,-1456.61,0
GRID,23745,0,107.9854,0.0,-1457.57,0
GRID,23746,0,105.7407,0.0,-1458.5,0
GRID,23747,0,103.4846,0.0,-1459.41,0
GRID,23748,0,101.2174,0.0,-1460.29,0
GRID,23749,0,98.93949,0.0,-1461.15,0
GRID,23750,0,96.65109,0.0,-1461.98,0
GRID,23751,0,94.35252,0.0,-1462.78,0
GRID,23752,0,92.04408,0.0,-1463.56,0
GRID,23753,0,89.72607,0.0,-1464.31,0
GRID,23754,0,87.39881,0.0,-1465.04,0
GRID,23755,0,85.06258,0.0,-1465.74,0
GRID,23756,0,82.71769,0.0,-1466.41,0
GRID,23757,0,80.36445,0.0,-1467.06,0
GRID,23758,0,78.00316,0.0,-1467.68,0
GRID,23759,0,75.63415,0.0,-1468.27,0
GRID,23760,0,73.25772,0.0,-1468.84,0
GRID,23761,0,70.87418,0.0,-1469.38,0
GRID,23762,0,68.48386,0.0,-1469.89,0
GRID,23763,0,66.08707,0.0,-1470.38,0
GRID,23764,0,63.68411,0.0,-1470.84,0
GRID,23765,0,61.27531,0.0,-1471.27,0
GRID,23766,0,58.86098,0.0,-1471.67,0
GRID,23767,0,56.44144,0.0,-1472.05,0
GRID,23768,0,54.01702,0.0,-1472.39,0
GRID,23769,0,51.58803,0.0,-1472.72,0
GRID,23770,0,49.1548,0.0,-1473.01,0
GRID,23771,0,46.71766,0.0,-1473.28,0
GRID,23772,0,44.27691,0.0,-1473.51,0
GRID,23773,0,41.8329,0.0,-1473.72,0
GRID,23774,0,39.38593,0.0,-1473.91,0
GRID,23775,0,36.93633,0.0,-1474.06,0
GRID,23776,0,34.48444,0.0,-1474.19,0
GRID,23777,0,32.03058,0.0,-1474.29,0
GRID,23778,0,29.57507,0.0,-1474.36,0
GRID,23779,0,27.11824,0.0,-1474.4,0
GRID,23780,0,24.66043,0.0,-1474.42,0
GRID,23781,0,22.20195,0.0,-1474.4,0
GRID,23782,0,19.74315,0.0,-1474.36,0
GRID,23783,0,17.28434,0.0,-1474.29,0
GRID,23784,0,14.82586,0.0,-1474.2,0
GRID,23785,0,12.36802,0.0,-1474.07,0
GRID,23786,0,9.911163,0.0,-1473.92,0
GRID,23787,0,7.455604,0.0,-1473.74,0
GRID,23788,0,5.001673,0.0,-1473.53,0
GRID,23789,0,2.549697,0.0,-1473.29,0
GRID,23790,0,341.4383,0.0,-1052.54,0
GRID,23791,0,341.4383,0.0,-1055.07,0
GRID,23792,0,341.4383,0.0,-1057.61,0
GRID,23793,0,341.4383,0.0,-1060.14,0
GRID,23794,0,341.4383,0.0,-1062.68,0
GRID,23795,0,341.4383,0.0,-1065.21,0
GRID,23796,0,341.4383,0.0,-1067.75,0
GRID,23797,0,341.434,0.0,-1070.19,0
GRID,23798,0,341.4214,0.0,-1072.63,0
GRID,23799,0,341.4006,0.0,-1075.07,0
GRID,23800,0,341.3716,0.0,-1077.51,0
GRID,23801,0,341.3343,0.0,-1079.96,0
GRID,23802,0,341.2887,0.0,-1082.4,0
GRID,23803,0,341.2349,0.0,-1084.84,0
GRID,23804,0,341.1729,0.0,-1087.28,0
GRID,23805,0,341.1025,0.0,-1089.72,0
GRID,23806,0,341.0239,0.0,-1092.16,0
GRID,23807,0,340.937,0.0,-1094.6,0
GRID,23808,0,340.8418,0.0,-1097.04,0
GRID,23809,0,340.7384,0.0,-1099.47,0
GRID,23810,0,340.6266,0.0,-1101.91,0
GRID,23811,0,340.5066,0.0,-1104.35,0
GRID,23812,0,340.3784,0.0,-1106.78,0
GRID,23813,0,340.2419,0.0,-1109.22,0
GRID,23814,0,340.0971,0.0,-1111.65,0
GRID,23815,0,339.9442,0.0,-1114.09,0
GRID,23816,0,339.783,0.0,-1116.52,0
GRID,23817,0,339.6135,0.0,-1118.95,0
GRID,23818,0,339.4359,0.0,-1121.38,0
GRID,23819,0,339.2501,0.0,-1123.81,0
GRID,23820,0,339.0561,0.0,-1126.23,0
GRID,23821,0,338.8539,0.0,-1128.66,0
GRID,23822,0,338.6435,0.0,-1131.09,0
GRID,23823,0,338.4249,0.0,-1133.51,0
GRID,23824,0,338.1982,0.0,-1135.93,0
GRID,23825,0,337.9633,0.0,-1138.35,0
GRID,23826,0,337.7202,0.0,-1140.77,0
GRID,23827,0,337.4691,0.0,-1143.19,0
GRID,23828,0,337.2098,0.0,-1145.6,0
GRID,23829,0,336.9424,0.0,-1148.02,0
GRID,23830,0,336.6668,0.0,-1150.43,0
GRID,23831,0,336.3833,0.0,-1152.84,0
GRID,23832,0,336.0916,0.0,-1155.25,0
GRID,23833,0,335.7918,0.0,-1157.66,0
GRID,23834,0,335.4841,0.0,-1160.06,0
GRID,23835,0,335.1682,0.0,-1162.46,0
GRID,23836,0,334.8444,0.0,-1164.86,0
GRID,23837,0,334.5125,0.0,-1167.26,0
GRID,23838,0,334.1726,0.0,-1169.66,0
GRID,23839,0,333.8247,0.0,-1172.05,0
GRID,23840,0,333.4689,0.0,-1174.44,0
GRID,23841,0,333.1051,0.0,-1176.83,0
GRID,23842,0,332.7333,0.0,-1179.22,0
GRID,23843,0,332.3537,0.0,-1181.61,0
GRID,23844,0,331.9661,0.0,-1183.99,0
GRID,23845,0,331.5646,0.0,-1186.37,0
GRID,23846,0,331.1437,0.0,-1188.75,0
GRID,23847,0,330.7034,0.0,-1191.13,0
GRID,23848,0,330.2436,0.0,-1193.5,0
GRID,23849,0,329.7644,0.0,-1195.87,0
GRID,23850,0,329.2657,0.0,-1198.24,0
GRID,23851,0,328.7476,0.0,-1200.6,0
GRID,23852,0,328.2101,0.0,-1202.96,0
GRID,23853,0,327.6532,0.0,-1205.32,0
GRID,23854,0,327.077,0.0,-1207.67,0
GRID,23855,0,326.4814,0.0,-1210.01,0
GRID,23856,0,325.8666,0.0,-1212.36,0
GRID,23857,0,325.2325,0.0,-1214.7,0
GRID,23858,0,324.5793,0.0,-1217.03,0
GRID,23859,0,323.9069,0.0,-1219.36,0
GRID,23860,0,323.2153,0.0,-1221.68,0
GRID,23861,0,322.5047,0.0,-1224.0,0
GRID,23862,0,321.775,0.0,-1226.32,0
GRID,23863,0,321.0263,0.0,-1228.62,0
GRID,23864,0,320.2586,0.0,-1230.93,0
GRID,23865,0,319.472,0.0,-1233.22,0
GRID,23866,0,318.6665,0.0,-1235.51,0
GRID,23867,0,317.8423,0.0,-1237.8,0
GRID,23868,0,316.9992,0.0,-1240.07,0
GRID,23869,0,316.1374,0.0,-1242.35,0
GRID,23870,0,315.257,0.0,-1244.61,0
GRID,23871,0,314.3579,0.0,-1246.87,0
GRID,23872,0,313.4403,0.0,-1249.12,0
GRID,23873,0,312.5041,0.0,-1251.36,0
GRID,23874,0,311.5496,0.0,-1253.6,0
GRID,23875,0,310.5766,0.0,-1255.83,0
GRID,23876,0,309.5853,0.0,-1258.05,0
GRID,23877,0,308.5758,0.0,-1260.26,0
GRID,23878,0,307.5481,0.0,-1262.47,0
GRID,23879,0,306.5022,0.0,-1264.67,0
GRID,23880,0,305.4383,0.0,-1266.86,0
GRID,23881,0,304.3563,0.0,-1269.04,0
GRID,23882,0,303.2565,0.0,-1271.21,0
GRID,23883,0,302.1387,0.0,-1273.37,0
GRID,23884,0,301.0032,0.0,-1275.53,0
GRID,23885,0,299.85,0.0,-1277.68,0
GRID,23886,0,298.6792,0.0,-1279.81,0
GRID,23887,0,297.4908,0.0,-1281.94,0
GRID,23888,0,296.285,0.0,-1284.06,0
GRID,23889,0,295.0617,0.0,-1286.17,0
GRID,23890,0,293.8211,0.0,-1288.26,0
GRID,23891,0,292.5633,0.0,-1290.35,0
GRID,23892,0,291.2883,0.0,-1292.43,0
GRID,23893,0,289.9963,0.0,-1294.5,0
GRID,23894,0,288.6872,0.0,-1296.56,0
GRID,23895,0,287.3613,0.0,-1298.61,0
GRID,23896,0,286.0186,0.0,-1300.64,0
GRID,23897,0,284.6592,0.0,-1302.67,0
GRID,23898,0,283.2831,0.0,-1304.68,0
GRID,23899,0,281.8905,0.0,-1306.69,0
GRID,23900,0,280.4815,0.0,-1308.68,0
GRID,23901,0,279.0561,0.0,-1310.66,0
GRID,23902,0,277.6145,0.0,-1312.63,0
GRID,23903,0,276.1567,0.0,-1314.59,0
GRID,23904,0,274.6829,0.0,-1316.54,0
GRID,23905,0,273.1931,0.0,-1318.47,0
GRID,23906,0,271.6875,0.0,-1320.39,0
GRID,23907,0,270.166,0.0,-1322.3,0
GRID,23908,0,268.629,0.0,-1324.2,0
GRID,23909,0,267.0764,0.0,-1326.09,0
GRID,23910,0,265.5084,0.0,-1327.96,0
GRID,23911,0,263.925,0.0,-1329.82,0
GRID,23912,0,262.3265,0.0,-1331.67,0
GRID,23913,0,260.7128,0.0,-1333.5,0
GRID,23914,0,259.0842,0.0,-1335.32,0
GRID,23915,0,257.4407,0.0,-1337.13,0
GRID,23916,0,255.7825,0.0,-1338.93,0
GRID,23917,0,254.1096,0.0,-1340.71,0
GRID,23918,0,252.4223,0.0,-1342.47,0
GRID,23919,0,250.7132,0.0,-1344.24,0
GRID,23920,0,248.9956,0.0,-1346.0,0
GRID,23921,0,247.2697,0.0,-1347.75,0
GRID,23922,0,245.5355,0.0,-1349.49,0
GRID,23923,0,243.8203,0.0,-1351.21,0
GRID,23924,0,242.1051,0.0,-1352.92,0
GRID,23925,0,240.3899,0.0,-1354.64,0
GRID,23926,0,238.6747,0.0,-1356.35,0
GRID,23927,0,236.9595,0.0,-1358.07,0
GRID,23928,0,235.2442,0.0,-1359.78,0
GRID,23929,0,233.529,0.0,-1361.5,0
GRID,23930,0,231.8138,0.0,-1363.22,0
GRID,23931,0,230.0986,0.0,-1364.93,0
GRID,23932,0,228.3526,0.0,-1366.67,0
GRID,23933,0,226.5989,0.0,-1368.4,0
GRID,23934,0,224.8377,0.0,-1370.12,0
GRID,23935,0,223.0689,0.0,-1371.84,0
GRID,23936,0,221.2926,0.0,-1373.54,0
GRID,23937,0,219.509,0.0,-1375.24,0
GRID,23938,0,217.718,0.0,-1376.93,0
GRID,23939,0,215.9198,0.0,-1378.61,0
GRID,23940,0,214.1143,0.0,-1380.28,0
GRID,23941,0,212.3018,0.0,-1381.95,0
GRID,23942,0,210.4823,0.0,-1383.61,0
GRID,23943,0,208.6558,0.0,-1385.25,0
GRID,23944,0,206.8225,0.0,-1386.89,0
GRID,23945,0,204.9824,0.0,-1388.52,0
GRID,23946,0,203.1357,0.0,-1390.15,0
GRID,23947,0,201.2823,0.0,-1391.76,0
GRID,23948,0,199.4224,0.0,-1393.36,0
GRID,23949,0,197.5561,0.0,-1394.96,0
GRID,23950,0,195.6834,0.0,-1396.54,0
GRID,23951,0,193.8045,0.0,-1398.12,0
GRID,23952,0,191.9194,0.0,-1399.69,0
GRID,23953,0,190.0282,0.0,-1401.25,0
GRID,23954,0,188.131,0.0,-1402.8,0
GRID,23955,0,186.2279,0.0,-1404.34,0
GRID,23956,0,184.319,0.0,-1405.87,0
GRID,23957,0,182.4043,0.0,-1407.39,0
GRID,23958,0,180.484,0.0,-1408.9,0
GRID,23959,0,178.5581,0.0,-1410.41,0
GRID,23960,0,176.6267,0.0,-1411.9,0
GRID,23961,0,174.69,0.0,-1413.38,0
GRID,23962,0,172.748,0.0,-1414.86,0
GRID,23963,0,170.8007,0.0,-1416.32,0
GRID,23964,0,168.8484,0.0,-1417.78,0
GRID,23965,0,166.8911,0.0,-1419.22,0
GRID,23966,0,164.9288,0.0,-1420.66,0
GRID,23967,0,162.9618,0.0,-1422.08,0
GRID,23968,0,160.99,0.0,-1423.5,0
GRID,23969,0,159.0135,0.0,-1424.9,0
GRID,23970,0,157.0325,0.0,-1426.3,0
GRID,23971,0,155.0471,0.0,-1427.68,0
GRID,23972,0,153.0573,0.0,-1429.05,0
GRID,23973,0,151.0632,0.0,-1430.42,0
GRID,23974,0,149.065,0.0,-1431.77,0
GRID,23975,0,147.0628,0.0,-1433.12,0
GRID,23976,0,145.0566,0.0,-1434.45,0
GRID,23977,0,143.0465,0.0,-1435.78,0
GRID,23978,0,141.0326,0.0,-1437.09,0
GRID,23979,0,139.0151,0.0,-1438.39,0
GRID,23980,0,136.9939,0.0,-1439.69,0
GRID,23981,0,134.9605,0.0,-1440.96,0
GRID,23982,0,132.9117,0.0,-1442.22,0
GRID,23983,0,130.8478,0.0,-1443.45,0
GRID,23984,0,128.7691,0.0,-1444.66,0
GRID,23985,0,126.6759,0.0,-1445.85,0
GRID,23986,0,124.5683,0.0,-1447.01,0
GRID,23987,0,122.4466,0.0,-1448.15,0
GRID,23988,0,120.3111,0.0,-1449.26,0
GRID,23989,0,118.162,0.0,-1450.35,0
GRID,23990,0,115.9996,0.0,-1451.42,0
GRID,23991,0,113.8243,0.0,-1452.46,0
GRID,23992,0,111.6363,0.0,-1453.48,0
GRID,23993,0,109.4359,0.0,-1454.47,0
GRID,23994,0,107.2234,0.0,-1455.44,0
GRID,23995,0,104.9991,0.0,-1456.38,0
GRID,23996,0,102.7632,0.0,-1457.3,0
GRID,23997,0,100.5161,0.0,-1458.19,0
GRID,23998,0,98.25809,0.0,-1459.06,0
GRID,23999,0,95.98941,0.0,-1459.9,0
GRID,24000,0,93.7104,0.0,-1460.72,0
GRID,24001,0,91.42134,0.0,-1461.5,0
GRID,24002,0,89.12256,0.0,-1462.27,0
GRID,24003,0,86.81434,0.0,-1463.01,0
GRID,24004,0,84.497,0.0,-1463.72,0
GRID,24005,0,82.17083,0.0,-1464.4,0
GRID,24006,0,79.83614,0.0,-1465.06,0
GRID,24007,0,77.49325,0.0,-1465.69,0
GRID,24008,0,75.14246,0.0,-1466.3,0
GRID,24009,0,72.7841,0.0,-1466.87,0
GRID,24010,0,70.41848,0.0,-1467.42,0
GRID,24011,0,68.0459,0.0,-1467.95,0
GRID,24012,0,65.6667,0.0,-1468.45,0
GRID,24013,0,63.28118,0.0,-1468.92,0
GRID,24014,0,60.88965,0.0,-1469.36,0
GRID,24015,0,58.49244,0.0,-1469.77,0
GRID,24016,0,56.08988,0.0,-1470.16,0
GRID,24017,0,53.68228,0.0,-1470.52,0
GRID,24018,0,51.26996,0.0,-1470.85,0
GRID,24019,0,48.85325,0.0,-1471.16,0
GRID,24020,0,46.43248,0.0,-1471.44,0
GRID,24021,0,44.00797,0.0,-1471.69,0
GRID,24022,0,41.58003,0.0,-1471.91,0
GRID,24023,0,39.14901,0.0,-1472.11,0
GRID,24024,0,36.71521,0.0,-1472.27,0
GRID,24025,0,34.27898,0.0,-1472.41,0
GRID,24026,0,31.84064,0.0,-1472.52,0
GRID,24027,0,29.40051,0.0,-1472.6,0
GRID,24028,0,26.95894,0.0,-1472.66,0
GRID,24029,0,24.51624,0.0,-1472.69,0
GRID,24030,0,22.07275,0.0,-1472.69,0
GRID,24031,0,19.6288,0.0,-1472.66,0
GRID,24032,0,17.18472,0.0,-1472.6,0
GRID,24033,0,14.74083,0.0,-1472.51,0
GRID,24034,0,12.29747,0.0,-1472.4,0
GRID,24035,0,9.854961,0.0,-1472.26,0
GRID,24036,0,7.41363,0.0,-1472.09,0
GRID,24037,0,4.973808,0.0,-1471.89,0
GRID,24038,0,2.535822,0.0,-1471.67,0
GRID,24039,0,339.6367,0.0,-1052.52,0
GRID,24040,0,339.6367,0.0,-1055.04,0
GRID,24041,0,339.6367,0.0,-1057.57,0
GRID,24042,0,339.6367,0.0,-1060.09,0
GRID,24043,0,339.6367,0.0,-1062.61,0
GRID,24044,0,339.6367,0.0,-1065.13,0
GRID,24045,0,339.6367,0.0,-1067.66,0
GRID,24046,0,339.6322,0.0,-1070.08,0
GRID,24047,0,339.6193,0.0,-1072.51,0
GRID,24048,0,339.598,0.0,-1074.94,0
GRID,24049,0,339.5681,0.0,-1077.36,0
GRID,24050,0,339.5298,0.0,-1079.79,0
GRID,24051,0,339.483,0.0,-1082.21,0
GRID,24052,0,339.4278,0.0,-1084.64,0
GRID,24053,0,339.364,0.0,-1087.06,0
GRID,24054,0,339.2918,0.0,-1089.49,0
GRID,24055,0,339.211,0.0,-1091.91,0
GRID,24056,0,339.1218,0.0,-1094.34,0
GRID,24057,0,339.0241,0.0,-1096.76,0
GRID,24058,0,338.9178,0.0,-1099.18,0
GRID,24059,0,338.803,0.0,-1101.6,0
GRID,24060,0,338.6798,0.0,-1104.03,0
GRID,24061,0,338.5481,0.0,-1106.45,0
GRID,24062,0,338.4079,0.0,-1108.87,0
GRID,24063,0,338.2592,0.0,-1111.28,0
GRID,24064,0,338.1021,0.0,-1113.7,0
GRID,24065,0,337.9366,0.0,-1116.12,0
GRID,24066,0,337.7626,0.0,-1118.53,0
GRID,24067,0,337.5801,0.0,-1120.95,0
GRID,24068,0,337.3893,0.0,-1123.36,0
GRID,24069,0,337.19,0.0,-1125.77,0
GRID,24070,0,336.9823,0.0,-1128.18,0
GRID,24071,0,336.7663,0.0,-1130.59,0
GRID,24072,0,336.5418,0.0,-1133.0,0
GRID,24073,0,336.3089,0.0,-1135.4,0
GRID,24074,0,336.0677,0.0,-1137.81,0
GRID,24075,0,335.8181,0.0,-1140.21,0
GRID,24076,0,335.5601,0.0,-1142.61,0
GRID,24077,0,335.2938,0.0,-1145.01,0
GRID,24078,0,335.0192,0.0,-1147.41,0
GRID,24079,0,334.7362,0.0,-1149.81,0
GRID,24080,0,334.445,0.0,-1152.2,0
GRID,24081,0,334.1454,0.0,-1154.59,0
GRID,24082,0,333.8376,0.0,-1156.98,0
GRID,24083,0,333.5215,0.0,-1159.37,0
GRID,24084,0,333.1971,0.0,-1161.76,0
GRID,24085,0,332.8645,0.0,-1164.14,0
GRID,24086,0,332.5236,0.0,-1166.52,0
GRID,24087,0,332.1746,0.0,-1168.9,0
GRID,24088,0,331.8173,0.0,-1171.28,0
GRID,24089,0,331.4518,0.0,-1173.66,0
GRID,24090,0,331.0782,0.0,-1176.03,0
GRID,24091,0,330.6964,0.0,-1178.4,0
GRID,24092,0,330.3065,0.0,-1180.77,0
GRID,24093,0,329.9084,0.0,-1183.13,0
GRID,24094,0,329.4965,0.0,-1185.5,0
GRID,24095,0,329.0655,0.0,-1187.86,0
GRID,24096,0,328.6153,0.0,-1190.22,0
GRID,24097,0,328.1459,0.0,-1192.57,0
GRID,24098,0,327.6575,0.0,-1194.93,0
GRID,24099,0,327.1498,0.0,-1197.28,0
GRID,24100,0,326.6231,0.0,-1199.62,0
GRID,24101,0,326.0772,0.0,-1201.96,0
GRID,24102,0,325.5122,0.0,-1204.3,0
GRID,24103,0,324.9282,0.0,-1206.64,0
GRID,24104,0,324.3252,0.0,-1208.97,0
GRID,24105,0,323.7031,0.0,-1211.29,0
GRID,24106,0,323.0622,0.0,-1213.61,0
GRID,24107,0,322.4023,0.0,-1215.93,0
GRID,24108,0,321.7236,0.0,-1218.24,0
GRID,24109,0,321.026,0.0,-1220.55,0
GRID,24110,0,320.3097,0.0,-1222.85,0
GRID,24111,0,319.5746,0.0,-1225.14,0
GRID,24112,0,318.8207,0.0,-1227.43,0
GRID,24113,0,318.0482,0.0,-1229.72,0
GRID,24114,0,317.2571,0.0,-1232.0,0
GRID,24115,0,316.4473,0.0,-1234.27,0
GRID,24116,0,315.6191,0.0,-1236.54,0
GRID,24117,0,314.7724,0.0,-1238.8,0
GRID,24118,0,313.9072,0.0,-1241.05,0
GRID,24119,0,313.0237,0.0,-1243.3,0
GRID,24120,0,312.1218,0.0,-1245.54,0
GRID,24121,0,311.2017,0.0,-1247.77,0
GRID,24122,0,310.2633,0.0,-1250.0,0
GRID,24123,0,309.3068,0.0,-1252.22,0
GRID,24124,0,308.3322,0.0,-1254.43,0
GRID,24125,0,307.3396,0.0,-1256.63,0
GRID,24126,0,306.329,0.0,-1258.83,0
GRID,24127,0,305.3005,0.0,-1261.02,0
GRID,24128,0,304.2541,0.0,-1263.2,0
GRID,24129,0,303.1899,0.0,-1265.37,0
GRID,24130,0,302.1081,0.0,-1267.53,0
GRID,24131,0,301.0085,0.0,-1269.69,0
GRID,24132,0,299.8914,0.0,-1271.83,0
GRID,24133,0,298.7569,0.0,-1273.97,0
GRID,24134,0,297.6048,0.0,-1276.1,0
GRID,24135,0,296.4355,0.0,-1278.22,0
GRID,24136,0,295.2488,0.0,-1280.33,0
GRID,24137,0,294.0449,0.0,-1282.43,0
GRID,24138,0,292.8239,0.0,-1284.53,0
GRID,24139,0,291.5859,0.0,-1286.61,0
GRID,24140,0,290.3309,0.0,-1288.68,0
GRID,24141,0,289.059,0.0,-1290.74,0
GRID,24142,0,287.7703,0.0,-1292.79,0
GRID,24143,0,286.4649,0.0,-1294.84,0
GRID,24144,0,285.1428,0.0,-1296.87,0
GRID,24145,0,283.8042,0.0,-1298.89,0
GRID,24146,0,282.4492,0.0,-1300.9,0
GRID,24147,0,281.0777,0.0,-1302.9,0
GRID,24148,0,279.69,0.0,-1304.89,0
GRID,24149,0,278.2862,0.0,-1306.87,0
GRID,24150,0,276.8662,0.0,-1308.83,0
GRID,24151,0,275.4303,0.0,-1310.79,0
GRID,24152,0,273.9784,0.0,-1312.73,0
GRID,24153,0,272.5107,0.0,-1314.66,0
GRID,24154,0,271.0274,0.0,-1316.58,0
GRID,24155,0,269.5284,0.0,-1318.49,0
GRID,24156,0,268.0138,0.0,-1320.39,0
GRID,24157,0,266.4839,0.0,-1322.27,0
GRID,24158,0,264.9387,0.0,-1324.14,0
GRID,24159,0,263.3782,0.0,-1326.0,0
GRID,24160,0,261.8027,0.0,-1327.85,0
GRID,24161,0,260.2122,0.0,-1329.68,0
GRID,24162,0,258.6069,0.0,-1331.5,0
GRID,24163,0,256.9868,0.0,-1333.31,0
GRID,24164,0,255.352,0.0,-1335.1,0
GRID,24165,0,253.7027,0.0,-1336.89,0
GRID,24166,0,252.039,0.0,-1338.65,0
GRID,24167,0,250.3611,0.0,-1340.41,0
GRID,24168,0,248.6614,0.0,-1342.16,0
GRID,24169,0,246.9536,0.0,-1343.91,0
GRID,24170,0,245.2378,0.0,-1345.65,0
GRID,24171,0,243.5142,0.0,-1347.38,0
GRID,24172,0,241.8086,0.0,-1349.09,0
GRID,24173,0,240.1031,0.0,-1350.79,0
GRID,24174,0,238.3975,0.0,-1352.5,0
GRID,24175,0,236.692,0.0,-1354.21,0
GRID,24176,0,234.9865,0.0,-1355.91,0
GRID,24177,0,233.2809,0.0,-1357.62,0
GRID,24178,0,231.5754,0.0,-1359.32,0
GRID,24179,0,229.8698,0.0,-1361.03,0
GRID,24180,0,228.1643,0.0,-1362.73,0
GRID,24181,0,226.4293,0.0,-1364.46,0
GRID,24182,0,224.687,0.0,-1366.18,0
GRID,24183,0,222.9374,0.0,-1367.89,0
GRID,24184,0,221.1806,0.0,-1369.6,0
GRID,24185,0,219.4167,0.0,-1371.29,0
GRID,24186,0,217.6457,0.0,-1372.98,0
GRID,24187,0,215.8677,0.0,-1374.66,0
GRID,24188,0,214.0827,0.0,-1376.34,0
GRID,24189,0,212.2909,0.0,-1378.0,0
GRID,24190,0,210.4923,0.0,-1379.66,0
GRID,24191,0,208.687,0.0,-1381.31,0
GRID,24192,0,206.875,0.0,-1382.95,0
GRID,24193,0,205.0565,0.0,-1384.58,0
GRID,24194,0,203.2315,0.0,-1386.21,0
GRID,24195,0,201.4002,0.0,-1387.83,0
GRID,24196,0,199.5625,0.0,-1389.43,0
GRID,24197,0,197.7186,0.0,-1391.03,0
GRID,24198,0,195.8685,0.0,-1392.62,0
GRID,24199,0,194.0124,0.0,-1394.21,0
GRID,24200,0,192.1502,0.0,-1395.78,0
GRID,24201,0,190.2822,0.0,-1397.34,0
GRID,24202,0,188.4083,0.0,-1398.9,0
GRID,24203,0,186.5287,0.0,-1400.45,0
GRID,24204,0,184.6435,0.0,-1401.99,0
GRID,24205,0,182.7526,0.0,-1403.51,0
GRID,24206,0,180.8563,0.0,-1405.03,0
GRID,24207,0,178.9546,0.0,-1406.55,0
GRID,24208,0,177.0475,0.0,-1408.05,0
GRID,24209,0,175.1352,0.0,-1409.54,0
GRID,24210,0,173.2178,0.0,-1411.03,0
GRID,24211,0,171.2953,0.0,-1412.5,0
GRID,24212,0,169.3678,0.0,-1413.97,0
GRID,24213,0,167.4355,0.0,-1415.42,0
GRID,24214,0,165.4984,0.0,-1416.87,0
GRID,24215,0,163.5565,0.0,-1418.31,0
GRID,24216,0,161.6101,0.0,-1419.73,0
GRID,24217,0,159.6591,0.0,-1421.15,0
GRID,24218,0,157.7037,0.0,-1422.56,0
GRID,24219,0,155.7439,0.0,-1423.96,0
GRID,24220,0,153.7799,0.0,-1425.35,0
GRID,24221,0,151.8117,0.0,-1426.73,0
GRID,24222,0,149.8395,0.0,-1428.1,0
GRID,24223,0,147.8633,0.0,-1429.46,0
GRID,24224,0,145.8832,0.0,-1430.81,0
GRID,24225,0,143.8993,0.0,-1432.15,0
GRID,24226,0,141.9117,0.0,-1433.48,0
GRID,24227,0,139.9205,0.0,-1434.81,0
GRID,24228,0,137.9257,0.0,-1436.12,0
GRID,24229,0,135.9276,0.0,-1437.42,0
GRID,24230,0,133.917,0.0,-1438.71,0
GRID,24231,0,131.8909,0.0,-1439.97,0
GRID,24232,0,129.8496,0.0,-1441.21,0
GRID,24233,0,127.7933,0.0,-1442.43,0
GRID,24234,0,125.7222,0.0,-1443.63,0
GRID,24235,0,123.6366,0.0,-1444.8,0
GRID,24236,0,121.5368,0.0,-1445.95,0
GRID,24237,0,119.4229,0.0,-1447.07,0
GRID,24238,0,117.2953,0.0,-1448.17,0
GRID,24239,0,115.1542,0.0,-1449.25,0
GRID,24240,0,113.0,0.0,-1450.3,0
GRID,24241,0,110.8329,0.0,-1451.33,0
GRID,24242,0,108.6533,0.0,-1452.33,0
GRID,24243,0,106.4614,0.0,-1453.31,0
GRID,24244,0,104.2574,0.0,-1454.26,0
GRID,24245,0,102.0418,0.0,-1455.19,0
GRID,24246,0,99.81482,0.0,-1456.09,0
GRID,24247,0,97.57668,0.0,-1456.97,0
GRID,24248,0,95.32773,0.0,-1457.82,0
GRID,24249,0,93.06827,0.0,-1458.65,0
GRID,24250,0,90.79861,0.0,-1459.45,0
GRID,24251,0,88.51904,0.0,-1460.22,0
GRID,24252,0,86.22988,0.0,-1460.97,0
GRID,24253,0,83.93142,0.0,-1461.69,0
GRID,24254,0,81.62397,0.0,-1462.39,0
GRID,24255,0,79.30784,0.0,-1463.06,0
GRID,24256,0,76.98334,0.0,-1463.7,0
GRID,24257,0,74.65078,0.0,-1464.32,0
GRID,24258,0,72.31048,0.0,-1464.91,0
GRID,24259,0,69.96277,0.0,-1465.47,0
GRID,24260,0,67.60794,0.0,-1466.01,0
GRID,24261,0,65.24633,0.0,-1466.51,0
GRID,24262,0,62.87824,0.0,-1467.0,0
GRID,24263,0,60.50399,0.0,-1467.45,0
GRID,24264,0,58.12391,0.0,-1467.88,0
GRID,24265,0,55.73832,0.0,-1468.28,0
GRID,24266,0,53.34753,0.0,-1468.65,0
GRID,24267,0,50.95189,0.0,-1468.99,0
GRID,24268,0,48.5517,0.0,-1469.31,0
GRID,24269,0,46.14731,0.0,-1469.6,0
GRID,24270,0,43.73902,0.0,-1469.86,0
GRID,24271,0,41.32717,0.0,-1470.1,0
GRID,24272,0,38.91208,0.0,-1470.3,0
GRID,24273,0,36.49409,0.0,-1470.48,0
GRID,24274,0,34.07352,0.0,-1470.63,0
GRID,24275,0,31.6507,0.0,-1470.76,0
GRID,24276,0,29.22596,0.0,-1470.85,0
GRID,24277,0,26.79964,0.0,-1470.92,0
GRID,24278,0,24.37206,0.0,-1470.96,0
GRID,24279,0,21.94355,0.0,-1470.97,0
GRID,24280,0,19.51445,0.0,-1470.95,0
GRID,24281,0,17.0851,0.0,-1470.91,0
GRID,24282,0,14.65581,0.0,-1470.83,0
GRID,24283,0,12.22692,0.0,-1470.73,0
GRID,24284,0,9.798758,0.0,-1470.6,0
GRID,24285,0,7.371656,0.0,-1470.44,0
GRID,24286,0,4.945942,0.0,-1470.26,0
GRID,24287,0,2.521947,0.0,-1470.05,0
GRID,24288,0,337.835,0.0,-1052.51,0
GRID,24289,0,337.835,0.0,-1055.02,0
GRID,24290,0,337.835,0.0,-1057.53,0
GRID,24291,0,337.835,0.0,-1060.04,0
GRID,24292,0,337.835,0.0,-1062.55,0
GRID,24293,0,337.835,0.0,-1065.06,0
GRID,24294,0,337.835,0.0,-1067.57,0
GRID,24295,0,337.8304,0.0,-1069.98,0
GRID,24296,0,337.8172,0.0,-1072.39,0
GRID,24297,0,337.7953,0.0,-1074.8,0
GRID,24298,0,337.7646,0.0,-1077.21,0
GRID,24299,0,337.7253,0.0,-1079.62,0
GRID,24300,0,337.6773,0.0,-1082.03,0
GRID,24301,0,337.6206,0.0,-1084.44,0
GRID,24302,0,337.5552,0.0,-1086.85,0
GRID,24303,0,337.481,0.0,-1089.26,0
GRID,24304,0,337.3982,0.0,-1091.67,0
GRID,24305,0,337.3066,0.0,-1094.08,0
GRID,24306,0,337.2063,0.0,-1096.49,0
GRID,24307,0,337.0972,0.0,-1098.89,0
GRID,24308,0,336.9794,0.0,-1101.3,0
GRID,24309,0,336.8529,0.0,-1103.7,0
GRID,24310,0,336.7177,0.0,-1106.11,0
GRID,24311,0,336.5739,0.0,-1108.51,0
GRID,24312,0,336.4213,0.0,-1110.91,0
GRID,24313,0,336.2601,0.0,-1113.32,0
GRID,24314,0,336.0901,0.0,-1115.72,0
GRID,24315,0,335.9116,0.0,-1118.12,0
GRID,24316,0,335.7244,0.0,-1120.51,0
GRID,24317,0,335.5285,0.0,-1122.91,0
GRID,24318,0,335.324,0.0,-1125.31,0
GRID,24319,0,335.1108,0.0,-1127.7,0
GRID,24320,0,334.8891,0.0,-1130.1,0
GRID,24321,0,334.6587,0.0,-1132.49,0
GRID,24322,0,334.4197,0.0,-1134.88,0
GRID,24323,0,334.1721,0.0,-1137.27,0
GRID,24324,0,333.9159,0.0,-1139.65,0
GRID,24325,0,333.6512,0.0,-1142.04,0
GRID,24326,0,333.3779,0.0,-1144.42,0
GRID,24327,0,333.096,0.0,-1146.8,0
GRID,24328,0,332.8056,0.0,-1149.18,0
GRID,24329,0,332.5067,0.0,-1151.56,0
GRID,24330,0,332.1992,0.0,-1153.94,0
GRID,24331,0,331.8833,0.0,-1156.31,0
GRID,24332,0,331.5589,0.0,-1158.68,0
GRID,24333,0,331.226,0.0,-1161.05,0
GRID,24334,0,330.8846,0.0,-1163.42,0
GRID,24335,0,330.5348,0.0,-1165.79,0
GRID,24336,0,330.1765,0.0,-1168.15,0
GRID,24337,0,329.8099,0.0,-1170.51,0
GRID,24338,0,329.4348,0.0,-1172.87,0
GRID,24339,0,329.0513,0.0,-1175.22,0
GRID,24340,0,328.6595,0.0,-1177.58,0
GRID,24341,0,328.2593,0.0,-1179.93,0
GRID,24342,0,327.8507,0.0,-1182.28,0
GRID,24343,0,327.4284,0.0,-1184.62,0
GRID,24344,0,326.9873,0.0,-1186.97,0
GRID,24345,0,326.5272,0.0,-1189.31,0
GRID,24346,0,326.0483,0.0,-1191.65,0
GRID,24347,0,325.5506,0.0,-1193.98,0
GRID,24348,0,325.034,0.0,-1196.32,0
GRID,24349,0,324.4985,0.0,-1198.64,0
GRID,24350,0,323.9443,0.0,-1200.97,0
GRID,24351,0,323.3712,0.0,-1203.29,0
GRID,24352,0,322.7794,0.0,-1205.61,0
GRID,24353,0,322.1689,0.0,-1207.92,0
GRID,24354,0,321.5397,0.0,-1210.23,0
GRID,24355,0,320.8918,0.0,-1212.53,0
GRID,24356,0,320.2253,0.0,-1214.83,0
GRID,24357,0,319.5403,0.0,-1217.12,0
GRID,24358,0,318.8367,0.0,-1219.41,0
GRID,24359,0,318.1147,0.0,-1221.69,0
GRID,24360,0,317.3741,0.0,-1223.97,0
GRID,24361,0,316.6151,0.0,-1226.24,0
GRID,24362,0,315.8378,0.0,-1228.51,0
GRID,24363,0,315.0421,0.0,-1230.77,0
GRID,24364,0,314.2281,0.0,-1233.03,0
GRID,24365,0,313.3959,0.0,-1235.27,0
GRID,24366,0,312.5455,0.0,-1237.52,0
GRID,24367,0,311.677,0.0,-1239.75,0
GRID,24368,0,310.7904,0.0,-1241.98,0
GRID,24369,0,309.8857,0.0,-1244.21,0
GRID,24370,0,308.9631,0.0,-1246.42,0
GRID,24371,0,308.0225,0.0,-1248.63,0
GRID,24372,0,307.0641,0.0,-1250.83,0
GRID,24373,0,306.0879,0.0,-1253.03,0
GRID,24374,0,305.0939,0.0,-1255.21,0
GRID,24375,0,304.0822,0.0,-1257.39,0
GRID,24376,0,303.0529,0.0,-1259.56,0
GRID,24377,0,302.006,0.0,-1261.72,0
GRID,24378,0,300.9416,0.0,-1263.88,0
GRID,24379,0,299.8598,0.0,-1266.03,0
GRID,24380,0,298.7606,0.0,-1268.16,0
GRID,24381,0,297.6442,0.0,-1270.29,0
GRID,24382,0,296.5105,0.0,-1272.42,0
GRID,24383,0,295.3596,0.0,-1274.53,0
GRID,24384,0,294.1917,0.0,-1276.63,0
GRID,24385,0,293.0068,0.0,-1278.73,0
GRID,24386,0,291.8049,0.0,-1280.81,0
GRID,24387,0,290.5862,0.0,-1282.89,0
GRID,24388,0,289.3507,0.0,-1284.95,0
GRID,24389,0,288.0985,0.0,-1287.01,0
GRID,24390,0,286.8297,0.0,-1289.05,0
GRID,24391,0,285.5443,0.0,-1291.09,0
GRID,24392,0,284.2425,0.0,-1293.12,0
GRID,24393,0,282.9243,0.0,-1295.13,0
GRID,24394,0,281.5898,0.0,-1297.14,0
GRID,24395,0,280.2392,0.0,-1299.13,0
GRID,24396,0,278.8724,0.0,-1301.12,0
GRID,24397,0,277.4896,0.0,-1303.09,0
GRID,24398,0,276.0909,0.0,-1305.05,0
GRID,24399,0,274.6763,0.0,-1307.0,0
GRID,24400,0,273.246,0.0,-1308.94,0
GRID,24401,0,271.8001,0.0,-1310.87,0
GRID,24402,0,270.3386,0.0,-1312.79,0
GRID,24403,0,268.8616,0.0,-1314.69,0
GRID,24404,0,267.3693,0.0,-1316.59,0
GRID,24405,0,265.8616,0.0,-1318.47,0
GRID,24406,0,264.3388,0.0,-1320.34,0
GRID,24407,0,262.8009,0.0,-1322.19,0
GRID,24408,0,261.2481,0.0,-1324.04,0
GRID,24409,0,259.6804,0.0,-1325.87,0
GRID,24410,0,258.098,0.0,-1327.69,0
GRID,24411,0,256.5009,0.0,-1329.5,0
GRID,24412,0,254.8893,0.0,-1331.3,0
GRID,24413,0,253.2633,0.0,-1333.08,0
GRID,24414,0,251.6229,0.0,-1334.85,0
GRID,24415,0,249.9684,0.0,-1336.6,0
GRID,24416,0,248.2999,0.0,-1338.35,0
GRID,24417,0,246.6096,0.0,-1340.09,0
GRID,24418,0,244.9116,0.0,-1341.82,0
GRID,24419,0,243.206,0.0,-1343.55,0
GRID,24420,0,241.4928,0.0,-1345.27,0
GRID,24421,0,239.7969,0.0,-1346.97,0
GRID,24422,0,238.1011,0.0,-1348.66,0
GRID,24423,0,236.4052,0.0,-1350.36,0
GRID,24424,0,234.7093,0.0,-1352.06,0
GRID,24425,0,233.0135,0.0,-1353.75,0
GRID,24426,0,231.3176,0.0,-1355.45,0
GRID,24427,0,229.6217,0.0,-1357.14,0
GRID,24428,0,227.9259,0.0,-1358.84,0
GRID,24429,0,226.23,0.0,-1360.54,0
GRID,24430,0,224.506,0.0,-1362.25,0
GRID,24431,0,222.7751,0.0,-1363.96,0
GRID,24432,0,221.0371,0.0,-1365.66,0
GRID,24433,0,219.2924,0.0,-1367.36,0
GRID,24434,0,217.5408,0.0,-1369.05,0
GRID,24435,0,215.7824,0.0,-1370.73,0
GRID,24436,0,214.0174,0.0,-1372.4,0
GRID,24437,0,212.2457,0.0,-1374.07,0
GRID,24438,0,210.4675,0.0,-1375.72,0
GRID,24439,0,208.6828,0.0,-1377.37,0
GRID,24440,0,206.8917,0.0,-1379.01,0
GRID,24441,0,205.0942,0.0,-1380.65,0
GRID,24442,0,203.2905,0.0,-1382.28,0
GRID,24443,0,201.4807,0.0,-1383.89,0
GRID,24444,0,199.6647,0.0,-1385.5,0
GRID,24445,0,197.8427,0.0,-1387.11,0
GRID,24446,0,196.0147,0.0,-1388.7,0
GRID,24447,0,194.1809,0.0,-1390.29,0
GRID,24448,0,192.3413,0.0,-1391.87,0
GRID,24449,0,190.496,0.0,-1393.44,0
GRID,24450,0,188.645,0.0,-1395.0,0
GRID,24451,0,186.7884,0.0,-1396.55,0
GRID,24452,0,184.9264,0.0,-1398.1,0
GRID,24453,0,183.059,0.0,-1399.63,0
GRID,24454,0,181.1863,0.0,-1401.16,0
GRID,24455,0,179.3083,0.0,-1402.68,0
GRID,24456,0,177.4251,0.0,-1404.19,0
GRID,24457,0,175.5369,0.0,-1405.69,0
GRID,24458,0,173.6437,0.0,-1407.18,0
GRID,24459,0,171.7456,0.0,-1408.67,0
GRID,24460,0,169.8426,0.0,-1410.14,0
GRID,24461,0,167.9349,0.0,-1411.61,0
GRID,24462,0,166.0226,0.0,-1413.07,0
GRID,24463,0,164.1056,0.0,-1414.52,0
GRID,24464,0,162.1842,0.0,-1415.96,0
GRID,24465,0,160.2584,0.0,-1417.39,0
GRID,24466,0,158.3282,0.0,-1418.81,0
GRID,24467,0,156.3939,0.0,-1420.22,0
GRID,24468,0,154.4553,0.0,-1421.63,0
GRID,24469,0,152.5127,0.0,-1423.02,0
GRID,24470,0,150.5662,0.0,-1424.41,0
GRID,24471,0,148.6157,0.0,-1425.78,0
GRID,24472,0,146.6615,0.0,-1427.15,0
GRID,24473,0,144.7035,0.0,-1428.51,0
GRID,24474,0,142.742,0.0,-1429.85,0
GRID,24475,0,140.7769,0.0,-1431.19,0
GRID,24476,0,138.8083,0.0,-1432.52,0
GRID,24477,0,136.8364,0.0,-1433.84,0
GRID,24478,0,134.8613,0.0,-1435.15,0
GRID,24479,0,132.8735,0.0,-1436.45,0
GRID,24480,0,130.8702,0.0,-1437.72,0
GRID,24481,0,128.8514,0.0,-1438.97,0
GRID,24482,0,126.8174,0.0,-1440.2,0
GRID,24483,0,124.7686,0.0,-1441.41,0
GRID,24484,0,122.705,0.0,-1442.59,0
GRID,24485,0,120.6269,0.0,-1443.75,0
GRID,24486,0,118.5347,0.0,-1444.88,0
GRID,24487,0,116.4286,0.0,-1445.99,0
GRID,24488,0,114.3088,0.0,-1447.08,0
GRID,24489,0,112.1757,0.0,-1448.14,0
GRID,24490,0,110.0295,0.0,-1449.18,0
GRID,24491,0,107.8707,0.0,-1450.19,0
GRID,24492,0,105.6993,0.0,-1451.18,0
GRID,24493,0,103.5158,0.0,-1452.14,0
GRID,24494,0,101.3205,0.0,-1453.08,0
GRID,24495,0,99.11351,0.0,-1453.99,0
GRID,24496,0,96.89528,0.0,-1454.88,0
GRID,24497,0,94.66605,0.0,-1455.75,0
GRID,24498,0,92.42615,0.0,-1456.58,0
GRID,24499,0,90.17588,0.0,-1457.39,0
GRID,24500,0,87.91553,0.0,-1458.18,0
GRID,24501,0,85.64542,0.0,-1458.94,0
GRID,24502,0,83.36584,0.0,-1459.67,0
GRID,24503,0,81.07711,0.0,-1460.38,0
GRID,24504,0,78.77954,0.0,-1461.06,0
GRID,24505,0,76.47342,0.0,-1461.71,0
GRID,24506,0,74.1591,0.0,-1462.34,0
GRID,24507,0,71.83687,0.0,-1462.94,0
GRID,24508,0,69.50706,0.0,-1463.52,0
GRID,24509,0,67.16998,0.0,-1464.06,0
GRID,24510,0,64.82596,0.0,-1464.58,0
GRID,24511,0,62.4753,0.0,-1465.08,0
GRID,24512,0,60.11834,0.0,-1465.54,0
GRID,24513,0,57.75538,0.0,-1465.98,0
GRID,24514,0,55.38675,0.0,-1466.39,0
GRID,24515,0,53.01279,0.0,-1466.78,0
GRID,24516,0,50.63382,0.0,-1467.13,0
GRID,24517,0,48.25015,0.0,-1467.46,0
GRID,24518,0,45.86213,0.0,-1467.76,0
GRID,24519,0,43.47007,0.0,-1468.04,0
GRID,24520,0,41.07431,0.0,-1468.28,0
GRID,24521,0,38.67516,0.0,-1468.5,0
GRID,24522,0,36.27297,0.0,-1468.69,0
GRID,24523,0,33.86806,0.0,-1468.85,0
GRID,24524,0,31.46076,0.0,-1468.99,0
GRID,24525,0,29.05141,0.0,-1469.1,0
GRID,24526,0,26.64033,0.0,-1469.18,0
GRID,24527,0,24.22787,0.0,-1469.23,0
GRID,24528,0,21.81435,0.0,-1469.25,0
GRID,24529,0,19.4001,0.0,-1469.24,0
GRID,24530,0,16.98547,0.0,-1469.21,0
GRID,24531,0,14.57078,0.0,-1469.15,0
GRID,24532,0,12.15637,0.0,-1469.06,0
GRID,24533,0,9.742556,0.0,-1468.94,0
GRID,24534,0,7.329682,0.0,-1468.8,0
GRID,24535,0,4.918076,0.0,-1468.63,0
GRID,24536,0,2.508072,0.0,-1468.43,0
GRID,24537,0,336.0333,0.0,-1052.5,0
GRID,24538,0,336.0333,0.0,-1054.99,0
GRID,24539,0,336.0333,0.0,-1057.49,0
GRID,24540,0,336.0333,0.0,-1059.99,0
GRID,24541,0,336.0333,0.0,-1062.48,0
GRID,24542,0,336.0333,0.0,-1064.98,0
GRID,24543,0,336.0333,0.0,-1067.48,0
GRID,24544,0,336.0287,0.0,-1069.87,0
GRID,24545,0,336.0151,0.0,-1072.27,0
GRID,24546,0,335.9926,0.0,-1074.66,0
GRID,24547,0,335.9612,0.0,-1077.06,0
GRID,24548,0,335.9209,0.0,-1079.45,0
GRID,24549,0,335.8716,0.0,-1081.85,0
GRID,24550,0,335.8134,0.0,-1084.24,0
GRID,24551,0,335.7463,0.0,-1086.64,0
GRID,24552,0,335.6703,0.0,-1089.03,0
GRID,24553,0,335.5853,0.0,-1091.42,0
GRID,24554,0,335.4914,0.0,-1093.82,0
GRID,24555,0,335.3885,0.0,-1096.21,0
GRID,24556,0,335.2766,0.0,-1098.6,0
GRID,24557,0,335.1558,0.0,-1100.99,0
GRID,24558,0,335.0261,0.0,-1103.38,0
GRID,24559,0,334.8874,0.0,-1105.77,0
GRID,24560,0,334.7399,0.0,-1108.16,0
GRID,24561,0,334.5834,0.0,-1110.55,0
GRID,24562,0,334.418,0.0,-1112.93,0
GRID,24563,0,334.2437,0.0,-1115.32,0
GRID,24564,0,334.0606,0.0,-1117.7,0
GRID,24565,0,333.8686,0.0,-1120.08,0
GRID,24566,0,333.6677,0.0,-1122.46,0
GRID,24567,0,333.4579,0.0,-1124.84,0
GRID,24568,0,333.2393,0.0,-1127.22,0
GRID,24569,0,333.0119,0.0,-1129.6,0
GRID,24570,0,332.7756,0.0,-1131.98,0
GRID,24571,0,332.5304,0.0,-1134.35,0
GRID,24572,0,332.2765,0.0,-1136.72,0
GRID,24573,0,332.0138,0.0,-1139.09,0
GRID,24574,0,331.7422,0.0,-1141.46,0
GRID,24575,0,331.4619,0.0,-1143.83,0
GRID,24576,0,331.1728,0.0,-1146.2,0
GRID,24577,0,330.875,0.0,-1148.56,0
GRID,24578,0,330.5684,0.0,-1150.92,0
GRID,24579,0,330.2531,0.0,-1153.28,0
GRID,24580,0,329.929,0.0,-1155.64,0
GRID,24581,0,329.5963,0.0,-1157.99,0
GRID,24582,0,329.2548,0.0,-1160.35,0
GRID,24583,0,328.9047,0.0,-1162.7,0
GRID,24584,0,328.5459,0.0,-1165.05,0
GRID,24585,0,328.1785,0.0,-1167.39,0
GRID,24586,0,327.8024,0.0,-1169.74,0
GRID,24587,0,327.4177,0.0,-1172.08,0
GRID,24588,0,327.0244,0.0,-1174.42,0
GRID,24589,0,326.6225,0.0,-1176.75,0
GRID,24590,0,326.2121,0.0,-1179.09,0
GRID,24591,0,325.7931,0.0,-1181.42,0
GRID,24592,0,325.3603,0.0,-1183.75,0
GRID,24593,0,324.909,0.0,-1186.08,0
GRID,24594,0,324.4391,0.0,-1188.4,0
GRID,24595,0,323.9507,0.0,-1190.72,0
GRID,24596,0,323.4437,0.0,-1193.04,0
GRID,24597,0,322.9181,0.0,-1195.36,0
GRID,24598,0,322.374,0.0,-1197.67,0
GRID,24599,0,321.8114,0.0,-1199.97,0
GRID,24600,0,321.2302,0.0,-1202.28,0
GRID,24601,0,320.6306,0.0,-1204.58,0
GRID,24602,0,320.0126,0.0,-1206.87,0
GRID,24603,0,319.3762,0.0,-1209.16,0
GRID,24604,0,318.7214,0.0,-1211.45,0
GRID,24605,0,318.0484,0.0,-1213.73,0
GRID,24606,0,317.357,0.0,-1216.0,0
GRID,24607,0,316.6474,0.0,-1218.27,0
GRID,24608,0,315.9196,0.0,-1220.54,0
GRID,24609,0,315.1737,0.0,-1222.8,0
GRID,24610,0,314.4096,0.0,-1225.05,0
GRID,24611,0,313.6274,0.0,-1227.3,0
GRID,24612,0,312.8272,0.0,-1229.55,0
GRID,24613,0,312.0089,0.0,-1231.78,0
GRID,24614,0,311.1728,0.0,-1234.01,0
GRID,24615,0,310.3187,0.0,-1236.24,0
GRID,24616,0,309.4468,0.0,-1238.46,0
GRID,24617,0,308.5571,0.0,-1240.67,0
GRID,24618,0,307.6496,0.0,-1242.87,0
GRID,24619,0,306.7245,0.0,-1245.07,0
GRID,24620,0,305.7817,0.0,-1247.26,0
GRID,24621,0,304.8214,0.0,-1249.45,0
GRID,24622,0,303.8435,0.0,-1251.62,0
GRID,24623,0,302.8481,0.0,-1253.79,0
GRID,24624,0,301.8354,0.0,-1255.95,0
GRID,24625,0,300.8053,0.0,-1258.11,0
GRID,24626,0,299.7579,0.0,-1260.25,0
GRID,24627,0,298.6933,0.0,-1262.39,0
GRID,24628,0,297.6116,0.0,-1264.52,0
GRID,24629,0,296.5127,0.0,-1266.64,0
GRID,24630,0,295.3969,0.0,-1268.75,0
GRID,24631,0,294.2641,0.0,-1270.86,0
GRID,24632,0,293.1144,0.0,-1272.95,0
GRID,24633,0,291.9479,0.0,-1275.04,0
GRID,24634,0,290.7647,0.0,-1277.12,0
GRID,24635,0,289.5649,0.0,-1279.19,0
GRID,24636,0,288.3484,0.0,-1281.24,0
GRID,24637,0,287.1155,0.0,-1283.29,0
GRID,24638,0,285.8661,0.0,-1285.33,0
GRID,24639,0,284.6003,0.0,-1287.36,0
GRID,24640,0,283.3183,0.0,-1289.38,0
GRID,24641,0,282.0201,0.0,-1291.39,0
GRID,24642,0,280.7058,0.0,-1293.39,0
GRID,24643,0,279.3755,0.0,-1295.38,0
GRID,24644,0,278.0292,0.0,-1297.36,0
GRID,24645,0,276.6671,0.0,-1299.33,0
GRID,24646,0,275.2892,0.0,-1301.29,0
GRID,24647,0,273.8956,0.0,-1303.24,0
GRID,24648,0,272.4865,0.0,-1305.17,0
GRID,24649,0,271.0618,0.0,-1307.1,0
GRID,24650,0,269.6218,0.0,-1309.01,0
GRID,24651,0,268.1665,0.0,-1310.91,0
GRID,24652,0,266.6959,0.0,-1312.8,0
GRID,24653,0,265.2102,0.0,-1314.68,0
GRID,24654,0,263.7094,0.0,-1316.55,0
GRID,24655,0,262.1937,0.0,-1318.41,0
GRID,24656,0,260.6632,0.0,-1320.25,0
GRID,24657,0,259.1179,0.0,-1322.08,0
GRID,24658,0,257.5581,0.0,-1323.9,0
GRID,24659,0,255.9837,0.0,-1325.71,0
GRID,24660,0,254.3949,0.0,-1327.5,0
GRID,24661,0,252.7918,0.0,-1329.28,0
GRID,24662,0,251.1746,0.0,-1331.05,0
GRID,24663,0,249.5432,0.0,-1332.81,0
GRID,24664,0,247.8978,0.0,-1334.55,0
GRID,24665,0,246.2387,0.0,-1336.28,0
GRID,24666,0,244.5578,0.0,-1338.01,0
GRID,24667,0,242.8696,0.0,-1339.74,0
GRID,24668,0,241.1741,0.0,-1341.45,0
GRID,24669,0,239.4714,0.0,-1343.16,0
GRID,24670,0,237.7852,0.0,-1344.85,0
GRID,24671,0,236.099,0.0,-1346.53,0
GRID,24672,0,234.4129,0.0,-1348.22,0
GRID,24673,0,232.7267,0.0,-1349.91,0
GRID,24674,0,231.0405,0.0,-1351.59,0
GRID,24675,0,229.3543,0.0,-1353.28,0
GRID,24676,0,227.6681,0.0,-1354.97,0
GRID,24677,0,225.9819,0.0,-1356.65,0
GRID,24678,0,224.2957,0.0,-1358.34,0
GRID,24679,0,222.5827,0.0,-1360.04,0
GRID,24680,0,220.8631,0.0,-1361.74,0
GRID,24681,0,219.1369,0.0,-1363.44,0
GRID,24682,0,217.4041,0.0,-1365.12,0
GRID,24683,0,215.6648,0.0,-1366.8,0
GRID,24684,0,213.9191,0.0,-1368.47,0
GRID,24685,0,212.1671,0.0,-1370.14,0
GRID,24686,0,210.4087,0.0,-1371.79,0
GRID,24687,0,208.6441,0.0,-1373.44,0
GRID,24688,0,206.8733,0.0,-1375.08,0
GRID,24689,0,205.0964,0.0,-1376.72,0
GRID,24690,0,203.3134,0.0,-1378.35,0
GRID,24691,0,201.5245,0.0,-1379.97,0
GRID,24692,0,199.7298,0.0,-1381.58,0
GRID,24693,0,197.9292,0.0,-1383.18,0
GRID,24694,0,196.1229,0.0,-1384.78,0
GRID,24695,0,194.3109,0.0,-1386.37,0
GRID,24696,0,192.4933,0.0,-1387.95,0
GRID,24697,0,190.6702,0.0,-1389.53,0
GRID,24698,0,188.8417,0.0,-1391.09,0
GRID,24699,0,187.0078,0.0,-1392.65,0
GRID,24700,0,185.1685,0.0,-1394.2,0
GRID,24701,0,183.3241,0.0,-1395.74,0
GRID,24702,0,181.4745,0.0,-1397.28,0
GRID,24703,0,179.6199,0.0,-1398.8,0
GRID,24704,0,177.7603,0.0,-1400.32,0
GRID,24705,0,175.8957,0.0,-1401.83,0
GRID,24706,0,174.0263,0.0,-1403.33,0
GRID,24707,0,172.1522,0.0,-1404.83,0
GRID,24708,0,170.2734,0.0,-1406.31,0
GRID,24709,0,168.3899,0.0,-1407.79,0
GRID,24710,0,166.502,0.0,-1409.26,0
GRID,24711,0,164.6096,0.0,-1410.72,0
GRID,24712,0,162.7129,0.0,-1412.17,0
GRID,24713,0,160.8119,0.0,-1413.61,0
GRID,24714,0,158.9067,0.0,-1415.04,0
GRID,24715,0,156.9974,0.0,-1416.47,0
GRID,24716,0,155.084,0.0,-1417.88,0
GRID,24717,0,153.1667,0.0,-1419.29,0
GRID,24718,0,151.2456,0.0,-1420.69,0
GRID,24719,0,149.3206,0.0,-1422.08,0
GRID,24720,0,147.392,0.0,-1423.46,0
GRID,24721,0,145.4597,0.0,-1424.84,0
GRID,24722,0,143.5239,0.0,-1426.2,0
GRID,24723,0,141.5847,0.0,-1427.55,0
GRID,24724,0,139.6421,0.0,-1428.9,0
GRID,24725,0,137.6962,0.0,-1430.24,0
GRID,24726,0,135.7471,0.0,-1431.56,0
GRID,24727,0,133.7949,0.0,-1432.88,0
GRID,24728,0,131.8301,0.0,-1434.19,0
GRID,24729,0,129.8494,0.0,-1435.47,0
GRID,24730,0,127.8532,0.0,-1436.73,0
GRID,24731,0,125.8416,0.0,-1437.97,0
GRID,24732,0,123.8149,0.0,-1439.18,0
GRID,24733,0,121.7733,0.0,-1440.38,0
GRID,24734,0,119.7171,0.0,-1441.54,0
GRID,24735,0,117.6465,0.0,-1442.69,0
GRID,24736,0,115.5618,0.0,-1443.81,0
GRID,24737,0,113.4633,0.0,-1444.91,0
GRID,24738,0,111.3513,0.0,-1445.98,0
GRID,24739,0,109.2261,0.0,-1447.03,0
GRID,24740,0,107.088,0.0,-1448.05,0
GRID,24741,0,104.9373,0.0,-1449.05,0
GRID,24742,0,102.7742,0.0,-1450.02,0
GRID,24743,0,100.5991,0.0,-1450.97,0
GRID,24744,0,98.41221,0.0,-1451.9,0
GRID,24745,0,96.21387,0.0,-1452.79,0
GRID,24746,0,94.00438,0.0,-1453.67,0
GRID,24747,0,91.78403,0.0,-1454.52,0
GRID,24748,0,89.55314,0.0,-1455.34,0
GRID,24749,0,87.31201,0.0,-1456.13,0
GRID,24750,0,85.06095,0.0,-1456.9,0
GRID,24751,0,82.80026,0.0,-1457.65,0
GRID,24752,0,80.53025,0.0,-1458.37,0
GRID,24753,0,78.25123,0.0,-1459.06,0
GRID,24754,0,75.96351,0.0,-1459.72,0
GRID,24755,0,73.66741,0.0,-1460.36,0
GRID,24756,0,71.36325,0.0,-1460.98,0
GRID,24757,0,69.05135,0.0,-1461.56,0
GRID,24758,0,66.73202,0.0,-1462.12,0
GRID,24759,0,64.40559,0.0,-1462.65,0
GRID,24760,0,62.07237,0.0,-1463.16,0
GRID,24761,0,59.73268,0.0,-1463.63,0
GRID,24762,0,57.38684,0.0,-1464.08,0
GRID,24763,0,55.03519,0.0,-1464.51,0
GRID,24764,0,52.67805,0.0,-1464.9,0
GRID,24765,0,50.31574,0.0,-1465.27,0
GRID,24766,0,47.9486,0.0,-1465.61,0
GRID,24767,0,45.57696,0.0,-1465.93,0
GRID,24768,0,43.20113,0.0,-1466.21,0
GRID,24769,0,40.82145,0.0,-1466.47,0
GRID,24770,0,38.43824,0.0,-1466.7,0
GRID,24771,0,36.05185,0.0,-1466.9,0
GRID,24772,0,33.66259,0.0,-1467.08,0
GRID,24773,0,31.27082,0.0,-1467.22,0
GRID,24774,0,28.87685,0.0,-1467.34,0
GRID,24775,0,26.48103,0.0,-1467.43,0
GRID,24776,0,24.08368,0.0,-1467.5,0
GRID,24777,0,21.68514,0.0,-1467.53,0
GRID,24778,0,19.28575,0.0,-1467.54,0
GRID,24779,0,16.88585,0.0,-1467.52,0
GRID,24780,0,14.48576,0.0,-1467.47,0
GRID,24781,0,12.08581,0.0,-1467.39,0
GRID,24782,0,9.686353,0.0,-1467.29,0
GRID,24783,0,7.287707,0.0,-1467.15,0
GRID,24784,0,4.890211,0.0,-1466.99,0
GRID,24785,0,2.494197,0.0,-1466.8,0
GRID,24786,0,334.2317,0.0,-1052.48,0
GRID,24787,0,334.2317,0.0,-1054.97,0
GRID,24788,0,334.2317,0.0,-1057.45,0
GRID,24789,0,334.2317,0.0,-1059.93,0
GRID,24790,0,334.2317,0.0,-1062.42,0
GRID,24791,0,334.2317,0.0,-1064.9,0
GRID,24792,0,334.2317,0.0,-1067.39,0
GRID,24793,0,334.2269,0.0,-1069.77,0
GRID,24794,0,334.2129,0.0,-1072.15,0
GRID,24795,0,334.1899,0.0,-1074.53,0
GRID,24796,0,334.1577,0.0,-1076.91,0
GRID,24797,0,334.1164,0.0,-1079.29,0
GRID,24798,0,334.0659,0.0,-1081.67,0
GRID,24799,0,334.0063,0.0,-1084.05,0
GRID,24800,0,333.9375,0.0,-1086.42,0
GRID,24801,0,333.8595,0.0,-1088.8,0
GRID,24802,0,333.7724,0.0,-1091.18,0
GRID,24803,0,333.6761,0.0,-1093.56,0
GRID,24804,0,333.5707,0.0,-1095.93,0
GRID,24805,0,333.456,0.0,-1098.31,0
GRID,24806,0,333.3322,0.0,-1100.68,0
GRID,24807,0,333.1992,0.0,-1103.06,0
GRID,24808,0,333.0571,0.0,-1105.43,0
GRID,24809,0,332.9059,0.0,-1107.81,0
GRID,24810,0,332.7455,0.0,-1110.18,0
GRID,24811,0,332.576,0.0,-1112.55,0
GRID,24812,0,332.3973,0.0,-1114.92,0
GRID,24813,0,332.2096,0.0,-1117.28,0
GRID,24814,0,332.0128,0.0,-1119.65,0
GRID,24815,0,331.8069,0.0,-1122.02,0
GRID,24816,0,331.5919,0.0,-1124.38,0
GRID,24817,0,331.3678,0.0,-1126.74,0
GRID,24818,0,331.1347,0.0,-1129.1,0
GRID,24819,0,330.8925,0.0,-1131.46,0
GRID,24820,0,330.6412,0.0,-1133.82,0
GRID,24821,0,330.3809,0.0,-1136.18,0
GRID,24822,0,330.1116,0.0,-1138.53,0
GRID,24823,0,329.8333,0.0,-1140.89,0
GRID,24824,0,329.5459,0.0,-1143.24,0
GRID,24825,0,329.2496,0.0,-1145.59,0
GRID,24826,0,328.9443,0.0,-1147.94,0
GRID,24827,0,328.6301,0.0,-1150.28,0
GRID,24828,0,328.3069,0.0,-1152.62,0
GRID,24829,0,327.9748,0.0,-1154.97,0
GRID,24830,0,327.6337,0.0,-1157.3,0
GRID,24831,0,327.2837,0.0,-1159.64,0
GRID,24832,0,326.9248,0.0,-1161.98,0
GRID,24833,0,326.5571,0.0,-1164.31,0
GRID,24834,0,326.1805,0.0,-1166.64,0
GRID,24835,0,325.795,0.0,-1168.97,0
GRID,24836,0,325.4007,0.0,-1171.29,0
GRID,24837,0,324.9975,0.0,-1173.61,0
GRID,24838,0,324.5856,0.0,-1175.93,0
GRID,24839,0,324.1649,0.0,-1178.25,0
GRID,24840,0,323.7354,0.0,-1180.56,0
GRID,24841,0,323.2922,0.0,-1182.88,0
GRID,24842,0,322.8308,0.0,-1185.19,0
GRID,24843,0,322.351,0.0,-1187.49,0
GRID,24844,0,321.853,0.0,-1189.8,0
GRID,24845,0,321.3367,0.0,-1192.1,0
GRID,24846,0,320.8022,0.0,-1194.4,0
GRID,24847,0,320.2494,0.0,-1196.69,0
GRID,24848,0,319.6784,0.0,-1198.98,0
GRID,24849,0,319.0892,0.0,-1201.26,0
GRID,24850,0,318.4818,0.0,-1203.54,0
GRID,24851,0,317.8563,0.0,-1205.82,0
GRID,24852,0,317.2127,0.0,-1208.09,0
GRID,24853,0,316.5511,0.0,-1210.36,0
GRID,24854,0,315.8714,0.0,-1212.62,0
GRID,24855,0,315.1737,0.0,-1214.88,0
GRID,24856,0,314.4581,0.0,-1217.14,0
GRID,24857,0,313.7246,0.0,-1219.38,0
GRID,24858,0,312.9732,0.0,-1221.63,0
GRID,24859,0,312.204,0.0,-1223.86,0
GRID,24860,0,311.417,0.0,-1226.09,0
GRID,24861,0,310.6122,0.0,-1228.32,0
GRID,24862,0,309.7897,0.0,-1230.54,0
GRID,24863,0,308.9496,0.0,-1232.75,0
GRID,24864,0,308.0919,0.0,-1234.96,0
GRID,24865,0,307.2166,0.0,-1237.16,0
GRID,24866,0,306.3238,0.0,-1239.35,0
GRID,24867,0,305.4136,0.0,-1241.54,0
GRID,24868,0,304.4859,0.0,-1243.72,0
GRID,24869,0,303.5409,0.0,-1245.9,0
GRID,24870,0,302.5786,0.0,-1248.06,0
GRID,24871,0,301.5991,0.0,-1250.22,0
GRID,24872,0,300.6024,0.0,-1252.37,0
GRID,24873,0,299.5886,0.0,-1254.52,0
GRID,24874,0,298.5577,0.0,-1256.65,0
GRID,24875,0,297.5098,0.0,-1258.78,0
GRID,24876,0,296.445,0.0,-1260.9,0
GRID,24877,0,295.3633,0.0,-1263.01,0
GRID,24878,0,294.2648,0.0,-1265.12,0
GRID,24879,0,293.1496,0.0,-1267.21,0
GRID,24880,0,292.0177,0.0,-1269.3,0
GRID,24881,0,290.8692,0.0,-1271.38,0
GRID,24882,0,289.7042,0.0,-1273.45,0
GRID,24883,0,288.5227,0.0,-1275.51,0
GRID,24884,0,287.3248,0.0,-1277.56,0
GRID,24885,0,286.1107,0.0,-1279.6,0
GRID,24886,0,284.8802,0.0,-1281.64,0
GRID,24887,0,283.6337,0.0,-1283.66,0
GRID,24888,0,282.371,0.0,-1285.67,0
GRID,24889,0,281.0923,0.0,-1287.68,0
GRID,24890,0,279.7977,0.0,-1289.67,0
GRID,24891,0,278.4873,0.0,-1291.66,0
GRID,24892,0,277.1611,0.0,-1293.63,0
GRID,24893,0,275.8192,0.0,-1295.59,0
GRID,24894,0,274.4617,0.0,-1297.55,0
GRID,24895,0,273.0887,0.0,-1299.49,0
GRID,24896,0,271.7003,0.0,-1301.42,0
GRID,24897,0,270.2966,0.0,-1303.34,0
GRID,24898,0,268.8776,0.0,-1305.25,0
GRID,24899,0,267.4435,0.0,-1307.15,0
GRID,24900,0,265.9943,0.0,-1309.04,0
GRID,24901,0,264.5301,0.0,-1310.91,0
GRID,24902,0,263.0511,0.0,-1312.78,0
GRID,24903,0,261.5572,0.0,-1314.63,0
GRID,24904,0,260.0486,0.0,-1316.47,0
GRID,24905,0,258.5255,0.0,-1318.3,0
GRID,24906,0,256.9878,0.0,-1320.12,0
GRID,24907,0,255.4358,0.0,-1321.93,0
GRID,24908,0,253.8694,0.0,-1323.72,0
GRID,24909,0,252.2889,0.0,-1325.5,0
GRID,24910,0,250.6944,0.0,-1327.27,0
GRID,24911,0,249.0858,0.0,-1329.02,0
GRID,24912,0,247.4634,0.0,-1330.77,0
GRID,24913,0,245.8273,0.0,-1332.5,0
GRID,24914,0,244.1775,0.0,-1334.22,0
GRID,24915,0,242.506,0.0,-1335.93,0
GRID,24916,0,240.8276,0.0,-1337.65,0
GRID,24917,0,239.1422,0.0,-1339.35,0
GRID,24918,0,237.4501,0.0,-1341.05,0
GRID,24919,0,235.7735,0.0,-1342.73,0
GRID,24920,0,234.097,0.0,-1344.41,0
GRID,24921,0,232.4205,0.0,-1346.08,0
GRID,24922,0,230.744,0.0,-1347.76,0
GRID,24923,0,229.0675,0.0,-1349.43,0
GRID,24924,0,227.391,0.0,-1351.11,0
GRID,24925,0,225.7144,0.0,-1352.79,0
GRID,24926,0,224.0379,0.0,-1354.46,0
GRID,24927,0,222.3614,0.0,-1356.14,0
GRID,24928,0,220.6595,0.0,-1357.84,0
GRID,24929,0,218.9512,0.0,-1359.52,0
GRID,24930,0,217.2366,0.0,-1361.21,0
GRID,24931,0,215.5158,0.0,-1362.88,0
GRID,24932,0,213.7889,0.0,-1364.55,0
GRID,24933,0,212.0559,0.0,-1366.21,0
GRID,24934,0,210.3168,0.0,-1367.87,0
GRID,24935,0,208.5717,0.0,-1369.52,0
GRID,24936,0,206.8206,0.0,-1371.16,0
GRID,24937,0,205.0637,0.0,-1372.8,0
GRID,24938,0,203.3011,0.0,-1374.42,0
GRID,24939,0,201.5326,0.0,-1376.04,0
GRID,24940,0,199.7586,0.0,-1377.66,0
GRID,24941,0,197.9789,0.0,-1379.27,0
GRID,24942,0,196.1937,0.0,-1380.86,0
GRID,24943,0,194.4031,0.0,-1382.46,0
GRID,24944,0,192.6071,0.0,-1384.04,0
GRID,24945,0,190.8057,0.0,-1385.62,0
GRID,24946,0,188.9991,0.0,-1387.19,0
GRID,24947,0,187.1874,0.0,-1388.75,0
GRID,24948,0,185.3705,0.0,-1390.31,0
GRID,24949,0,183.5486,0.0,-1391.85,0
GRID,24950,0,181.7218,0.0,-1393.39,0
GRID,24951,0,179.8901,0.0,-1394.93,0
GRID,24952,0,178.0535,0.0,-1396.45,0
GRID,24953,0,176.2122,0.0,-1397.97,0
GRID,24954,0,174.3663,0.0,-1399.48,0
GRID,24955,0,172.5157,0.0,-1400.98,0
GRID,24956,0,170.6607,0.0,-1402.47,0
GRID,24957,0,168.8012,0.0,-1403.95,0
GRID,24958,0,166.9373,0.0,-1405.43,0
GRID,24959,0,165.0691,0.0,-1406.9,0
GRID,24960,0,163.1967,0.0,-1408.36,0
GRID,24961,0,161.3202,0.0,-1409.82,0
GRID,24962,0,159.4396,0.0,-1411.26,0
GRID,24963,0,157.555,0.0,-1412.7,0
GRID,24964,0,155.6665,0.0,-1414.13,0
GRID,24965,0,153.7742,0.0,-1415.55,0
GRID,24966,0,151.8782,0.0,-1416.96,0
GRID,24967,0,149.9784,0.0,-1418.36,0
GRID,24968,0,148.0751,0.0,-1419.76,0
GRID,24969,0,146.1682,0.0,-1421.14,0
GRID,24970,0,144.258,0.0,-1422.52,0
GRID,24971,0,142.3443,0.0,-1423.89,0
GRID,24972,0,140.4274,0.0,-1425.25,0
GRID,24973,0,138.5073,0.0,-1426.61,0
GRID,24974,0,136.5841,0.0,-1427.95,0
GRID,24975,0,134.6578,0.0,-1429.29,0
GRID,24976,0,132.7286,0.0,-1430.62,0
GRID,24977,0,130.7866,0.0,-1431.93,0
GRID,24978,0,128.8287,0.0,-1433.22,0
GRID,24979,0,126.855,0.0,-1434.49,0
GRID,24980,0,124.8657,0.0,-1435.74,0
GRID,24981,0,122.8612,0.0,-1436.96,0
GRID,24982,0,120.8416,0.0,-1438.16,0
GRID,24983,0,118.8073,0.0,-1439.34,0
GRID,24984,0,116.7583,0.0,-1440.5,0
GRID,24985,0,114.6951,0.0,-1441.63,0
GRID,24986,0,112.6179,0.0,-1442.73,0
GRID,24987,0,110.527,0.0,-1443.82,0
GRID,24988,0,108.4228,0.0,-1444.87,0
GRID,24989,0,106.3054,0.0,-1445.91,0
GRID,24990,0,104.1753,0.0,-1446.92,0
GRID,24991,0,102.0326,0.0,-1447.9,0
GRID,24992,0,99.87772,0.0,-1448.86,0
GRID,24993,0,97.71091,0.0,-1449.8,0
GRID,24994,0,95.53247,0.0,-1450.71,0
GRID,24995,0,93.3427,0.0,-1451.59,0
GRID,24996,0,91.14191,0.0,-1452.45,0
GRID,24997,0,88.93041,0.0,-1453.28,0
GRID,24998,0,86.7085,0.0,-1454.09,0
GRID,24999,0,84.47649,0.0,-1454.87,0
GRID,25000,0,82.23469,0.0,-1455.63,0
GRID,25001,0,79.9834,0.0,-1456.36,0
GRID,25002,0,77.72293,0.0,-1457.06,0
GRID,25003,0,75.4536,0.0,-1457.74,0
GRID,25004,0,73.17573,0.0,-1458.39,0
GRID,25005,0,70.88964,0.0,-1459.01,0
GRID,25006,0,68.59564,0.0,-1459.61,0
GRID,25007,0,66.29406,0.0,-1460.18,0
GRID,25008,0,63.98522,0.0,-1460.72,0
GRID,25009,0,61.66943,0.0,-1461.24,0
GRID,25010,0,59.34702,0.0,-1461.73,0
GRID,25011,0,57.01831,0.0,-1462.19,0
GRID,25012,0,54.68363,0.0,-1462.62,0
GRID,25013,0,52.34331,0.0,-1463.03,0
GRID,25014,0,49.99767,0.0,-1463.41,0
GRID,25015,0,47.64705,0.0,-1463.76,0
GRID,25016,0,45.29178,0.0,-1464.09,0
GRID,25017,0,42.93218,0.0,-1464.39,0
GRID,25018,0,40.56858,0.0,-1464.66,0
GRID,25019,0,38.20132,0.0,-1464.9,0
GRID,25020,0,35.83073,0.0,-1465.11,0
GRID,25021,0,33.45713,0.0,-1465.3,0
GRID,25022,0,31.08088,0.0,-1465.46,0
GRID,25023,0,28.7023,0.0,-1465.59,0
GRID,25024,0,26.32172,0.0,-1465.69,0
GRID,25025,0,23.93949,0.0,-1465.77,0
GRID,25026,0,21.55594,0.0,-1465.81,0
GRID,25027,0,19.17141,0.0,-1465.83,0
GRID,25028,0,16.78623,0.0,-1465.82,0
GRID,25029,0,14.40073,0.0,-1465.79,0
GRID,25030,0,12.01526,0.0,-1465.72,0
GRID,25031,0,9.630151,0.0,-1465.63,0
GRID,25032,0,7.245733,0.0,-1465.51,0
GRID,25033,0,4.862345,0.0,-1465.36,0
GRID,25034,0,2.480322,0.0,-1465.18,0
GRID,25035,0,332.43,0.0,-1052.47,0
GRID,25036,0,332.43,0.0,-1054.94,0
GRID,25037,0,332.43,0.0,-1057.41,0
GRID,25038,0,332.43,0.0,-1059.88,0
GRID,25039,0,332.43,0.0,-1062.35,0
GRID,25040,0,332.43,0.0,-1064.82,0
GRID,25041,0,332.43,0.0,-1067.29,0
GRID,25042,0,332.4251,0.0,-1069.66,0
GRID,25043,0,332.4108,0.0,-1072.03,0
GRID,25044,0,332.3872,0.0,-1074.39,0
GRID,25045,0,332.3542,0.0,-1076.75,0
GRID,25046,0,332.3119,0.0,-1079.12,0
GRID,25047,0,332.2602,0.0,-1081.48,0
GRID,25048,0,332.1991,0.0,-1083.85,0
GRID,25049,0,332.1286,0.0,-1086.21,0
GRID,25050,0,332.0488,0.0,-1088.57,0
GRID,25051,0,331.9596,0.0,-1090.94,0
GRID,25052,0,331.8609,0.0,-1093.3,0
GRID,25053,0,331.7529,0.0,-1095.66,0
GRID,25054,0,331.6355,0.0,-1098.02,0
GRID,25055,0,331.5086,0.0,-1100.38,0
GRID,25056,0,331.3724,0.0,-1102.74,0
GRID,25057,0,331.2268,0.0,-1105.09,0
GRID,25058,0,331.0719,0.0,-1107.45,0
GRID,25059,0,330.9076,0.0,-1109.81,0
GRID,25060,0,330.7339,0.0,-1112.16,0
GRID,25061,0,330.5509,0.0,-1114.52,0
GRID,25062,0,330.3586,0.0,-1116.87,0
GRID,25063,0,330.157,0.0,-1119.22,0
GRID,25064,0,329.9461,0.0,-1121.57,0
GRID,25065,0,329.7258,0.0,-1123.92,0
GRID,25066,0,329.4963,0.0,-1126.26,0
GRID,25067,0,329.2574,0.0,-1128.61,0
GRID,25068,0,329.0093,0.0,-1130.95,0
GRID,25069,0,328.752,0.0,-1133.3,0
GRID,25070,0,328.4853,0.0,-1135.64,0
GRID,25071,0,328.2094,0.0,-1137.98,0
GRID,25072,0,327.9243,0.0,-1140.31,0
GRID,25073,0,327.63,0.0,-1142.65,0
GRID,25074,0,327.3265,0.0,-1144.98,0
GRID,25075,0,327.0137,0.0,-1147.31,0
GRID,25076,0,326.6918,0.0,-1149.64,0
GRID,25077,0,326.3607,0.0,-1151.97,0
GRID,25078,0,326.0205,0.0,-1154.29,0
GRID,25079,0,325.6711,0.0,-1156.62,0
GRID,25080,0,325.3126,0.0,-1158.94,0
GRID,25081,0,324.945,0.0,-1161.25,0
GRID,25082,0,324.5682,0.0,-1163.57,0
GRID,25083,0,324.1824,0.0,-1165.88,0
GRID,25084,0,323.7875,0.0,-1168.19,0
GRID,25085,0,323.3836,0.0,-1170.5,0
GRID,25086,0,322.9706,0.0,-1172.81,0
GRID,25087,0,322.5487,0.0,-1175.11,0
GRID,25088,0,322.1177,0.0,-1177.41,0
GRID,25089,0,321.6777,0.0,-1179.71,0
GRID,25090,0,321.2241,0.0,-1182.0,0
GRID,25091,0,320.7525,0.0,-1184.3,0
GRID,25092,0,320.2629,0.0,-1186.59,0
GRID,25093,0,319.7554,0.0,-1188.87,0
GRID,25094,0,319.2298,0.0,-1191.16,0
GRID,25095,0,318.6863,0.0,-1193.44,0
GRID,25096,0,318.1249,0.0,-1195.71,0
GRID,25097,0,317.5455,0.0,-1197.98,0
GRID,25098,0,316.9482,0.0,-1200.25,0
GRID,25099,0,316.3331,0.0,-1202.51,0
GRID,25100,0,315.7001,0.0,-1204.77,0
GRID,25101,0,315.0493,0.0,-1207.03,0
GRID,25102,0,314.3807,0.0,-1209.28,0
GRID,25103,0,313.6944,0.0,-1211.52,0
GRID,25104,0,312.9905,0.0,-1213.76,0
GRID,25105,0,312.2688,0.0,-1216.0,0
GRID,25106,0,311.5296,0.0,-1218.23,0
GRID,25107,0,310.7728,0.0,-1220.45,0
GRID,25108,0,309.9984,0.0,-1222.67,0
GRID,25109,0,309.2066,0.0,-1224.89,0
GRID,25110,0,308.3973,0.0,-1227.09,0
GRID,25111,0,307.5705,0.0,-1229.3,0
GRID,25112,0,306.7264,0.0,-1231.49,0
GRID,25113,0,305.8651,0.0,-1233.68,0
GRID,25114,0,304.9864,0.0,-1235.86,0
GRID,25115,0,304.0905,0.0,-1238.04,0
GRID,25116,0,303.1775,0.0,-1240.21,0
GRID,25117,0,302.2473,0.0,-1242.37,0
GRID,25118,0,301.3001,0.0,-1244.53,0
GRID,25119,0,300.3359,0.0,-1246.68,0
GRID,25120,0,299.3547,0.0,-1248.82,0
GRID,25121,0,298.3567,0.0,-1250.95,0
GRID,25122,0,297.3418,0.0,-1253.08,0
GRID,25123,0,296.3101,0.0,-1255.2,0
GRID,25124,0,295.2617,0.0,-1257.31,0
GRID,25125,0,294.1967,0.0,-1259.41,0
GRID,25126,0,293.1151,0.0,-1261.51,0
GRID,25127,0,292.0169,0.0,-1263.6,0
GRID,25128,0,290.9023,0.0,-1265.67,0
GRID,25129,0,289.7713,0.0,-1267.75,0
GRID,25130,0,288.624,0.0,-1269.81,0
GRID,25131,0,287.4604,0.0,-1271.86,0
GRID,25132,0,286.2807,0.0,-1273.9,0
GRID,25133,0,285.0848,0.0,-1275.94,0
GRID,25134,0,283.8729,0.0,-1277.96,0
GRID,25135,0,282.645,0.0,-1279.98,0
GRID,25136,0,281.4012,0.0,-1281.99,0
GRID,25137,0,280.1416,0.0,-1283.99,0
GRID,25138,0,278.8663,0.0,-1285.97,0
GRID,25139,0,277.5753,0.0,-1287.95,0
GRID,25140,0,276.2688,0.0,-1289.92,0
GRID,25141,0,274.9467,0.0,-1291.88,0
GRID,25142,0,273.6092,0.0,-1293.82,0
GRID,25143,0,272.2564,0.0,-1295.76,0
GRID,25144,0,270.8883,0.0,-1297.69,0
GRID,25145,0,269.505,0.0,-1299.61,0
GRID,25146,0,268.1067,0.0,-1301.51,0
GRID,25147,0,266.6934,0.0,-1303.41,0
GRID,25148,0,265.2652,0.0,-1305.29,0
GRID,25149,0,263.8222,0.0,-1307.16,0
GRID,25150,0,262.3644,0.0,-1309.02,0
GRID,25151,0,260.892,0.0,-1310.87,0
GRID,25152,0,259.405,0.0,-1312.71,0
GRID,25153,0,257.9035,0.0,-1314.54,0
GRID,25154,0,256.3877,0.0,-1316.36,0
GRID,25155,0,254.8577,0.0,-1318.16,0
GRID,25156,0,253.3134,0.0,-1319.95,0
GRID,25157,0,251.7552,0.0,-1321.73,0
GRID,25158,0,250.183,0.0,-1323.5,0
GRID,25159,0,248.5969,0.0,-1325.25,0
GRID,25160,0,246.9971,0.0,-1327.0,0
GRID,25161,0,245.3836,0.0,-1328.73,0
GRID,25162,0,243.7567,0.0,-1330.45,0
GRID,25163,0,242.1163,0.0,-1332.15,0
GRID,25164,0,240.4542,0.0,-1333.86,0
GRID,25165,0,238.7856,0.0,-1335.56,0
GRID,25166,0,237.1104,0.0,-1337.25,0
GRID,25167,0,235.4287,0.0,-1338.94,0
GRID,25168,0,233.7618,0.0,-1340.61,0
GRID,25169,0,232.095,0.0,-1342.28,0
GRID,25170,0,230.4282,0.0,-1343.94,0
GRID,25171,0,228.7613,0.0,-1345.61,0
GRID,25172,0,227.0945,0.0,-1347.28,0
GRID,25173,0,225.4276,0.0,-1348.94,0
GRID,25174,0,223.7608,0.0,-1350.61,0
GRID,25175,0,222.094,0.0,-1352.28,0
GRID,25176,0,220.4271,0.0,-1353.94,0
GRID,25177,0,218.7362,0.0,-1355.63,0
GRID,25178,0,217.0392,0.0,-1357.31,0
GRID,25179,0,215.3364,0.0,-1358.98,0
GRID,25180,0,213.6276,0.0,-1360.65,0
GRID,25181,0,211.913,0.0,-1362.31,0
GRID,25182,0,210.1926,0.0,-1363.96,0
GRID,25183,0,208.4665,0.0,-1365.61,0
GRID,25184,0,206.7347,0.0,-1367.25,0
GRID,25185,0,204.9972,0.0,-1368.88,0
GRID,25186,0,203.2542,0.0,-1370.51,0
GRID,25187,0,201.5057,0.0,-1372.13,0
GRID,25188,0,199.7518,0.0,-1373.74,0
GRID,25189,0,197.9926,0.0,-1375.35,0
GRID,25190,0,196.228,0.0,-1376.95,0
GRID,25191,0,194.4582,0.0,-1378.54,0
GRID,25192,0,192.6833,0.0,-1380.13,0
GRID,25193,0,190.9032,0.0,-1381.71,0
GRID,25194,0,189.1181,0.0,-1383.28,0
GRID,25195,0,187.3281,0.0,-1384.85,0
GRID,25196,0,185.5331,0.0,-1386.41,0
GRID,25197,0,183.7333,0.0,-1387.96,0
GRID,25198,0,181.9288,0.0,-1389.5,0
GRID,25199,0,180.1195,0.0,-1391.04,0
GRID,25200,0,178.3056,0.0,-1392.57,0
GRID,25201,0,176.4872,0.0,-1394.09,0
GRID,25202,0,174.6642,0.0,-1395.61,0
GRID,25203,0,172.8369,0.0,-1397.12,0
GRID,25204,0,171.0051,0.0,-1398.62,0
GRID,25205,0,169.1691,0.0,-1400.11,0
GRID,25206,0,167.3289,0.0,-1401.6,0
GRID,25207,0,165.4846,0.0,-1403.08,0
GRID,25208,0,163.6362,0.0,-1404.55,0
GRID,25209,0,161.7838,0.0,-1406.01,0
GRID,25210,0,159.9275,0.0,-1407.46,0
GRID,25211,0,158.0673,0.0,-1408.91,0
GRID,25212,0,156.2033,0.0,-1410.35,0
GRID,25213,0,154.3357,0.0,-1411.78,0
GRID,25214,0,152.4644,0.0,-1413.21,0
GRID,25215,0,150.5896,0.0,-1414.62,0
GRID,25216,0,148.7113,0.0,-1416.03,0
GRID,25217,0,146.8295,0.0,-1417.43,0
GRID,25218,0,144.9445,0.0,-1418.82,0
GRID,25219,0,143.0562,0.0,-1420.21,0
GRID,25220,0,141.1647,0.0,-1421.59,0
GRID,25221,0,139.2701,0.0,-1422.95,0
GRID,25222,0,137.3725,0.0,-1424.31,0
GRID,25223,0,135.4719,0.0,-1425.67,0
GRID,25224,0,133.5685,0.0,-1427.01,0
GRID,25225,0,131.6622,0.0,-1428.35,0
GRID,25226,0,129.7432,0.0,-1429.67,0
GRID,25227,0,127.8079,0.0,-1430.97,0
GRID,25228,0,125.8568,0.0,-1432.25,0
GRID,25229,0,123.8899,0.0,-1433.51,0
GRID,25230,0,121.9075,0.0,-1434.74,0
GRID,25231,0,119.91,0.0,-1435.95,0
GRID,25232,0,117.8974,0.0,-1437.14,0
GRID,25233,0,115.8701,0.0,-1438.3,0
GRID,25234,0,113.8284,0.0,-1439.45,0
GRID,25235,0,111.7724,0.0,-1440.56,0
GRID,25236,0,109.7027,0.0,-1441.65,0
GRID,25237,0,107.6194,0.0,-1442.72,0
GRID,25238,0,105.5228,0.0,-1443.77,0
GRID,25239,0,103.4132,0.0,-1444.79,0
GRID,25240,0,101.291,0.0,-1445.78,0
GRID,25241,0,99.15634,0.0,-1446.75,0
GRID,25242,0,97.0096,0.0,-1447.7,0
GRID,25243,0,94.85106,0.0,-1448.62,0
GRID,25244,0,92.68102,0.0,-1449.51,0
GRID,25245,0,90.49979,0.0,-1450.38,0
GRID,25246,0,88.30767,0.0,-1451.23,0
GRID,25247,0,86.10498,0.0,-1452.04,0
GRID,25248,0,83.89202,0.0,-1452.84,0
GRID,25249,0,81.66911,0.0,-1453.6,0
GRID,25250,0,79.43654,0.0,-1454.34,0
GRID,25251,0,77.19462,0.0,-1455.06,0
GRID,25252,0,74.94369,0.0,-1455.75,0
GRID,25253,0,72.68404,0.0,-1456.41,0
GRID,25254,0,70.41602,0.0,-1457.04,0
GRID,25255,0,68.13993,0.0,-1457.65,0
GRID,25256,0,65.8561,0.0,-1458.23,0
GRID,25257,0,63.56485,0.0,-1458.79,0
GRID,25258,0,61.26649,0.0,-1459.32,0
GRID,25259,0,58.96136,0.0,-1459.82,0
GRID,25260,0,56.64978,0.0,-1460.29,0
GRID,25261,0,54.33207,0.0,-1460.74,0
GRID,25262,0,52.00857,0.0,-1461.16,0
GRID,25263,0,49.6796,0.0,-1461.55,0
GRID,25264,0,47.3455,0.0,-1461.91,0
GRID,25265,0,45.00661,0.0,-1462.25,0
GRID,25266,0,42.66323,0.0,-1462.56,0
GRID,25267,0,40.31572,0.0,-1462.84,0
GRID,25268,0,37.9644,0.0,-1463.1,0
GRID,25269,0,35.6096,0.0,-1463.32,0
GRID,25270,0,33.25167,0.0,-1463.52,0
GRID,25271,0,30.89094,0.0,-1463.69,0
GRID,25272,0,28.52774,0.0,-1463.83,0
GRID,25273,0,26.16242,0.0,-1463.95,0
GRID,25274,0,23.79531,0.0,-1464.04,0
GRID,25275,0,21.42674,0.0,-1464.1,0
GRID,25276,0,19.05706,0.0,-1464.13,0
GRID,25277,0,16.6866,0.0,-1464.13,0
GRID,25278,0,14.31571,0.0,-1464.1,0
GRID,25279,0,11.94471,0.0,-1464.05,0
GRID,25280,0,9.573949,0.0,-1463.97,0
GRID,25281,0,7.203759,0.0,-1463.86,0
GRID,25282,0,4.834479,0.0,-1463.72,0
GRID,25283,0,2.466447,0.0,-1463.56,0
GRID,25284,0,330.6283,0.0,-1052.46,0
GRID,25285,0,330.6283,0.0,-1054.92,0
GRID,25286,0,330.6283,0.0,-1057.37,0
GRID,25287,0,330.6283,0.0,-1059.83,0
GRID,25288,0,330.6283,0.0,-1062.29,0
GRID,25289,0,330.6283,0.0,-1064.75,0
GRID,25290,0,330.6283,0.0,-1067.2,0
GRID,25291,0,330.6233,0.0,-1069.55,0
GRID,25292,0,330.6087,0.0,-1071.9,0
GRID,25293,0,330.5845,0.0,-1074.25,0
GRID,25294,0,330.5508,0.0,-1076.6,0
GRID,25295,0,330.5074,0.0,-1078.95,0
GRID,25296,0,330.4545,0.0,-1081.3,0
GRID,25297,0,330.3919,0.0,-1083.65,0
GRID,25298,0,330.3198,0.0,-1086.0,0
GRID,25299,0,330.2381,0.0,-1088.34,0
GRID,25300,0,330.1467,0.0,-1090.69,0
GRID,25301,0,330.0457,0.0,-1093.04,0
GRID,25302,0,329.9351,0.0,-1095.38,0
GRID,25303,0,329.8149,0.0,-1097.73,0
GRID,25304,0,329.685,0.0,-1100.07,0
GRID,25305,0,329.5455,0.0,-1102.41,0
GRID,25306,0,329.3965,0.0,-1104.76,0
GRID,25307,0,329.2378,0.0,-1107.1,0
GRID,25308,0,329.0696,0.0,-1109.44,0
GRID,25309,0,328.8919,0.0,-1111.78,0
GRID,25310,0,328.7045,0.0,-1114.12,0
GRID,25311,0,328.5076,0.0,-1116.45,0
GRID,25312,0,328.3012,0.0,-1118.79,0
GRID,25313,0,328.0852,0.0,-1121.12,0
GRID,25314,0,327.8598,0.0,-1123.45,0
GRID,25315,0,327.6248,0.0,-1125.79,0
GRID,25316,0,327.3802,0.0,-1128.11,0
GRID,25317,0,327.1262,0.0,-1130.44,0
GRID,25318,0,326.8627,0.0,-1132.77,0
GRID,25319,0,326.5897,0.0,-1135.09,0
GRID,25320,0,326.3073,0.0,-1137.42,0
GRID,25321,0,326.0154,0.0,-1139.74,0
GRID,25322,0,325.714,0.0,-1142.06,0
GRID,25323,0,325.4033,0.0,-1144.37,0
GRID,25324,0,325.0831,0.0,-1146.69,0
GRID,25325,0,324.7535,0.0,-1149.0,0
GRID,25326,0,324.4145,0.0,-1151.31,0
GRID,25327,0,324.0662,0.0,-1153.62,0
GRID,25328,0,323.7085,0.0,-1155.93,0
GRID,25329,0,323.3415,0.0,-1158.23,0
GRID,25330,0,322.9651,0.0,-1160.53,0
GRID,25331,0,322.5794,0.0,-1162.83,0
GRID,25332,0,322.1844,0.0,-1165.13,0
GRID,25333,0,321.7801,0.0,-1167.42,0
GRID,25334,0,321.3665,0.0,-1169.71,0
GRID,25335,0,320.9437,0.0,-1172.0,0
GRID,25336,0,320.5117,0.0,-1174.29,0
GRID,25337,0,320.0705,0.0,-1176.57,0
GRID,25338,0,319.62,0.0,-1178.85,0
GRID,25339,0,319.156,0.0,-1181.13,0
GRID,25340,0,318.6743,0.0,-1183.41,0
GRID,25341,0,318.1749,0.0,-1185.68,0
GRID,25342,0,317.6577,0.0,-1187.95,0
GRID,25343,0,317.1229,0.0,-1190.21,0
GRID,25344,0,316.5705,0.0,-1192.48,0
GRID,25345,0,316.0004,0.0,-1194.73,0
GRID,25346,0,315.4126,0.0,-1196.99,0
GRID,25347,0,314.8072,0.0,-1199.24,0
GRID,25348,0,314.1843,0.0,-1201.48,0
GRID,25349,0,313.5438,0.0,-1203.73,0
GRID,25350,0,312.8858,0.0,-1205.96,0
GRID,25351,0,312.2103,0.0,-1208.19,0
GRID,25352,0,311.5175,0.0,-1210.42,0
GRID,25353,0,310.8072,0.0,-1212.64,0
GRID,25354,0,310.0796,0.0,-1214.86,0
GRID,25355,0,309.3346,0.0,-1217.07,0
GRID,25356,0,308.5724,0.0,-1219.28,0
GRID,25357,0,307.7929,0.0,-1221.48,0
GRID,25358,0,306.9962,0.0,-1223.68,0
GRID,25359,0,306.1823,0.0,-1225.87,0
GRID,25360,0,305.3513,0.0,-1228.05,0
GRID,25361,0,304.5033,0.0,-1230.23,0
GRID,25362,0,303.6382,0.0,-1232.4,0
GRID,25363,0,302.7562,0.0,-1234.57,0
GRID,25364,0,301.8572,0.0,-1236.73,0
GRID,25365,0,300.9414,0.0,-1238.88,0
GRID,25366,0,300.0087,0.0,-1241.02,0
GRID,25367,0,299.0593,0.0,-1243.16,0
GRID,25368,0,298.0932,0.0,-1245.29,0
GRID,25369,0,297.1104,0.0,-1247.42,0
GRID,25370,0,296.1109,0.0,-1249.53,0
GRID,25371,0,295.095,0.0,-1251.64,0
GRID,25372,0,294.0625,0.0,-1253.75,0
GRID,25373,0,293.0137,0.0,-1255.84,0
GRID,25374,0,291.9484,0.0,-1257.93,0
GRID,25375,0,290.8668,0.0,-1260.0,0
GRID,25376,0,289.769,0.0,-1262.07,0
GRID,25377,0,288.655,0.0,-1264.13,0
GRID,25378,0,287.5249,0.0,-1266.19,0
GRID,25379,0,286.3788,0.0,-1268.23,0
GRID,25380,0,285.2167,0.0,-1270.27,0
GRID,25381,0,284.0386,0.0,-1272.3,0
GRID,25382,0,282.8448,0.0,-1274.31,0
GRID,25383,0,281.6351,0.0,-1276.32,0
GRID,25384,0,280.4098,0.0,-1278.32,0
GRID,25385,0,279.1688,0.0,-1280.31,0
GRID,25386,0,277.9123,0.0,-1282.3,0
GRID,25387,0,276.6403,0.0,-1284.27,0
GRID,25388,0,275.3529,0.0,-1286.23,0
GRID,25389,0,274.0502,0.0,-1288.18,0
GRID,25390,0,272.7323,0.0,-1290.12,0
GRID,25391,0,271.3992,0.0,-1292.06,0
GRID,25392,0,270.051,0.0,-1293.98,0
GRID,25393,0,268.6878,0.0,-1295.89,0
GRID,25394,0,267.3098,0.0,-1297.79,0
GRID,25395,0,265.9169,0.0,-1299.68,0
GRID,25396,0,264.5092,0.0,-1301.56,0
GRID,25397,0,263.0869,0.0,-1303.43,0
GRID,25398,0,261.65,0.0,-1305.29,0
GRID,25399,0,260.1987,0.0,-1307.13,0
GRID,25400,0,258.7329,0.0,-1308.97,0
GRID,25401,0,257.2528,0.0,-1310.79,0
GRID,25402,0,255.7584,0.0,-1312.61,0
GRID,25403,0,254.25,0.0,-1314.41,0
GRID,25404,0,252.7275,0.0,-1316.2,0
GRID,25405,0,251.1911,0.0,-1317.98,0
GRID,25406,0,249.6409,0.0,-1319.74,0
GRID,25407,0,248.077,0.0,-1321.5,0
GRID,25408,0,246.4994,0.0,-1323.24,0
GRID,25409,0,244.9084,0.0,-1324.97,0
GRID,25410,0,243.3039,0.0,-1326.69,0
GRID,25411,0,241.6861,0.0,-1328.39,0
GRID,25412,0,240.0551,0.0,-1330.09,0
GRID,25413,0,238.4024,0.0,-1331.78,0
GRID,25414,0,236.7436,0.0,-1333.47,0
GRID,25415,0,235.0785,0.0,-1335.15,0
GRID,25416,0,233.4073,0.0,-1336.83,0
GRID,25417,0,231.7501,0.0,-1338.49,0
GRID,25418,0,230.093,0.0,-1340.15,0
GRID,25419,0,228.4358,0.0,-1341.8,0
GRID,25420,0,226.7787,0.0,-1343.46,0
GRID,25421,0,225.1215,0.0,-1345.12,0
GRID,25422,0,223.4643,0.0,-1346.77,0
GRID,25423,0,221.8072,0.0,-1348.43,0
GRID,25424,0,220.15,0.0,-1350.09,0
GRID,25425,0,218.4928,0.0,-1351.75,0
GRID,25426,0,216.8129,0.0,-1353.42,0
GRID,25427,0,215.1273,0.0,-1355.09,0
GRID,25428,0,213.4361,0.0,-1356.75,0
GRID,25429,0,211.7393,0.0,-1358.41,0
GRID,25430,0,210.0371,0.0,-1360.06,0
GRID,25431,0,208.3293,0.0,-1361.7,0
GRID,25432,0,206.6162,0.0,-1363.34,0
GRID,25433,0,204.8976,0.0,-1364.97,0
GRID,25434,0,203.1738,0.0,-1366.6,0
GRID,25435,0,201.4447,0.0,-1368.22,0
GRID,25436,0,199.7104,0.0,-1369.83,0
GRID,25437,0,197.971,0.0,-1371.44,0
GRID,25438,0,196.2266,0.0,-1373.04,0
GRID,25439,0,194.4771,0.0,-1374.64,0
GRID,25440,0,192.7227,0.0,-1376.22,0
GRID,25441,0,190.9635,0.0,-1377.81,0
GRID,25442,0,189.1994,0.0,-1379.38,0
GRID,25443,0,187.4305,0.0,-1380.95,0
GRID,25444,0,185.657,0.0,-1382.51,0
GRID,25445,0,183.8788,0.0,-1384.07,0
GRID,25446,0,182.0961,0.0,-1385.61,0
GRID,25447,0,180.3089,0.0,-1387.16,0
GRID,25448,0,178.5172,0.0,-1388.69,0
GRID,25449,0,176.7211,0.0,-1390.22,0
GRID,25450,0,174.9208,0.0,-1391.74,0
GRID,25451,0,173.1162,0.0,-1393.25,0
GRID,25452,0,171.3074,0.0,-1394.76,0
GRID,25453,0,169.4946,0.0,-1396.26,0
GRID,25454,0,167.6776,0.0,-1397.75,0
GRID,25455,0,165.8567,0.0,-1399.24,0
GRID,25456,0,164.0319,0.0,-1400.72,0
GRID,25457,0,162.2033,0.0,-1402.19,0
GRID,25458,0,160.3709,0.0,-1403.66,0
GRID,25459,0,158.5347,0.0,-1405.11,0
GRID,25460,0,156.695,0.0,-1406.56,0
GRID,25461,0,154.8517,0.0,-1408.01,0
GRID,25462,0,153.0048,0.0,-1409.44,0
GRID,25463,0,151.1546,0.0,-1410.87,0
GRID,25464,0,149.301,0.0,-1412.29,0
GRID,25465,0,147.4441,0.0,-1413.7,0
GRID,25466,0,145.584,0.0,-1415.11,0
GRID,25467,0,143.7207,0.0,-1416.51,0
GRID,25468,0,141.8544,0.0,-1417.9,0
GRID,25469,0,139.9851,0.0,-1419.28,0
GRID,25470,0,138.1128,0.0,-1420.65,0
GRID,25471,0,136.2377,0.0,-1422.02,0
GRID,25472,0,134.3598,0.0,-1423.38,0
GRID,25473,0,132.4792,0.0,-1424.74,0
GRID,25474,0,130.5959,0.0,-1426.08,0
GRID,25475,0,128.6997,0.0,-1427.41,0
GRID,25476,0,126.7872,0.0,-1428.72,0
GRID,25477,0,124.8586,0.0,-1430.01,0
GRID,25478,0,122.914,0.0,-1431.28,0
GRID,25479,0,120.9539,0.0,-1432.52,0
GRID,25480,0,118.9783,0.0,-1433.74,0
GRID,25481,0,116.9876,0.0,-1434.94,0
GRID,25482,0,114.9819,0.0,-1436.11,0
GRID,25483,0,112.9616,0.0,-1437.26,0
GRID,25484,0,110.927,0.0,-1438.39,0
GRID,25485,0,108.8784,0.0,-1439.49,0
GRID,25486,0,106.816,0.0,-1440.57,0
GRID,25487,0,104.7402,0.0,-1441.63,0
GRID,25488,0,102.6512,0.0,-1442.66,0
GRID,25489,0,100.5494,0.0,-1443.66,0
GRID,25490,0,98.43497,0.0,-1444.64,0
GRID,25491,0,96.3083,0.0,-1445.6,0
GRID,25492,0,94.16965,0.0,-1446.53,0
GRID,25493,0,92.01934,0.0,-1447.44,0
GRID,25494,0,89.85767,0.0,-1448.32,0
GRID,25495,0,87.68494,0.0,-1449.17,0
GRID,25496,0,85.50147,0.0,-1450.0,0
GRID,25497,0,83.30756,0.0,-1450.8,0
GRID,25498,0,81.10353,0.0,-1451.58,0
GRID,25499,0,78.88968,0.0,-1452.33,0
GRID,25500,0,76.66632,0.0,-1453.06,0
GRID,25501,0,74.43377,0.0,-1453.76,0
GRID,25502,0,72.19236,0.0,-1454.43,0
GRID,25503,0,69.9424,0.0,-1455.08,0
GRID,25504,0,67.68422,0.0,-1455.7,0
GRID,25505,0,65.41814,0.0,-1456.29,0
GRID,25506,0,63.14448,0.0,-1456.86,0
GRID,25507,0,60.86356,0.0,-1457.4,0
GRID,25508,0,58.5757,0.0,-1457.91,0
GRID,25509,0,56.28124,0.0,-1458.39,0
GRID,25510,0,53.98051,0.0,-1458.85,0
GRID,25511,0,51.67382,0.0,-1459.28,0
GRID,25512,0,49.36153,0.0,-1459.69,0
GRID,25513,0,47.04395,0.0,-1460.06,0
GRID,25514,0,44.72143,0.0,-1460.41,0
GRID,25515,0,42.39429,0.0,-1460.73,0
GRID,25516,0,40.06286,0.0,-1461.03,0
GRID,25517,0,37.72748,0.0,-1461.29,0
GRID,25518,0,35.38848,0.0,-1461.53,0
GRID,25519,0,33.04621,0.0,-1461.74,0
GRID,25520,0,30.701,0.0,-1461.92,0
GRID,25521,0,28.35319,0.0,-1462.08,0
GRID,25522,0,26.00312,0.0,-1462.21,0
GRID,25523,0,23.65112,0.0,-1462.31,0
GRID,25524,0,21.29753,0.0,-1462.38,0
GRID,25525,0,18.94271,0.0,-1462.42,0
GRID,25526,0,16.58698,0.0,-1462.44,0
GRID,25527,0,14.23068,0.0,-1462.42,0
GRID,25528,0,11.87416,0.0,-1462.38,0
GRID,25529,0,9.517746,0.0,-1462.31,0
GRID,25530,0,7.161785,0.0,-1462.22,0
GRID,25531,0,4.806613,0.0,-1462.09,0
GRID,25532,0,2.452572,0.0,-1461.94,0
GRID,25533,0,328.8267,0.0,-1052.44,0
GRID,25534,0,328.8267,0.0,-1054.89,0
GRID,25535,0,328.8267,0.0,-1057.33,0
GRID,25536,0,328.8267,0.0,-1059.78,0
GRID,25537,0,328.8267,0.0,-1062.22,0
GRID,25538,0,328.8267,0.0,-1064.67,0
GRID,25539,0,328.8267,0.0,-1067.11,0
GRID,25540,0,328.8215,0.0,-1069.45,0
GRID,25541,0,328.8066,0.0,-1071.78,0
GRID,25542,0,328.7818,0.0,-1074.12,0
GRID,25543,0,328.7473,0.0,-1076.45,0
GRID,25544,0,328.7029,0.0,-1078.78,0
GRID,25545,0,328.6488,0.0,-1081.12,0
GRID,25546,0,328.5848,0.0,-1083.45,0
GRID,25547,0,328.511,0.0,-1085.78,0
GRID,25548,0,328.4273,0.0,-1088.12,0
GRID,25549,0,328.3338,0.0,-1090.45,0
GRID,25550,0,328.2305,0.0,-1092.78,0
GRID,25551,0,328.1173,0.0,-1095.11,0
GRID,25552,0,327.9943,0.0,-1097.44,0
GRID,25553,0,327.8614,0.0,-1099.77,0
GRID,25554,0,327.7187,0.0,-1102.09,0
GRID,25555,0,327.5662,0.0,-1104.42,0
GRID,25556,0,327.4038,0.0,-1106.75,0
GRID,25557,0,327.2317,0.0,-1109.07,0
GRID,25558,0,327.0498,0.0,-1111.39,0
GRID,25559,0,326.8581,0.0,-1113.72,0
GRID,25560,0,326.6566,0.0,-1116.04,0
GRID,25561,0,326.4454,0.0,-1118.36,0
GRID,25562,0,326.2244,0.0,-1120.67,0
GRID,25563,0,325.9937,0.0,-1122.99,0
GRID,25564,0,325.7532,0.0,-1125.31,0
GRID,25565,0,325.503,0.0,-1127.62,0
GRID,25566,0,325.2431,0.0,-1129.93,0
GRID,25567,0,324.9735,0.0,-1132.24,0
GRID,25568,0,324.6942,0.0,-1134.55,0
GRID,25569,0,324.4051,0.0,-1136.86,0
GRID,25570,0,324.1064,0.0,-1139.16,0
GRID,25571,0,323.7981,0.0,-1141.47,0
GRID,25572,0,323.4801,0.0,-1143.77,0
GRID,25573,0,323.1525,0.0,-1146.06,0
GRID,25574,0,322.8152,0.0,-1148.36,0
GRID,25575,0,322.4684,0.0,-1150.66,0
GRID,25576,0,322.1119,0.0,-1152.95,0
GRID,25577,0,321.7459,0.0,-1155.24,0
GRID,25578,0,321.3703,0.0,-1157.53,0
GRID,25579,0,320.9852,0.0,-1159.81,0
GRID,25580,0,320.5905,0.0,-1162.09,0
GRID,25581,0,320.1863,0.0,-1164.37,0
GRID,25582,0,319.7727,0.0,-1166.65,0
GRID,25583,0,319.3495,0.0,-1168.92,0
GRID,25584,0,318.9169,0.0,-1171.2,0
GRID,25585,0,318.4748,0.0,-1173.47,0
GRID,25586,0,318.0233,0.0,-1175.73,0
GRID,25587,0,317.5624,0.0,-1178.0,0
GRID,25588,0,317.0879,0.0,-1180.26,0
GRID,25589,0,316.5961,0.0,-1182.52,0
GRID,25590,0,316.0868,0.0,-1184.77,0
GRID,25591,0,315.5601,0.0,-1187.02,0
GRID,25592,0,315.016,0.0,-1189.27,0
GRID,25593,0,314.4546,0.0,-1191.52,0
GRID,25594,0,313.8758,0.0,-1193.76,0
GRID,25595,0,313.2797,0.0,-1195.99,0
GRID,25596,0,312.6662,0.0,-1198.23,0
GRID,25597,0,312.0355,0.0,-1200.45,0
GRID,25598,0,311.3875,0.0,-1202.68,0
GRID,25599,0,310.7223,0.0,-1204.9,0
GRID,25600,0,310.04,0.0,-1207.11,0
GRID,25601,0,309.3405,0.0,-1209.32,0
GRID,25602,0,308.6239,0.0,-1211.53,0
GRID,25603,0,307.8903,0.0,-1213.73,0
GRID,25604,0,307.1396,0.0,-1215.92,0
GRID,25605,0,306.3719,0.0,-1218.11,0
GRID,25606,0,305.5873,0.0,-1220.29,0
GRID,25607,0,304.7858,0.0,-1222.47,0
GRID,25608,0,303.9674,0.0,-1224.64,0
GRID,25609,0,303.1321,0.0,-1226.81,0
GRID,25610,0,302.2801,0.0,-1228.97,0
GRID,25611,0,301.4114,0.0,-1231.12,0
GRID,25612,0,300.526,0.0,-1233.27,0
GRID,25613,0,299.6239,0.0,-1235.41,0
GRID,25614,0,298.7053,0.0,-1237.55,0
GRID,25615,0,297.7701,0.0,-1239.67,0
GRID,25616,0,296.8185,0.0,-1241.79,0
GRID,25617,0,295.8504,0.0,-1243.91,0
GRID,25618,0,294.866,0.0,-1246.02,0
GRID,25619,0,293.8652,0.0,-1248.11,0
GRID,25620,0,292.8482,0.0,-1250.21,0
GRID,25621,0,291.815,0.0,-1252.29,0
GRID,25622,0,290.7656,0.0,-1254.37,0
GRID,25623,0,289.7001,0.0,-1256.44,0
GRID,25624,0,288.6186,0.0,-1258.5,0
GRID,25625,0,287.5211,0.0,-1260.55,0
GRID,25626,0,286.4077,0.0,-1262.59,0
GRID,25627,0,285.2785,0.0,-1264.63,0
GRID,25628,0,284.1336,0.0,-1266.66,0
GRID,25629,0,282.9729,0.0,-1268.68,0
GRID,25630,0,281.7966,0.0,-1270.69,0
GRID,25631,0,280.6047,0.0,-1272.69,0
GRID,25632,0,279.3974,0.0,-1274.68,0
GRID,25633,0,278.1746,0.0,-1276.67,0
GRID,25634,0,276.9364,0.0,-1278.64,0
GRID,25635,0,275.683,0.0,-1280.61,0
GRID,25636,0,274.4143,0.0,-1282.56,0
GRID,25637,0,273.1306,0.0,-1284.51,0
GRID,25638,0,271.8317,0.0,-1286.44,0
GRID,25639,0,270.5179,0.0,-1288.37,0
GRID,25640,0,269.1892,0.0,-1290.29,0
GRID,25641,0,267.8457,0.0,-1292.19,0
GRID,25642,0,266.4874,0.0,-1294.09,0
GRID,25643,0,265.1145,0.0,-1295.98,0
GRID,25644,0,263.727,0.0,-1297.85,0
GRID,25645,0,262.325,0.0,-1299.72,0
GRID,25646,0,260.9086,0.0,-1301.57,0
GRID,25647,0,259.4779,0.0,-1303.41,0
GRID,25648,0,258.0329,0.0,-1305.25,0
GRID,25649,0,256.5738,0.0,-1307.07,0
GRID,25650,0,255.1006,0.0,-1308.88,0
GRID,25651,0,253.6133,0.0,-1310.68,0
GRID,25652,0,252.1123,0.0,-1312.46,0
GRID,25653,0,250.5974,0.0,-1314.24,0
GRID,25654,0,249.0688,0.0,-1316.0,0
GRID,25655,0,247.5267,0.0,-1317.76,0
GRID,25656,0,245.971,0.0,-1319.5,0
GRID,25657,0,244.402,0.0,-1321.23,0
GRID,25658,0,242.8196,0.0,-1322.94,0
GRID,25659,0,241.2241,0.0,-1324.65,0
GRID,25660,0,239.6155,0.0,-1326.34,0
GRID,25661,0,237.9939,0.0,-1328.02,0
GRID,25662,0,236.3507,0.0,-1329.7,0
GRID,25663,0,234.7015,0.0,-1331.38,0
GRID,25664,0,233.0466,0.0,-1333.05,0
GRID,25665,0,231.3859,0.0,-1334.72,0
GRID,25666,0,229.7384,0.0,-1336.37,0
GRID,25667,0,228.091,0.0,-1338.02,0
GRID,25668,0,226.4435,0.0,-1339.66,0
GRID,25669,0,224.796,0.0,-1341.31,0
GRID,25670,0,223.1485,0.0,-1342.96,0
GRID,25671,0,221.501,0.0,-1344.61,0
GRID,25672,0,219.8535,0.0,-1346.25,0
GRID,25673,0,218.206,0.0,-1347.9,0
GRID,25674,0,216.5585,0.0,-1349.55,0
GRID,25675,0,214.8896,0.0,-1351.21,0
GRID,25676,0,213.2154,0.0,-1352.87,0
GRID,25677,0,211.5359,0.0,-1354.52,0
GRID,25678,0,209.8511,0.0,-1356.17,0
GRID,25679,0,208.1611,0.0,-1357.81,0
GRID,25680,0,206.466,0.0,-1359.45,0
GRID,25681,0,204.7659,0.0,-1361.08,0
GRID,25682,0,203.0606,0.0,-1362.7,0
GRID,25683,0,201.3504,0.0,-1364.32,0
GRID,25684,0,199.6352,0.0,-1365.93,0
GRID,25685,0,197.9151,0.0,-1367.54,0
GRID,25686,0,196.1903,0.0,-1369.14,0
GRID,25687,0,194.4606,0.0,-1370.73,0
GRID,25688,0,192.7263,0.0,-1372.32,0
GRID,25689,0,190.9873,0.0,-1373.9,0
GRID,25690,0,189.2437,0.0,-1375.48,0
GRID,25691,0,187.4955,0.0,-1377.05,0
GRID,25692,0,185.7429,0.0,-1378.61,0
GRID,25693,0,183.9859,0.0,-1380.17,0
GRID,25694,0,182.2245,0.0,-1381.72,0
GRID,25695,0,180.4589,0.0,-1383.27,0
GRID,25696,0,178.689,0.0,-1384.81,0
GRID,25697,0,176.9149,0.0,-1386.34,0
GRID,25698,0,175.1367,0.0,-1387.87,0
GRID,25699,0,173.3544,0.0,-1389.39,0
GRID,25700,0,171.5682,0.0,-1390.9,0
GRID,25701,0,169.778,0.0,-1392.4,0
GRID,25702,0,167.984,0.0,-1393.9,0
GRID,25703,0,166.1861,0.0,-1395.4,0
GRID,25704,0,164.3845,0.0,-1396.88,0
GRID,25705,0,162.5793,0.0,-1398.36,0
GRID,25706,0,160.7704,0.0,-1399.84,0
GRID,25707,0,158.9579,0.0,-1401.3,0
GRID,25708,0,157.142,0.0,-1402.76,0
GRID,25709,0,155.3227,0.0,-1404.21,0
GRID,25710,0,153.5,0.0,-1405.66,0
GRID,25711,0,151.674,0.0,-1407.1,0
GRID,25712,0,149.8448,0.0,-1408.53,0
GRID,25713,0,148.0124,0.0,-1409.95,0
GRID,25714,0,146.1769,0.0,-1411.37,0
GRID,25715,0,144.3384,0.0,-1412.78,0
GRID,25716,0,142.497,0.0,-1414.19,0
GRID,25717,0,140.6526,0.0,-1415.58,0
GRID,25718,0,138.8055,0.0,-1416.97,0
GRID,25719,0,136.9555,0.0,-1418.36,0
GRID,25720,0,135.1029,0.0,-1419.73,0
GRID,25721,0,133.2476,0.0,-1421.1,0
GRID,25722,0,131.3898,0.0,-1422.46,0
GRID,25723,0,129.5296,0.0,-1423.81,0
GRID,25724,0,127.6563,0.0,-1425.15,0
GRID,25725,0,125.7665,0.0,-1426.47,0
GRID,25726,0,123.8603,0.0,-1427.77,0
GRID,25727,0,121.9382,0.0,-1429.05,0
GRID,25728,0,120.0002,0.0,-1430.3,0
GRID,25729,0,118.0466,0.0,-1431.53,0
GRID,25730,0,116.0777,0.0,-1432.74,0
GRID,25731,0,114.0937,0.0,-1433.92,0
GRID,25732,0,112.0949,0.0,-1435.08,0
GRID,25733,0,110.0816,0.0,-1436.22,0
GRID,25734,0,108.054,0.0,-1437.33,0
GRID,25735,0,106.0126,0.0,-1438.42,0
GRID,25736,0,103.9575,0.0,-1439.48,0
GRID,25737,0,101.8892,0.0,-1440.53,0
GRID,25738,0,99.80775,0.0,-1441.54,0
GRID,25739,0,97.71359,0.0,-1442.53,0
GRID,25740,0,95.607,0.0,-1443.5,0
GRID,25741,0,93.48825,0.0,-1444.44,0
GRID,25742,0,91.35766,0.0,-1445.36,0
GRID,25743,0,89.21554,0.0,-1446.25,0
GRID,25744,0,87.0622,0.0,-1447.12,0
GRID,25745,0,84.89795,0.0,-1447.96,0
GRID,25746,0,82.7231,0.0,-1448.77,0
GRID,25747,0,80.53795,0.0,-1449.56,0
GRID,25748,0,78.34282,0.0,-1450.32,0
GRID,25749,0,76.13802,0.0,-1451.06,0
GRID,25750,0,73.92386,0.0,-1451.77,0
GRID,25751,0,71.70068,0.0,-1452.45,0
GRID,25752,0,69.46879,0.0,-1453.11,0
GRID,25753,0,67.22851,0.0,-1453.74,0
GRID,25754,0,64.98018,0.0,-1454.35,0
GRID,25755,0,62.72411,0.0,-1454.93,0
GRID,25756,0,60.46062,0.0,-1455.48,0
GRID,25757,0,58.19005,0.0,-1456.0,0
GRID,25758,0,55.91271,0.0,-1456.5,0
GRID,25759,0,53.62894,0.0,-1456.97,0
GRID,25760,0,51.33908,0.0,-1457.41,0
GRID,25761,0,49.04346,0.0,-1457.83,0
GRID,25762,0,46.7424,0.0,-1458.21,0
GRID,25763,0,44.43625,0.0,-1458.57,0
GRID,25764,0,42.12534,0.0,-1458.91,0
GRID,25765,0,39.81,0.0,-1459.21,0
GRID,25766,0,37.49056,0.0,-1459.49,0
GRID,25767,0,35.16736,0.0,-1459.74,0
GRID,25768,0,32.84075,0.0,-1459.96,0
GRID,25769,0,30.51106,0.0,-1460.16,0
GRID,25770,0,28.17863,0.0,-1460.33,0
GRID,25771,0,25.84381,0.0,-1460.46,0
GRID,25772,0,23.50693,0.0,-1460.58,0
GRID,25773,0,21.16833,0.0,-1460.66,0
GRID,25774,0,18.82836,0.0,-1460.71,0
GRID,25775,0,16.48736,0.0,-1460.74,0
GRID,25776,0,14.14566,0.0,-1460.74,0
GRID,25777,0,11.80361,0.0,-1460.71,0
GRID,25778,0,9.461544,0.0,-1460.65,0
GRID,25779,0,7.11981,0.0,-1460.57,0
GRID,25780,0,4.778748,0.0,-1460.46,0
GRID,25781,0,2.438697,0.0,-1460.32,0
GRID,25782,0,327.025,0.0,-1052.43,0
GRID,25783,0,327.025,0.0,-1054.86,0
GRID,25784,0,327.025,0.0,-1057.3,0
GRID,25785,0,327.025,0.0,-1059.73,0
GRID,25786,0,327.025,0.0,-1062.16,0
GRID,25787,0,327.025,0.0,-1064.59,0
GRID,25788,0,327.025,0.0,-1067.02,0
GRID,25789,0,327.0197,0.0,-1069.34,0
GRID,25790,0,327.0045,0.0,-1071.66,0
GRID,25791,0,326.9792,0.0,-1073.98,0
GRID,25792,0,326.9438,0.0,-1076.3,0
GRID,25793,0,326.8985,0.0,-1078.62,0
GRID,25794,0,326.8431,0.0,-1080.94,0
GRID,25795,0,326.7776,0.0,-1083.25,0
GRID,25796,0,326.7021,0.0,-1085.57,0
GRID,25797,0,326.6166,0.0,-1087.89,0
GRID,25798,0,326.521,0.0,-1090.2,0
GRID,25799,0,326.4153,0.0,-1092.52,0
GRID,25800,0,326.2995,0.0,-1094.83,0
GRID,25801,0,326.1737,0.0,-1097.15,0
GRID,25802,0,326.0378,0.0,-1099.46,0
GRID,25803,0,325.8919,0.0,-1101.77,0
GRID,25804,0,325.7359,0.0,-1104.08,0
GRID,25805,0,325.5698,0.0,-1106.39,0
GRID,25806,0,325.3938,0.0,-1108.7,0
GRID,25807,0,325.2078,0.0,-1111.01,0
GRID,25808,0,325.0117,0.0,-1113.31,0
GRID,25809,0,324.8057,0.0,-1115.62,0
GRID,25810,0,324.5896,0.0,-1117.92,0
GRID,25811,0,324.3636,0.0,-1120.23,0
GRID,25812,0,324.1277,0.0,-1122.53,0
GRID,25813,0,323.8817,0.0,-1124.83,0
GRID,25814,0,323.6258,0.0,-1127.12,0
GRID,25815,0,323.36,0.0,-1129.42,0
GRID,25816,0,323.0842,0.0,-1131.72,0
GRID,25817,0,322.7986,0.0,-1134.01,0
GRID,25818,0,322.503,0.0,-1136.3,0
GRID,25819,0,322.1975,0.0,-1138.59,0
GRID,25820,0,321.8821,0.0,-1140.87,0
GRID,25821,0,321.5569,0.0,-1143.16,0
GRID,25822,0,321.2218,0.0,-1145.44,0
GRID,25823,0,320.8769,0.0,-1147.72,0
GRID,25824,0,320.5222,0.0,-1150.0,0
GRID,25825,0,320.1577,0.0,-1152.28,0
GRID,25826,0,319.7833,0.0,-1154.55,0
GRID,25827,0,319.3992,0.0,-1156.82,0
GRID,25828,0,319.0053,0.0,-1159.09,0
GRID,25829,0,318.6017,0.0,-1161.35,0
GRID,25830,0,318.1883,0.0,-1163.62,0
GRID,25831,0,317.7652,0.0,-1165.88,0
GRID,25832,0,317.3324,0.0,-1168.14,0
GRID,25833,0,316.89,0.0,-1170.39,0
GRID,25834,0,316.4378,0.0,-1172.64,0
GRID,25835,0,315.9761,0.0,-1174.89,0
GRID,25836,0,315.5047,0.0,-1177.14,0
GRID,25837,0,315.0198,0.0,-1179.38,0
GRID,25838,0,314.5178,0.0,-1181.62,0
GRID,25839,0,313.9987,0.0,-1183.86,0
GRID,25840,0,313.4625,0.0,-1186.1,0
GRID,25841,0,312.9091,0.0,-1188.33,0
GRID,25842,0,312.3387,0.0,-1190.55,0
GRID,25843,0,311.7513,0.0,-1192.78,0
GRID,25844,0,311.1468,0.0,-1195.0,0
GRID,25845,0,310.5252,0.0,-1197.21,0
GRID,25846,0,309.8867,0.0,-1199.42,0
GRID,25847,0,309.2312,0.0,-1201.63,0
GRID,25848,0,308.5589,0.0,-1203.83,0
GRID,25849,0,307.8696,0.0,-1206.03,0
GRID,25850,0,307.1635,0.0,-1208.22,0
GRID,25851,0,306.4406,0.0,-1210.41,0
GRID,25852,0,305.701,0.0,-1212.59,0
GRID,25853,0,304.9446,0.0,-1214.77,0
GRID,25854,0,304.1715,0.0,-1216.94,0
GRID,25855,0,303.3817,0.0,-1219.1,0
GRID,25856,0,302.5754,0.0,-1221.26,0
GRID,25857,0,301.7524,0.0,-1223.42,0
GRID,25858,0,300.9129,0.0,-1225.57,0
GRID,25859,0,300.057,0.0,-1227.71,0
GRID,25860,0,299.1846,0.0,-1229.84,0
GRID,25861,0,298.2958,0.0,-1231.97,0
GRID,25862,0,297.3906,0.0,-1234.1,0
GRID,25863,0,296.4692,0.0,-1236.21,0
GRID,25864,0,295.5315,0.0,-1238.32,0
GRID,25865,0,294.5777,0.0,-1240.43,0
GRID,25866,0,293.6077,0.0,-1242.52,0
GRID,25867,0,292.6216,0.0,-1244.61,0
GRID,25868,0,291.6195,0.0,-1246.7,0
GRID,25869,0,290.6014,0.0,-1248.77,0
GRID,25870,0,289.5674,0.0,-1250.84,0
GRID,25871,0,288.5175,0.0,-1252.9,0
GRID,25872,0,287.4518,0.0,-1254.95,0
GRID,25873,0,286.3703,0.0,-1256.99,0
GRID,25874,0,285.2732,0.0,-1259.03,0
GRID,25875,0,284.1604,0.0,-1261.06,0
GRID,25876,0,283.0321,0.0,-1263.07,0
GRID,25877,0,281.8884,0.0,-1265.09,0
GRID,25878,0,280.7291,0.0,-1267.09,0
GRID,25879,0,279.5546,0.0,-1269.08,0
GRID,25880,0,278.3647,0.0,-1271.07,0
GRID,25881,0,277.1596,0.0,-1273.04,0
GRID,25882,0,275.9394,0.0,-1275.01,0
GRID,25883,0,274.704,0.0,-1276.97,0
GRID,25884,0,273.4536,0.0,-1278.92,0
GRID,25885,0,272.1883,0.0,-1280.86,0
GRID,25886,0,270.9082,0.0,-1282.79,0
GRID,25887,0,269.6132,0.0,-1284.71,0
GRID,25888,0,268.3035,0.0,-1286.62,0
GRID,25889,0,266.9792,0.0,-1288.52,0
GRID,25890,0,265.6403,0.0,-1290.41,0
GRID,25891,0,264.287,0.0,-1292.29,0
GRID,25892,0,262.9192,0.0,-1294.16,0
GRID,25893,0,261.5371,0.0,-1296.02,0
GRID,25894,0,260.1408,0.0,-1297.87,0
GRID,25895,0,258.7303,0.0,-1299.71,0
GRID,25896,0,257.3057,0.0,-1301.54,0
GRID,25897,0,255.8672,0.0,-1303.36,0
GRID,25898,0,254.4147,0.0,-1305.16,0
GRID,25899,0,252.9483,0.0,-1306.96,0
GRID,25900,0,251.4683,0.0,-1308.74,0
GRID,25901,0,249.9745,0.0,-1310.52,0
GRID,25902,0,248.4672,0.0,-1312.28,0
GRID,25903,0,246.9465,0.0,-1314.03,0
GRID,25904,0,245.4124,0.0,-1315.77,0
GRID,25905,0,243.865,0.0,-1317.5,0
GRID,25906,0,242.3045,0.0,-1319.21,0
GRID,25907,0,240.7309,0.0,-1320.92,0
GRID,25908,0,239.1443,0.0,-1322.61,0
GRID,25909,0,237.5449,0.0,-1324.29,0
GRID,25910,0,235.9327,0.0,-1325.96,0
GRID,25911,0,234.2989,0.0,-1327.63,0
GRID,25912,0,232.6595,0.0,-1329.29,0
GRID,25913,0,231.0147,0.0,-1330.96,0
GRID,25914,0,229.3646,0.0,-1332.61,0
GRID,25915,0,227.7268,0.0,-1334.25,0
GRID,25916,0,226.0889,0.0,-1335.89,0
GRID,25917,0,224.4511,0.0,-1337.52,0
GRID,25918,0,222.8133,0.0,-1339.16,0
GRID,25919,0,221.1755,0.0,-1340.8,0
GRID,25920,0,219.5377,0.0,-1342.44,0
GRID,25921,0,217.8999,0.0,-1344.08,0
GRID,25922,0,216.2621,0.0,-1345.71,0
GRID,25923,0,214.6242,0.0,-1347.35,0
GRID,25924,0,212.9663,0.0,-1349.0,0
GRID,25925,0,211.3034,0.0,-1350.65,0
GRID,25926,0,209.6356,0.0,-1352.29,0
GRID,25927,0,207.9628,0.0,-1353.93,0
GRID,25928,0,206.2852,0.0,-1355.56,0
GRID,25929,0,204.6028,0.0,-1357.19,0
GRID,25930,0,202.9156,0.0,-1358.81,0
GRID,25931,0,201.2236,0.0,-1360.43,0
GRID,25932,0,199.527,0.0,-1362.04,0
GRID,25933,0,197.8257,0.0,-1363.64,0
GRID,25934,0,196.1198,0.0,-1365.24,0
GRID,25935,0,194.4095,0.0,-1366.84,0
GRID,25936,0,192.6946,0.0,-1368.42,0
GRID,25937,0,190.9754,0.0,-1370.01,0
GRID,25938,0,189.2518,0.0,-1371.58,0
GRID,25939,0,187.5239,0.0,-1373.15,0
GRID,25940,0,185.7917,0.0,-1374.72,0
GRID,25941,0,184.0553,0.0,-1376.28,0
GRID,25942,0,182.3149,0.0,-1377.83,0
GRID,25943,0,180.5703,0.0,-1379.38,0
GRID,25944,0,178.8217,0.0,-1380.92,0
GRID,25945,0,177.0691,0.0,-1382.46,0
GRID,25946,0,175.3126,0.0,-1383.99,0
GRID,25947,0,173.5522,0.0,-1385.51,0
GRID,25948,0,171.7881,0.0,-1387.03,0
GRID,25949,0,170.0202,0.0,-1388.54,0
GRID,25950,0,168.2486,0.0,-1390.05,0
GRID,25951,0,166.4734,0.0,-1391.55,0
GRID,25952,0,164.6946,0.0,-1393.04,0
GRID,25953,0,162.9123,0.0,-1394.53,0
GRID,25954,0,161.1266,0.0,-1396.01,0
GRID,25955,0,159.3375,0.0,-1397.48,0
GRID,25956,0,157.545,0.0,-1398.95,0
GRID,25957,0,155.7493,0.0,-1400.41,0
GRID,25958,0,153.9504,0.0,-1401.87,0
GRID,25959,0,152.1483,0.0,-1403.31,0
GRID,25960,0,150.3431,0.0,-1404.76,0
GRID,25961,0,148.535,0.0,-1406.19,0
GRID,25962,0,146.7238,0.0,-1407.62,0
GRID,25963,0,144.9098,0.0,-1409.04,0
GRID,25964,0,143.0929,0.0,-1410.46,0
GRID,25965,0,141.2732,0.0,-1411.87,0
GRID,25966,0,139.4509,0.0,-1413.27,0
GRID,25967,0,137.6258,0.0,-1414.67,0
GRID,25968,0,135.7982,0.0,-1416.06,0
GRID,25969,0,133.9681,0.0,-1417.44,0
GRID,25970,0,132.1355,0.0,-1418.81,0
GRID,25971,0,130.3005,0.0,-1420.18,0
GRID,25972,0,128.4632,0.0,-1421.54,0
GRID,25973,0,126.6128,0.0,-1422.9,0
GRID,25974,0,124.7457,0.0,-1424.22,0
GRID,25975,0,122.8621,0.0,-1425.53,0
GRID,25976,0,120.9623,0.0,-1426.82,0
GRID,25977,0,119.0465,0.0,-1428.08,0
GRID,25978,0,117.115,0.0,-1429.32,0
GRID,25979,0,115.1679,0.0,-1430.54,0
GRID,25980,0,113.2055,0.0,-1431.73,0
GRID,25981,0,111.2282,0.0,-1432.9,0
GRID,25982,0,109.2361,0.0,-1434.05,0
GRID,25983,0,107.2297,0.0,-1435.17,0
GRID,25984,0,105.2092,0.0,-1436.27,0
GRID,25985,0,103.1749,0.0,-1437.34,0
GRID,25986,0,101.1271,0.0,-1438.39,0
GRID,25987,0,99.06613,0.0,-1439.42,0
GRID,25988,0,96.99222,0.0,-1440.42,0
GRID,25989,0,94.90569,0.0,-1441.4,0
GRID,25990,0,92.80684,0.0,-1442.35,0
GRID,25991,0,90.69598,0.0,-1443.28,0
GRID,25992,0,88.57342,0.0,-1444.18,0
GRID,25993,0,86.43947,0.0,-1445.06,0
GRID,25994,0,84.29444,0.0,-1445.91,0
GRID,25995,0,82.13863,0.0,-1446.74,0
GRID,25996,0,79.97237,0.0,-1447.54,0
GRID,25997,0,77.79596,0.0,-1448.31,0
GRID,25998,0,75.60971,0.0,-1449.06,0
GRID,25999,0,73.41395,0.0,-1449.78,0
GRID,26000,0,71.20899,0.0,-1450.48,0
GRID,26001,0,68.99517,0.0,-1451.15,0
GRID,26002,0,66.7728,0.0,-1451.79,0
GRID,26003,0,64.54222,0.0,-1452.4,0
GRID,26004,0,62.30374,0.0,-1452.99,0
GRID,26005,0,60.05768,0.0,-1453.56,0
GRID,26006,0,57.80439,0.0,-1454.09,0
GRID,26007,0,55.54418,0.0,-1454.6,0
GRID,26008,0,53.27738,0.0,-1455.08,0
GRID,26009,0,51.00434,0.0,-1455.54,0
GRID,26010,0,48.72539,0.0,-1455.96,0
GRID,26011,0,46.44085,0.0,-1456.36,0
GRID,26012,0,44.15108,0.0,-1456.74,0
GRID,26013,0,41.85639,0.0,-1457.08,0
GRID,26014,0,39.55713,0.0,-1457.4,0
GRID,26015,0,37.25364,0.0,-1457.69,0
GRID,26016,0,34.94624,0.0,-1457.95,0
GRID,26017,0,32.63529,0.0,-1458.19,0
GRID,26018,0,30.32112,0.0,-1458.39,0
GRID,26019,0,28.00408,0.0,-1458.57,0
GRID,26020,0,25.68451,0.0,-1458.72,0
GRID,26021,0,23.36274,0.0,-1458.85,0
GRID,26022,0,21.03913,0.0,-1458.94,0
GRID,26023,0,18.71401,0.0,-1459.01,0
GRID,26024,0,16.38773,0.0,-1459.05,0
GRID,26025,0,14.06063,0.0,-1459.06,0
GRID,26026,0,11.73305,0.0,-1459.04,0
GRID,26027,0,9.405341,0.0,-1459.0,0
GRID,26028,0,7.077836,0.0,-1458.92,0
GRID,26029,0,4.750882,0.0,-1458.82,0
GRID,26030,0,2.424822,0.0,-1458.69,0
GRID,26031,0,325.2233,0.0,-1052.42,0
GRID,26032,0,325.2233,0.0,-1054.84,0
GRID,26033,0,325.2233,0.0,-1057.26,0
GRID,26034,0,325.2233,0.0,-1059.68,0
GRID,26035,0,325.2233,0.0,-1062.1,0
GRID,26036,0,325.2233,0.0,-1064.51,0
GRID,26037,0,325.2233,0.0,-1066.93,0
GRID,26038,0,325.218,0.0,-1069.24,0
GRID,26039,0,325.2023,0.0,-1071.54,0
GRID,26040,0,325.1765,0.0,-1073.84,0
GRID,26041,0,325.1404,0.0,-1076.15,0
GRID,26042,0,325.094,0.0,-1078.45,0
GRID,26043,0,325.0373,0.0,-1080.75,0
GRID,26044,0,324.9705,0.0,-1083.05,0
GRID,26045,0,324.8933,0.0,-1085.36,0
GRID,26046,0,324.8058,0.0,-1087.66,0
GRID,26047,0,324.7081,0.0,-1089.96,0
GRID,26048,0,324.6001,0.0,-1092.26,0
GRID,26049,0,324.4817,0.0,-1094.56,0
GRID,26050,0,324.3531,0.0,-1096.85,0
GRID,26051,0,324.2142,0.0,-1099.15,0
GRID,26052,0,324.065,0.0,-1101.45,0
GRID,26053,0,323.9055,0.0,-1103.74,0
GRID,26054,0,323.7358,0.0,-1106.04,0
GRID,26055,0,323.5559,0.0,-1108.33,0
GRID,26056,0,323.3657,0.0,-1110.62,0
GRID,26057,0,323.1653,0.0,-1112.91,0
GRID,26058,0,322.9547,0.0,-1115.2,0
GRID,26059,0,322.7338,0.0,-1117.49,0
GRID,26060,0,322.5028,0.0,-1119.78,0
GRID,26061,0,322.2616,0.0,-1122.06,0
GRID,26062,0,322.0102,0.0,-1124.35,0
GRID,26063,0,321.7486,0.0,-1126.63,0
GRID,26064,0,321.4769,0.0,-1128.91,0
GRID,26065,0,321.195,0.0,-1131.19,0
GRID,26066,0,320.903,0.0,-1133.46,0
GRID,26067,0,320.6008,0.0,-1135.74,0
GRID,26068,0,320.2886,0.0,-1138.01,0
GRID,26069,0,319.9662,0.0,-1140.28,0
GRID,26070,0,319.6337,0.0,-1142.55,0
GRID,26071,0,319.2912,0.0,-1144.82,0
GRID,26072,0,318.9386,0.0,-1147.08,0
GRID,26073,0,318.576,0.0,-1149.34,0
GRID,26074,0,318.2034,0.0,-1151.6,0
GRID,26075,0,317.8207,0.0,-1153.86,0
GRID,26076,0,317.4281,0.0,-1156.11,0
GRID,26077,0,317.0254,0.0,-1158.37,0
GRID,26078,0,316.6128,0.0,-1160.62,0
GRID,26079,0,316.1903,0.0,-1162.86,0
GRID,26080,0,315.7578,0.0,-1165.11,0
GRID,26081,0,315.3154,0.0,-1167.35,0
GRID,26082,0,314.8631,0.0,-1169.59,0
GRID,26083,0,314.4009,0.0,-1171.82,0
GRID,26084,0,313.9289,0.0,-1174.05,0
GRID,26085,0,313.447,0.0,-1176.28,0
GRID,26086,0,312.9517,0.0,-1178.51,0
GRID,26087,0,312.4396,0.0,-1180.73,0
GRID,26088,0,311.9106,0.0,-1182.95,0
GRID,26089,0,311.3648,0.0,-1185.17,0
GRID,26090,0,310.8022,0.0,-1187.39,0
GRID,26091,0,310.2229,0.0,-1189.59,0
GRID,26092,0,309.6267,0.0,-1191.8,0
GRID,26093,0,309.0138,0.0,-1194.0,0
GRID,26094,0,308.3842,0.0,-1196.2,0
GRID,26095,0,307.7379,0.0,-1198.39,0
GRID,26096,0,307.075,0.0,-1200.58,0
GRID,26097,0,306.3954,0.0,-1202.76,0
GRID,26098,0,305.6992,0.0,-1204.94,0
GRID,26099,0,304.9865,0.0,-1207.12,0
GRID,26100,0,304.2573,0.0,-1209.29,0
GRID,26101,0,303.5117,0.0,-1211.45,0
GRID,26102,0,302.7496,0.0,-1213.61,0
GRID,26103,0,301.971,0.0,-1215.76,0
GRID,26104,0,301.1762,0.0,-1217.91,0
GRID,26105,0,300.3649,0.0,-1220.06,0
GRID,26106,0,299.5375,0.0,-1222.19,0
GRID,26107,0,298.6937,0.0,-1224.32,0
GRID,26108,0,297.8338,0.0,-1226.45,0
GRID,26109,0,296.9577,0.0,-1228.57,0
GRID,26110,0,296.0656,0.0,-1230.68,0
GRID,26111,0,295.1574,0.0,-1232.78,0
GRID,26112,0,294.2331,0.0,-1234.88,0
GRID,26113,0,293.293,0.0,-1236.98,0
GRID,26114,0,292.3369,0.0,-1239.06,0
GRID,26115,0,291.3649,0.0,-1241.14,0
GRID,26116,0,290.3772,0.0,-1243.21,0
GRID,26117,0,289.3737,0.0,-1245.28,0
GRID,26118,0,288.3546,0.0,-1247.33,0
GRID,26119,0,287.3198,0.0,-1249.38,0
GRID,26120,0,286.2694,0.0,-1251.42,0
GRID,26121,0,285.2035,0.0,-1253.46,0
GRID,26122,0,284.1221,0.0,-1255.49,0
GRID,26123,0,283.0253,0.0,-1257.5,0
GRID,26124,0,281.9132,0.0,-1259.52,0
GRID,26125,0,280.7858,0.0,-1261.52,0
GRID,26126,0,279.6431,0.0,-1263.51,0
GRID,26127,0,278.4854,0.0,-1265.5,0
GRID,26128,0,277.3125,0.0,-1267.47,0
GRID,26129,0,276.1247,0.0,-1269.44,0
GRID,26130,0,274.9218,0.0,-1271.4,0
GRID,26131,0,273.7041,0.0,-1273.35,0
GRID,26132,0,272.4716,0.0,-1275.3,0
GRID,26133,0,271.2243,0.0,-1277.23,0
GRID,26134,0,269.9624,0.0,-1279.15,0
GRID,26135,0,268.6858,0.0,-1281.06,0
GRID,26136,0,267.3947,0.0,-1282.97,0
GRID,26137,0,266.0892,0.0,-1284.86,0
GRID,26138,0,264.7692,0.0,-1286.75,0
GRID,26139,0,263.435,0.0,-1288.62,0
GRID,26140,0,262.0865,0.0,-1290.49,0
GRID,26141,0,260.7239,0.0,-1292.35,0
GRID,26142,0,259.3472,0.0,-1294.19,0
GRID,26143,0,257.9566,0.0,-1296.02,0
GRID,26144,0,256.552,0.0,-1297.85,0
GRID,26145,0,255.1336,0.0,-1299.66,0
GRID,26146,0,253.7014,0.0,-1301.47,0
GRID,26147,0,252.2556,0.0,-1303.26,0
GRID,26148,0,250.7961,0.0,-1305.04,0
GRID,26149,0,249.3232,0.0,-1306.81,0
GRID,26150,0,247.8368,0.0,-1308.57,0
GRID,26151,0,246.3371,0.0,-1310.32,0
GRID,26152,0,244.8242,0.0,-1312.06,0
GRID,26153,0,243.2981,0.0,-1313.78,0
GRID,26154,0,241.7591,0.0,-1315.5,0
GRID,26155,0,240.2071,0.0,-1317.2,0
GRID,26156,0,238.6422,0.0,-1318.89,0
GRID,26157,0,237.0646,0.0,-1320.57,0
GRID,26158,0,235.4743,0.0,-1322.24,0
GRID,26159,0,233.8715,0.0,-1323.89,0
GRID,26160,0,232.2471,0.0,-1325.55,0
GRID,26161,0,230.6175,0.0,-1327.21,0
GRID,26162,0,228.9829,0.0,-1328.86,0
GRID,26163,0,227.3432,0.0,-1330.5,0
GRID,26164,0,225.7151,0.0,-1332.13,0
GRID,26165,0,224.0869,0.0,-1333.76,0
GRID,26166,0,222.4588,0.0,-1335.38,0
GRID,26167,0,220.8306,0.0,-1337.01,0
GRID,26168,0,219.2025,0.0,-1338.64,0
GRID,26169,0,217.5744,0.0,-1340.27,0
GRID,26170,0,215.9462,0.0,-1341.9,0
GRID,26171,0,214.3181,0.0,-1343.53,0
GRID,26172,0,212.6899,0.0,-1345.15,0
GRID,26173,0,211.0431,0.0,-1346.8,0
GRID,26174,0,209.3915,0.0,-1348.43,0
GRID,26175,0,207.7353,0.0,-1350.07,0
GRID,26176,0,206.0746,0.0,-1351.69,0
GRID,26177,0,204.4093,0.0,-1353.32,0
GRID,26178,0,202.7395,0.0,-1354.93,0
GRID,26179,0,201.0652,0.0,-1356.55,0
GRID,26180,0,199.3866,0.0,-1358.15,0
GRID,26181,0,197.7035,0.0,-1359.76,0
GRID,26182,0,196.0162,0.0,-1361.35,0
GRID,26183,0,194.3245,0.0,-1362.95,0
GRID,26184,0,192.6287,0.0,-1364.53,0
GRID,26185,0,190.9286,0.0,-1366.12,0
GRID,26186,0,189.2245,0.0,-1367.69,0
GRID,26187,0,187.5163,0.0,-1369.26,0
GRID,26188,0,185.8041,0.0,-1370.83,0
GRID,26189,0,184.0879,0.0,-1372.39,0
GRID,26190,0,182.3678,0.0,-1373.95,0
GRID,26191,0,180.6438,0.0,-1375.49,0
GRID,26192,0,178.916,0.0,-1377.04,0
GRID,26193,0,177.1844,0.0,-1378.58,0
GRID,26194,0,175.4492,0.0,-1380.11,0
GRID,26195,0,173.7103,0.0,-1381.64,0
GRID,26196,0,171.9678,0.0,-1383.16,0
GRID,26197,0,170.2217,0.0,-1384.68,0
GRID,26198,0,168.4722,0.0,-1386.19,0
GRID,26199,0,166.7192,0.0,-1387.69,0
GRID,26200,0,164.9628,0.0,-1389.19,0
GRID,26201,0,163.2031,0.0,-1390.68,0
GRID,26202,0,161.4401,0.0,-1392.17,0
GRID,26203,0,159.6739,0.0,-1393.65,0
GRID,26204,0,157.9045,0.0,-1395.13,0
GRID,26205,0,156.1321,0.0,-1396.6,0
GRID,26206,0,154.3566,0.0,-1398.06,0
GRID,26207,0,152.5781,0.0,-1399.52,0
GRID,26208,0,150.7966,0.0,-1400.97,0
GRID,26209,0,149.0123,0.0,-1402.41,0
GRID,26210,0,147.2251,0.0,-1403.85,0
GRID,26211,0,145.4352,0.0,-1405.29,0
GRID,26212,0,143.6426,0.0,-1406.71,0
GRID,26213,0,141.8473,0.0,-1408.13,0
GRID,26214,0,140.0495,0.0,-1409.55,0
GRID,26215,0,138.2491,0.0,-1410.96,0
GRID,26216,0,136.4462,0.0,-1412.36,0
GRID,26217,0,134.6409,0.0,-1413.76,0
GRID,26218,0,132.8333,0.0,-1415.15,0
GRID,26219,0,131.0234,0.0,-1416.53,0
GRID,26220,0,129.2112,0.0,-1417.91,0
GRID,26221,0,127.3969,0.0,-1419.28,0
GRID,26222,0,125.5694,0.0,-1420.64,0
GRID,26223,0,123.725,0.0,-1421.98,0
GRID,26224,0,121.8639,0.0,-1423.29,0
GRID,26225,0,119.9865,0.0,-1424.59,0
GRID,26226,0,118.0928,0.0,-1425.86,0
GRID,26227,0,116.1833,0.0,-1427.11,0
GRID,26228,0,114.258,0.0,-1428.33,0
GRID,26229,0,112.3173,0.0,-1429.54,0
GRID,26230,0,110.3614,0.0,-1430.72,0
GRID,26231,0,108.3907,0.0,-1431.87,0
GRID,26232,0,106.4054,0.0,-1433.01,0
GRID,26233,0,104.4058,0.0,-1434.12,0
GRID,26234,0,102.3923,0.0,-1435.2,0
GRID,26235,0,100.3651,0.0,-1436.26,0
GRID,26236,0,98.32451,0.0,-1437.3,0
GRID,26237,0,96.27085,0.0,-1438.31,0
GRID,26238,0,94.20439,0.0,-1439.3,0
GRID,26239,0,92.12544,0.0,-1440.26,0
GRID,26240,0,90.0343,0.0,-1441.2,0
GRID,26241,0,87.9313,0.0,-1442.12,0
GRID,26242,0,85.81674,0.0,-1443.0,0
GRID,26243,0,83.69092,0.0,-1443.87,0
GRID,26244,0,81.55417,0.0,-1444.7,0
GRID,26245,0,79.40679,0.0,-1445.51,0
GRID,26246,0,77.2491,0.0,-1446.3,0
GRID,26247,0,75.08141,0.0,-1447.06,0
GRID,26248,0,72.90404,0.0,-1447.79,0
GRID,26249,0,70.71731,0.0,-1448.5,0
GRID,26250,0,68.52155,0.0,-1449.18,0
GRID,26251,0,66.31709,0.0,-1449.83,0
GRID,26252,0,64.10426,0.0,-1450.46,0
GRID,26253,0,61.88337,0.0,-1451.06,0
GRID,26254,0,59.65475,0.0,-1451.64,0
GRID,26255,0,57.41873,0.0,-1452.18,0
GRID,26256,0,55.17564,0.0,-1452.71,0
GRID,26257,0,52.92582,0.0,-1453.2,0
GRID,26258,0,50.6696,0.0,-1453.66,0
GRID,26259,0,48.40732,0.0,-1454.1,0
GRID,26260,0,46.1393,0.0,-1454.52,0
GRID,26261,0,43.8659,0.0,-1454.9,0
GRID,26262,0,41.58745,0.0,-1455.26,0
GRID,26263,0,39.30427,0.0,-1455.59,0
GRID,26264,0,37.01671,0.0,-1455.89,0
GRID,26265,0,34.72512,0.0,-1456.16,0
GRID,26266,0,32.42983,0.0,-1456.41,0
GRID,26267,0,30.13118,0.0,-1456.63,0
GRID,26268,0,27.82953,0.0,-1456.82,0
GRID,26269,0,25.5252,0.0,-1456.98,0
GRID,26270,0,23.21855,0.0,-1457.12,0
GRID,26271,0,20.90993,0.0,-1457.22,0
GRID,26272,0,18.59966,0.0,-1457.3,0
GRID,26273,0,16.28811,0.0,-1457.35,0
GRID,26274,0,13.97561,0.0,-1457.38,0
GRID,26275,0,11.6625,0.0,-1457.37,0
GRID,26276,0,9.349139,0.0,-1457.34,0
GRID,26277,0,7.035862,0.0,-1457.28,0
GRID,26278,0,4.723016,0.0,-1457.19,0
GRID,26279,0,2.410947,0.0,-1457.07,0
GRID,26280,0,323.4217,0.0,-1052.41,0
GRID,26281,0,323.4217,0.0,-1054.81,0
GRID,26282,0,323.4217,0.0,-1057.22,0
GRID,26283,0,323.4217,0.0,-1059.62,0
GRID,26284,0,323.4217,0.0,-1062.03,0
GRID,26285,0,323.4217,0.0,-1064.44,0
GRID,26286,0,323.4217,0.0,-1066.84,0
GRID,26287,0,323.4162,0.0,-1069.13,0
GRID,26288,0,323.4002,0.0,-1071.42,0
GRID,26289,0,323.3738,0.0,-1073.71,0
GRID,26290,0,323.3369,0.0,-1076.0,0
GRID,26291,0,323.2895,0.0,-1078.28,0
GRID,26292,0,323.2316,0.0,-1080.57,0
GRID,26293,0,323.1633,0.0,-1082.86,0
GRID,26294,0,323.0844,0.0,-1085.14,0
GRID,26295,0,322.9951,0.0,-1087.43,0
GRID,26296,0,322.8952,0.0,-1089.71,0
GRID,26297,0,322.7849,0.0,-1092.0,0
GRID,26298,0,322.664,0.0,-1094.28,0
GRID,26299,0,322.5325,0.0,-1096.56,0
GRID,26300,0,322.3906,0.0,-1098.85,0
GRID,26301,0,322.2382,0.0,-1101.13,0
GRID,26302,0,322.0752,0.0,-1103.41,0
GRID,26303,0,321.9018,0.0,-1105.68,0
GRID,26304,0,321.718,0.0,-1107.96,0
GRID,26305,0,321.5237,0.0,-1110.24,0
GRID,26306,0,321.3189,0.0,-1112.51,0
GRID,26307,0,321.1037,0.0,-1114.79,0
GRID,26308,0,320.8781,0.0,-1117.06,0
GRID,26309,0,320.642,0.0,-1119.33,0
GRID,26310,0,320.3956,0.0,-1121.6,0
GRID,26311,0,320.1387,0.0,-1123.87,0
GRID,26312,0,319.8714,0.0,-1126.13,0
GRID,26313,0,319.5938,0.0,-1128.4,0
GRID,26314,0,319.3058,0.0,-1130.66,0
GRID,26315,0,319.0074,0.0,-1132.92,0
GRID,26316,0,318.6987,0.0,-1135.18,0
GRID,26317,0,318.3796,0.0,-1137.44,0
GRID,26318,0,318.0502,0.0,-1139.69,0
GRID,26319,0,317.7106,0.0,-1141.94,0
GRID,26320,0,317.3606,0.0,-1144.19,0
GRID,26321,0,317.0003,0.0,-1146.44,0
GRID,26322,0,316.6298,0.0,-1148.69,0
GRID,26323,0,316.2491,0.0,-1150.93,0
GRID,26324,0,315.8581,0.0,-1153.17,0
GRID,26325,0,315.4569,0.0,-1155.41,0
GRID,26326,0,315.0456,0.0,-1157.64,0
GRID,26327,0,314.624,0.0,-1159.88,0
GRID,26328,0,314.1922,0.0,-1162.11,0
GRID,26329,0,313.7503,0.0,-1164.33,0
GRID,26330,0,313.2983,0.0,-1166.56,0
GRID,26331,0,312.8362,0.0,-1168.78,0
GRID,26332,0,312.364,0.0,-1171.0,0
GRID,26333,0,311.8817,0.0,-1173.21,0
GRID,26334,0,311.3894,0.0,-1175.43,0
GRID,26335,0,310.8836,0.0,-1177.64,0
GRID,26336,0,310.3613,0.0,-1179.84,0
GRID,26337,0,309.8225,0.0,-1182.05,0
GRID,26338,0,309.2672,0.0,-1184.25,0
GRID,26339,0,308.6953,0.0,-1186.44,0
GRID,26340,0,308.107,0.0,-1188.63,0
GRID,26341,0,307.5022,0.0,-1190.82,0
GRID,26342,0,306.8809,0.0,-1193.01,0
GRID,26343,0,306.2432,0.0,-1195.19,0
GRID,26344,0,305.5891,0.0,-1197.36,0
GRID,26345,0,304.9187,0.0,-1199.53,0
GRID,26346,0,304.2319,0.0,-1201.7,0
GRID,26347,0,303.5289,0.0,-1203.86,0
GRID,26348,0,302.8096,0.0,-1206.02,0
GRID,26349,0,302.0741,0.0,-1208.17,0
GRID,26350,0,301.3224,0.0,-1210.32,0
GRID,26351,0,300.5545,0.0,-1212.46,0
GRID,26352,0,299.7706,0.0,-1214.59,0
GRID,26353,0,298.9706,0.0,-1216.72,0
GRID,26354,0,298.1545,0.0,-1218.85,0
GRID,26355,0,297.3225,0.0,-1220.97,0
GRID,26356,0,296.4745,0.0,-1223.08,0
GRID,26357,0,295.6106,0.0,-1225.19,0
GRID,26358,0,294.7309,0.0,-1227.29,0
GRID,26359,0,293.8354,0.0,-1229.38,0
GRID,26360,0,292.9241,0.0,-1231.47,0
GRID,26361,0,291.997,0.0,-1233.55,0
GRID,26362,0,291.0544,0.0,-1235.63,0
GRID,26363,0,290.0961,0.0,-1237.69,0
GRID,26364,0,289.1222,0.0,-1239.76,0
GRID,26365,0,288.1328,0.0,-1241.81,0
GRID,26366,0,287.128,0.0,-1243.86,0
GRID,26367,0,286.1078,0.0,-1245.9,0
GRID,26368,0,285.0722,0.0,-1247.93,0
GRID,26369,0,284.0213,0.0,-1249.95,0
GRID,26370,0,282.9551,0.0,-1251.97,0
GRID,26371,0,281.8738,0.0,-1253.98,0
GRID,26372,0,280.7774,0.0,-1255.98,0
GRID,26373,0,279.6659,0.0,-1257.98,0
GRID,26374,0,278.5394,0.0,-1259.96,0
GRID,26375,0,277.3979,0.0,-1261.94,0
GRID,26376,0,276.2416,0.0,-1263.91,0
GRID,26377,0,275.0705,0.0,-1265.87,0
GRID,26378,0,273.8846,0.0,-1267.82,0
GRID,26379,0,272.6841,0.0,-1269.76,0
GRID,26380,0,271.4689,0.0,-1271.7,0
GRID,26381,0,270.2392,0.0,-1273.62,0
GRID,26382,0,268.995,0.0,-1275.54,0
GRID,26383,0,267.7364,0.0,-1277.45,0
GRID,26384,0,266.4634,0.0,-1279.34,0
GRID,26385,0,265.1762,0.0,-1281.23,0
GRID,26386,0,263.8748,0.0,-1283.11,0
GRID,26387,0,262.5592,0.0,-1284.98,0
GRID,26388,0,261.2296,0.0,-1286.84,0
GRID,26389,0,259.8861,0.0,-1288.69,0
GRID,26390,0,258.5286,0.0,-1290.53,0
GRID,26391,0,257.1574,0.0,-1292.36,0
GRID,26392,0,255.7724,0.0,-1294.18,0
GRID,26393,0,254.3737,0.0,-1295.99,0
GRID,26394,0,252.9615,0.0,-1297.79,0
GRID,26395,0,251.5357,0.0,-1299.58,0
GRID,26396,0,250.0965,0.0,-1301.35,0
GRID,26397,0,248.6439,0.0,-1303.12,0
GRID,26398,0,247.1781,0.0,-1304.88,0
GRID,26399,0,245.6991,0.0,-1306.62,0
GRID,26400,0,244.207,0.0,-1308.36,0
GRID,26401,0,242.7019,0.0,-1310.08,0
GRID,26402,0,241.1839,0.0,-1311.79,0
GRID,26403,0,239.6531,0.0,-1313.5,0
GRID,26404,0,238.1096,0.0,-1315.18,0
GRID,26405,0,236.5535,0.0,-1316.86,0
GRID,26406,0,234.9848,0.0,-1318.53,0
GRID,26407,0,233.4037,0.0,-1320.18,0
GRID,26408,0,231.8103,0.0,-1321.83,0
GRID,26409,0,230.1953,0.0,-1323.47,0
GRID,26410,0,228.5755,0.0,-1325.12,0
GRID,26411,0,226.951,0.0,-1326.76,0
GRID,26412,0,225.3218,0.0,-1328.39,0
GRID,26413,0,223.7034,0.0,-1330.01,0
GRID,26414,0,222.0849,0.0,-1331.63,0
GRID,26415,0,220.4664,0.0,-1333.25,0
GRID,26416,0,218.848,0.0,-1334.86,0
GRID,26417,0,217.2295,0.0,-1336.48,0
GRID,26418,0,215.611,0.0,-1338.1,0
GRID,26419,0,213.9926,0.0,-1339.72,0
GRID,26420,0,212.3741,0.0,-1341.34,0
GRID,26421,0,210.7556,0.0,-1342.96,0
GRID,26422,0,209.1198,0.0,-1344.59,0
GRID,26423,0,207.4796,0.0,-1346.21,0
GRID,26424,0,205.8351,0.0,-1347.84,0
GRID,26425,0,204.1863,0.0,-1349.46,0
GRID,26426,0,202.5334,0.0,-1351.07,0
GRID,26427,0,200.8762,0.0,-1352.68,0
GRID,26428,0,199.2149,0.0,-1354.28,0
GRID,26429,0,197.5496,0.0,-1355.88,0
GRID,26430,0,195.8801,0.0,-1357.48,0
GRID,26431,0,194.2066,0.0,-1359.07,0
GRID,26432,0,192.5292,0.0,-1360.65,0
GRID,26433,0,190.8479,0.0,-1362.23,0
GRID,26434,0,189.1627,0.0,-1363.81,0
GRID,26435,0,187.4736,0.0,-1365.38,0
GRID,26436,0,185.7808,0.0,-1366.94,0
GRID,26437,0,184.0843,0.0,-1368.5,0
GRID,26438,0,182.384,0.0,-1370.06,0
GRID,26439,0,180.6802,0.0,-1371.61,0
GRID,26440,0,178.9727,0.0,-1373.16,0
GRID,26441,0,177.2617,0.0,-1374.7,0
GRID,26442,0,175.5472,0.0,-1376.23,0
GRID,26443,0,173.8293,0.0,-1377.76,0
GRID,26444,0,172.108,0.0,-1379.29,0
GRID,26445,0,170.3833,0.0,-1380.81,0
GRID,26446,0,168.6553,0.0,-1382.32,0
GRID,26447,0,166.9241,0.0,-1383.83,0
GRID,26448,0,165.1897,0.0,-1385.33,0
GRID,26449,0,163.4522,0.0,-1386.83,0
GRID,26450,0,161.7116,0.0,-1388.32,0
GRID,26451,0,159.9679,0.0,-1389.81,0
GRID,26452,0,158.2212,0.0,-1391.29,0
GRID,26453,0,156.4716,0.0,-1392.77,0
GRID,26454,0,154.7192,0.0,-1394.24,0
GRID,26455,0,152.9638,0.0,-1395.71,0
GRID,26456,0,151.2058,0.0,-1397.17,0
GRID,26457,0,149.4449,0.0,-1398.62,0
GRID,26458,0,147.6814,0.0,-1400.07,0
GRID,26459,0,145.9153,0.0,-1401.51,0
GRID,26460,0,144.1466,0.0,-1402.95,0
GRID,26461,0,142.3754,0.0,-1404.38,0
GRID,26462,0,140.6018,0.0,-1405.81,0
GRID,26463,0,138.8257,0.0,-1407.23,0
GRID,26464,0,137.0473,0.0,-1408.64,0
GRID,26465,0,135.2666,0.0,-1410.05,0
GRID,26466,0,133.4836,0.0,-1411.46,0
GRID,26467,0,131.6985,0.0,-1412.85,0
GRID,26468,0,129.9112,0.0,-1414.24,0
GRID,26469,0,128.1219,0.0,-1415.63,0
GRID,26470,0,126.3305,0.0,-1417.01,0
GRID,26471,0,124.5259,0.0,-1418.38,0
GRID,26472,0,122.7042,0.0,-1419.73,0
GRID,26473,0,120.8657,0.0,-1421.05,0
GRID,26474,0,119.0106,0.0,-1422.36,0
GRID,26475,0,117.1392,0.0,-1423.64,0
GRID,26476,0,115.2516,0.0,-1424.9,0
GRID,26477,0,113.3482,0.0,-1426.13,0
GRID,26478,0,111.4291,0.0,-1427.35,0
GRID,26479,0,109.4947,0.0,-1428.54,0
GRID,26480,0,107.5453,0.0,-1429.7,0
GRID,26481,0,105.5811,0.0,-1430.85,0
GRID,26482,0,103.6024,0.0,-1431.97,0
GRID,26483,0,101.6097,0.0,-1433.06,0
GRID,26484,0,99.60306,0.0,-1434.13,0
GRID,26485,0,97.5829,0.0,-1435.18,0
GRID,26486,0,95.54947,0.0,-1436.2,0
GRID,26487,0,93.50308,0.0,-1437.2,0
GRID,26488,0,91.44403,0.0,-1438.18,0
GRID,26489,0,89.37263,0.0,-1439.13,0
GRID,26490,0,87.28918,0.0,-1440.05,0
GRID,26491,0,85.194,0.0,-1440.95,0
GRID,26492,0,83.08741,0.0,-1441.82,0
GRID,26493,0,80.96971,0.0,-1442.67,0
GRID,26494,0,78.84122,0.0,-1443.49,0
GRID,26495,0,76.70224,0.0,-1444.29,0
GRID,26496,0,74.55311,0.0,-1445.06,0
GRID,26497,0,72.39412,0.0,-1445.8,0
GRID,26498,0,70.22563,0.0,-1446.52,0
GRID,26499,0,68.04794,0.0,-1447.21,0
GRID,26500,0,65.86138,0.0,-1447.88,0
GRID,26501,0,63.66629,0.0,-1448.52,0
GRID,26502,0,61.46299,0.0,-1449.13,0
GRID,26503,0,59.25181,0.0,-1449.72,0
GRID,26504,0,57.03307,0.0,-1450.28,0
GRID,26505,0,54.80711,0.0,-1450.81,0
GRID,26506,0,52.57426,0.0,-1451.31,0
GRID,26507,0,50.33486,0.0,-1451.79,0
GRID,26508,0,48.08924,0.0,-1452.24,0
GRID,26509,0,45.83776,0.0,-1452.67,0
GRID,26510,0,43.58073,0.0,-1453.06,0
GRID,26511,0,41.3185,0.0,-1453.43,0
GRID,26512,0,39.05141,0.0,-1453.77,0
GRID,26513,0,36.77979,0.0,-1454.09,0
GRID,26514,0,34.504,0.0,-1454.37,0
GRID,26515,0,32.22437,0.0,-1454.63,0
GRID,26516,0,29.94124,0.0,-1454.86,0
GRID,26517,0,27.65497,0.0,-1455.06,0
GRID,26518,0,25.3659,0.0,-1455.24,0
GRID,26519,0,23.07437,0.0,-1455.39,0
GRID,26520,0,20.78072,0.0,-1455.5,0
GRID,26521,0,18.48531,0.0,-1455.6,0
GRID,26522,0,16.18849,0.0,-1455.66,0
GRID,26523,0,13.89058,0.0,-1455.69,0
GRID,26524,0,11.59195,0.0,-1455.7,0
GRID,26525,0,9.292936,0.0,-1455.68,0
GRID,26526,0,6.993887,0.0,-1455.63,0
GRID,26527,0,4.695151,0.0,-1455.56,0
GRID,26528,0,2.397072,0.0,-1455.45,0
GRID,26529,0,321.62,0.0,-1052.39,0
GRID,26530,0,321.62,0.0,-1054.79,0
GRID,26531,0,321.62,0.0,-1057.18,0
GRID,26532,0,321.62,0.0,-1059.57,0
GRID,26533,0,321.62,0.0,-1061.97,0
GRID,26534,0,321.62,0.0,-1064.36,0
GRID,26535,0,321.62,0.0,-1066.75,0
GRID,26536,0,321.6144,0.0,-1069.03,0
GRID,26537,0,321.5981,0.0,-1071.3,0
GRID,26538,0,321.5711,0.0,-1073.57,0
GRID,26539,0,321.5334,0.0,-1075.84,0
GRID,26540,0,321.485,0.0,-1078.12,0
GRID,26541,0,321.4259,0.0,-1080.39,0
GRID,26542,0,321.3561,0.0,-1082.66,0
GRID,26543,0,321.2756,0.0,-1084.93,0
GRID,26544,0,321.1843,0.0,-1087.2,0
GRID,26545,0,321.0824,0.0,-1089.47,0
GRID,26546,0,320.9696,0.0,-1091.74,0
GRID,26547,0,320.8462,0.0,-1094.01,0
GRID,26548,0,320.712,0.0,-1096.27,0
GRID,26549,0,320.567,0.0,-1098.54,0
GRID,26550,0,320.4113,0.0,-1100.8,0
GRID,26551,0,320.2449,0.0,-1103.07,0
GRID,26552,0,320.0678,0.0,-1105.33,0
GRID,26553,0,319.8801,0.0,-1107.59,0
GRID,26554,0,319.6816,0.0,-1109.85,0
GRID,26555,0,319.4725,0.0,-1112.11,0
GRID,26556,0,319.2527,0.0,-1114.37,0
GRID,26557,0,319.0223,0.0,-1116.63,0
GRID,26558,0,318.7812,0.0,-1118.88,0
GRID,26559,0,318.5295,0.0,-1121.14,0
GRID,26560,0,318.2672,0.0,-1123.39,0
GRID,26561,0,317.9942,0.0,-1125.64,0
GRID,26562,0,317.7107,0.0,-1127.89,0
GRID,26563,0,317.4165,0.0,-1130.13,0
GRID,26564,0,317.1118,0.0,-1132.38,0
GRID,26565,0,316.7965,0.0,-1134.62,0
GRID,26566,0,316.4707,0.0,-1136.86,0
GRID,26567,0,316.1343,0.0,-1139.1,0
GRID,26568,0,315.7874,0.0,-1141.34,0
GRID,26569,0,315.43,0.0,-1143.57,0
GRID,26570,0,315.0621,0.0,-1145.8,0
GRID,26571,0,314.6837,0.0,-1148.03,0
GRID,26572,0,314.2948,0.0,-1150.26,0
GRID,26573,0,313.8955,0.0,-1152.48,0
GRID,26574,0,313.4858,0.0,-1154.7,0
GRID,26575,0,313.0657,0.0,-1156.92,0
GRID,26576,0,312.6351,0.0,-1159.14,0
GRID,26577,0,312.1942,0.0,-1161.35,0
GRID,26578,0,311.7429,0.0,-1163.56,0
GRID,26579,0,311.2813,0.0,-1165.77,0
GRID,26580,0,310.8093,0.0,-1167.98,0
GRID,26581,0,310.327,0.0,-1170.18,0
GRID,26582,0,309.8345,0.0,-1172.37,0
GRID,26583,0,309.3317,0.0,-1174.57,0
GRID,26584,0,308.8155,0.0,-1176.76,0
GRID,26585,0,308.2831,0.0,-1178.95,0
GRID,26586,0,307.7344,0.0,-1181.14,0
GRID,26587,0,307.1695,0.0,-1183.32,0
GRID,26588,0,306.5884,0.0,-1185.5,0
GRID,26589,0,305.9911,0.0,-1187.67,0
GRID,26590,0,305.3776,0.0,-1189.84,0
GRID,26591,0,304.748,0.0,-1192.01,0
GRID,26592,0,304.1022,0.0,-1194.17,0
GRID,26593,0,303.4403,0.0,-1196.33,0
GRID,26594,0,302.7624,0.0,-1198.48,0
GRID,26595,0,302.0684,0.0,-1200.63,0
GRID,26596,0,301.3585,0.0,-1202.78,0
GRID,26597,0,300.6326,0.0,-1204.92,0
GRID,26598,0,299.8908,0.0,-1207.05,0
GRID,26599,0,299.1331,0.0,-1209.18,0
GRID,26600,0,298.3595,0.0,-1211.3,0
GRID,26601,0,297.5702,0.0,-1213.42,0
GRID,26602,0,296.765,0.0,-1215.53,0
GRID,26603,0,295.9441,0.0,-1217.64,0
GRID,26604,0,295.1075,0.0,-1219.74,0
GRID,26605,0,294.2553,0.0,-1221.84,0
GRID,26606,0,293.3875,0.0,-1223.93,0
GRID,26607,0,292.5041,0.0,-1226.01,0
GRID,26608,0,291.6052,0.0,-1228.08,0
GRID,26609,0,290.6908,0.0,-1230.16,0
GRID,26610,0,289.761,0.0,-1232.22,0
GRID,26611,0,288.8158,0.0,-1234.28,0
GRID,26612,0,287.8553,0.0,-1236.33,0
GRID,26613,0,286.8795,0.0,-1238.37,0
GRID,26614,0,285.8885,0.0,-1240.41,0
GRID,26615,0,284.8823,0.0,-1242.44,0
GRID,26616,0,283.861,0.0,-1244.46,0
GRID,26617,0,282.8246,0.0,-1246.47,0
GRID,26618,0,281.7732,0.0,-1248.48,0
GRID,26619,0,280.7068,0.0,-1250.48,0
GRID,26620,0,279.6256,0.0,-1252.47,0
GRID,26621,0,278.5295,0.0,-1254.46,0
GRID,26622,0,277.4186,0.0,-1256.44,0
GRID,26623,0,276.293,0.0,-1258.4,0
GRID,26624,0,275.1527,0.0,-1260.36,0
GRID,26625,0,273.9979,0.0,-1262.32,0
GRID,26626,0,272.8285,0.0,-1264.26,0
GRID,26627,0,271.6446,0.0,-1266.2,0
GRID,26628,0,270.4463,0.0,-1268.12,0
GRID,26629,0,269.2337,0.0,-1270.04,0
GRID,26630,0,268.0068,0.0,-1271.95,0
GRID,26631,0,266.7656,0.0,-1273.85,0
GRID,26632,0,265.5104,0.0,-1275.74,0
GRID,26633,0,264.241,0.0,-1277.62,0
GRID,26634,0,262.9577,0.0,-1279.49,0
GRID,26635,0,261.6604,0.0,-1281.36,0
GRID,26636,0,260.3492,0.0,-1283.21,0
GRID,26637,0,259.0243,0.0,-1285.06,0
GRID,26638,0,257.6857,0.0,-1286.89,0
GRID,26639,0,256.3334,0.0,-1288.72,0
GRID,26640,0,254.9675,0.0,-1290.53,0
GRID,26641,0,253.5882,0.0,-1292.33,0
GRID,26642,0,252.1954,0.0,-1294.13,0
GRID,26643,0,250.7893,0.0,-1295.91,0
GRID,26644,0,249.37,0.0,-1297.69,0
GRID,26645,0,247.9374,0.0,-1299.45,0
GRID,26646,0,246.4917,0.0,-1301.2,0
GRID,26647,0,245.033,0.0,-1302.95,0
GRID,26648,0,243.5613,0.0,-1304.68,0
GRID,26649,0,242.0768,0.0,-1306.4,0
GRID,26650,0,240.5796,0.0,-1308.11,0
GRID,26651,0,239.0696,0.0,-1309.81,0
GRID,26652,0,237.5471,0.0,-1311.49,0
GRID,26653,0,236.0121,0.0,-1313.17,0
GRID,26654,0,234.4647,0.0,-1314.84,0
GRID,26655,0,232.905,0.0,-1316.49,0
GRID,26656,0,231.3331,0.0,-1318.13,0
GRID,26657,0,229.7491,0.0,-1319.76,0
GRID,26658,0,228.1435,0.0,-1321.4,0
GRID,26659,0,226.5335,0.0,-1323.03,0
GRID,26660,0,224.9191,0.0,-1324.66,0
GRID,26661,0,223.3005,0.0,-1326.28,0
GRID,26662,0,221.6917,0.0,-1327.89,0
GRID,26663,0,220.0829,0.0,-1329.5,0
GRID,26664,0,218.4741,0.0,-1331.11,0
GRID,26665,0,216.8653,0.0,-1332.72,0
GRID,26666,0,215.2565,0.0,-1334.32,0
GRID,26667,0,213.6477,0.0,-1335.93,0
GRID,26668,0,212.0389,0.0,-1337.54,0
GRID,26669,0,210.4301,0.0,-1339.15,0
GRID,26670,0,208.8213,0.0,-1340.76,0
GRID,26671,0,207.1965,0.0,-1342.38,0
GRID,26672,0,205.5676,0.0,-1344.0,0
GRID,26673,0,203.9348,0.0,-1345.61,0
GRID,26674,0,202.2981,0.0,-1347.22,0
GRID,26675,0,200.6574,0.0,-1348.82,0
GRID,26676,0,199.013,0.0,-1350.42,0
GRID,26677,0,197.3646,0.0,-1352.02,0
GRID,26678,0,195.7125,0.0,-1353.61,0
GRID,26679,0,194.0567,0.0,-1355.19,0
GRID,26680,0,192.3971,0.0,-1356.78,0
GRID,26681,0,190.7339,0.0,-1358.36,0
GRID,26682,0,189.0671,0.0,-1359.93,0
GRID,26683,0,187.3967,0.0,-1361.5,0
GRID,26684,0,185.7227,0.0,-1363.06,0
GRID,26685,0,184.0453,0.0,-1364.62,0
GRID,26686,0,182.3645,0.0,-1366.18,0
GRID,26687,0,180.6802,0.0,-1367.73,0
GRID,26688,0,178.9926,0.0,-1369.28,0
GRID,26689,0,177.3016,0.0,-1370.82,0
GRID,26690,0,175.6074,0.0,-1372.35,0
GRID,26691,0,173.91,0.0,-1373.89,0
GRID,26692,0,172.2094,0.0,-1375.41,0
GRID,26693,0,170.5057,0.0,-1376.94,0
GRID,26694,0,168.7988,0.0,-1378.45,0
GRID,26695,0,167.089,0.0,-1379.97,0
GRID,26696,0,165.3761,0.0,-1381.47,0
GRID,26697,0,163.6603,0.0,-1382.98,0
GRID,26698,0,161.9416,0.0,-1384.47,0
GRID,26699,0,160.2201,0.0,-1385.97,0
GRID,26700,0,158.4957,0.0,-1387.46,0
GRID,26701,0,156.7686,0.0,-1388.94,0
GRID,26702,0,155.0387,0.0,-1390.42,0
GRID,26703,0,153.3062,0.0,-1391.89,0
GRID,26704,0,151.5711,0.0,-1393.36,0
GRID,26705,0,149.8334,0.0,-1394.82,0
GRID,26706,0,148.0932,0.0,-1396.28,0
GRID,26707,0,146.3506,0.0,-1397.73,0
GRID,26708,0,144.6055,0.0,-1399.18,0
GRID,26709,0,142.858,0.0,-1400.62,0
GRID,26710,0,141.1083,0.0,-1402.05,0
GRID,26711,0,139.3562,0.0,-1403.48,0
GRID,26712,0,137.602,0.0,-1404.91,0
GRID,26713,0,135.8455,0.0,-1406.33,0
GRID,26714,0,134.087,0.0,-1407.75,0
GRID,26715,0,132.3264,0.0,-1409.16,0
GRID,26716,0,130.5637,0.0,-1410.56,0
GRID,26717,0,128.7991,0.0,-1411.96,0
GRID,26718,0,127.0326,0.0,-1413.35,0
GRID,26719,0,125.2642,0.0,-1414.74,0
GRID,26720,0,123.4825,0.0,-1416.12,0
GRID,26721,0,121.6835,0.0,-1417.48,0
GRID,26722,0,119.8675,0.0,-1418.81,0
GRID,26723,0,118.0348,0.0,-1420.12,0
GRID,26724,0,116.1855,0.0,-1421.42,0
GRID,26725,0,114.3199,0.0,-1422.68,0
GRID,26726,0,112.4383,0.0,-1423.93,0
GRID,26727,0,110.5409,0.0,-1425.15,0
GRID,26728,0,108.628,0.0,-1426.35,0
GRID,26729,0,106.6998,0.0,-1427.53,0
GRID,26730,0,104.7567,0.0,-1428.68,0
GRID,26731,0,102.7991,0.0,-1429.81,0
GRID,26732,0,100.8271,0.0,-1430.92,0
GRID,26733,0,98.84103,0.0,-1432.0,0
GRID,26734,0,96.84128,0.0,-1433.06,0
GRID,26735,0,94.8281,0.0,-1434.09,0
GRID,26736,0,92.80178,0.0,-1435.1,0
GRID,26737,0,90.76263,0.0,-1436.09,0
GRID,26738,0,88.71095,0.0,-1437.05,0
GRID,26739,0,86.64706,0.0,-1437.98,0
GRID,26740,0,84.57127,0.0,-1438.89,0
GRID,26741,0,82.48389,0.0,-1439.78,0
GRID,26742,0,80.38524,0.0,-1440.64,0
GRID,26743,0,78.27564,0.0,-1441.47,0
GRID,26744,0,76.15539,0.0,-1442.28,0
GRID,26745,0,74.0248,0.0,-1443.06,0
GRID,26746,0,71.88421,0.0,-1443.81,0
GRID,26747,0,69.73394,0.0,-1444.54,0
GRID,26748,0,67.57432,0.0,-1445.25,0
GRID,26749,0,65.40567,0.0,-1445.93,0
GRID,26750,0,63.22833,0.0,-1446.58,0
GRID,26751,0,61.04262,0.0,-1447.2,0
GRID,26752,0,58.84888,0.0,-1447.8,0
GRID,26753,0,56.64742,0.0,-1448.37,0
GRID,26754,0,54.43858,0.0,-1448.91,0
GRID,26755,0,52.2227,0.0,-1449.43,0
GRID,26756,0,50.00012,0.0,-1449.92,0
GRID,26757,0,47.77117,0.0,-1450.38,0
GRID,26758,0,45.53621,0.0,-1450.82,0
GRID,26759,0,43.29555,0.0,-1451.22,0
GRID,26760,0,41.04955,0.0,-1451.6,0
GRID,26761,0,38.79855,0.0,-1451.96,0
GRID,26762,0,36.54287,0.0,-1452.28,0
GRID,26763,0,34.28288,0.0,-1452.58,0
GRID,26764,0,32.0189,0.0,-1452.85,0
GRID,26765,0,29.7513,0.0,-1453.09,0
GRID,26766,0,27.48042,0.0,-1453.31,0
GRID,26767,0,25.20659,0.0,-1453.5,0
GRID,26768,0,22.93018,0.0,-1453.66,0
GRID,26769,0,20.65152,0.0,-1453.79,0
GRID,26770,0,18.37097,0.0,-1453.89,0
GRID,26771,0,16.08886,0.0,-1453.96,0
GRID,26772,0,13.80556,0.0,-1454.01,0
GRID,26773,0,11.5214,0.0,-1454.03,0
GRID,26774,0,9.236734,0.0,-1454.02,0
GRID,26775,0,6.951913,0.0,-1453.99,0
GRID,26776,0,4.667285,0.0,-1453.92,0
GRID,26777,0,2.383197,0.0,-1453.83,0
GRID,26778,0,319.8183,0.0,-1052.38,0
GRID,26779,0,319.8183,0.0,-1054.76,0
GRID,26780,0,319.8183,0.0,-1057.14,0
GRID,26781,0,319.8183,0.0,-1059.52,0
GRID,26782,0,319.8183,0.0,-1061.9,0
GRID,26783,0,319.8183,0.0,-1064.28,0
GRID,26784,0,319.8183,0.0,-1066.66,0
GRID,26785,0,319.8126,0.0,-1068.92,0
GRID,26786,0,319.796,0.0,-1071.18,0
GRID,26787,0,319.7684,0.0,-1073.43,0
GRID,26788,0,319.7299,0.0,-1075.69,0
GRID,26789,0,319.6805,0.0,-1077.95,0
GRID,26790,0,319.6202,0.0,-1080.2,0
GRID,26791,0,319.549,0.0,-1082.46,0
GRID,26792,0,319.4668,0.0,-1084.72,0
GRID,26793,0,319.3736,0.0,-1086.97,0
GRID,26794,0,319.2695,0.0,-1089.22,0
GRID,26795,0,319.1544,0.0,-1091.48,0
GRID,26796,0,319.0284,0.0,-1093.73,0
GRID,26797,0,318.8914,0.0,-1095.98,0
GRID,26798,0,318.7434,0.0,-1098.23,0
GRID,26799,0,318.5845,0.0,-1100.48,0
GRID,26800,0,318.4146,0.0,-1102.73,0
GRID,26801,0,318.2338,0.0,-1104.98,0
GRID,26802,0,318.0421,0.0,-1107.22,0
GRID,26803,0,317.8396,0.0,-1109.47,0
GRID,26804,0,317.6261,0.0,-1111.71,0
GRID,26805,0,317.4017,0.0,-1113.96,0
GRID,26806,0,317.1665,0.0,-1116.2,0
GRID,26807,0,316.9204,0.0,-1118.44,0
GRID,26808,0,316.6634,0.0,-1120.67,0
GRID,26809,0,316.3957,0.0,-1122.91,0
GRID,26810,0,316.117,0.0,-1125.14,0
GRID,26811,0,315.8276,0.0,-1127.38,0
GRID,26812,0,315.5273,0.0,-1129.61,0
GRID,26813,0,315.2162,0.0,-1131.84,0
GRID,26814,0,314.8944,0.0,-1134.06,0
GRID,26815,0,314.5617,0.0,-1136.29,0
GRID,26816,0,314.2183,0.0,-1138.51,0
GRID,26817,0,313.8642,0.0,-1140.73,0
GRID,26818,0,313.4993,0.0,-1142.95,0
GRID,26819,0,313.1238,0.0,-1145.16,0
GRID,26820,0,312.7375,0.0,-1147.38,0
GRID,26821,0,312.3406,0.0,-1149.59,0
GRID,26822,0,311.9329,0.0,-1151.79,0
GRID,26823,0,311.5147,0.0,-1154.0,0
GRID,26824,0,311.0858,0.0,-1156.2,0
GRID,26825,0,310.6463,0.0,-1158.4,0
GRID,26826,0,310.1962,0.0,-1160.6,0
GRID,26827,0,309.7355,0.0,-1162.79,0
GRID,26828,0,309.2642,0.0,-1164.98,0
GRID,26829,0,308.7824,0.0,-1167.17,0
GRID,26830,0,308.2901,0.0,-1169.35,0
GRID,26831,0,307.7873,0.0,-1171.54,0
GRID,26832,0,307.274,0.0,-1173.71,0
GRID,26833,0,306.7474,0.0,-1175.89,0
GRID,26834,0,306.2049,0.0,-1178.06,0
GRID,26835,0,305.6463,0.0,-1180.23,0
GRID,26836,0,305.0719,0.0,-1182.4,0
GRID,26837,0,304.4815,0.0,-1184.56,0
GRID,26838,0,303.8753,0.0,-1186.71,0
GRID,26839,0,303.2531,0.0,-1188.87,0
GRID,26840,0,302.6151,0.0,-1191.02,0
GRID,26841,0,301.9612,0.0,-1193.16,0
GRID,26842,0,301.2915,0.0,-1195.3,0
GRID,26843,0,300.6061,0.0,-1197.44,0
GRID,26844,0,299.905,0.0,-1199.57,0
GRID,26845,0,299.1881,0.0,-1201.69,0
GRID,26846,0,298.4556,0.0,-1203.81,0
GRID,26847,0,297.7075,0.0,-1205.93,0
GRID,26848,0,296.9438,0.0,-1208.04,0
GRID,26849,0,296.1645,0.0,-1210.15,0
GRID,26850,0,295.3697,0.0,-1212.25,0
GRID,26851,0,294.5594,0.0,-1214.34,0
GRID,26852,0,293.7337,0.0,-1216.43,0
GRID,26853,0,292.8926,0.0,-1218.52,0
GRID,26854,0,292.0361,0.0,-1220.59,0
GRID,26855,0,291.1643,0.0,-1222.66,0
GRID,26856,0,290.2772,0.0,-1224.73,0
GRID,26857,0,289.375,0.0,-1226.79,0
GRID,26858,0,288.4575,0.0,-1228.84,0
GRID,26859,0,287.5249,0.0,-1230.89,0
GRID,26860,0,286.5772,0.0,-1232.93,0
GRID,26861,0,285.6145,0.0,-1234.96,0
GRID,26862,0,284.6367,0.0,-1236.99,0
GRID,26863,0,283.6441,0.0,-1239.01,0
GRID,26864,0,282.6365,0.0,-1241.02,0
GRID,26865,0,281.6142,0.0,-1243.02,0
GRID,26866,0,280.577,0.0,-1245.02,0
GRID,26867,0,279.5251,0.0,-1247.01,0
GRID,26868,0,278.4585,0.0,-1248.99,0
GRID,26869,0,277.3773,0.0,-1250.97,0
GRID,26870,0,276.2816,0.0,-1252.94,0
GRID,26871,0,275.1713,0.0,-1254.9,0
GRID,26872,0,274.0466,0.0,-1256.85,0
GRID,26873,0,272.9075,0.0,-1258.79,0
GRID,26874,0,271.7541,0.0,-1260.73,0
GRID,26875,0,270.5864,0.0,-1262.65,0
GRID,26876,0,269.4046,0.0,-1264.57,0
GRID,26877,0,268.2086,0.0,-1266.48,0
GRID,26878,0,266.9985,0.0,-1268.38,0
GRID,26879,0,265.7744,0.0,-1270.28,0
GRID,26880,0,264.5363,0.0,-1272.16,0
GRID,26881,0,263.2844,0.0,-1274.03,0
GRID,26882,0,262.0186,0.0,-1275.9,0
GRID,26883,0,260.7392,0.0,-1277.76,0
GRID,26884,0,259.446,0.0,-1279.6,0
GRID,26885,0,258.1392,0.0,-1281.44,0
GRID,26886,0,256.819,0.0,-1283.27,0
GRID,26887,0,255.4852,0.0,-1285.09,0
GRID,26888,0,254.1381,0.0,-1286.9,0
GRID,26889,0,252.7776,0.0,-1288.7,0
GRID,26890,0,251.404,0.0,-1290.49,0
GRID,26891,0,250.0171,0.0,-1292.27,0
GRID,26892,0,248.6172,0.0,-1294.04,0
GRID,26893,0,247.2042,0.0,-1295.8,0
GRID,26894,0,245.7783,0.0,-1297.55,0
GRID,26895,0,244.3395,0.0,-1299.29,0
GRID,26896,0,242.8879,0.0,-1301.01,0
GRID,26897,0,241.4236,0.0,-1302.73,0
GRID,26898,0,239.9467,0.0,-1304.44,0
GRID,26899,0,238.4572,0.0,-1306.13,0
GRID,26900,0,236.9554,0.0,-1307.82,0
GRID,26901,0,235.4411,0.0,-1309.49,0
GRID,26902,0,233.9147,0.0,-1311.16,0
GRID,26903,0,232.376,0.0,-1312.81,0
GRID,26904,0,230.8253,0.0,-1314.45,0
GRID,26905,0,229.2625,0.0,-1316.08,0
GRID,26906,0,227.6879,0.0,-1317.7,0
GRID,26907,0,226.0917,0.0,-1319.32,0
GRID,26908,0,224.4915,0.0,-1320.94,0
GRID,26909,0,222.8873,0.0,-1322.56,0
GRID,26910,0,221.2791,0.0,-1324.17,0
GRID,26911,0,219.68,0.0,-1325.77,0
GRID,26912,0,218.0809,0.0,-1327.37,0
GRID,26913,0,216.4817,0.0,-1328.97,0
GRID,26914,0,214.8826,0.0,-1330.57,0
GRID,26915,0,213.2835,0.0,-1332.17,0
GRID,26916,0,211.6844,0.0,-1333.76,0
GRID,26917,0,210.0853,0.0,-1335.36,0
GRID,26918,0,208.4862,0.0,-1336.96,0
GRID,26919,0,206.8871,0.0,-1338.56,0
GRID,26920,0,205.2732,0.0,-1340.17,0
GRID,26921,0,203.6557,0.0,-1341.78,0
GRID,26922,0,202.0346,0.0,-1343.38,0
GRID,26923,0,200.4098,0.0,-1344.98,0
GRID,26924,0,198.7815,0.0,-1346.57,0
GRID,26925,0,197.1497,0.0,-1348.16,0
GRID,26926,0,195.5143,0.0,-1349.75,0
GRID,26927,0,193.8755,0.0,-1351.34,0
GRID,26928,0,192.2333,0.0,-1352.91,0
GRID,26929,0,190.5876,0.0,-1354.49,0
GRID,26930,0,188.9386,0.0,-1356.06,0
GRID,26931,0,187.2863,0.0,-1357.63,0
GRID,26932,0,185.6307,0.0,-1359.19,0
GRID,26933,0,183.9719,0.0,-1360.75,0
GRID,26934,0,182.3098,0.0,-1362.3,0
GRID,26935,0,180.6446,0.0,-1363.85,0
GRID,26936,0,178.9763,0.0,-1365.4,0
GRID,26937,0,177.305,0.0,-1366.94,0
GRID,26938,0,175.6306,0.0,-1368.48,0
GRID,26939,0,173.9531,0.0,-1370.01,0
GRID,26940,0,172.2728,0.0,-1371.54,0
GRID,26941,0,170.5895,0.0,-1373.06,0
GRID,26942,0,168.9034,0.0,-1374.58,0
GRID,26943,0,167.2144,0.0,-1376.1,0
GRID,26944,0,165.5226,0.0,-1377.61,0
GRID,26945,0,163.8281,0.0,-1379.12,0
GRID,26946,0,162.1309,0.0,-1380.62,0
GRID,26947,0,160.431,0.0,-1382.12,0
GRID,26948,0,158.7285,0.0,-1383.61,0
GRID,26949,0,157.0235,0.0,-1385.1,0
GRID,26950,0,155.3159,0.0,-1386.58,0
GRID,26951,0,153.6058,0.0,-1388.06,0
GRID,26952,0,151.8933,0.0,-1389.54,0
GRID,26953,0,150.1784,0.0,-1391.01,0
GRID,26954,0,148.4611,0.0,-1392.47,0
GRID,26955,0,146.7416,0.0,-1393.93,0
GRID,26956,0,145.0197,0.0,-1395.39,0
GRID,26957,0,143.2957,0.0,-1396.84,0
GRID,26958,0,141.5695,0.0,-1398.28,0
GRID,26959,0,139.8411,0.0,-1399.72,0
GRID,26960,0,138.1107,0.0,-1401.16,0
GRID,26961,0,136.3782,0.0,-1402.59,0
GRID,26962,0,134.6438,0.0,-1404.02,0
GRID,26963,0,132.9074,0.0,-1405.44,0
GRID,26964,0,131.1691,0.0,-1406.86,0
GRID,26965,0,129.4289,0.0,-1408.27,0
GRID,26966,0,127.687,0.0,-1409.68,0
GRID,26967,0,125.9433,0.0,-1411.08,0
GRID,26968,0,124.1979,0.0,-1412.47,0
GRID,26969,0,122.439,0.0,-1413.86,0
GRID,26970,0,120.6627,0.0,-1415.23,0
GRID,26971,0,118.8693,0.0,-1416.57,0
GRID,26972,0,117.0589,0.0,-1417.89,0
GRID,26973,0,115.2318,0.0,-1419.19,0
GRID,26974,0,113.3883,0.0,-1420.47,0
GRID,26975,0,111.5285,0.0,-1421.73,0
GRID,26976,0,109.6527,0.0,-1422.96,0
GRID,26977,0,107.7612,0.0,-1424.17,0
GRID,26978,0,105.8544,0.0,-1425.36,0
GRID,26979,0,103.9324,0.0,-1426.52,0
GRID,26980,0,101.9957,0.0,-1427.66,0
GRID,26981,0,100.0444,0.0,-1428.78,0
GRID,26982,0,98.079,0.0,-1429.87,0
GRID,26983,0,96.09966,0.0,-1430.94,0
GRID,26984,0,94.10673,0.0,-1431.98,0
GRID,26985,0,92.10048,0.0,-1433.0,0
GRID,26986,0,90.08122,0.0,-1434.0,0
GRID,26987,0,88.04927,0.0,-1434.97,0
GRID,26988,0,86.00493,0.0,-1435.92,0
GRID,26989,0,83.94853,0.0,-1436.84,0
GRID,26990,0,81.88038,0.0,-1437.73,0
GRID,26991,0,79.80078,0.0,-1438.6,0
GRID,26992,0,77.71006,0.0,-1439.45,0
GRID,26993,0,75.60853,0.0,-1440.27,0
GRID,26994,0,73.4965,0.0,-1441.06,0
GRID,26995,0,71.3743,0.0,-1441.83,0
GRID,26996,0,69.24226,0.0,-1442.57,0
GRID,26997,0,67.1007,0.0,-1443.28,0
GRID,26998,0,64.94997,0.0,-1443.97,0
GRID,26999,0,62.79037,0.0,-1444.63,0
GRID,27000,0,60.62225,0.0,-1445.27,0
GRID,27001,0,58.44594,0.0,-1445.88,0
GRID,27002,0,56.26176,0.0,-1446.46,0
GRID,27003,0,54.07004,0.0,-1447.02,0
GRID,27004,0,51.87113,0.0,-1447.54,0
GRID,27005,0,49.66537,0.0,-1448.05,0
GRID,27006,0,47.4531,0.0,-1448.52,0
GRID,27007,0,45.23466,0.0,-1448.97,0
GRID,27008,0,43.01038,0.0,-1449.39,0
GRID,27009,0,40.78061,0.0,-1449.78,0
GRID,27010,0,38.54568,0.0,-1450.14,0
GRID,27011,0,36.30595,0.0,-1450.48,0
GRID,27012,0,34.06176,0.0,-1450.79,0
GRID,27013,0,31.81344,0.0,-1451.07,0
GRID,27014,0,29.56136,0.0,-1451.33,0
GRID,27015,0,27.30586,0.0,-1451.55,0
GRID,27016,0,25.04729,0.0,-1451.75,0
GRID,27017,0,22.78599,0.0,-1451.92,0
GRID,27018,0,20.52232,0.0,-1452.07,0
GRID,27019,0,18.25662,0.0,-1452.18,0
GRID,27020,0,15.98924,0.0,-1452.27,0
GRID,27021,0,13.72053,0.0,-1452.33,0
GRID,27022,0,11.45085,0.0,-1452.36,0
GRID,27023,0,9.180532,0.0,-1452.36,0
GRID,27024,0,6.909939,0.0,-1452.34,0
GRID,27025,0,4.639419,0.0,-1452.29,0
GRID,27026,0,2.369323,0.0,-1452.21,0
GRID,27027,0,318.0167,0.0,-1052.37,0
GRID,27028,0,318.0167,0.0,-1054.74,0
GRID,27029,0,318.0167,0.0,-1057.1,0
GRID,27030,0,318.0167,0.0,-1059.47,0
GRID,27031,0,318.0167,0.0,-1061.84,0
GRID,27032,0,318.0167,0.0,-1064.21,0
GRID,27033,0,318.0167,0.0,-1066.57,0
GRID,27034,0,318.0108,0.0,-1068.81,0
GRID,27035,0,317.9938,0.0,-1071.06,0
GRID,27036,0,317.9657,0.0,-1073.3,0
GRID,27037,0,317.9265,0.0,-1075.54,0
GRID,27038,0,317.8761,0.0,-1077.78,0
GRID,27039,0,317.8145,0.0,-1080.02,0
GRID,27040,0,317.7418,0.0,-1082.26,0
GRID,27041,0,317.6579,0.0,-1084.5,0
GRID,27042,0,317.5629,0.0,-1086.74,0
GRID,27043,0,317.4566,0.0,-1088.98,0
GRID,27044,0,317.3392,0.0,-1091.22,0
GRID,27045,0,317.2106,0.0,-1093.45,0
GRID,27046,0,317.0708,0.0,-1095.69,0
GRID,27047,0,316.9198,0.0,-1097.93,0
GRID,27048,0,316.7576,0.0,-1100.16,0
GRID,27049,0,316.5843,0.0,-1102.39,0
GRID,27050,0,316.3998,0.0,-1104.62,0
GRID,27051,0,316.2042,0.0,-1106.86,0
GRID,27052,0,315.9975,0.0,-1109.09,0
GRID,27053,0,315.7797,0.0,-1111.31,0
GRID,27054,0,315.5507,0.0,-1113.54,0
GRID,27055,0,315.3107,0.0,-1115.77,0
GRID,27056,0,315.0596,0.0,-1117.99,0
GRID,27057,0,314.7974,0.0,-1120.21,0
GRID,27058,0,314.5241,0.0,-1122.43,0
GRID,27059,0,314.2398,0.0,-1124.65,0
GRID,27060,0,313.9445,0.0,-1126.87,0
GRID,27061,0,313.6381,0.0,-1129.08,0
GRID,27062,0,313.3206,0.0,-1131.29,0
GRID,27063,0,312.9922,0.0,-1133.5,0
GRID,27064,0,312.6528,0.0,-1135.71,0
GRID,27065,0,312.3024,0.0,-1137.92,0
GRID,27066,0,311.941,0.0,-1140.12,0
GRID,27067,0,311.5687,0.0,-1142.32,0
GRID,27068,0,311.1855,0.0,-1144.52,0
GRID,27069,0,310.7913,0.0,-1146.72,0
GRID,27070,0,310.3863,0.0,-1148.91,0
GRID,27071,0,309.9704,0.0,-1151.1,0
GRID,27072,0,309.5436,0.0,-1153.29,0
GRID,27073,0,309.1059,0.0,-1155.48,0
GRID,27074,0,308.6574,0.0,-1157.66,0
GRID,27075,0,308.1981,0.0,-1159.84,0
GRID,27076,0,307.728,0.0,-1162.02,0
GRID,27077,0,307.2471,0.0,-1164.19,0
GRID,27078,0,306.7555,0.0,-1166.36,0
GRID,27079,0,306.2532,0.0,-1168.53,0
GRID,27080,0,305.7401,0.0,-1170.7,0
GRID,27081,0,305.2163,0.0,-1172.86,0
GRID,27082,0,304.6793,0.0,-1175.02,0
GRID,27083,0,304.1266,0.0,-1177.17,0
GRID,27084,0,303.5583,0.0,-1179.32,0
GRID,27085,0,302.9742,0.0,-1181.47,0
GRID,27086,0,302.3746,0.0,-1183.61,0
GRID,27087,0,301.7594,0.0,-1185.75,0
GRID,27088,0,301.1286,0.0,-1187.89,0
GRID,27089,0,300.4822,0.0,-1190.02,0
GRID,27090,0,299.8202,0.0,-1192.15,0
GRID,27091,0,299.1428,0.0,-1194.27,0
GRID,27092,0,298.4498,0.0,-1196.39,0
GRID,27093,0,297.7415,0.0,-1198.5,0
GRID,27094,0,297.0178,0.0,-1200.61,0
GRID,27095,0,296.2787,0.0,-1202.71,0
GRID,27096,0,295.5242,0.0,-1204.81,0
GRID,27097,0,294.7545,0.0,-1206.91,0
GRID,27098,0,293.9695,0.0,-1208.99,0
GRID,27099,0,293.1693,0.0,-1211.08,0
GRID,27100,0,292.3539,0.0,-1213.15,0
GRID,27101,0,291.5233,0.0,-1215.22,0
GRID,27102,0,290.6776,0.0,-1217.29,0
GRID,27103,0,289.8169,0.0,-1219.35,0
GRID,27104,0,288.9412,0.0,-1221.4,0
GRID,27105,0,288.0504,0.0,-1223.45,0
GRID,27106,0,287.1448,0.0,-1225.49,0
GRID,27107,0,286.2242,0.0,-1227.53,0
GRID,27108,0,285.2888,0.0,-1229.56,0
GRID,27109,0,284.3386,0.0,-1231.58,0
GRID,27110,0,283.3737,0.0,-1233.59,0
GRID,27111,0,282.394,0.0,-1235.6,0
GRID,27112,0,281.3997,0.0,-1237.6,0
GRID,27113,0,280.3908,0.0,-1239.6,0
GRID,27114,0,279.3674,0.0,-1241.59,0
GRID,27115,0,278.3294,0.0,-1243.57,0
GRID,27116,0,277.277,0.0,-1245.54,0
GRID,27117,0,276.2102,0.0,-1247.5,0
GRID,27118,0,275.1291,0.0,-1249.46,0
GRID,27119,0,274.0337,0.0,-1251.41,0
GRID,27120,0,272.924,0.0,-1253.36,0
GRID,27121,0,271.8002,0.0,-1255.29,0
GRID,27122,0,270.6623,0.0,-1257.22,0
GRID,27123,0,269.5104,0.0,-1259.14,0
GRID,27124,0,268.3444,0.0,-1261.05,0
GRID,27125,0,267.1645,0.0,-1262.95,0
GRID,27126,0,265.9708,0.0,-1264.84,0
GRID,27127,0,264.7632,0.0,-1266.73,0
GRID,27128,0,263.542,0.0,-1268.6,0
GRID,27129,0,262.307,0.0,-1270.47,0
GRID,27130,0,261.0584,0.0,-1272.33,0
GRID,27131,0,259.7963,0.0,-1274.18,0
GRID,27132,0,258.5206,0.0,-1276.02,0
GRID,27133,0,257.2316,0.0,-1277.85,0
GRID,27134,0,255.9293,0.0,-1279.67,0
GRID,27135,0,254.6136,0.0,-1281.49,0
GRID,27136,0,253.2848,0.0,-1283.29,0
GRID,27137,0,251.9428,0.0,-1285.08,0
GRID,27138,0,250.5878,0.0,-1286.87,0
GRID,27139,0,249.2197,0.0,-1288.64,0
GRID,27140,0,247.8388,0.0,-1290.41,0
GRID,27141,0,246.445,0.0,-1292.16,0
GRID,27142,0,245.0385,0.0,-1293.91,0
GRID,27143,0,243.6192,0.0,-1295.64,0
GRID,27144,0,242.1873,0.0,-1297.37,0
GRID,27145,0,240.7428,0.0,-1299.08,0
GRID,27146,0,239.2859,0.0,-1300.78,0
GRID,27147,0,237.8165,0.0,-1302.48,0
GRID,27148,0,236.3349,0.0,-1304.16,0
GRID,27149,0,234.8411,0.0,-1305.83,0
GRID,27150,0,233.3352,0.0,-1307.49,0
GRID,27151,0,231.8172,0.0,-1309.14,0
GRID,27152,0,230.2873,0.0,-1310.78,0
GRID,27153,0,228.7455,0.0,-1312.41,0
GRID,27154,0,227.1919,0.0,-1314.03,0
GRID,27155,0,225.6267,0.0,-1315.63,0
GRID,27156,0,224.0399,0.0,-1317.24,0
GRID,27157,0,222.4495,0.0,-1318.85,0
GRID,27158,0,220.8554,0.0,-1320.46,0
GRID,27159,0,219.2577,0.0,-1322.06,0
GRID,27160,0,217.6683,0.0,-1323.65,0
GRID,27161,0,216.0788,0.0,-1325.24,0
GRID,27162,0,214.4894,0.0,-1326.83,0
GRID,27163,0,212.9,0.0,-1328.42,0
GRID,27164,0,211.3105,0.0,-1330.01,0
GRID,27165,0,209.7211,0.0,-1331.6,0
GRID,27166,0,208.1316,0.0,-1333.19,0
GRID,27167,0,206.5422,0.0,-1334.77,0
GRID,27168,0,204.9528,0.0,-1336.36,0
GRID,27169,0,203.3499,0.0,-1337.96,0
GRID,27170,0,201.7438,0.0,-1339.56,0
GRID,27171,0,200.1343,0.0,-1341.15,0
GRID,27172,0,198.5216,0.0,-1342.74,0
GRID,27173,0,196.9056,0.0,-1344.33,0
GRID,27174,0,195.2864,0.0,-1345.91,0
GRID,27175,0,193.664,0.0,-1347.49,0
GRID,27176,0,192.0385,0.0,-1349.06,0
GRID,27177,0,190.4098,0.0,-1350.63,0
GRID,27178,0,188.7781,0.0,-1352.2,0
GRID,27179,0,187.1433,0.0,-1353.76,0
GRID,27180,0,185.5055,0.0,-1355.32,0
GRID,27181,0,183.8647,0.0,-1356.88,0
GRID,27182,0,182.221,0.0,-1358.43,0
GRID,27183,0,180.5743,0.0,-1359.98,0
GRID,27184,0,178.9248,0.0,-1361.53,0
GRID,27185,0,177.2725,0.0,-1363.07,0
GRID,27186,0,175.6174,0.0,-1364.61,0
GRID,27187,0,173.9595,0.0,-1366.14,0
GRID,27188,0,172.2989,0.0,-1367.67,0
GRID,27189,0,170.6356,0.0,-1369.19,0
GRID,27190,0,168.9696,0.0,-1370.72,0
GRID,27191,0,167.301,0.0,-1372.23,0
GRID,27192,0,165.6299,0.0,-1373.75,0
GRID,27193,0,163.9562,0.0,-1375.26,0
GRID,27194,0,162.2801,0.0,-1376.76,0
GRID,27195,0,160.6015,0.0,-1378.26,0
GRID,27196,0,158.9204,0.0,-1379.76,0
GRID,27197,0,157.237,0.0,-1381.25,0
GRID,27198,0,155.5513,0.0,-1382.74,0
GRID,27199,0,153.8632,0.0,-1384.23,0
GRID,27200,0,152.1729,0.0,-1385.71,0
GRID,27201,0,150.4804,0.0,-1387.18,0
GRID,27202,0,148.7857,0.0,-1388.65,0
GRID,27203,0,147.0888,0.0,-1390.12,0
GRID,27204,0,145.3899,0.0,-1391.58,0
GRID,27205,0,143.6889,0.0,-1393.04,0
GRID,27206,0,141.9859,0.0,-1394.5,0
GRID,27207,0,140.2809,0.0,-1395.95,0
GRID,27208,0,138.5739,0.0,-1397.39,0
GRID,27209,0,136.8651,0.0,-1398.84,0
GRID,27210,0,135.1545,0.0,-1400.27,0
GRID,27211,0,133.442,0.0,-1401.71,0
GRID,27212,0,131.7277,0.0,-1403.13,0
GRID,27213,0,130.0118,0.0,-1404.56,0
GRID,27214,0,128.2941,0.0,-1405.98,0
GRID,27215,0,126.5748,0.0,-1407.39,0
GRID,27216,0,124.854,0.0,-1408.8,0
GRID,27217,0,123.1315,0.0,-1410.21,0
GRID,27218,0,121.3955,0.0,-1411.6,0
GRID,27219,0,119.642,0.0,-1412.98,0
GRID,27220,0,117.8711,0.0,-1414.33,0
GRID,27221,0,116.0831,0.0,-1415.66,0
GRID,27222,0,114.2781,0.0,-1416.97,0
GRID,27223,0,112.4566,0.0,-1418.26,0
GRID,27224,0,110.6187,0.0,-1419.53,0
GRID,27225,0,108.7645,0.0,-1420.77,0
GRID,27226,0,106.8945,0.0,-1421.99,0
GRID,27227,0,105.0089,0.0,-1423.19,0
GRID,27228,0,103.1081,0.0,-1424.36,0
GRID,27229,0,101.1923,0.0,-1425.51,0
GRID,27230,0,99.26181,0.0,-1426.64,0
GRID,27231,0,97.31697,0.0,-1427.74,0
GRID,27232,0,95.35805,0.0,-1428.82,0
GRID,27233,0,93.38535,0.0,-1429.87,0
GRID,27234,0,91.39917,0.0,-1430.91,0
GRID,27235,0,89.39981,0.0,-1431.91,0
GRID,27236,0,87.38759,0.0,-1432.89,0
GRID,27237,0,85.36281,0.0,-1433.85,0
GRID,27238,0,83.3258,0.0,-1434.78,0
GRID,27239,0,81.27686,0.0,-1435.69,0
GRID,27240,0,79.21632,0.0,-1436.57,0
GRID,27241,0,77.14448,0.0,-1437.42,0
GRID,27242,0,75.06167,0.0,-1438.25,0
GRID,27243,0,72.9682,0.0,-1439.06,0
GRID,27244,0,70.86439,0.0,-1439.84,0
GRID,27245,0,68.75057,0.0,-1440.59,0
GRID,27246,0,66.62709,0.0,-1441.32,0
GRID,27247,0,64.49426,0.0,-1442.02,0
GRID,27248,0,62.35241,0.0,-1442.69,0
GRID,27249,0,60.20188,0.0,-1443.34,0
GRID,27250,0,58.043,0.0,-1443.96,0
GRID,27251,0,55.8761,0.0,-1444.55,0
GRID,27252,0,53.70151,0.0,-1445.12,0
GRID,27253,0,51.51957,0.0,-1445.66,0
GRID,27254,0,49.33063,0.0,-1446.17,0
GRID,27255,0,47.13503,0.0,-1446.66,0
GRID,27256,0,44.93311,0.0,-1447.12,0
GRID,27257,0,42.7252,0.0,-1447.55,0
GRID,27258,0,40.51166,0.0,-1447.95,0
GRID,27259,0,38.29282,0.0,-1448.33,0
GRID,27260,0,36.06903,0.0,-1448.68,0
GRID,27261,0,33.84063,0.0,-1449.0,0
GRID,27262,0,31.60798,0.0,-1449.3,0
GRID,27263,0,29.37142,0.0,-1449.56,0
GRID,27264,0,27.13131,0.0,-1449.8,0
GRID,27265,0,24.88799,0.0,-1450.01,0
GRID,27266,0,22.6418,0.0,-1450.19,0
GRID,27267,0,20.39311,0.0,-1450.35,0
GRID,27268,0,18.14227,0.0,-1450.48,0
GRID,27269,0,15.88962,0.0,-1450.58,0
GRID,27270,0,13.63551,0.0,-1450.65,0
GRID,27271,0,11.38029,0.0,-1450.69,0
GRID,27272,0,9.124329,0.0,-1450.71,0
GRID,27273,0,6.867965,0.0,-1450.69,0
GRID,27274,0,4.611553,0.0,-1450.65,0
GRID,27275,0,2.355448,0.0,-1450.59,0
GRID,27276,0,316.215,0.0,-1052.35,0
GRID,27277,0,316.215,0.0,-1054.71,0
GRID,27278,0,316.215,0.0,-1057.06,0
GRID,27279,0,316.215,0.0,-1059.42,0
GRID,27280,0,316.215,0.0,-1061.77,0
GRID,27281,0,316.215,0.0,-1064.13,0
GRID,27282,0,316.215,0.0,-1066.48,0
GRID,27283,0,316.209,0.0,-1068.71,0
GRID,27284,0,316.1917,0.0,-1070.94,0
GRID,27285,0,316.163,0.0,-1073.16,0
GRID,27286,0,316.123,0.0,-1075.39,0
GRID,27287,0,316.0716,0.0,-1077.61,0
GRID,27288,0,316.0088,0.0,-1079.84,0
GRID,27289,0,315.9346,0.0,-1082.06,0
GRID,27290,0,315.8491,0.0,-1084.29,0
GRID,27291,0,315.7521,0.0,-1086.51,0
GRID,27292,0,315.6438,0.0,-1088.73,0
GRID,27293,0,315.524,0.0,-1090.96,0
GRID,27294,0,315.3928,0.0,-1093.18,0
GRID,27295,0,315.2502,0.0,-1095.4,0
GRID,27296,0,315.0962,0.0,-1097.62,0
GRID,27297,0,314.9308,0.0,-1099.84,0
GRID,27298,0,314.754,0.0,-1102.06,0
GRID,27299,0,314.5658,0.0,-1104.27,0
GRID,27300,0,314.3663,0.0,-1106.49,0
GRID,27301,0,314.1555,0.0,-1108.7,0
GRID,27302,0,313.9333,0.0,-1110.91,0
GRID,27303,0,313.6997,0.0,-1113.12,0
GRID,27304,0,313.4549,0.0,-1115.33,0
GRID,27305,0,313.1988,0.0,-1117.54,0
GRID,27306,0,312.9313,0.0,-1119.75,0
GRID,27307,0,312.6526,0.0,-1121.95,0
GRID,27308,0,312.3626,0.0,-1124.15,0
GRID,27309,0,312.0613,0.0,-1126.35,0
GRID,27310,0,311.7488,0.0,-1128.55,0
GRID,27311,0,311.425,0.0,-1130.75,0
GRID,27312,0,311.09,0.0,-1132.94,0
GRID,27313,0,310.7438,0.0,-1135.14,0
GRID,27314,0,310.3864,0.0,-1137.33,0
GRID,27315,0,310.0178,0.0,-1139.51,0
GRID,27316,0,309.6381,0.0,-1141.7,0
GRID,27317,0,309.2472,0.0,-1143.88,0
GRID,27318,0,308.8452,0.0,-1146.06,0
GRID,27319,0,308.432,0.0,-1148.24,0
GRID,27320,0,308.0078,0.0,-1150.42,0
GRID,27321,0,307.5724,0.0,-1152.59,0
GRID,27322,0,307.126,0.0,-1154.76,0
GRID,27323,0,306.6686,0.0,-1156.92,0
GRID,27324,0,306.2001,0.0,-1159.09,0
GRID,27325,0,305.7206,0.0,-1161.25,0
GRID,27326,0,305.2301,0.0,-1163.4,0
GRID,27327,0,304.7286,0.0,-1165.56,0
GRID,27328,0,304.2162,0.0,-1167.71,0
GRID,27329,0,303.6929,0.0,-1169.86,0
GRID,27330,0,303.1587,0.0,-1172.0,0
GRID,27331,0,302.6112,0.0,-1174.14,0
GRID,27332,0,302.0484,0.0,-1176.28,0
GRID,27333,0,301.4702,0.0,-1178.41,0
GRID,27334,0,300.8766,0.0,-1180.54,0
GRID,27335,0,300.2677,0.0,-1182.67,0
GRID,27336,0,299.6435,0.0,-1184.79,0
GRID,27337,0,299.004,0.0,-1186.91,0
GRID,27338,0,298.3492,0.0,-1189.03,0
GRID,27339,0,297.6792,0.0,-1191.13,0
GRID,27340,0,296.994,0.0,-1193.24,0
GRID,27341,0,296.2936,0.0,-1195.34,0
GRID,27342,0,295.578,0.0,-1197.44,0
GRID,27343,0,294.8474,0.0,-1199.53,0
GRID,27344,0,294.1017,0.0,-1201.61,0
GRID,27345,0,293.3409,0.0,-1203.69,0
GRID,27346,0,292.5652,0.0,-1205.77,0
GRID,27347,0,291.7745,0.0,-1207.84,0
GRID,27348,0,290.9688,0.0,-1209.9,0
GRID,27349,0,290.1483,0.0,-1211.96,0
GRID,27350,0,289.3129,0.0,-1214.02,0
GRID,27351,0,288.4627,0.0,-1216.06,0
GRID,27352,0,287.5977,0.0,-1218.11,0
GRID,27353,0,286.718,0.0,-1220.14,0
GRID,27354,0,285.8236,0.0,-1222.17,0
GRID,27355,0,284.9145,0.0,-1224.2,0
GRID,27356,0,283.9909,0.0,-1226.21,0
GRID,27357,0,283.0527,0.0,-1228.22,0
GRID,27358,0,282.1,0.0,-1230.23,0
GRID,27359,0,281.1328,0.0,-1232.23,0
GRID,27360,0,280.1513,0.0,-1234.22,0
GRID,27361,0,279.1553,0.0,-1236.2,0
GRID,27362,0,278.1451,0.0,-1238.18,0
GRID,27363,0,277.1206,0.0,-1240.15,0
GRID,27364,0,276.0818,0.0,-1242.11,0
GRID,27365,0,275.0289,0.0,-1244.07,0
GRID,27366,0,273.9619,0.0,-1246.02,0
GRID,27367,0,272.8808,0.0,-1247.96,0
GRID,27368,0,271.7857,0.0,-1249.89,0
GRID,27369,0,270.6767,0.0,-1251.82,0
GRID,27370,0,269.5538,0.0,-1253.73,0
GRID,27371,0,268.4171,0.0,-1255.64,0
GRID,27372,0,267.2666,0.0,-1257.54,0
GRID,27373,0,266.1024,0.0,-1259.44,0
GRID,27374,0,264.9245,0.0,-1261.32,0
GRID,27375,0,263.733,0.0,-1263.2,0
GRID,27376,0,262.528,0.0,-1265.07,0
GRID,27377,0,261.3095,0.0,-1266.93,0
GRID,27378,0,260.0776,0.0,-1268.78,0
GRID,27379,0,258.8324,0.0,-1270.62,0
GRID,27380,0,257.5739,0.0,-1272.46,0
GRID,27381,0,256.3021,0.0,-1274.28,0
GRID,27382,0,255.0172,0.0,-1276.1,0
GRID,27383,0,253.7193,0.0,-1277.91,0
GRID,27384,0,252.4083,0.0,-1279.7,0
GRID,27385,0,251.0843,0.0,-1281.49,0
GRID,27386,0,249.7475,0.0,-1283.27,0
GRID,27387,0,248.3979,0.0,-1285.04,0
GRID,27388,0,247.0355,0.0,-1286.8,0
GRID,27389,0,245.6605,0.0,-1288.55,0
GRID,27390,0,244.2729,0.0,-1290.29,0
GRID,27391,0,242.8727,0.0,-1292.02,0
GRID,27392,0,241.4601,0.0,-1293.74,0
GRID,27393,0,240.0351,0.0,-1295.45,0
GRID,27394,0,238.5977,0.0,-1297.15,0
GRID,27395,0,237.1481,0.0,-1298.84,0
GRID,27396,0,235.6864,0.0,-1300.52,0
GRID,27397,0,234.2126,0.0,-1302.19,0
GRID,27398,0,232.7269,0.0,-1303.84,0
GRID,27399,0,231.2292,0.0,-1305.49,0
GRID,27400,0,229.7197,0.0,-1307.13,0
GRID,27401,0,228.1985,0.0,-1308.76,0
GRID,27402,0,226.6657,0.0,-1310.37,0
GRID,27403,0,225.1213,0.0,-1311.97,0
GRID,27404,0,223.5655,0.0,-1313.57,0
GRID,27405,0,221.9881,0.0,-1315.17,0
GRID,27406,0,220.4075,0.0,-1316.76,0
GRID,27407,0,218.8235,0.0,-1318.36,0
GRID,27408,0,217.2363,0.0,-1319.95,0
GRID,27409,0,215.6566,0.0,-1321.53,0
GRID,27410,0,214.0768,0.0,-1323.11,0
GRID,27411,0,212.497,0.0,-1324.69,0
GRID,27412,0,210.9173,0.0,-1326.27,0
GRID,27413,0,209.3375,0.0,-1327.85,0
GRID,27414,0,207.7578,0.0,-1329.43,0
GRID,27415,0,206.178,0.0,-1331.01,0
GRID,27416,0,204.5982,0.0,-1332.59,0
GRID,27417,0,203.0185,0.0,-1334.17,0
GRID,27418,0,201.4266,0.0,-1335.76,0
GRID,27419,0,199.8318,0.0,-1337.34,0
GRID,27420,0,198.2341,0.0,-1338.92,0
GRID,27421,0,196.6333,0.0,-1340.5,0
GRID,27422,0,195.0297,0.0,-1342.08,0
GRID,27423,0,193.4231,0.0,-1343.65,0
GRID,27424,0,191.8137,0.0,-1345.22,0
GRID,27425,0,190.2015,0.0,-1346.79,0
GRID,27426,0,188.5864,0.0,-1348.35,0
GRID,27427,0,186.9686,0.0,-1349.91,0
GRID,27428,0,185.348,0.0,-1351.47,0
GRID,27429,0,183.7247,0.0,-1353.02,0
GRID,27430,0,182.0987,0.0,-1354.57,0
GRID,27431,0,180.4701,0.0,-1356.12,0
GRID,27432,0,178.8389,0.0,-1357.66,0
GRID,27433,0,177.205,0.0,-1359.2,0
GRID,27434,0,175.5687,0.0,-1360.74,0
GRID,27435,0,173.9298,0.0,-1362.27,0
GRID,27436,0,172.2884,0.0,-1363.8,0
GRID,27437,0,170.6446,0.0,-1365.33,0
GRID,27438,0,168.9983,0.0,-1366.85,0
GRID,27439,0,167.3497,0.0,-1368.37,0
GRID,27440,0,165.6987,0.0,-1369.88,0
GRID,27441,0,164.0455,0.0,-1371.39,0
GRID,27442,0,162.3899,0.0,-1372.9,0
GRID,27443,0,160.7321,0.0,-1374.41,0
GRID,27444,0,159.072,0.0,-1375.91,0
GRID,27445,0,157.4098,0.0,-1377.4,0
GRID,27446,0,155.7455,0.0,-1378.9,0
GRID,27447,0,154.0791,0.0,-1380.38,0
GRID,27448,0,152.4105,0.0,-1381.87,0
GRID,27449,0,150.74,0.0,-1383.35,0
GRID,27450,0,149.0675,0.0,-1384.83,0
GRID,27451,0,147.3929,0.0,-1386.3,0
GRID,27452,0,145.7165,0.0,-1387.77,0
GRID,27453,0,144.0382,0.0,-1389.24,0
GRID,27454,0,142.358,0.0,-1390.7,0
GRID,27455,0,140.676,0.0,-1392.16,0
GRID,27456,0,138.9923,0.0,-1393.61,0
GRID,27457,0,137.3068,0.0,-1395.06,0
GRID,27458,0,135.6196,0.0,-1396.51,0
GRID,27459,0,133.9307,0.0,-1397.95,0
GRID,27460,0,132.2402,0.0,-1399.39,0
GRID,27461,0,130.5481,0.0,-1400.83,0
GRID,27462,0,128.8545,0.0,-1402.26,0
GRID,27463,0,127.1593,0.0,-1403.68,0
GRID,27464,0,125.4627,0.0,-1405.11,0
GRID,27465,0,123.7646,0.0,-1406.53,0
GRID,27466,0,122.0652,0.0,-1407.94,0
GRID,27467,0,120.3521,0.0,-1409.34,0
GRID,27468,0,118.6212,0.0,-1410.73,0
GRID,27469,0,116.8729,0.0,-1412.09,0
GRID,27470,0,115.1072,0.0,-1413.43,0
GRID,27471,0,113.3245,0.0,-1414.75,0
GRID,27472,0,111.5249,0.0,-1416.05,0
GRID,27473,0,109.7088,0.0,-1417.33,0
GRID,27474,0,107.8763,0.0,-1418.58,0
GRID,27475,0,106.0278,0.0,-1419.81,0
GRID,27476,0,104.1635,0.0,-1421.01,0
GRID,27477,0,102.2838,0.0,-1422.2,0
GRID,27478,0,100.3889,0.0,-1423.36,0
GRID,27479,0,98.47919,0.0,-1424.5,0
GRID,27480,0,96.55493,0.0,-1425.61,0
GRID,27481,0,94.61643,0.0,-1426.7,0
GRID,27482,0,92.66398,0.0,-1427.76,0
GRID,27483,0,90.69787,0.0,-1428.81,0
GRID,27484,0,88.71841,0.0,-1429.82,0
GRID,27485,0,86.72591,0.0,-1430.82,0
GRID,27486,0,84.72069,0.0,-1431.78,0
GRID,27487,0,82.70306,0.0,-1432.73,0
GRID,27488,0,80.67335,0.0,-1433.64,0
GRID,27489,0,78.63185,0.0,-1434.54,0
GRID,27490,0,76.5789,0.0,-1435.4,0
GRID,27491,0,74.51481,0.0,-1436.24,0
GRID,27492,0,72.43989,0.0,-1437.06,0
GRID,27493,0,70.35447,0.0,-1437.85,0
GRID,27494,0,68.25889,0.0,-1438.61,0
GRID,27495,0,66.15347,0.0,-1439.35,0
GRID,27496,0,64.03855,0.0,-1440.06,0
GRID,27497,0,61.91445,0.0,-1440.75,0
GRID,27498,0,59.78151,0.0,-1441.41,0
GRID,27499,0,57.64007,0.0,-1442.04,0
GRID,27500,0,55.49044,0.0,-1442.64,0
GRID,27501,0,53.33298,0.0,-1443.22,0
GRID,27502,0,51.16801,0.0,-1443.77,0
GRID,27503,0,48.99589,0.0,-1444.3,0
GRID,27504,0,46.81696,0.0,-1444.8,0
GRID,27505,0,44.63156,0.0,-1445.27,0
GRID,27506,0,42.44003,0.0,-1445.71,0
GRID,27507,0,40.24271,0.0,-1446.13,0
GRID,27508,0,38.03996,0.0,-1446.52,0
GRID,27509,0,35.83211,0.0,-1446.88,0
GRID,27510,0,33.61951,0.0,-1447.21,0
GRID,27511,0,31.40252,0.0,-1447.52,0
GRID,27512,0,29.18148,0.0,-1447.8,0
GRID,27513,0,26.95675,0.0,-1448.05,0
GRID,27514,0,24.72868,0.0,-1448.27,0
GRID,27515,0,22.49762,0.0,-1448.46,0
GRID,27516,0,20.26391,0.0,-1448.63,0
GRID,27517,0,18.02792,0.0,-1448.77,0
GRID,27518,0,15.78999,0.0,-1448.88,0
GRID,27519,0,13.55048,0.0,-1448.97,0
GRID,27520,0,11.30974,0.0,-1449.02,0
GRID,27521,0,9.068127,0.0,-1449.05,0
GRID,27522,0,6.82599,0.0,-1449.05,0
GRID,27523,0,4.583688,0.0,-1449.02,0
GRID,27524,0,2.341573,0.0,-1448.96,0
GRID,27525,0,314.4133,0.0,-1052.34,0
GRID,27526,0,314.4133,0.0,-1054.68,0
GRID,27527,0,314.4133,0.0,-1057.03,0
GRID,27528,0,314.4133,0.0,-1059.37,0
GRID,27529,0,314.4133,0.0,-1061.71,0
GRID,27530,0,314.4133,0.0,-1064.05,0
GRID,27531,0,314.4133,0.0,-1066.39,0
GRID,27532,0,314.4072,0.0,-1068.6,0
GRID,27533,0,314.3896,0.0,-1070.81,0
GRID,27534,0,314.3604,0.0,-1073.03,0
GRID,27535,0,314.3195,0.0,-1075.24,0
GRID,27536,0,314.2671,0.0,-1077.45,0
GRID,27537,0,314.2031,0.0,-1079.66,0
GRID,27538,0,314.1275,0.0,-1081.87,0
GRID,27539,0,314.0402,0.0,-1084.07,0
GRID,27540,0,313.9414,0.0,-1086.28,0
GRID,27541,0,313.8309,0.0,-1088.49,0
GRID,27542,0,313.7088,0.0,-1090.7,0
GRID,27543,0,313.575,0.0,-1092.9,0
GRID,27544,0,313.4296,0.0,-1095.11,0
GRID,27545,0,313.2726,0.0,-1097.31,0
GRID,27546,0,313.1039,0.0,-1099.52,0
GRID,27547,0,312.9237,0.0,-1101.72,0
GRID,27548,0,312.7318,0.0,-1103.92,0
GRID,27549,0,312.5284,0.0,-1106.12,0
GRID,27550,0,312.3134,0.0,-1108.32,0
GRID,27551,0,312.0869,0.0,-1110.51,0
GRID,27552,0,311.8488,0.0,-1112.71,0
GRID,27553,0,311.5991,0.0,-1114.9,0
GRID,27554,0,311.338,0.0,-1117.09,0
GRID,27555,0,311.0653,0.0,-1119.28,0
GRID,27556,0,310.7811,0.0,-1121.47,0
GRID,27557,0,310.4854,0.0,-1123.66,0
GRID,27558,0,310.1782,0.0,-1125.84,0
GRID,27559,0,309.8596,0.0,-1128.03,0
GRID,27560,0,309.5295,0.0,-1130.21,0
GRID,27561,0,309.1879,0.0,-1132.39,0
GRID,27562,0,308.8349,0.0,-1134.56,0
GRID,27563,0,308.4705,0.0,-1136.74,0
GRID,27564,0,308.0947,0.0,-1138.91,0
GRID,27565,0,307.7075,0.0,-1141.08,0
GRID,27566,0,307.3089,0.0,-1143.24,0
GRID,27567,0,306.899,0.0,-1145.41,0
GRID,27568,0,306.4777,0.0,-1147.57,0
GRID,27569,0,306.0452,0.0,-1149.73,0
GRID,27570,0,305.6013,0.0,-1151.88,0
GRID,27571,0,305.1461,0.0,-1154.04,0
GRID,27572,0,304.6797,0.0,-1156.19,0
GRID,27573,0,304.202,0.0,-1158.33,0
GRID,27574,0,303.7131,0.0,-1160.48,0
GRID,27575,0,303.213,0.0,-1162.62,0
GRID,27576,0,302.7017,0.0,-1164.75,0
GRID,27577,0,302.1793,0.0,-1166.89,0
GRID,27578,0,301.6457,0.0,-1169.02,0
GRID,27579,0,301.101,0.0,-1171.15,0
GRID,27580,0,300.5431,0.0,-1173.27,0
GRID,27581,0,299.9701,0.0,-1175.39,0
GRID,27582,0,299.3821,0.0,-1177.51,0
GRID,27583,0,298.779,0.0,-1179.62,0
GRID,27584,0,298.1608,0.0,-1181.73,0
GRID,27585,0,297.5276,0.0,-1183.83,0
GRID,27586,0,296.8795,0.0,-1185.93,0
GRID,27587,0,296.2163,0.0,-1188.03,0
GRID,27588,0,295.5382,0.0,-1190.12,0
GRID,27589,0,294.8452,0.0,-1192.21,0
GRID,27590,0,294.1373,0.0,-1194.29,0
GRID,27591,0,293.4146,0.0,-1196.37,0
GRID,27592,0,292.677,0.0,-1198.44,0
GRID,27593,0,291.9247,0.0,-1200.51,0
GRID,27594,0,291.1577,0.0,-1202.57,0
GRID,27595,0,290.3759,0.0,-1204.63,0
GRID,27596,0,289.5795,0.0,-1206.68,0
GRID,27597,0,288.7684,0.0,-1208.73,0
GRID,27598,0,287.9427,0.0,-1210.77,0
GRID,27599,0,287.1025,0.0,-1212.81,0
GRID,27600,0,286.2477,0.0,-1214.84,0
GRID,27601,0,285.3785,0.0,-1216.86,0
GRID,27602,0,284.4948,0.0,-1218.88,0
GRID,27603,0,283.5968,0.0,-1220.89,0
GRID,27604,0,282.6843,0.0,-1222.9,0
GRID,27605,0,281.7576,0.0,-1224.9,0
GRID,27606,0,280.8166,0.0,-1226.89,0
GRID,27607,0,279.8614,0.0,-1228.88,0
GRID,27608,0,278.892,0.0,-1230.86,0
GRID,27609,0,277.9085,0.0,-1232.83,0
GRID,27610,0,276.911,0.0,-1234.8,0
GRID,27611,0,275.8994,0.0,-1236.76,0
GRID,27612,0,274.8738,0.0,-1238.71,0
GRID,27613,0,273.8342,0.0,-1240.66,0
GRID,27614,0,272.7808,0.0,-1242.6,0
GRID,27615,0,271.7136,0.0,-1244.53,0
GRID,27616,0,270.6326,0.0,-1246.45,0
GRID,27617,0,269.5378,0.0,-1248.37,0
GRID,27618,0,268.4294,0.0,-1250.28,0
GRID,27619,0,267.3074,0.0,-1252.18,0
GRID,27620,0,266.1719,0.0,-1254.07,0
GRID,27621,0,265.0228,0.0,-1255.95,0
GRID,27622,0,263.8603,0.0,-1257.83,0
GRID,27623,0,262.6845,0.0,-1259.7,0
GRID,27624,0,261.4953,0.0,-1261.56,0
GRID,27625,0,260.2928,0.0,-1263.41,0
GRID,27626,0,259.0771,0.0,-1265.26,0
GRID,27627,0,257.8483,0.0,-1267.09,0
GRID,27628,0,256.6064,0.0,-1268.92,0
GRID,27629,0,255.3515,0.0,-1270.74,0
GRID,27630,0,254.0836,0.0,-1272.55,0
GRID,27631,0,252.8029,0.0,-1274.35,0
GRID,27632,0,251.5093,0.0,-1276.14,0
GRID,27633,0,250.2029,0.0,-1277.92,0
GRID,27634,0,248.8839,0.0,-1279.69,0
GRID,27635,0,247.5522,0.0,-1281.45,0
GRID,27636,0,246.208,0.0,-1283.21,0
GRID,27637,0,244.8513,0.0,-1284.95,0
GRID,27638,0,243.4822,0.0,-1286.69,0
GRID,27639,0,242.1007,0.0,-1288.41,0
GRID,27640,0,240.707,0.0,-1290.13,0
GRID,27641,0,239.301,0.0,-1291.84,0
GRID,27642,0,237.8828,0.0,-1293.53,0
GRID,27643,0,236.4526,0.0,-1295.22,0
GRID,27644,0,235.0104,0.0,-1296.89,0
GRID,27645,0,233.5563,0.0,-1298.56,0
GRID,27646,0,232.0903,0.0,-1300.21,0
GRID,27647,0,230.6126,0.0,-1301.86,0
GRID,27648,0,229.1232,0.0,-1303.49,0
GRID,27649,0,227.6223,0.0,-1305.12,0
GRID,27650,0,226.1098,0.0,-1306.73,0
GRID,27651,0,224.5859,0.0,-1308.33,0
GRID,27652,0,223.0507,0.0,-1309.92,0
GRID,27653,0,221.5043,0.0,-1311.5,0
GRID,27654,0,219.9364,0.0,-1313.09,0
GRID,27655,0,218.3655,0.0,-1314.68,0
GRID,27656,0,216.7916,0.0,-1316.26,0
GRID,27657,0,215.215,0.0,-1317.84,0
GRID,27658,0,213.6449,0.0,-1319.41,0
GRID,27659,0,212.0748,0.0,-1320.98,0
GRID,27660,0,210.5047,0.0,-1322.55,0
GRID,27661,0,208.9346,0.0,-1324.12,0
GRID,27662,0,207.3645,0.0,-1325.69,0
GRID,27663,0,205.7944,0.0,-1327.26,0
GRID,27664,0,204.2243,0.0,-1328.83,0
GRID,27665,0,202.6543,0.0,-1330.4,0
GRID,27666,0,201.0842,0.0,-1331.97,0
GRID,27667,0,199.5034,0.0,-1333.55,0
GRID,27668,0,197.9199,0.0,-1335.12,0
GRID,27669,0,196.3338,0.0,-1336.7,0
GRID,27670,0,194.7451,0.0,-1338.27,0
GRID,27671,0,193.1538,0.0,-1339.83,0
GRID,27672,0,191.5599,0.0,-1341.4,0
GRID,27673,0,189.9634,0.0,-1342.96,0
GRID,27674,0,188.3645,0.0,-1344.52,0
GRID,27675,0,186.763,0.0,-1346.07,0
GRID,27676,0,185.1591,0.0,-1347.62,0
GRID,27677,0,183.5527,0.0,-1349.17,0
GRID,27678,0,181.9439,0.0,-1350.72,0
GRID,27679,0,180.3327,0.0,-1352.26,0
GRID,27680,0,178.7192,0.0,-1353.8,0
GRID,27681,0,177.1034,0.0,-1355.34,0
GRID,27682,0,175.4852,0.0,-1356.88,0
GRID,27683,0,173.8648,0.0,-1358.41,0
GRID,27684,0,172.2422,0.0,-1359.94,0
GRID,27685,0,170.6173,0.0,-1361.46,0
GRID,27686,0,168.9903,0.0,-1362.98,0
GRID,27687,0,167.3611,0.0,-1364.5,0
GRID,27688,0,165.7298,0.0,-1366.02,0
GRID,27689,0,164.0964,0.0,-1367.53,0
GRID,27690,0,162.461,0.0,-1369.04,0
GRID,27691,0,160.8235,0.0,-1370.55,0
GRID,27692,0,159.1841,0.0,-1372.05,0
GRID,27693,0,157.5426,0.0,-1373.55,0
GRID,27694,0,155.8993,0.0,-1375.04,0
GRID,27695,0,154.254,0.0,-1376.54,0
GRID,27696,0,152.6068,0.0,-1378.03,0
GRID,27697,0,150.9579,0.0,-1379.51,0
GRID,27698,0,149.3071,0.0,-1381.0,0
GRID,27699,0,147.6545,0.0,-1382.48,0
GRID,27700,0,146.0002,0.0,-1383.95,0
GRID,27701,0,144.3442,0.0,-1385.42,0
GRID,27702,0,142.6865,0.0,-1386.89,0
GRID,27703,0,141.0272,0.0,-1388.36,0
GRID,27704,0,139.3662,0.0,-1389.82,0
GRID,27705,0,137.7037,0.0,-1391.28,0
GRID,27706,0,136.0396,0.0,-1392.74,0
GRID,27707,0,134.374,0.0,-1394.19,0
GRID,27708,0,132.7069,0.0,-1395.63,0
GRID,27709,0,131.0384,0.0,-1397.08,0
GRID,27710,0,129.3685,0.0,-1398.52,0
GRID,27711,0,127.6972,0.0,-1399.96,0
GRID,27712,0,126.0245,0.0,-1401.39,0
GRID,27713,0,124.3506,0.0,-1402.82,0
GRID,27714,0,122.6753,0.0,-1404.25,0
GRID,27715,0,120.9988,0.0,-1405.67,0
GRID,27716,0,119.3086,0.0,-1407.09,0
GRID,27717,0,117.6005,0.0,-1408.48,0
GRID,27718,0,115.8747,0.0,-1409.85,0
GRID,27719,0,114.1313,0.0,-1411.2,0
GRID,27720,0,112.3708,0.0,-1412.53,0
GRID,27721,0,110.5933,0.0,-1413.84,0
GRID,27722,0,108.799,0.0,-1415.12,0
GRID,27723,0,106.9881,0.0,-1416.39,0
GRID,27724,0,105.1611,0.0,-1417.63,0
GRID,27725,0,103.3181,0.0,-1418.84,0
GRID,27726,0,101.4594,0.0,-1420.04,0
GRID,27727,0,99.58551,0.0,-1421.21,0
GRID,27728,0,97.69656,0.0,-1422.36,0
GRID,27729,0,95.7929,0.0,-1423.48,0
GRID,27730,0,93.87482,0.0,-1424.58,0
GRID,27731,0,91.9426,0.0,-1425.66,0
GRID,27732,0,89.99657,0.0,-1426.71,0
GRID,27733,0,88.037,0.0,-1427.73,0
GRID,27734,0,86.06423,0.0,-1428.74,0
GRID,27735,0,84.07857,0.0,-1429.72,0
GRID,27736,0,82.08033,0.0,-1430.67,0
GRID,27737,0,80.06983,0.0,-1431.6,0
GRID,27738,0,78.04739,0.0,-1432.5,0
GRID,27739,0,76.01333,0.0,-1433.38,0
GRID,27740,0,73.96795,0.0,-1434.23,0
GRID,27741,0,71.91159,0.0,-1435.06,0
GRID,27742,0,69.84456,0.0,-1435.86,0
GRID,27743,0,67.76721,0.0,-1436.64,0
GRID,27744,0,65.67985,0.0,-1437.38,0
GRID,27745,0,63.58284,0.0,-1438.11,0
GRID,27746,0,61.47649,0.0,-1438.8,0
GRID,27747,0,59.36114,0.0,-1439.47,0
GRID,27748,0,57.23713,0.0,-1440.12,0
GRID,27749,0,55.10478,0.0,-1440.74,0
GRID,27750,0,52.96444,0.0,-1441.33,0
GRID,27751,0,50.81645,0.0,-1441.89,0
GRID,27752,0,48.66115,0.0,-1442.43,0
GRID,27753,0,46.49889,0.0,-1442.94,0
GRID,27754,0,44.33001,0.0,-1443.42,0
GRID,27755,0,42.15485,0.0,-1443.87,0
GRID,27756,0,39.97377,0.0,-1444.3,0
GRID,27757,0,37.7871,0.0,-1444.7,0
GRID,27758,0,35.59519,0.0,-1445.08,0
GRID,27759,0,33.39839,0.0,-1445.42,0
GRID,27760,0,31.19706,0.0,-1445.74,0
GRID,27761,0,28.99154,0.0,-1446.03,0
GRID,27762,0,26.7822,0.0,-1446.29,0
GRID,27763,0,24.56938,0.0,-1446.53,0
GRID,27764,0,22.35343,0.0,-1446.73,0
GRID,27765,0,20.13471,0.0,-1446.91,0
GRID,27766,0,17.91357,0.0,-1447.07,0
GRID,27767,0,15.69037,0.0,-1447.19,0
GRID,27768,0,13.46546,0.0,-1447.28,0
GRID,27769,0,11.23919,0.0,-1447.35,0
GRID,27770,0,9.011924,0.0,-1447.39,0
GRID,27771,0,6.784016,0.0,-1447.4,0
GRID,27772,0,4.555822,0.0,-1447.39,0
GRID,27773,0,2.327698,0.0,-1447.34,0
GRID,27774,0,312.6117,0.0,-1052.33,0
GRID,27775,0,312.6117,0.0,-1054.66,0
GRID,27776,0,312.6117,0.0,-1056.99,0
GRID,27777,0,312.6117,0.0,-1059.32,0
GRID,27778,0,312.6117,0.0,-1061.64,0
GRID,27779,0,312.6117,0.0,-1063.97,0
GRID,27780,0,312.6117,0.0,-1066.3,0
GRID,27781,0,312.6055,0.0,-1068.5,0
GRID,27782,0,312.5875,0.0,-1070.69,0
GRID,27783,0,312.5577,0.0,-1072.89,0
GRID,27784,0,312.5161,0.0,-1075.08,0
GRID,27785,0,312.4626,0.0,-1077.28,0
GRID,27786,0,312.3974,0.0,-1079.47,0
GRID,27787,0,312.3203,0.0,-1081.67,0
GRID,27788,0,312.2314,0.0,-1083.86,0
GRID,27789,0,312.1306,0.0,-1086.05,0
GRID,27790,0,312.018,0.0,-1088.25,0
GRID,27791,0,311.8936,0.0,-1090.44,0
GRID,27792,0,311.7572,0.0,-1092.63,0
GRID,27793,0,311.609,0.0,-1094.82,0
GRID,27794,0,311.449,0.0,-1097.01,0
GRID,27795,0,311.2771,0.0,-1099.19,0
GRID,27796,0,311.0933,0.0,-1101.38,0
GRID,27797,0,310.8978,0.0,-1103.56,0
GRID,27798,0,310.6905,0.0,-1105.75,0
GRID,27799,0,310.4714,0.0,-1107.93,0
GRID,27800,0,310.2405,0.0,-1110.11,0
GRID,27801,0,309.9978,0.0,-1112.29,0
GRID,27802,0,309.7433,0.0,-1114.47,0
GRID,27803,0,309.4772,0.0,-1116.65,0
GRID,27804,0,309.1992,0.0,-1118.82,0
GRID,27805,0,308.9096,0.0,-1120.99,0
GRID,27806,0,308.6082,0.0,-1123.16,0
GRID,27807,0,308.2951,0.0,-1125.33,0
GRID,27808,0,307.9703,0.0,-1127.5,0
GRID,27809,0,307.6339,0.0,-1129.66,0
GRID,27810,0,307.2857,0.0,-1131.83,0
GRID,27811,0,306.9259,0.0,-1133.99,0
GRID,27812,0,306.5545,0.0,-1136.14,0
GRID,27813,0,306.1715,0.0,-1138.3,0
GRID,27814,0,305.7768,0.0,-1140.45,0
GRID,27815,0,305.3706,0.0,-1142.6,0
GRID,27816,0,304.9528,0.0,-1144.75,0
GRID,27817,0,304.5235,0.0,-1146.9,0
GRID,27818,0,304.0826,0.0,-1149.04,0
GRID,27819,0,303.6302,0.0,-1151.18,0
GRID,27820,0,303.1663,0.0,-1153.31,0
GRID,27821,0,302.6909,0.0,-1155.45,0
GRID,27822,0,302.204,0.0,-1157.58,0
GRID,27823,0,301.7057,0.0,-1159.7,0
GRID,27824,0,301.196,0.0,-1161.83,0
GRID,27825,0,300.6748,0.0,-1163.95,0
GRID,27826,0,300.1423,0.0,-1166.07,0
GRID,27827,0,299.5985,0.0,-1168.18,0
GRID,27828,0,299.0433,0.0,-1170.29,0
GRID,27829,0,298.475,0.0,-1172.4,0
GRID,27830,0,297.8919,0.0,-1174.5,0
GRID,27831,0,297.294,0.0,-1176.6,0
GRID,27832,0,296.6813,0.0,-1178.69,0
GRID,27833,0,296.0539,0.0,-1180.79,0
GRID,27834,0,295.4118,0.0,-1182.87,0
GRID,27835,0,294.7549,0.0,-1184.96,0
GRID,27836,0,294.0834,0.0,-1187.03,0
GRID,27837,0,293.3972,0.0,-1189.11,0
GRID,27838,0,292.6964,0.0,-1191.18,0
GRID,27839,0,291.981,0.0,-1193.24,0
GRID,27840,0,291.2511,0.0,-1195.3,0
GRID,27841,0,290.5067,0.0,-1197.36,0
GRID,27842,0,289.7477,0.0,-1199.41,0
GRID,27843,0,288.9744,0.0,-1201.45,0
GRID,27844,0,288.1866,0.0,-1203.49,0
GRID,27845,0,287.3845,0.0,-1205.53,0
GRID,27846,0,286.568,0.0,-1207.56,0
GRID,27847,0,285.7372,0.0,-1209.58,0
GRID,27848,0,284.8921,0.0,-1211.6,0
GRID,27849,0,284.0328,0.0,-1213.61,0
GRID,27850,0,283.1593,0.0,-1215.62,0
GRID,27851,0,282.2717,0.0,-1217.62,0
GRID,27852,0,281.3699,0.0,-1219.61,0
GRID,27853,0,280.4541,0.0,-1221.6,0
GRID,27854,0,279.5243,0.0,-1223.58,0
GRID,27855,0,278.5805,0.0,-1225.56,0
GRID,27856,0,277.6228,0.0,-1227.53,0
GRID,27857,0,276.6512,0.0,-1229.49,0
GRID,27858,0,275.6658,0.0,-1231.45,0
GRID,27859,0,274.6666,0.0,-1233.4,0
GRID,27860,0,273.6536,0.0,-1235.34,0
GRID,27861,0,272.627,0.0,-1237.28,0
GRID,27862,0,271.5866,0.0,-1239.2,0
GRID,27863,0,270.5327,0.0,-1241.12,0
GRID,27864,0,269.4653,0.0,-1243.04,0
GRID,27865,0,268.3843,0.0,-1244.95,0
GRID,27866,0,267.2899,0.0,-1246.84,0
GRID,27867,0,266.1822,0.0,-1248.74,0
GRID,27868,0,265.0611,0.0,-1250.62,0
GRID,27869,0,263.9267,0.0,-1252.5,0
GRID,27870,0,262.7791,0.0,-1254.36,0
GRID,27871,0,261.6183,0.0,-1256.22,0
GRID,27872,0,260.4444,0.0,-1258.08,0
GRID,27873,0,259.2575,0.0,-1259.92,0
GRID,27874,0,258.0576,0.0,-1261.76,0
GRID,27875,0,256.8447,0.0,-1263.58,0
GRID,27876,0,255.619,0.0,-1265.4,0
GRID,27877,0,254.3804,0.0,-1267.21,0
GRID,27878,0,253.1291,0.0,-1269.01,0
GRID,27879,0,251.8651,0.0,-1270.81,0
GRID,27880,0,250.5885,0.0,-1272.59,0
GRID,27881,0,249.2993,0.0,-1274.37,0
GRID,27882,0,247.9976,0.0,-1276.13,0
GRID,27883,0,246.6835,0.0,-1277.89,0
GRID,27884,0,245.357,0.0,-1279.64,0
GRID,27885,0,244.0182,0.0,-1281.38,0
GRID,27886,0,242.6671,0.0,-1283.11,0
GRID,27887,0,241.3039,0.0,-1284.83,0
GRID,27888,0,239.9286,0.0,-1286.54,0
GRID,27889,0,238.5412,0.0,-1288.24,0
GRID,27890,0,237.1419,0.0,-1289.93,0
GRID,27891,0,235.7306,0.0,-1291.61,0
GRID,27892,0,234.3075,0.0,-1293.28,0
GRID,27893,0,232.8727,0.0,-1294.95,0
GRID,27894,0,231.4261,0.0,-1296.6,0
GRID,27895,0,229.968,0.0,-1298.24,0
GRID,27896,0,228.4983,0.0,-1299.87,0
GRID,27897,0,227.0173,0.0,-1301.49,0
GRID,27898,0,225.5248,0.0,-1303.1,0
GRID,27899,0,224.0211,0.0,-1304.7,0
GRID,27900,0,222.5062,0.0,-1306.29,0
GRID,27901,0,220.9802,0.0,-1307.87,0
GRID,27902,0,219.4431,0.0,-1309.44,0
GRID,27903,0,217.8846,0.0,-1311.01,0
GRID,27904,0,216.3234,0.0,-1312.59,0
GRID,27905,0,214.7598,0.0,-1314.16,0
GRID,27906,0,213.1936,0.0,-1315.73,0
GRID,27907,0,211.6332,0.0,-1317.29,0
GRID,27908,0,210.0728,0.0,-1318.85,0
GRID,27909,0,208.5124,0.0,-1320.41,0
GRID,27910,0,206.9519,0.0,-1321.97,0
GRID,27911,0,205.3915,0.0,-1323.53,0
GRID,27912,0,203.8311,0.0,-1325.09,0
GRID,27913,0,202.2707,0.0,-1326.65,0
GRID,27914,0,200.7103,0.0,-1328.21,0
GRID,27915,0,199.1499,0.0,-1329.77,0
GRID,27916,0,197.5801,0.0,-1331.34,0
GRID,27917,0,196.008,0.0,-1332.9,0
GRID,27918,0,194.4335,0.0,-1334.47,0
GRID,27919,0,192.8568,0.0,-1336.03,0
GRID,27920,0,191.2778,0.0,-1337.58,0
GRID,27921,0,189.6966,0.0,-1339.14,0
GRID,27922,0,188.1131,0.0,-1340.69,0
GRID,27923,0,186.5274,0.0,-1342.24,0
GRID,27924,0,184.9396,0.0,-1343.79,0
GRID,27925,0,183.3495,0.0,-1345.34,0
GRID,27926,0,181.7574,0.0,-1346.88,0
GRID,27927,0,180.1631,0.0,-1348.42,0
GRID,27928,0,178.5668,0.0,-1349.96,0
GRID,27929,0,176.9683,0.0,-1351.49,0
GRID,27930,0,175.3679,0.0,-1353.02,0
GRID,27931,0,173.7654,0.0,-1354.55,0
GRID,27932,0,172.161,0.0,-1356.08,0
GRID,27933,0,170.5546,0.0,-1357.6,0
GRID,27934,0,168.9463,0.0,-1359.12,0
GRID,27935,0,167.336,0.0,-1360.64,0
GRID,27936,0,165.7239,0.0,-1362.16,0
GRID,27937,0,164.1099,0.0,-1363.67,0
GRID,27938,0,162.4941,0.0,-1365.18,0
GRID,27939,0,160.8765,0.0,-1366.69,0
GRID,27940,0,159.2572,0.0,-1368.19,0
GRID,27941,0,157.636,0.0,-1369.69,0
GRID,27942,0,156.0132,0.0,-1371.19,0
GRID,27943,0,154.3887,0.0,-1372.69,0
GRID,27944,0,152.7625,0.0,-1374.18,0
GRID,27945,0,151.1346,0.0,-1375.67,0
GRID,27946,0,149.5052,0.0,-1377.16,0
GRID,27947,0,147.8742,0.0,-1378.64,0
GRID,27948,0,146.2416,0.0,-1380.12,0
GRID,27949,0,144.6075,0.0,-1381.6,0
GRID,27950,0,142.9719,0.0,-1383.08,0
GRID,27951,0,141.3348,0.0,-1384.55,0
GRID,27952,0,139.6963,0.0,-1386.02,0
GRID,27953,0,138.0564,0.0,-1387.48,0
GRID,27954,0,136.4151,0.0,-1388.95,0
GRID,27955,0,134.7724,0.0,-1390.41,0
GRID,27956,0,133.1285,0.0,-1391.86,0
GRID,27957,0,131.4832,0.0,-1393.32,0
GRID,27958,0,129.8367,0.0,-1394.77,0
GRID,27959,0,128.1889,0.0,-1396.21,0
GRID,27960,0,126.5399,0.0,-1397.66,0
GRID,27961,0,124.8897,0.0,-1399.1,0
GRID,27962,0,123.2384,0.0,-1400.54,0
GRID,27963,0,121.586,0.0,-1401.97,0
GRID,27964,0,119.9325,0.0,-1403.4,0
GRID,27965,0,118.2652,0.0,-1404.83,0
GRID,27966,0,116.5798,0.0,-1406.23,0
GRID,27967,0,114.8764,0.0,-1407.61,0
GRID,27968,0,113.1555,0.0,-1408.97,0
GRID,27969,0,111.4171,0.0,-1410.31,0
GRID,27970,0,109.6616,0.0,-1411.63,0
GRID,27971,0,107.8891,0.0,-1412.92,0
GRID,27972,0,106.0999,0.0,-1414.19,0
GRID,27973,0,104.2943,0.0,-1415.44,0
GRID,27974,0,102.4726,0.0,-1416.67,0
GRID,27975,0,100.6351,0.0,-1417.88,0
GRID,27976,0,98.78212,0.0,-1419.06,0
GRID,27977,0,96.91394,0.0,-1420.21,0
GRID,27978,0,95.03087,0.0,-1421.35,0
GRID,27979,0,93.1332,0.0,-1422.46,0
GRID,27980,0,91.22123,0.0,-1423.55,0
GRID,27981,0,89.29526,0.0,-1424.61,0
GRID,27982,0,87.3556,0.0,-1425.65,0
GRID,27983,0,85.40255,0.0,-1426.66,0
GRID,27984,0,83.43645,0.0,-1427.65,0
GRID,27985,0,81.4576,0.0,-1428.61,0
GRID,27986,0,79.46632,0.0,-1429.55,0
GRID,27987,0,77.46293,0.0,-1430.47,0
GRID,27988,0,75.44775,0.0,-1431.36,0
GRID,27989,0,73.42109,0.0,-1432.22,0
GRID,27990,0,71.38328,0.0,-1433.06,0
GRID,27991,0,69.33465,0.0,-1433.87,0
GRID,27992,0,67.27552,0.0,-1434.66,0
GRID,27993,0,65.20624,0.0,-1435.42,0
GRID,27994,0,63.12713,0.0,-1436.15,0
GRID,27995,0,61.03853,0.0,-1436.86,0
GRID,27996,0,58.94077,0.0,-1437.54,0
GRID,27997,0,56.83419,0.0,-1438.2,0
GRID,27998,0,54.71913,0.0,-1438.83,0
GRID,27999,0,52.59591,0.0,-1439.43,0
GRID,28000,0,50.46489,0.0,-1440.01,0
GRID,28001,0,48.32641,0.0,-1440.55,0
GRID,28002,0,46.18081,0.0,-1441.07,0
GRID,28003,0,44.02846,0.0,-1441.57,0
GRID,28004,0,41.86968,0.0,-1442.04,0
GRID,28005,0,39.70482,0.0,-1442.48,0
GRID,28006,0,37.53423,0.0,-1442.89,0
GRID,28007,0,35.35827,0.0,-1443.27,0
GRID,28008,0,33.17727,0.0,-1443.63,0
GRID,28009,0,30.9916,0.0,-1443.96,0
GRID,28010,0,28.80161,0.0,-1444.26,0
GRID,28011,0,26.60765,0.0,-1444.54,0
GRID,28012,0,24.41007,0.0,-1444.79,0
GRID,28013,0,22.20924,0.0,-1445.0,0
GRID,28014,0,20.00551,0.0,-1445.2,0
GRID,28015,0,17.79922,0.0,-1445.36,0
GRID,28016,0,15.59075,0.0,-1445.49,0
GRID,28017,0,13.38043,0.0,-1445.6,0
GRID,28018,0,11.16864,0.0,-1445.68,0
GRID,28019,0,8.955722,0.0,-1445.73,0
GRID,28020,0,6.742042,0.0,-1445.76,0
GRID,28021,0,4.527956,0.0,-1445.75,0
GRID,28022,0,2.313823,0.0,-1445.72,0
GRID,28023,0,310.81,0.0,-1052.32,0
GRID,28024,0,310.81,0.0,-1054.63,0
GRID,28025,0,310.81,0.0,-1056.95,0
GRID,28026,0,310.81,0.0,-1059.26,0
GRID,28027,0,310.81,0.0,-1061.58,0
GRID,28028,0,310.81,0.0,-1063.9,0
GRID,28029,0,310.81,0.0,-1066.21,0
GRID,28030,0,310.8037,0.0,-1068.39,0
GRID,28031,0,310.7853,0.0,-1070.57,0
GRID,28032,0,310.755,0.0,-1072.75,0
GRID,28033,0,310.7126,0.0,-1074.93,0
GRID,28034,0,310.6582,0.0,-1077.11,0
GRID,28035,0,310.5917,0.0,-1079.29,0
GRID,28036,0,310.5131,0.0,-1081.47,0
GRID,28037,0,310.4225,0.0,-1083.65,0
GRID,28038,0,310.3199,0.0,-1085.82,0
GRID,28039,0,310.2052,0.0,-1088.0,0
GRID,28040,0,310.0783,0.0,-1090.18,0
GRID,28041,0,309.9394,0.0,-1092.35,0
GRID,28042,0,309.7885,0.0,-1094.53,0
GRID,28043,0,309.6254,0.0,-1096.7,0
GRID,28044,0,309.4502,0.0,-1098.87,0
GRID,28045,0,309.263,0.0,-1101.04,0
GRID,28046,0,309.0638,0.0,-1103.21,0
GRID,28047,0,308.8526,0.0,-1105.38,0
GRID,28048,0,308.6293,0.0,-1107.55,0
GRID,28049,0,308.394,0.0,-1109.71,0
GRID,28050,0,308.1468,0.0,-1111.88,0
GRID,28051,0,307.8876,0.0,-1114.04,0
GRID,28052,0,307.6164,0.0,-1116.2,0
GRID,28053,0,307.3332,0.0,-1118.36,0
GRID,28054,0,307.0381,0.0,-1120.51,0
GRID,28055,0,306.731,0.0,-1122.67,0
GRID,28056,0,306.412,0.0,-1124.82,0
GRID,28057,0,306.0811,0.0,-1126.97,0
GRID,28058,0,305.7383,0.0,-1129.12,0
GRID,28059,0,305.3836,0.0,-1131.27,0
GRID,28060,0,305.017,0.0,-1133.41,0
GRID,28061,0,304.6386,0.0,-1135.55,0
GRID,28062,0,304.2483,0.0,-1137.69,0
GRID,28063,0,303.8462,0.0,-1139.83,0
GRID,28064,0,303.4323,0.0,-1141.96,0
GRID,28065,0,303.0066,0.0,-1144.09,0
GRID,28066,0,302.5692,0.0,-1146.22,0
GRID,28067,0,302.12,0.0,-1148.35,0
GRID,28068,0,301.659,0.0,-1150.47,0
GRID,28069,0,301.1864,0.0,-1152.59,0
GRID,28070,0,300.702,0.0,-1154.71,0
GRID,28071,0,300.206,0.0,-1156.82,0
GRID,28072,0,299.6983,0.0,-1158.93,0
GRID,28073,0,299.1789,0.0,-1161.04,0
GRID,28074,0,298.648,0.0,-1163.14,0
GRID,28075,0,298.1054,0.0,-1165.24,0
GRID,28076,0,297.5513,0.0,-1167.34,0
GRID,28077,0,296.9856,0.0,-1169.43,0
GRID,28078,0,296.4069,0.0,-1171.52,0
GRID,28079,0,295.8137,0.0,-1173.61,0
GRID,28080,0,295.2059,0.0,-1175.69,0
GRID,28081,0,294.5837,0.0,-1177.77,0
GRID,28082,0,293.947,0.0,-1179.84,0
GRID,28083,0,293.2959,0.0,-1181.91,0
GRID,28084,0,292.6304,0.0,-1183.98,0
GRID,28085,0,291.9505,0.0,-1186.04,0
GRID,28086,0,291.2562,0.0,-1188.1,0
GRID,28087,0,290.5476,0.0,-1190.15,0
GRID,28088,0,289.8247,0.0,-1192.2,0
GRID,28089,0,289.0876,0.0,-1194.24,0
GRID,28090,0,288.3363,0.0,-1196.28,0
GRID,28091,0,287.5708,0.0,-1198.31,0
GRID,28092,0,286.7911,0.0,-1200.34,0
GRID,28093,0,285.9973,0.0,-1202.36,0
GRID,28094,0,285.1894,0.0,-1204.38,0
GRID,28095,0,284.3675,0.0,-1206.39,0
GRID,28096,0,283.5316,0.0,-1208.39,0
GRID,28097,0,282.6817,0.0,-1210.39,0
GRID,28098,0,281.8178,0.0,-1212.39,0
GRID,28099,0,280.9401,0.0,-1214.38,0
GRID,28100,0,280.0485,0.0,-1216.36,0
GRID,28101,0,279.1431,0.0,-1218.34,0
GRID,28102,0,278.2239,0.0,-1220.31,0
GRID,28103,0,277.291,0.0,-1222.27,0
GRID,28104,0,276.3445,0.0,-1224.23,0
GRID,28105,0,275.3842,0.0,-1226.18,0
GRID,28106,0,274.4104,0.0,-1228.13,0
GRID,28107,0,273.4231,0.0,-1230.06,0
GRID,28108,0,272.4222,0.0,-1232.0,0
GRID,28109,0,271.4079,0.0,-1233.92,0
GRID,28110,0,270.3802,0.0,-1235.84,0
GRID,28111,0,269.3391,0.0,-1237.75,0
GRID,28112,0,268.2846,0.0,-1239.65,0
GRID,28113,0,267.217,0.0,-1241.55,0
GRID,28114,0,266.1361,0.0,-1243.44,0
GRID,28115,0,265.042,0.0,-1245.32,0
GRID,28116,0,263.9349,0.0,-1247.2,0
GRID,28117,0,262.8147,0.0,-1249.06,0
GRID,28118,0,261.6815,0.0,-1250.92,0
GRID,28119,0,260.5353,0.0,-1252.77,0
GRID,28120,0,259.3763,0.0,-1254.62,0
GRID,28121,0,258.2044,0.0,-1256.45,0
GRID,28122,0,257.0197,0.0,-1258.28,0
GRID,28123,0,255.8224,0.0,-1260.1,0
GRID,28124,0,254.6123,0.0,-1261.91,0
GRID,28125,0,253.3896,0.0,-1263.71,0
GRID,28126,0,252.1544,0.0,-1265.51,0
GRID,28127,0,250.9067,0.0,-1267.29,0
GRID,28128,0,249.6466,0.0,-1269.07,0
GRID,28129,0,248.3741,0.0,-1270.84,0
GRID,28130,0,247.0893,0.0,-1272.6,0
GRID,28131,0,245.7922,0.0,-1274.35,0
GRID,28132,0,244.483,0.0,-1276.09,0
GRID,28133,0,243.1617,0.0,-1277.82,0
GRID,28134,0,241.8283,0.0,-1279.55,0
GRID,28135,0,240.4829,0.0,-1281.26,0
GRID,28136,0,239.1256,0.0,-1282.97,0
GRID,28137,0,237.7565,0.0,-1284.66,0
GRID,28138,0,236.3755,0.0,-1286.35,0
GRID,28139,0,234.9828,0.0,-1288.03,0
GRID,28140,0,233.5784,0.0,-1289.69,0
GRID,28141,0,232.1624,0.0,-1291.35,0
GRID,28142,0,230.7349,0.0,-1293.0,0
GRID,28143,0,229.296,0.0,-1294.64,0
GRID,28144,0,227.8457,0.0,-1296.26,0
GRID,28145,0,226.3841,0.0,-1297.88,0
GRID,28146,0,224.9113,0.0,-1299.49,0
GRID,28147,0,223.4273,0.0,-1301.09,0
GRID,28148,0,221.9324,0.0,-1302.67,0
GRID,28149,0,220.4264,0.0,-1304.25,0
GRID,28150,0,218.9096,0.0,-1305.82,0
GRID,28151,0,217.3819,0.0,-1307.37,0
GRID,28152,0,215.8328,0.0,-1308.94,0
GRID,28153,0,214.2814,0.0,-1310.5,0
GRID,28154,0,212.7279,0.0,-1312.06,0
GRID,28155,0,211.1722,0.0,-1313.62,0
GRID,28156,0,209.6215,0.0,-1315.17,0
GRID,28157,0,208.0707,0.0,-1316.72,0
GRID,28158,0,206.52,0.0,-1318.27,0
GRID,28159,0,204.9693,0.0,-1319.82,0
GRID,28160,0,203.4185,0.0,-1321.37,0
GRID,28161,0,201.8678,0.0,-1322.92,0
GRID,28162,0,200.3171,0.0,-1324.47,0
GRID,28163,0,198.7663,0.0,-1326.02,0
GRID,28164,0,197.2156,0.0,-1327.57,0
GRID,28165,0,195.6568,0.0,-1329.13,0
GRID,28166,0,194.096,0.0,-1330.69,0
GRID,28167,0,192.5333,0.0,-1332.24,0
GRID,28168,0,190.9686,0.0,-1333.79,0
GRID,28169,0,189.4019,0.0,-1335.34,0
GRID,28170,0,187.8333,0.0,-1336.88,0
GRID,28171,0,186.2628,0.0,-1338.43,0
GRID,28172,0,184.6904,0.0,-1339.97,0
GRID,28173,0,183.1162,0.0,-1341.51,0
GRID,28174,0,181.54,0.0,-1343.05,0
GRID,28175,0,179.9621,0.0,-1344.58,0
GRID,28176,0,178.3823,0.0,-1346.12,0
GRID,28177,0,176.8008,0.0,-1347.65,0
GRID,28178,0,175.2175,0.0,-1349.18,0
GRID,28179,0,173.6324,0.0,-1350.7,0
GRID,28180,0,172.0456,0.0,-1352.23,0
GRID,28181,0,170.4571,0.0,-1353.75,0
GRID,28182,0,168.867,0.0,-1355.27,0
GRID,28183,0,167.2752,0.0,-1356.78,0
GRID,28184,0,165.6817,0.0,-1358.3,0
GRID,28185,0,164.0867,0.0,-1359.81,0
GRID,28186,0,162.49,0.0,-1361.32,0
GRID,28187,0,160.8918,0.0,-1362.83,0
GRID,28188,0,159.2921,0.0,-1364.33,0
GRID,28189,0,157.6908,0.0,-1365.84,0
GRID,28190,0,156.088,0.0,-1367.34,0
GRID,28191,0,154.4838,0.0,-1368.83,0
GRID,28192,0,152.8781,0.0,-1370.33,0
GRID,28193,0,151.271,0.0,-1371.82,0
GRID,28194,0,149.6624,0.0,-1373.31,0
GRID,28195,0,148.0525,0.0,-1374.8,0
GRID,28196,0,146.4413,0.0,-1376.29,0
GRID,28197,0,144.8287,0.0,-1377.77,0
GRID,28198,0,143.2148,0.0,-1379.25,0
GRID,28199,0,141.5996,0.0,-1380.73,0
GRID,28200,0,139.9831,0.0,-1382.2,0
GRID,28201,0,138.3655,0.0,-1383.67,0
GRID,28202,0,136.7466,0.0,-1385.14,0
GRID,28203,0,135.1265,0.0,-1386.61,0
GRID,28204,0,133.5053,0.0,-1388.08,0
GRID,28205,0,131.8829,0.0,-1389.54,0
GRID,28206,0,130.2594,0.0,-1391.0,0
GRID,28207,0,128.6349,0.0,-1392.45,0
GRID,28208,0,127.0093,0.0,-1393.91,0
GRID,28209,0,125.3826,0.0,-1395.36,0
GRID,28210,0,123.7549,0.0,-1396.81,0
GRID,28211,0,122.1263,0.0,-1398.25,0
GRID,28212,0,120.4967,0.0,-1399.7,0
GRID,28213,0,118.8662,0.0,-1401.14,0
GRID,28214,0,117.2217,0.0,-1402.57,0
GRID,28215,0,115.559,0.0,-1403.98,0
GRID,28216,0,113.8782,0.0,-1405.37,0
GRID,28217,0,112.1796,0.0,-1406.74,0
GRID,28218,0,110.4635,0.0,-1408.09,0
GRID,28219,0,108.7299,0.0,-1409.42,0
GRID,28220,0,106.9793,0.0,-1410.72,0
GRID,28221,0,105.2117,0.0,-1412.0,0
GRID,28222,0,103.4276,0.0,-1413.26,0
GRID,28223,0,101.6272,0.0,-1414.5,0
GRID,28224,0,99.81079,0.0,-1415.71,0
GRID,28225,0,97.97874,0.0,-1416.9,0
GRID,28226,0,96.13132,0.0,-1418.07,0
GRID,28227,0,94.26884,0.0,-1419.22,0
GRID,28228,0,92.39158,0.0,-1420.34,0
GRID,28229,0,90.49986,0.0,-1421.44,0
GRID,28230,0,88.59396,0.0,-1422.51,0
GRID,28231,0,86.67419,0.0,-1423.56,0
GRID,28232,0,84.74087,0.0,-1424.58,0
GRID,28233,0,82.79432,0.0,-1425.58,0
GRID,28234,0,80.83486,0.0,-1426.56,0
GRID,28235,0,78.8628,0.0,-1427.51,0
GRID,28236,0,76.87846,0.0,-1428.43,0
GRID,28237,0,74.88217,0.0,-1429.33,0
GRID,28238,0,72.87423,0.0,-1430.21,0
GRID,28239,0,70.85498,0.0,-1431.06,0
GRID,28240,0,68.82474,0.0,-1431.88,0
GRID,28241,0,66.78384,0.0,-1432.68,0
GRID,28242,0,64.73262,0.0,-1433.45,0
GRID,28243,0,62.67142,0.0,-1434.2,0
GRID,28244,0,60.60057,0.0,-1434.92,0
GRID,28245,0,58.5204,0.0,-1435.61,0
GRID,28246,0,56.43126,0.0,-1436.28,0
GRID,28247,0,54.33347,0.0,-1436.92,0
GRID,28248,0,52.22737,0.0,-1437.53,0
GRID,28249,0,50.11333,0.0,-1438.12,0
GRID,28250,0,47.99167,0.0,-1438.68,0
GRID,28251,0,45.86274,0.0,-1439.21,0
GRID,28252,0,43.72691,0.0,-1439.72,0
GRID,28253,0,41.5845,0.0,-1440.2,0
GRID,28254,0,39.43587,0.0,-1440.65,0
GRID,28255,0,37.28137,0.0,-1441.07,0
GRID,28256,0,35.12135,0.0,-1441.47,0
GRID,28257,0,32.95615,0.0,-1441.84,0
GRID,28258,0,30.78614,0.0,-1442.18,0
GRID,28259,0,28.61167,0.0,-1442.5,0
GRID,28260,0,26.43309,0.0,-1442.78,0
GRID,28261,0,24.25077,0.0,-1443.04,0
GRID,28262,0,22.06505,0.0,-1443.27,0
GRID,28263,0,19.8763,0.0,-1443.48,0
GRID,28264,0,17.68487,0.0,-1443.65,0
GRID,28265,0,15.49112,0.0,-1443.8,0
GRID,28266,0,13.29541,0.0,-1443.92,0
GRID,28267,0,11.09809,0.0,-1444.01,0
GRID,28268,0,8.899519,0.0,-1444.08,0
GRID,28269,0,6.700068,0.0,-1444.11,0
GRID,28270,0,4.50009,0.0,-1444.12,0
GRID,28271,0,2.299948,0.0,-1444.1,0
GRID,28272,0,309.0083,0.0,-1052.3,0
GRID,28273,0,309.0083,0.0,-1054.61,0
GRID,28274,0,309.0083,0.0,-1056.91,0
GRID,28275,0,309.0083,0.0,-1059.21,0
GRID,28276,0,309.0083,0.0,-1061.52,0
GRID,28277,0,309.0083,0.0,-1063.82,0
GRID,28278,0,309.0083,0.0,-1066.12,0
GRID,28279,0,309.0019,0.0,-1068.29,0
GRID,28280,0,308.9832,0.0,-1070.45,0
GRID,28281,0,308.9523,0.0,-1072.62,0
GRID,28282,0,308.9091,0.0,-1074.78,0
GRID,28283,0,308.8537,0.0,-1076.94,0
GRID,28284,0,308.786,0.0,-1079.11,0
GRID,28285,0,308.706,0.0,-1081.27,0
GRID,28286,0,308.6137,0.0,-1083.43,0
GRID,28287,0,308.5091,0.0,-1085.6,0
GRID,28288,0,308.3923,0.0,-1087.76,0
GRID,28289,0,308.2631,0.0,-1089.92,0
GRID,28290,0,308.1217,0.0,-1092.08,0
GRID,28291,0,307.9679,0.0,-1094.23,0
GRID,28292,0,307.8018,0.0,-1096.39,0
GRID,28293,0,307.6234,0.0,-1098.55,0
GRID,28294,0,307.4327,0.0,-1100.7,0
GRID,28295,0,307.2298,0.0,-1102.86,0
GRID,28296,0,307.0146,0.0,-1105.01,0
GRID,28297,0,306.7873,0.0,-1107.16,0
GRID,28298,0,306.5476,0.0,-1109.31,0
GRID,28299,0,306.2958,0.0,-1111.46,0
GRID,28300,0,306.0318,0.0,-1113.61,0
GRID,28301,0,305.7555,0.0,-1115.75,0
GRID,28302,0,305.4671,0.0,-1117.89,0
GRID,28303,0,305.1665,0.0,-1120.04,0
GRID,28304,0,304.8538,0.0,-1122.17,0
GRID,28305,0,304.5289,0.0,-1124.31,0
GRID,28306,0,304.1919,0.0,-1126.45,0
GRID,28307,0,303.8427,0.0,-1128.58,0
GRID,28308,0,303.4814,0.0,-1130.71,0
GRID,28309,0,303.1081,0.0,-1132.84,0
GRID,28310,0,302.7226,0.0,-1134.96,0
GRID,28311,0,302.3251,0.0,-1137.09,0
GRID,28312,0,301.9156,0.0,-1139.21,0
GRID,28313,0,301.494,0.0,-1141.32,0
GRID,28314,0,301.0605,0.0,-1143.44,0
GRID,28315,0,300.6149,0.0,-1145.55,0
GRID,28316,0,300.1574,0.0,-1147.66,0
GRID,28317,0,299.6879,0.0,-1149.77,0
GRID,28318,0,299.2065,0.0,-1151.87,0
GRID,28319,0,298.7132,0.0,-1153.97,0
GRID,28320,0,298.2079,0.0,-1156.07,0
GRID,28321,0,297.6908,0.0,-1158.16,0
GRID,28322,0,297.1619,0.0,-1160.25,0
GRID,28323,0,296.6211,0.0,-1162.34,0
GRID,28324,0,296.0685,0.0,-1164.42,0
GRID,28325,0,295.5041,0.0,-1166.5,0
GRID,28326,0,294.928,0.0,-1168.58,0
GRID,28327,0,294.3388,0.0,-1170.65,0
GRID,28328,0,293.7354,0.0,-1172.72,0
GRID,28329,0,293.1178,0.0,-1174.78,0
GRID,28330,0,292.486,0.0,-1176.84,0
GRID,28331,0,291.8401,0.0,-1178.9,0
GRID,28332,0,291.18,0.0,-1180.95,0
GRID,28333,0,290.5058,0.0,-1183.0,0
GRID,28334,0,289.8175,0.0,-1185.04,0
GRID,28335,0,289.1152,0.0,-1187.08,0
GRID,28336,0,288.3988,0.0,-1189.12,0
GRID,28337,0,287.6685,0.0,-1191.15,0
GRID,28338,0,286.9242,0.0,-1193.17,0
GRID,28339,0,286.1659,0.0,-1195.19,0
GRID,28340,0,285.3938,0.0,-1197.21,0
GRID,28341,0,284.6078,0.0,-1199.22,0
GRID,28342,0,283.808,0.0,-1201.22,0
GRID,28343,0,282.9944,0.0,-1203.22,0
GRID,28344,0,282.1671,0.0,-1205.21,0
GRID,28345,0,281.326,0.0,-1207.2,0
GRID,28346,0,280.4713,0.0,-1209.18,0
GRID,28347,0,279.6029,0.0,-1211.16,0
GRID,28348,0,278.7209,0.0,-1213.13,0
GRID,28349,0,277.8253,0.0,-1215.1,0
GRID,28350,0,276.9163,0.0,-1217.06,0
GRID,28351,0,275.9937,0.0,-1219.01,0
GRID,28352,0,275.0577,0.0,-1220.96,0
GRID,28353,0,274.1084,0.0,-1222.9,0
GRID,28354,0,273.1456,0.0,-1224.83,0
GRID,28355,0,272.1696,0.0,-1226.76,0
GRID,28356,0,271.1803,0.0,-1228.68,0
GRID,28357,0,270.1778,0.0,-1230.59,0
GRID,28358,0,269.1622,0.0,-1232.5,0
GRID,28359,0,268.1334,0.0,-1234.4,0
GRID,28360,0,267.0915,0.0,-1236.3,0
GRID,28361,0,266.0366,0.0,-1238.18,0
GRID,28362,0,264.9687,0.0,-1240.06,0
GRID,28363,0,263.8878,0.0,-1241.93,0
GRID,28364,0,262.7941,0.0,-1243.8,0
GRID,28365,0,261.6876,0.0,-1245.66,0
GRID,28366,0,260.5683,0.0,-1247.51,0
GRID,28367,0,259.4363,0.0,-1249.35,0
GRID,28368,0,258.2916,0.0,-1251.18,0
GRID,28369,0,257.1342,0.0,-1253.01,0
GRID,28370,0,255.9644,0.0,-1254.83,0
GRID,28371,0,254.782,0.0,-1256.64,0
GRID,28372,0,253.5871,0.0,-1258.44,0
GRID,28373,0,252.3799,0.0,-1260.24,0
GRID,28374,0,251.1603,0.0,-1262.02,0
GRID,28375,0,249.9284,0.0,-1263.8,0
GRID,28376,0,248.6843,0.0,-1265.57,0
GRID,28377,0,247.4281,0.0,-1267.33,0
GRID,28378,0,246.1597,0.0,-1269.09,0
GRID,28379,0,244.8793,0.0,-1270.83,0
GRID,28380,0,243.5869,0.0,-1272.57,0
GRID,28381,0,242.2826,0.0,-1274.29,0
GRID,28382,0,240.9664,0.0,-1276.01,0
GRID,28383,0,239.6384,0.0,-1277.72,0
GRID,28384,0,238.2987,0.0,-1279.42,0
GRID,28385,0,236.9473,0.0,-1281.11,0
GRID,28386,0,235.5843,0.0,-1282.79,0
GRID,28387,0,234.2098,0.0,-1284.46,0
GRID,28388,0,232.8237,0.0,-1286.12,0
GRID,28389,0,231.4262,0.0,-1287.78,0
GRID,28390,0,230.0173,0.0,-1289.42,0
GRID,28391,0,228.5972,0.0,-1291.05,0
GRID,28392,0,227.1658,0.0,-1292.68,0
GRID,28393,0,225.7234,0.0,-1294.29,0
GRID,28394,0,224.2698,0.0,-1295.9,0
GRID,28395,0,222.8053,0.0,-1297.49,0
GRID,28396,0,221.3299,0.0,-1299.07,0
GRID,28397,0,219.8436,0.0,-1300.65,0
GRID,28398,0,218.3466,0.0,-1302.21,0
GRID,28399,0,216.839,0.0,-1303.77,0
GRID,28400,0,215.3207,0.0,-1305.31,0
GRID,28401,0,213.781,0.0,-1306.86,0
GRID,28402,0,212.2394,0.0,-1308.41,0
GRID,28403,0,210.696,0.0,-1309.96,0
GRID,28404,0,209.1508,0.0,-1311.51,0
GRID,28405,0,207.6098,0.0,-1313.05,0
GRID,28406,0,206.0687,0.0,-1314.59,0
GRID,28407,0,204.5277,0.0,-1316.13,0
GRID,28408,0,202.9866,0.0,-1317.67,0
GRID,28409,0,201.4455,0.0,-1319.21,0
GRID,28410,0,199.9045,0.0,-1320.75,0
GRID,28411,0,198.3634,0.0,-1322.3,0
GRID,28412,0,196.8223,0.0,-1323.84,0
GRID,28413,0,195.2813,0.0,-1325.38,0
GRID,28414,0,193.7335,0.0,-1326.92,0
GRID,28415,0,192.1841,0.0,-1328.47,0
GRID,28416,0,190.633,0.0,-1330.01,0
GRID,28417,0,189.0803,0.0,-1331.55,0
GRID,28418,0,187.526,0.0,-1333.09,0
GRID,28419,0,185.97,0.0,-1334.63,0
GRID,28420,0,184.4125,0.0,-1336.16,0
GRID,28421,0,182.8534,0.0,-1337.7,0
GRID,28422,0,181.2927,0.0,-1339.23,0
GRID,28423,0,179.7305,0.0,-1340.76,0
GRID,28424,0,178.1668,0.0,-1342.29,0
GRID,28425,0,176.6015,0.0,-1343.81,0
GRID,28426,0,175.0348,0.0,-1345.34,0
GRID,28427,0,173.4666,0.0,-1346.86,0
GRID,28428,0,171.8969,0.0,-1348.38,0
GRID,28429,0,170.3258,0.0,-1349.9,0
GRID,28430,0,168.7533,0.0,-1351.42,0
GRID,28431,0,167.1794,0.0,-1352.93,0
GRID,28432,0,165.6041,0.0,-1354.45,0
GRID,28433,0,164.0275,0.0,-1355.96,0
GRID,28434,0,162.4495,0.0,-1357.47,0
GRID,28435,0,160.8701,0.0,-1358.97,0
GRID,28436,0,159.2895,0.0,-1360.48,0
GRID,28437,0,157.7076,0.0,-1361.98,0
GRID,28438,0,156.1244,0.0,-1363.48,0
GRID,28439,0,154.54,0.0,-1364.98,0
GRID,28440,0,152.9544,0.0,-1366.48,0
GRID,28441,0,151.3675,0.0,-1367.97,0
GRID,28442,0,149.7794,0.0,-1369.47,0
GRID,28443,0,148.1902,0.0,-1370.96,0
GRID,28444,0,146.5999,0.0,-1372.44,0
GRID,28445,0,145.0084,0.0,-1373.93,0
GRID,28446,0,143.4157,0.0,-1375.42,0
GRID,28447,0,141.822,0.0,-1376.9,0
GRID,28448,0,140.2273,0.0,-1378.38,0
GRID,28449,0,138.6315,0.0,-1379.86,0
GRID,28450,0,137.0346,0.0,-1381.33,0
GRID,28451,0,135.4368,0.0,-1382.81,0
GRID,28452,0,133.8379,0.0,-1384.28,0
GRID,28453,0,132.2381,0.0,-1385.75,0
GRID,28454,0,130.6374,0.0,-1387.21,0
GRID,28455,0,129.0357,0.0,-1388.68,0
GRID,28456,0,127.4331,0.0,-1390.14,0
GRID,28457,0,125.8296,0.0,-1391.6,0
GRID,28458,0,124.2253,0.0,-1393.06,0
GRID,28459,0,122.6201,0.0,-1394.52,0
GRID,28460,0,121.0142,0.0,-1395.97,0
GRID,28461,0,119.4074,0.0,-1397.42,0
GRID,28462,0,117.7998,0.0,-1398.87,0
GRID,28463,0,116.1783,0.0,-1400.31,0
GRID,28464,0,114.5383,0.0,-1401.73,0
GRID,28465,0,112.88,0.0,-1403.13,0
GRID,28466,0,111.2038,0.0,-1404.51,0
GRID,28467,0,109.5098,0.0,-1405.87,0
GRID,28468,0,107.7983,0.0,-1407.2,0
GRID,28469,0,106.0694,0.0,-1408.52,0
GRID,28470,0,104.3235,0.0,-1409.81,0
GRID,28471,0,102.5609,0.0,-1411.08,0
GRID,28472,0,100.7817,0.0,-1412.33,0
GRID,28473,0,98.98646,0.0,-1413.55,0
GRID,28474,0,97.17535,0.0,-1414.75,0
GRID,28475,0,95.3487,0.0,-1415.93,0
GRID,28476,0,93.5068,0.0,-1417.09,0
GRID,28477,0,91.64997,0.0,-1418.22,0
GRID,28478,0,89.77848,0.0,-1419.33,0
GRID,28479,0,87.89265,0.0,-1420.41,0
GRID,28480,0,85.99279,0.0,-1421.47,0
GRID,28481,0,84.0792,0.0,-1422.51,0
GRID,28482,0,82.1522,0.0,-1423.52,0
GRID,28483,0,80.21213,0.0,-1424.5,0
GRID,28484,0,78.25929,0.0,-1425.46,0
GRID,28485,0,76.294,0.0,-1426.4,0
GRID,28486,0,74.31659,0.0,-1427.31,0
GRID,28487,0,72.32738,0.0,-1428.2,0
GRID,28488,0,70.32668,0.0,-1429.06,0
GRID,28489,0,68.31482,0.0,-1429.89,0
GRID,28490,0,66.29215,0.0,-1430.7,0
GRID,28491,0,64.259,0.0,-1431.49,0
GRID,28492,0,62.21571,0.0,-1432.24,0
GRID,28493,0,60.16261,0.0,-1432.98,0
GRID,28494,0,58.10003,0.0,-1433.68,0
GRID,28495,0,56.02832,0.0,-1434.36,0
GRID,28496,0,53.94781,0.0,-1435.01,0
GRID,28497,0,51.85884,0.0,-1435.64,0
GRID,28498,0,49.76176,0.0,-1436.24,0
GRID,28499,0,47.65692,0.0,-1436.81,0
GRID,28500,0,45.54467,0.0,-1437.35,0
GRID,28501,0,43.42536,0.0,-1437.87,0
GRID,28502,0,41.29932,0.0,-1438.36,0
GRID,28503,0,39.16693,0.0,-1438.82,0
GRID,28504,0,37.02851,0.0,-1439.26,0
GRID,28505,0,34.88442,0.0,-1439.67,0
GRID,28506,0,32.73503,0.0,-1440.05,0
GRID,28507,0,30.58068,0.0,-1440.4,0
GRID,28508,0,28.42173,0.0,-1440.73,0
GRID,28509,0,26.25854,0.0,-1441.03,0
GRID,28510,0,24.09147,0.0,-1441.3,0
GRID,28511,0,21.92087,0.0,-1441.54,0
GRID,28512,0,19.7471,0.0,-1441.76,0
GRID,28513,0,17.57052,0.0,-1441.95,0
GRID,28514,0,15.3915,0.0,-1442.11,0
GRID,28515,0,13.21038,0.0,-1442.24,0
GRID,28516,0,11.02753,0.0,-1442.34,0
GRID,28517,0,8.843317,0.0,-1442.42,0
GRID,28518,0,6.658093,0.0,-1442.46,0
GRID,28519,0,4.472225,0.0,-1442.48,0
GRID,28520,0,2.286073,0.0,-1442.48,0
GRID,28521,0,307.2067,0.0,-1052.29,0
GRID,28522,0,307.2067,0.0,-1054.58,0
GRID,28523,0,307.2067,0.0,-1056.87,0
GRID,28524,0,307.2067,0.0,-1059.16,0
GRID,28525,0,307.2067,0.0,-1061.45,0
GRID,28526,0,307.2067,0.0,-1063.74,0
GRID,28527,0,307.2067,0.0,-1066.03,0
GRID,28528,0,307.2001,0.0,-1068.18,0
GRID,28529,0,307.1811,0.0,-1070.33,0
GRID,28530,0,307.1496,0.0,-1072.48,0
GRID,28531,0,307.1056,0.0,-1074.63,0
GRID,28532,0,307.0492,0.0,-1076.78,0
GRID,28533,0,306.9802,0.0,-1078.92,0
GRID,28534,0,306.8988,0.0,-1081.07,0
GRID,28535,0,306.8049,0.0,-1083.22,0
GRID,28536,0,306.6984,0.0,-1085.37,0
GRID,28537,0,306.5794,0.0,-1087.51,0
GRID,28538,0,306.4479,0.0,-1089.66,0
GRID,28539,0,306.3039,0.0,-1091.8,0
GRID,28540,0,306.1473,0.0,-1093.94,0
GRID,28541,0,305.9782,0.0,-1096.09,0
GRID,28542,0,305.7965,0.0,-1098.23,0
GRID,28543,0,305.6024,0.0,-1100.37,0
GRID,28544,0,305.3958,0.0,-1102.5,0
GRID,28545,0,305.1767,0.0,-1104.64,0
GRID,28546,0,304.9452,0.0,-1106.78,0
GRID,28547,0,304.7012,0.0,-1108.91,0
GRID,28548,0,304.4448,0.0,-1111.04,0
GRID,28549,0,304.176,0.0,-1113.17,0
GRID,28550,0,303.8947,0.0,-1115.3,0
GRID,28551,0,303.6011,0.0,-1117.43,0
GRID,28552,0,303.295,0.0,-1119.56,0
GRID,28553,0,302.9766,0.0,-1121.68,0
GRID,28554,0,302.6458,0.0,-1123.8,0
GRID,28555,0,302.3026,0.0,-1125.92,0
GRID,28556,0,301.9471,0.0,-1128.04,0
GRID,28557,0,301.5793,0.0,-1130.15,0
GRID,28558,0,301.1991,0.0,-1132.26,0
GRID,28559,0,300.8067,0.0,-1134.37,0
GRID,28560,0,300.4019,0.0,-1136.48,0
GRID,28561,0,299.985,0.0,-1138.58,0
GRID,28562,0,299.5557,0.0,-1140.68,0
GRID,28563,0,299.1143,0.0,-1142.78,0
GRID,28564,0,298.6606,0.0,-1144.88,0
GRID,28565,0,298.1948,0.0,-1146.97,0
GRID,28566,0,297.7168,0.0,-1149.06,0
GRID,28567,0,297.2266,0.0,-1151.15,0
GRID,28568,0,296.7243,0.0,-1153.23,0
GRID,28569,0,296.2099,0.0,-1155.31,0
GRID,28570,0,295.6834,0.0,-1157.39,0
GRID,28571,0,295.1448,0.0,-1159.46,0
GRID,28572,0,294.5942,0.0,-1161.53,0
GRID,28573,0,294.0315,0.0,-1163.6,0
GRID,28574,0,293.4569,0.0,-1165.66,0
GRID,28575,0,292.8703,0.0,-1167.72,0
GRID,28576,0,292.2707,0.0,-1169.78,0
GRID,28577,0,291.6572,0.0,-1171.83,0
GRID,28578,0,291.0297,0.0,-1173.87,0
GRID,28579,0,290.3884,0.0,-1175.92,0
GRID,28580,0,289.7332,0.0,-1177.96,0
GRID,28581,0,289.0642,0.0,-1179.99,0
GRID,28582,0,288.3813,0.0,-1182.02,0
GRID,28583,0,287.6846,0.0,-1184.05,0
GRID,28584,0,286.9742,0.0,-1186.07,0
GRID,28585,0,286.25,0.0,-1188.09,0
GRID,28586,0,285.5122,0.0,-1190.1,0
GRID,28587,0,284.7607,0.0,-1192.11,0
GRID,28588,0,283.9956,0.0,-1194.11,0
GRID,28589,0,283.2168,0.0,-1196.11,0
GRID,28590,0,282.4245,0.0,-1198.1,0
GRID,28591,0,281.6187,0.0,-1200.08,0
GRID,28592,0,280.7994,0.0,-1202.07,0
GRID,28593,0,279.9666,0.0,-1204.04,0
GRID,28594,0,279.1205,0.0,-1206.01,0
GRID,28595,0,278.2609,0.0,-1207.98,0
GRID,28596,0,277.3879,0.0,-1209.94,0
GRID,28597,0,276.5017,0.0,-1211.89,0
GRID,28598,0,275.6022,0.0,-1213.84,0
GRID,28599,0,274.6894,0.0,-1215.78,0
GRID,28600,0,273.7635,0.0,-1217.71,0
GRID,28601,0,272.8245,0.0,-1219.64,0
GRID,28602,0,271.8723,0.0,-1221.57,0
GRID,28603,0,270.9071,0.0,-1223.48,0
GRID,28604,0,269.9288,0.0,-1225.39,0
GRID,28605,0,268.9376,0.0,-1227.29,0
GRID,28606,0,267.9334,0.0,-1229.19,0
GRID,28607,0,266.9164,0.0,-1231.08,0
GRID,28608,0,265.8865,0.0,-1232.96,0
GRID,28609,0,264.8439,0.0,-1234.84,0
GRID,28610,0,263.7885,0.0,-1236.71,0
GRID,28611,0,262.7203,0.0,-1238.57,0
GRID,28612,0,261.6396,0.0,-1240.43,0
GRID,28613,0,260.5462,0.0,-1242.28,0
GRID,28614,0,259.4403,0.0,-1244.12,0
GRID,28615,0,258.3219,0.0,-1245.95,0
GRID,28616,0,257.191,0.0,-1247.77,0
GRID,28617,0,256.0478,0.0,-1249.59,0
GRID,28618,0,254.8922,0.0,-1251.4,0
GRID,28619,0,253.7243,0.0,-1253.2,0
GRID,28620,0,252.5442,0.0,-1255.0,0
GRID,28621,0,251.3519,0.0,-1256.79,0
GRID,28622,0,250.1475,0.0,-1258.56,0
GRID,28623,0,248.931,0.0,-1260.33,0
GRID,28624,0,247.7025,0.0,-1262.1,0
GRID,28625,0,246.462,0.0,-1263.85,0
GRID,28626,0,245.2096,0.0,-1265.6,0
GRID,28627,0,243.9453,0.0,-1267.33,0
GRID,28628,0,242.6693,0.0,-1269.06,0
GRID,28629,0,241.3816,0.0,-1270.78,0
GRID,28630,0,240.0821,0.0,-1272.49,0
GRID,28631,0,238.7711,0.0,-1274.19,0
GRID,28632,0,237.4485,0.0,-1275.89,0
GRID,28633,0,236.1145,0.0,-1277.57,0
GRID,28634,0,234.769,0.0,-1279.25,0
GRID,28635,0,233.4122,0.0,-1280.91,0
GRID,28636,0,232.044,0.0,-1282.57,0
GRID,28637,0,230.6646,0.0,-1284.22,0
GRID,28638,0,229.274,0.0,-1285.86,0
GRID,28639,0,227.8722,0.0,-1287.49,0
GRID,28640,0,226.4595,0.0,-1289.11,0
GRID,28641,0,225.0357,0.0,-1290.72,0
GRID,28642,0,223.601,0.0,-1292.32,0
GRID,28643,0,222.1556,0.0,-1293.91,0
GRID,28644,0,220.6993,0.0,-1295.49,0
GRID,28645,0,219.2324,0.0,-1297.06,0
GRID,28646,0,217.7549,0.0,-1298.62,0
GRID,28647,0,216.2669,0.0,-1300.17,0
GRID,28648,0,214.7684,0.0,-1301.71,0
GRID,28649,0,213.2595,0.0,-1303.24,0
GRID,28650,0,211.7292,0.0,-1304.78,0
GRID,28651,0,210.1974,0.0,-1306.32,0
GRID,28652,0,208.6642,0.0,-1307.86,0
GRID,28653,0,207.1295,0.0,-1309.4,0
GRID,28654,0,205.5981,0.0,-1310.93,0
GRID,28655,0,204.0667,0.0,-1312.46,0
GRID,28656,0,202.5353,0.0,-1313.99,0
GRID,28657,0,201.0039,0.0,-1315.52,0
GRID,28658,0,199.4725,0.0,-1317.05,0
GRID,28659,0,197.9411,0.0,-1318.59,0
GRID,28660,0,196.4098,0.0,-1320.12,0
GRID,28661,0,194.8784,0.0,-1321.65,0
GRID,28662,0,193.347,0.0,-1323.18,0
GRID,28663,0,191.8102,0.0,-1324.72,0
GRID,28664,0,190.2722,0.0,-1326.25,0
GRID,28665,0,188.7328,0.0,-1327.78,0
GRID,28666,0,187.1921,0.0,-1329.31,0
GRID,28667,0,185.6501,0.0,-1330.84,0
GRID,28668,0,184.1068,0.0,-1332.37,0
GRID,28669,0,182.5622,0.0,-1333.9,0
GRID,28670,0,181.0164,0.0,-1335.42,0
GRID,28671,0,179.4693,0.0,-1336.95,0
GRID,28672,0,177.921,0.0,-1338.47,0
GRID,28673,0,176.3715,0.0,-1339.99,0
GRID,28674,0,174.8207,0.0,-1341.51,0
GRID,28675,0,173.2688,0.0,-1343.03,0
GRID,28676,0,171.7157,0.0,-1344.55,0
GRID,28677,0,170.1614,0.0,-1346.06,0
GRID,28678,0,168.606,0.0,-1347.58,0
GRID,28679,0,167.0495,0.0,-1349.09,0
GRID,28680,0,165.4918,0.0,-1350.6,0
GRID,28681,0,163.933,0.0,-1352.11,0
GRID,28682,0,162.3732,0.0,-1353.61,0
GRID,28683,0,160.8122,0.0,-1355.12,0
GRID,28684,0,159.2502,0.0,-1356.62,0
GRID,28685,0,157.6872,0.0,-1358.13,0
GRID,28686,0,156.1231,0.0,-1359.63,0
GRID,28687,0,154.5581,0.0,-1361.13,0
GRID,28688,0,152.992,0.0,-1362.62,0
GRID,28689,0,151.4249,0.0,-1364.12,0
GRID,28690,0,149.8569,0.0,-1365.62,0
GRID,28691,0,148.2879,0.0,-1367.11,0
GRID,28692,0,146.718,0.0,-1368.6,0
GRID,28693,0,145.1472,0.0,-1370.09,0
GRID,28694,0,143.5754,0.0,-1371.58,0
GRID,28695,0,142.0028,0.0,-1373.06,0
GRID,28696,0,140.4293,0.0,-1374.55,0
GRID,28697,0,138.855,0.0,-1376.03,0
GRID,28698,0,137.2798,0.0,-1377.51,0
GRID,28699,0,135.7038,0.0,-1378.99,0
GRID,28700,0,134.1269,0.0,-1380.47,0
GRID,28701,0,132.5493,0.0,-1381.94,0
GRID,28702,0,130.971,0.0,-1383.42,0
GRID,28703,0,129.3918,0.0,-1384.89,0
GRID,28704,0,127.8119,0.0,-1386.36,0
GRID,28705,0,126.2313,0.0,-1387.83,0
GRID,28706,0,124.65,0.0,-1389.29,0
GRID,28707,0,123.068,0.0,-1390.76,0
GRID,28708,0,121.4854,0.0,-1392.22,0
GRID,28709,0,119.902,0.0,-1393.68,0
GRID,28710,0,118.3181,0.0,-1395.14,0
GRID,28711,0,116.7335,0.0,-1396.6,0
GRID,28712,0,115.1348,0.0,-1398.05,0
GRID,28713,0,113.5175,0.0,-1399.48,0
GRID,28714,0,111.8818,0.0,-1400.89,0
GRID,28715,0,110.2279,0.0,-1402.28,0
GRID,28716,0,108.5561,0.0,-1403.65,0
GRID,28717,0,106.8666,0.0,-1404.99,0
GRID,28718,0,105.1596,0.0,-1406.32,0
GRID,28719,0,103.4353,0.0,-1407.62,0
GRID,28720,0,101.6941,0.0,-1408.9,0
GRID,28721,0,99.93629,0.0,-1410.16,0
GRID,28722,0,98.16214,0.0,-1411.39,0
GRID,28723,0,96.37196,0.0,-1412.6,0
GRID,28724,0,94.56608,0.0,-1413.79,0
GRID,28725,0,92.74477,0.0,-1414.96,0
GRID,28726,0,90.90835,0.0,-1416.1,0
GRID,28727,0,89.05711,0.0,-1417.22,0
GRID,28728,0,87.19135,0.0,-1418.31,0
GRID,28729,0,85.31138,0.0,-1419.38,0
GRID,28730,0,83.41752,0.0,-1420.43,0
GRID,28731,0,81.51008,0.0,-1421.45,0
GRID,28732,0,79.58939,0.0,-1422.45,0
GRID,28733,0,77.65577,0.0,-1423.42,0
GRID,28734,0,75.70954,0.0,-1424.37,0
GRID,28735,0,73.75101,0.0,-1425.29,0
GRID,28736,0,71.78052,0.0,-1426.19,0
GRID,28737,0,69.79837,0.0,-1427.06,0
GRID,28738,0,67.80491,0.0,-1427.91,0
GRID,28739,0,65.80047,0.0,-1428.73,0
GRID,28740,0,63.78539,0.0,-1429.52,0
GRID,28741,0,61.76,0.0,-1430.29,0
GRID,28742,0,59.72465,0.0,-1431.03,0
GRID,28743,0,57.67966,0.0,-1431.75,0
GRID,28744,0,55.62538,0.0,-1432.44,0
GRID,28745,0,53.56215,0.0,-1433.1,0
GRID,28746,0,51.49031,0.0,-1433.74,0
GRID,28747,0,49.4102,0.0,-1434.35,0
GRID,28748,0,47.32218,0.0,-1434.93,0
GRID,28749,0,45.2266,0.0,-1435.49,0
GRID,28750,0,43.12381,0.0,-1436.02,0
GRID,28751,0,41.01415,0.0,-1436.52,0
GRID,28752,0,38.89798,0.0,-1437.0,0
GRID,28753,0,36.77565,0.0,-1437.45,0
GRID,28754,0,34.6475,0.0,-1437.87,0
GRID,28755,0,32.51391,0.0,-1438.26,0
GRID,28756,0,30.37521,0.0,-1438.63,0
GRID,28757,0,28.23179,0.0,-1438.97,0
GRID,28758,0,26.08398,0.0,-1439.28,0
GRID,28759,0,23.93216,0.0,-1439.56,0
GRID,28760,0,21.77668,0.0,-1439.81,0
GRID,28761,0,19.6179,0.0,-1440.04,0
GRID,28762,0,17.45618,0.0,-1440.24,0
GRID,28763,0,15.29188,0.0,-1440.41,0
GRID,28764,0,13.12536,0.0,-1440.56,0
GRID,28765,0,10.95698,0.0,-1440.67,0
GRID,28766,0,8.787115,0.0,-1440.76,0
GRID,28767,0,6.616119,0.0,-1440.82,0
GRID,28768,0,4.444359,0.0,-1440.85,0
GRID,28769,0,2.272198,0.0,-1440.86,0
GRID,28770,0,305.405,0.0,-1052.28,0
GRID,28771,0,305.405,0.0,-1054.55,0
GRID,28772,0,305.405,0.0,-1056.83,0
GRID,28773,0,305.405,0.0,-1059.11,0
GRID,28774,0,305.405,0.0,-1061.39,0
GRID,28775,0,305.405,0.0,-1063.66,0
GRID,28776,0,305.405,0.0,-1065.94,0
GRID,28777,0,305.3983,0.0,-1068.08,0
GRID,28778,0,305.379,0.0,-1070.21,0
GRID,28779,0,305.3469,0.0,-1072.34,0
GRID,28780,0,305.3022,0.0,-1074.48,0
GRID,28781,0,305.2447,0.0,-1076.61,0
GRID,28782,0,305.1745,0.0,-1078.74,0
GRID,28783,0,305.0916,0.0,-1080.87,0
GRID,28784,0,304.996,0.0,-1083.01,0
GRID,28785,0,304.8877,0.0,-1085.14,0
GRID,28786,0,304.7665,0.0,-1087.27,0
GRID,28787,0,304.6327,0.0,-1089.4,0
GRID,28788,0,304.4861,0.0,-1091.53,0
GRID,28789,0,304.3267,0.0,-1093.65,0
GRID,28790,0,304.1546,0.0,-1095.78,0
GRID,28791,0,303.9697,0.0,-1097.9,0
GRID,28792,0,303.7721,0.0,-1100.03,0
GRID,28793,0,303.5618,0.0,-1102.15,0
GRID,28794,0,303.3388,0.0,-1104.27,0
GRID,28795,0,303.1032,0.0,-1106.39,0
GRID,28796,0,302.8548,0.0,-1108.51,0
GRID,28797,0,302.5938,0.0,-1110.63,0
GRID,28798,0,302.3202,0.0,-1112.74,0
GRID,28799,0,302.0339,0.0,-1114.86,0
GRID,28800,0,301.735,0.0,-1116.97,0
GRID,28801,0,301.4235,0.0,-1119.08,0
GRID,28802,0,301.0994,0.0,-1121.18,0
GRID,28803,0,300.7627,0.0,-1123.29,0
GRID,28804,0,300.4134,0.0,-1125.39,0
GRID,28805,0,300.0515,0.0,-1127.49,0
GRID,28806,0,299.6771,0.0,-1129.59,0
GRID,28807,0,299.2902,0.0,-1131.69,0
GRID,28808,0,298.8907,0.0,-1133.78,0
GRID,28809,0,298.4788,0.0,-1135.87,0
GRID,28810,0,298.0543,0.0,-1137.96,0
GRID,28811,0,297.6174,0.0,-1140.04,0
GRID,28812,0,297.1681,0.0,-1142.13,0
GRID,28813,0,296.7064,0.0,-1144.21,0
GRID,28814,0,296.2322,0.0,-1146.28,0
GRID,28815,0,295.7457,0.0,-1148.36,0
GRID,28816,0,295.2467,0.0,-1150.43,0
GRID,28817,0,294.7355,0.0,-1152.49,0
GRID,28818,0,294.2119,0.0,-1154.56,0
GRID,28819,0,293.6759,0.0,-1156.62,0
GRID,28820,0,293.1277,0.0,-1158.67,0
GRID,28821,0,292.5673,0.0,-1160.73,0
GRID,28822,0,291.9946,0.0,-1162.78,0
GRID,28823,0,291.4097,0.0,-1164.82,0
GRID,28824,0,290.8126,0.0,-1166.86,0
GRID,28825,0,290.2026,0.0,-1168.9,0
GRID,28826,0,289.5789,0.0,-1170.94,0
GRID,28827,0,288.9416,0.0,-1172.97,0
GRID,28828,0,288.2908,0.0,-1174.99,0
GRID,28829,0,287.6263,0.0,-1177.01,0
GRID,28830,0,286.9483,0.0,-1179.03,0
GRID,28831,0,286.2567,0.0,-1181.05,0
GRID,28832,0,285.5517,0.0,-1183.05,0
GRID,28833,0,284.8332,0.0,-1185.06,0
GRID,28834,0,284.1013,0.0,-1187.06,0
GRID,28835,0,283.3559,0.0,-1189.05,0
GRID,28836,0,282.5972,0.0,-1191.04,0
GRID,28837,0,281.8252,0.0,-1193.03,0
GRID,28838,0,281.0399,0.0,-1195.0,0
GRID,28839,0,280.2413,0.0,-1196.98,0
GRID,28840,0,279.4294,0.0,-1198.95,0
GRID,28841,0,278.6044,0.0,-1200.91,0
GRID,28842,0,277.7662,0.0,-1202.87,0
GRID,28843,0,276.9149,0.0,-1204.82,0
GRID,28844,0,276.0505,0.0,-1206.77,0
GRID,28845,0,275.173,0.0,-1208.71,0
GRID,28846,0,274.2825,0.0,-1210.65,0
GRID,28847,0,273.379,0.0,-1212.58,0
GRID,28848,0,272.4626,0.0,-1214.5,0
GRID,28849,0,271.5333,0.0,-1216.42,0
GRID,28850,0,270.5912,0.0,-1218.33,0
GRID,28851,0,269.6362,0.0,-1220.23,0
GRID,28852,0,268.6685,0.0,-1222.13,0
GRID,28853,0,267.688,0.0,-1224.02,0
GRID,28854,0,266.6949,0.0,-1225.91,0
GRID,28855,0,265.6891,0.0,-1227.79,0
GRID,28856,0,264.6707,0.0,-1229.66,0
GRID,28857,0,263.6397,0.0,-1231.53,0
GRID,28858,0,262.5963,0.0,-1233.39,0
GRID,28859,0,261.5404,0.0,-1235.24,0
GRID,28860,0,260.472,0.0,-1237.08,0
GRID,28861,0,259.3913,0.0,-1238.92,0
GRID,28862,0,258.2983,0.0,-1240.75,0
GRID,28863,0,257.193,0.0,-1242.58,0
GRID,28864,0,256.0755,0.0,-1244.39,0
GRID,28865,0,254.9458,0.0,-1246.2,0
GRID,28866,0,253.804,0.0,-1248.0,0
GRID,28867,0,252.6502,0.0,-1249.79,0
GRID,28868,0,251.4843,0.0,-1251.58,0
GRID,28869,0,250.3065,0.0,-1253.36,0
GRID,28870,0,249.1167,0.0,-1255.13,0
GRID,28871,0,247.9151,0.0,-1256.89,0
GRID,28872,0,246.7016,0.0,-1258.64,0
GRID,28873,0,245.4765,0.0,-1260.39,0
GRID,28874,0,244.2396,0.0,-1262.13,0
GRID,28875,0,242.9911,0.0,-1263.86,0
GRID,28876,0,241.7309,0.0,-1265.58,0
GRID,28877,0,240.4593,0.0,-1267.29,0
GRID,28878,0,239.1762,0.0,-1269.0,0
GRID,28879,0,237.8817,0.0,-1270.69,0
GRID,28880,0,236.5758,0.0,-1272.38,0
GRID,28881,0,235.2587,0.0,-1274.06,0
GRID,28882,0,233.9303,0.0,-1275.73,0
GRID,28883,0,232.5907,0.0,-1277.39,0
GRID,28884,0,231.24,0.0,-1279.04,0
GRID,28885,0,229.8783,0.0,-1280.68,0
GRID,28886,0,228.5055,0.0,-1282.32,0
GRID,28887,0,227.1218,0.0,-1283.94,0
GRID,28888,0,225.7272,0.0,-1285.55,0
GRID,28889,0,224.3217,0.0,-1287.16,0
GRID,28890,0,222.9056,0.0,-1288.76,0
GRID,28891,0,221.4787,0.0,-1290.34,0
GRID,28892,0,220.0413,0.0,-1291.92,0
GRID,28893,0,218.5934,0.0,-1293.49,0
GRID,28894,0,217.135,0.0,-1295.05,0
GRID,28895,0,215.6662,0.0,-1296.59,0
GRID,28896,0,214.1871,0.0,-1298.13,0
GRID,28897,0,212.6978,0.0,-1299.66,0
GRID,28898,0,211.1983,0.0,-1301.18,0
GRID,28899,0,209.6774,0.0,-1302.71,0
GRID,28900,0,208.1554,0.0,-1304.24,0
GRID,28901,0,206.6323,0.0,-1305.76,0
GRID,28902,0,205.1081,0.0,-1307.29,0
GRID,28903,0,203.5864,0.0,-1308.81,0
GRID,28904,0,202.0647,0.0,-1310.33,0
GRID,28905,0,200.543,0.0,-1311.85,0
GRID,28906,0,199.0213,0.0,-1313.37,0
GRID,28907,0,197.4995,0.0,-1314.9,0
GRID,28908,0,195.9778,0.0,-1316.42,0
GRID,28909,0,194.4561,0.0,-1317.94,0
GRID,28910,0,192.9344,0.0,-1319.46,0
GRID,28911,0,191.4127,0.0,-1320.98,0
GRID,28912,0,189.887,0.0,-1322.51,0
GRID,28913,0,188.3602,0.0,-1324.03,0
GRID,28914,0,186.8325,0.0,-1325.55,0
GRID,28915,0,185.3038,0.0,-1327.08,0
GRID,28916,0,183.7741,0.0,-1328.6,0
GRID,28917,0,182.2435,0.0,-1330.12,0
GRID,28918,0,180.7119,0.0,-1331.63,0
GRID,28919,0,179.1794,0.0,-1333.15,0
GRID,28920,0,177.6459,0.0,-1334.67,0
GRID,28921,0,176.1115,0.0,-1336.18,0
GRID,28922,0,174.5762,0.0,-1337.7,0
GRID,28923,0,173.0399,0.0,-1339.21,0
GRID,28924,0,171.5028,0.0,-1340.72,0
GRID,28925,0,169.9648,0.0,-1342.23,0
GRID,28926,0,168.4259,0.0,-1343.74,0
GRID,28927,0,166.8862,0.0,-1345.25,0
GRID,28928,0,165.3456,0.0,-1346.76,0
GRID,28929,0,163.8042,0.0,-1348.26,0
GRID,28930,0,162.262,0.0,-1349.77,0
GRID,28931,0,160.7189,0.0,-1351.27,0
GRID,28932,0,159.175,0.0,-1352.77,0
GRID,28933,0,157.6304,0.0,-1354.28,0
GRID,28934,0,156.0849,0.0,-1355.78,0
GRID,28935,0,154.5387,0.0,-1357.27,0
GRID,28936,0,152.9917,0.0,-1358.77,0
GRID,28937,0,151.444,0.0,-1360.27,0
GRID,28938,0,149.8955,0.0,-1361.76,0
GRID,28939,0,148.3463,0.0,-1363.26,0
GRID,28940,0,146.7964,0.0,-1364.75,0
GRID,28941,0,145.2458,0.0,-1366.24,0
GRID,28942,0,143.6945,0.0,-1367.73,0
GRID,28943,0,142.1425,0.0,-1369.22,0
GRID,28944,0,140.5899,0.0,-1370.71,0
GRID,28945,0,139.0366,0.0,-1372.2,0
GRID,28946,0,137.4827,0.0,-1373.68,0
GRID,28947,0,135.9281,0.0,-1375.16,0
GRID,28948,0,134.3729,0.0,-1376.65,0
GRID,28949,0,132.8171,0.0,-1378.13,0
GRID,28950,0,131.2607,0.0,-1379.61,0
GRID,28951,0,129.7038,0.0,-1381.09,0
GRID,28952,0,128.1463,0.0,-1382.56,0
GRID,28953,0,126.5882,0.0,-1384.04,0
GRID,28954,0,125.0296,0.0,-1385.51,0
GRID,28955,0,123.4704,0.0,-1386.99,0
GRID,28956,0,121.9107,0.0,-1388.46,0
GRID,28957,0,120.3506,0.0,-1389.93,0
GRID,28958,0,118.7899,0.0,-1391.4,0
GRID,28959,0,117.2287,0.0,-1392.87,0
GRID,28960,0,115.6671,0.0,-1394.33,0
GRID,28961,0,114.0914,0.0,-1395.79,0
GRID,28962,0,112.4968,0.0,-1397.23,0
GRID,28963,0,110.8836,0.0,-1398.65,0
GRID,28964,0,109.2521,0.0,-1400.05,0
GRID,28965,0,107.6024,0.0,-1401.43,0
GRID,28966,0,105.9349,0.0,-1402.78,0
GRID,28967,0,104.2497,0.0,-1404.11,0
GRID,28968,0,102.5471,0.0,-1405.43,0
GRID,28969,0,100.8274,0.0,-1406.72,0
GRID,28970,0,99.09085,0.0,-1407.98,0
GRID,28971,0,97.33781,0.0,-1409.23,0
GRID,28972,0,95.56858,0.0,-1410.45,0
GRID,28973,0,93.78345,0.0,-1411.65,0
GRID,28974,0,91.98274,0.0,-1412.83,0
GRID,28975,0,90.16673,0.0,-1413.98,0
GRID,28976,0,88.33573,0.0,-1415.11,0
GRID,28977,0,86.49005,0.0,-1416.21,0
GRID,28978,0,84.62997,0.0,-1417.29,0
GRID,28979,0,82.75584,0.0,-1418.35,0
GRID,28980,0,80.86796,0.0,-1419.38,0
GRID,28981,0,78.96666,0.0,-1420.39,0
GRID,28982,0,77.05226,0.0,-1421.37,0
GRID,28983,0,75.12507,0.0,-1422.33,0
GRID,28984,0,73.18544,0.0,-1423.27,0
GRID,28985,0,71.23366,0.0,-1424.18,0
GRID,28986,0,69.27007,0.0,-1425.06,0
GRID,28987,0,67.295,0.0,-1425.92,0
GRID,28988,0,65.30879,0.0,-1426.75,0
GRID,28989,0,63.31177,0.0,-1427.55,0
GRID,28990,0,61.30429,0.0,-1428.34,0
GRID,28991,0,59.28669,0.0,-1429.09,0
GRID,28992,0,57.25929,0.0,-1429.82,0
GRID,28993,0,55.22245,0.0,-1430.52,0
GRID,28994,0,53.17649,0.0,-1431.2,0
GRID,28995,0,51.12177,0.0,-1431.84,0
GRID,28996,0,49.05864,0.0,-1432.47,0
GRID,28997,0,46.98744,0.0,-1433.06,0
GRID,28998,0,44.90853,0.0,-1433.63,0
GRID,28999,0,42.82226,0.0,-1434.17,0
GRID,29000,0,40.72897,0.0,-1434.69,0
GRID,29001,0,38.62903,0.0,-1435.17,0
GRID,29002,0,36.52278,0.0,-1435.63,0
GRID,29003,0,34.41058,0.0,-1436.07,0
GRID,29004,0,32.29278,0.0,-1436.47,0
GRID,29005,0,30.16975,0.0,-1436.85,0
GRID,29006,0,28.04185,0.0,-1437.2,0
GRID,29007,0,25.90943,0.0,-1437.52,0
GRID,29008,0,23.77286,0.0,-1437.82,0
GRID,29009,0,21.63249,0.0,-1438.08,0
GRID,29010,0,19.48869,0.0,-1438.32,0
GRID,29011,0,17.34183,0.0,-1438.53,0
GRID,29012,0,15.19225,0.0,-1438.72,0
GRID,29013,0,13.04033,0.0,-1438.87,0
GRID,29014,0,10.88643,0.0,-1439.0,0
GRID,29015,0,8.730912,0.0,-1439.1,0
GRID,29016,0,6.574145,0.0,-1439.17,0
GRID,29017,0,4.416493,0.0,-1439.22,0
GRID,29018,0,2.258323,0.0,-1439.23,0
GRID,29019,0,303.6033,0.0,-1052.26,0
GRID,29020,0,303.6033,0.0,-1054.53,0
GRID,29021,0,303.6033,0.0,-1056.79,0
GRID,29022,0,303.6033,0.0,-1059.06,0
GRID,29023,0,303.6033,0.0,-1061.32,0
GRID,29024,0,303.6033,0.0,-1063.59,0
GRID,29025,0,303.6033,0.0,-1065.85,0
GRID,29026,0,303.5965,0.0,-1067.97,0
GRID,29027,0,303.5769,0.0,-1070.09,0
GRID,29028,0,303.5442,0.0,-1072.21,0
GRID,29029,0,303.4987,0.0,-1074.32,0
GRID,29030,0,303.4402,0.0,-1076.44,0
GRID,29031,0,303.3688,0.0,-1078.56,0
GRID,29032,0,303.2845,0.0,-1080.68,0
GRID,29033,0,303.1872,0.0,-1082.79,0
GRID,29034,0,303.0769,0.0,-1084.91,0
GRID,29035,0,302.9537,0.0,-1087.02,0
GRID,29036,0,302.8175,0.0,-1089.14,0
GRID,29037,0,302.6683,0.0,-1091.25,0
GRID,29038,0,302.5061,0.0,-1093.36,0
GRID,29039,0,302.3309,0.0,-1095.47,0
GRID,29040,0,302.1428,0.0,-1097.58,0
GRID,29041,0,301.9418,0.0,-1099.69,0
GRID,29042,0,301.7278,0.0,-1101.8,0
GRID,29043,0,301.5009,0.0,-1103.9,0
GRID,29044,0,301.2611,0.0,-1106.01,0
GRID,29045,0,301.0084,0.0,-1108.11,0
GRID,29046,0,300.7429,0.0,-1110.21,0
GRID,29047,0,300.4644,0.0,-1112.31,0
GRID,29048,0,300.1731,0.0,-1114.41,0
GRID,29049,0,299.869,0.0,-1116.5,0
GRID,29050,0,299.552,0.0,-1118.6,0
GRID,29051,0,299.2222,0.0,-1120.69,0
GRID,29052,0,298.8796,0.0,-1122.78,0
GRID,29053,0,298.5241,0.0,-1124.87,0
GRID,29054,0,298.1559,0.0,-1126.95,0
GRID,29055,0,297.775,0.0,-1129.03,0
GRID,29056,0,297.3812,0.0,-1131.11,0
GRID,29057,0,296.9748,0.0,-1133.19,0
GRID,29058,0,296.5556,0.0,-1135.26,0
GRID,29059,0,296.1237,0.0,-1137.34,0
GRID,29060,0,295.6792,0.0,-1139.4,0
GRID,29061,0,295.2219,0.0,-1141.47,0
GRID,29062,0,294.7521,0.0,-1143.53,0
GRID,29063,0,294.2696,0.0,-1145.59,0
GRID,29064,0,293.7745,0.0,-1147.65,0
GRID,29065,0,293.2668,0.0,-1149.7,0
GRID,29066,0,292.7466,0.0,-1151.75,0
GRID,29067,0,292.2138,0.0,-1153.8,0
GRID,29068,0,291.6685,0.0,-1155.84,0
GRID,29069,0,291.1107,0.0,-1157.88,0
GRID,29070,0,290.5404,0.0,-1159.92,0
GRID,29071,0,289.9577,0.0,-1161.95,0
GRID,29072,0,289.3625,0.0,-1163.98,0
GRID,29073,0,288.7549,0.0,-1166.01,0
GRID,29074,0,288.1345,0.0,-1168.03,0
GRID,29075,0,287.5007,0.0,-1170.05,0
GRID,29076,0,286.8536,0.0,-1172.06,0
GRID,29077,0,286.1931,0.0,-1174.07,0
GRID,29078,0,285.5194,0.0,-1176.07,0
GRID,29079,0,284.8324,0.0,-1178.07,0
GRID,29080,0,284.1322,0.0,-1180.07,0
GRID,29081,0,283.4188,0.0,-1182.06,0
GRID,29082,0,282.6922,0.0,-1184.04,0
GRID,29083,0,281.9525,0.0,-1186.03,0
GRID,29084,0,281.1996,0.0,-1188.0,0
GRID,29085,0,280.4338,0.0,-1189.98,0
GRID,29086,0,279.6548,0.0,-1191.94,0
GRID,29087,0,278.8629,0.0,-1193.9,0
GRID,29088,0,278.058,0.0,-1195.86,0
GRID,29089,0,277.2401,0.0,-1197.81,0
GRID,29090,0,276.4094,0.0,-1199.76,0
GRID,29091,0,275.5658,0.0,-1201.7,0
GRID,29092,0,274.7093,0.0,-1203.63,0
GRID,29093,0,273.8401,0.0,-1205.56,0
GRID,29094,0,272.958,0.0,-1207.49,0
GRID,29095,0,272.0633,0.0,-1209.4,0
GRID,29096,0,271.1559,0.0,-1211.31,0
GRID,29097,0,270.2358,0.0,-1213.22,0
GRID,29098,0,269.3031,0.0,-1215.12,0
GRID,29099,0,268.3579,0.0,-1217.01,0
GRID,29100,0,267.4001,0.0,-1218.9,0
GRID,29101,0,266.4299,0.0,-1220.78,0
GRID,29102,0,265.4472,0.0,-1222.66,0
GRID,29103,0,264.4521,0.0,-1224.53,0
GRID,29104,0,263.4447,0.0,-1226.39,0
GRID,29105,0,262.425,0.0,-1228.24,0
GRID,29106,0,261.3929,0.0,-1230.09,0
GRID,29107,0,260.3487,0.0,-1231.93,0
GRID,29108,0,259.2923,0.0,-1233.77,0
GRID,29109,0,258.2237,0.0,-1235.6,0
GRID,29110,0,257.1431,0.0,-1237.42,0
GRID,29111,0,256.0504,0.0,-1239.23,0
GRID,29112,0,254.9457,0.0,-1241.04,0
GRID,29113,0,253.8291,0.0,-1242.83,0
GRID,29114,0,252.7006,0.0,-1244.63,0
GRID,29115,0,251.5603,0.0,-1246.41,0
GRID,29116,0,250.4081,0.0,-1248.19,0
GRID,29117,0,249.2443,0.0,-1249.96,0
GRID,29118,0,248.0687,0.0,-1251.72,0
GRID,29119,0,246.8815,0.0,-1253.47,0
GRID,29120,0,245.6827,0.0,-1255.22,0
GRID,29121,0,244.4723,0.0,-1256.96,0
GRID,29122,0,243.2505,0.0,-1258.69,0
GRID,29123,0,242.0172,0.0,-1260.41,0
GRID,29124,0,240.7725,0.0,-1262.12,0
GRID,29125,0,239.5166,0.0,-1263.83,0
GRID,29126,0,238.2493,0.0,-1265.52,0
GRID,29127,0,236.9709,0.0,-1267.21,0
GRID,29128,0,235.6813,0.0,-1268.89,0
GRID,29129,0,234.3806,0.0,-1270.56,0
GRID,29130,0,233.0688,0.0,-1272.23,0
GRID,29131,0,231.7461,0.0,-1273.88,0
GRID,29132,0,230.4124,0.0,-1275.53,0
GRID,29133,0,229.0679,0.0,-1277.16,0
GRID,29134,0,227.7125,0.0,-1278.79,0
GRID,29135,0,226.3464,0.0,-1280.41,0
GRID,29136,0,224.9696,0.0,-1282.02,0
GRID,29137,0,223.5821,0.0,-1283.62,0
GRID,29138,0,222.184,0.0,-1285.21,0
GRID,29139,0,220.7754,0.0,-1286.8,0
GRID,29140,0,219.3564,0.0,-1288.37,0
GRID,29141,0,217.927,0.0,-1289.93,0
GRID,29142,0,216.4874,0.0,-1291.49,0
GRID,29143,0,215.0375,0.0,-1293.03,0
GRID,29144,0,213.5775,0.0,-1294.57,0
GRID,29145,0,212.1073,0.0,-1296.09,0
GRID,29146,0,210.6272,0.0,-1297.61,0
GRID,29147,0,209.1371,0.0,-1299.11,0
GRID,29148,0,207.6256,0.0,-1300.63,0
GRID,29149,0,206.1134,0.0,-1302.15,0
GRID,29150,0,204.6004,0.0,-1303.66,0
GRID,29151,0,203.0867,0.0,-1305.18,0
GRID,29152,0,201.5747,0.0,-1306.69,0
GRID,29153,0,200.0627,0.0,-1308.2,0
GRID,29154,0,198.5506,0.0,-1309.71,0
GRID,29155,0,197.0386,0.0,-1311.22,0
GRID,29156,0,195.5265,0.0,-1312.74,0
GRID,29157,0,194.0145,0.0,-1314.25,0
GRID,29158,0,192.5025,0.0,-1315.76,0
GRID,29159,0,190.9904,0.0,-1317.27,0
GRID,29160,0,189.4784,0.0,-1318.79,0
GRID,29161,0,187.9637,0.0,-1320.3,0
GRID,29162,0,186.4483,0.0,-1321.81,0
GRID,29163,0,184.9323,0.0,-1323.33,0
GRID,29164,0,183.4156,0.0,-1324.84,0
GRID,29165,0,181.8982,0.0,-1326.35,0
GRID,29166,0,180.3802,0.0,-1327.86,0
GRID,29167,0,178.8616,0.0,-1329.37,0
GRID,29168,0,177.3423,0.0,-1330.88,0
GRID,29169,0,175.8225,0.0,-1332.39,0
GRID,29170,0,174.302,0.0,-1333.89,0
GRID,29171,0,172.7809,0.0,-1335.4,0
GRID,29172,0,171.2591,0.0,-1336.91,0
GRID,29173,0,169.7368,0.0,-1338.41,0
GRID,29174,0,168.2139,0.0,-1339.92,0
GRID,29175,0,166.6905,0.0,-1341.42,0
GRID,29176,0,165.1664,0.0,-1342.92,0
GRID,29177,0,163.6418,0.0,-1344.43,0
GRID,29178,0,162.1166,0.0,-1345.93,0
GRID,29179,0,160.5909,0.0,-1347.43,0
GRID,29180,0,159.0646,0.0,-1348.93,0
GRID,29181,0,157.5378,0.0,-1350.43,0
GRID,29182,0,156.0105,0.0,-1351.93,0
GRID,29183,0,154.4826,0.0,-1353.42,0
GRID,29184,0,152.9542,0.0,-1354.92,0
GRID,29185,0,151.4253,0.0,-1356.42,0
GRID,29186,0,149.896,0.0,-1357.91,0
GRID,29187,0,148.3661,0.0,-1359.41,0
GRID,29188,0,146.8357,0.0,-1360.9,0
GRID,29189,0,145.3049,0.0,-1362.39,0
GRID,29190,0,143.7736,0.0,-1363.88,0
GRID,29191,0,142.2418,0.0,-1365.38,0
GRID,29192,0,140.7096,0.0,-1366.87,0
GRID,29193,0,139.177,0.0,-1368.36,0
GRID,29194,0,137.6439,0.0,-1369.84,0
GRID,29195,0,136.1104,0.0,-1371.33,0
GRID,29196,0,134.5764,0.0,-1372.82,0
GRID,29197,0,133.0421,0.0,-1374.3,0
GRID,29198,0,131.5073,0.0,-1375.79,0
GRID,29199,0,129.9722,0.0,-1377.27,0
GRID,29200,0,128.4366,0.0,-1378.76,0
GRID,29201,0,126.9007,0.0,-1380.24,0
GRID,29202,0,125.3644,0.0,-1381.72,0
GRID,29203,0,123.8278,0.0,-1383.2,0
GRID,29204,0,122.2908,0.0,-1384.68,0
GRID,29205,0,120.7534,0.0,-1386.16,0
GRID,29206,0,119.2158,0.0,-1387.64,0
GRID,29207,0,117.6778,0.0,-1389.12,0
GRID,29208,0,116.1394,0.0,-1390.59,0
GRID,29209,0,114.6008,0.0,-1392.07,0
GRID,29210,0,113.0479,0.0,-1393.54,0
GRID,29211,0,111.476,0.0,-1394.98,0
GRID,29212,0,109.8854,0.0,-1396.41,0
GRID,29213,0,108.2762,0.0,-1397.82,0
GRID,29214,0,106.6488,0.0,-1399.2,0
GRID,29215,0,105.0032,0.0,-1400.57,0
GRID,29216,0,103.3399,0.0,-1401.91,0
GRID,29217,0,101.659,0.0,-1403.23,0
GRID,29218,0,99.96067,0.0,-1404.53,0
GRID,29219,0,98.24541,0.0,-1405.81,0
GRID,29220,0,96.51349,0.0,-1407.07,0
GRID,29221,0,94.76519,0.0,-1408.3,0
GRID,29222,0,93.00083,0.0,-1409.51,0
GRID,29223,0,91.22071,0.0,-1410.69,0
GRID,29224,0,89.42512,0.0,-1411.86,0
GRID,29225,0,87.61436,0.0,-1413.0,0
GRID,29226,0,85.78874,0.0,-1414.11,0
GRID,29227,0,83.94857,0.0,-1415.2,0
GRID,29228,0,82.09416,0.0,-1416.27,0
GRID,29229,0,80.22584,0.0,-1417.32,0
GRID,29230,0,78.34392,0.0,-1418.34,0
GRID,29231,0,76.44874,0.0,-1419.33,0
GRID,29232,0,74.54061,0.0,-1420.3,0
GRID,29233,0,72.61986,0.0,-1421.24,0
GRID,29234,0,70.6868,0.0,-1422.16,0
GRID,29235,0,68.74177,0.0,-1423.06,0
GRID,29236,0,66.78509,0.0,-1423.93,0
GRID,29237,0,64.8171,0.0,-1424.77,0
GRID,29238,0,62.83816,0.0,-1425.59,0
GRID,29239,0,60.84858,0.0,-1426.38,0
GRID,29240,0,58.84872,0.0,-1427.15,0
GRID,29241,0,56.83892,0.0,-1427.89,0
GRID,29242,0,54.81951,0.0,-1428.6,0
GRID,29243,0,52.79084,0.0,-1429.29,0
GRID,29244,0,50.75324,0.0,-1429.95,0
GRID,29245,0,48.70708,0.0,-1430.58,0
GRID,29246,0,46.6527,0.0,-1431.19,0
GRID,29247,0,44.59046,0.0,-1431.77,0
GRID,29248,0,42.52071,0.0,-1432.32,0
GRID,29249,0,40.4438,0.0,-1432.85,0
GRID,29250,0,38.36009,0.0,-1433.35,0
GRID,29251,0,36.26992,0.0,-1433.82,0
GRID,29252,0,34.17366,0.0,-1434.26,0
GRID,29253,0,32.07166,0.0,-1434.68,0
GRID,29254,0,29.96429,0.0,-1435.07,0
GRID,29255,0,27.85191,0.0,-1435.43,0
GRID,29256,0,25.73487,0.0,-1435.77,0
GRID,29257,0,23.61355,0.0,-1436.07,0
GRID,29258,0,21.4883,0.0,-1436.35,0
GRID,29259,0,19.35949,0.0,-1436.6,0
GRID,29260,0,17.22748,0.0,-1436.83,0
GRID,29261,0,15.09263,0.0,-1437.02,0
GRID,29262,0,12.95531,0.0,-1437.19,0
GRID,29263,0,10.81588,0.0,-1437.33,0
GRID,29264,0,8.67471,0.0,-1437.44,0
GRID,29265,0,6.532171,0.0,-1437.53,0
GRID,29266,0,4.388628,0.0,-1437.58,0
GRID,29267,0,2.244448,0.0,-1437.61,0
GRID,29268,0,301.8017,0.0,-1052.25,0
GRID,29269,0,301.8017,0.0,-1054.5,0
GRID,29270,0,301.8017,0.0,-1056.75,0
GRID,29271,0,301.8017,0.0,-1059.01,0
GRID,29272,0,301.8017,0.0,-1061.26,0
GRID,29273,0,301.8017,0.0,-1063.51,0
GRID,29274,0,301.8017,0.0,-1065.76,0
GRID,29275,0,301.7948,0.0,-1067.86,0
GRID,29276,0,301.7747,0.0,-1069.97,0
GRID,29277,0,301.7416,0.0,-1072.07,0
GRID,29278,0,301.6952,0.0,-1074.17,0
GRID,29279,0,301.6358,0.0,-1076.27,0
GRID,29280,0,301.5631,0.0,-1078.38,0
GRID,29281,0,301.4773,0.0,-1080.48,0
GRID,29282,0,301.3783,0.0,-1082.58,0
GRID,29283,0,301.2662,0.0,-1084.68,0
GRID,29284,0,301.1408,0.0,-1086.78,0
GRID,29285,0,301.0023,0.0,-1088.88,0
GRID,29286,0,300.8505,0.0,-1090.97,0
GRID,29287,0,300.6855,0.0,-1093.07,0
GRID,29288,0,300.5073,0.0,-1095.17,0
GRID,29289,0,300.316,0.0,-1097.26,0
GRID,29290,0,300.1115,0.0,-1099.35,0
GRID,29291,0,299.8938,0.0,-1101.44,0
GRID,29292,0,299.663,0.0,-1103.53,0
GRID,29293,0,299.4191,0.0,-1105.62,0
GRID,29294,0,299.162,0.0,-1107.71,0
GRID,29295,0,298.8919,0.0,-1109.8,0
GRID,29296,0,298.6086,0.0,-1111.88,0
GRID,29297,0,298.3123,0.0,-1113.96,0
GRID,29298,0,298.0029,0.0,-1116.04,0
GRID,29299,0,297.6805,0.0,-1118.12,0
GRID,29300,0,297.345,0.0,-1120.19,0
GRID,29301,0,296.9965,0.0,-1122.27,0
GRID,29302,0,296.6349,0.0,-1124.34,0
GRID,29303,0,296.2603,0.0,-1126.41,0
GRID,29304,0,295.8728,0.0,-1128.47,0
GRID,29305,0,295.4723,0.0,-1130.54,0
GRID,29306,0,295.0588,0.0,-1132.6,0
GRID,29307,0,294.6324,0.0,-1134.66,0
GRID,29308,0,294.1931,0.0,-1136.71,0
GRID,29309,0,293.7409,0.0,-1138.76,0
GRID,29310,0,293.2758,0.0,-1140.81,0
GRID,29311,0,292.7978,0.0,-1142.86,0
GRID,29312,0,292.307,0.0,-1144.9,0
GRID,29313,0,291.8034,0.0,-1146.95,0
GRID,29314,0,291.287,0.0,-1148.98,0
GRID,29315,0,290.7578,0.0,-1151.02,0
GRID,29316,0,290.2158,0.0,-1153.05,0
GRID,29317,0,289.6611,0.0,-1155.07,0
GRID,29318,0,289.0936,0.0,-1157.1,0
GRID,29319,0,288.5135,0.0,-1159.12,0
GRID,29320,0,287.9207,0.0,-1161.13,0
GRID,29321,0,287.3153,0.0,-1163.14,0
GRID,29322,0,286.6973,0.0,-1165.15,0
GRID,29323,0,286.0664,0.0,-1167.16,0
GRID,29324,0,285.4225,0.0,-1169.16,0
GRID,29325,0,284.7655,0.0,-1171.15,0
GRID,29326,0,284.0955,0.0,-1173.14,0
GRID,29327,0,283.4125,0.0,-1175.13,0
GRID,29328,0,282.7165,0.0,-1177.11,0
GRID,29329,0,282.0077,0.0,-1179.09,0
GRID,29330,0,281.2859,0.0,-1181.06,0
GRID,29331,0,280.5512,0.0,-1183.03,0
GRID,29332,0,279.8037,0.0,-1185.0,0
GRID,29333,0,279.0434,0.0,-1186.96,0
GRID,29334,0,278.2703,0.0,-1188.91,0
GRID,29335,0,277.4845,0.0,-1190.86,0
GRID,29336,0,276.6859,0.0,-1192.8,0
GRID,29337,0,275.8747,0.0,-1194.74,0
GRID,29338,0,275.0508,0.0,-1196.67,0
GRID,29339,0,274.2144,0.0,-1198.6,0
GRID,29340,0,273.3653,0.0,-1200.53,0
GRID,29341,0,272.5037,0.0,-1202.44,0
GRID,29342,0,271.6297,0.0,-1204.35,0
GRID,29343,0,270.7431,0.0,-1206.26,0
GRID,29344,0,269.8441,0.0,-1208.16,0
GRID,29345,0,268.9327,0.0,-1210.05,0
GRID,29346,0,268.009,0.0,-1211.94,0
GRID,29347,0,267.0729,0.0,-1213.82,0
GRID,29348,0,266.1246,0.0,-1215.7,0
GRID,29349,0,265.164,0.0,-1217.57,0
GRID,29350,0,264.1913,0.0,-1219.43,0
GRID,29351,0,263.2064,0.0,-1221.29,0
GRID,29352,0,262.2094,0.0,-1223.14,0
GRID,29353,0,261.2003,0.0,-1224.99,0
GRID,29354,0,260.1792,0.0,-1226.82,0
GRID,29355,0,259.1461,0.0,-1228.65,0
GRID,29356,0,258.1011,0.0,-1230.48,0
GRID,29357,0,257.0442,0.0,-1232.3,0
GRID,29358,0,255.9754,0.0,-1234.11,0
GRID,29359,0,254.8948,0.0,-1235.91,0
GRID,29360,0,253.8025,0.0,-1237.71,0
GRID,29361,0,252.6984,0.0,-1239.5,0
GRID,29362,0,251.5827,0.0,-1241.28,0
GRID,29363,0,250.4554,0.0,-1243.05,0
GRID,29364,0,249.3165,0.0,-1244.82,0
GRID,29365,0,248.1661,0.0,-1246.58,0
GRID,29366,0,247.0042,0.0,-1248.33,0
GRID,29367,0,245.8309,0.0,-1250.08,0
GRID,29368,0,244.6463,0.0,-1251.82,0
GRID,29369,0,243.4503,0.0,-1253.54,0
GRID,29370,0,242.243,0.0,-1255.27,0
GRID,29371,0,241.0245,0.0,-1256.98,0
GRID,29372,0,239.7948,0.0,-1258.69,0
GRID,29373,0,238.554,0.0,-1260.38,0
GRID,29374,0,237.3022,0.0,-1262.07,0
GRID,29375,0,236.0393,0.0,-1263.75,0
GRID,29376,0,234.7655,0.0,-1265.43,0
GRID,29377,0,233.4808,0.0,-1267.09,0
GRID,29378,0,232.1853,0.0,-1268.75,0
GRID,29379,0,230.8789,0.0,-1270.4,0
GRID,29380,0,229.5619,0.0,-1272.04,0
GRID,29381,0,228.2341,0.0,-1273.67,0
GRID,29382,0,226.8957,0.0,-1275.29,0
GRID,29383,0,225.5468,0.0,-1276.9,0
GRID,29384,0,224.1873,0.0,-1278.51,0
GRID,29385,0,222.8173,0.0,-1280.1,0
GRID,29386,0,221.437,0.0,-1281.69,0
GRID,29387,0,220.0463,0.0,-1283.27,0
GRID,29388,0,218.6453,0.0,-1284.84,0
GRID,29389,0,217.2341,0.0,-1286.4,0
GRID,29390,0,215.8128,0.0,-1287.95,0
GRID,29391,0,214.3814,0.0,-1289.49,0
GRID,29392,0,212.94,0.0,-1291.02,0
GRID,29393,0,211.4887,0.0,-1292.54,0
GRID,29394,0,210.0276,0.0,-1294.05,0
GRID,29395,0,208.5566,0.0,-1295.56,0
GRID,29396,0,207.0759,0.0,-1297.05,0
GRID,29397,0,205.5738,0.0,-1298.55,0
GRID,29398,0,204.0714,0.0,-1300.06,0
GRID,29399,0,202.5685,0.0,-1301.56,0
GRID,29400,0,201.0654,0.0,-1303.07,0
GRID,29401,0,199.563,0.0,-1304.57,0
GRID,29402,0,198.0606,0.0,-1306.07,0
GRID,29403,0,196.5583,0.0,-1307.57,0
GRID,29404,0,195.0559,0.0,-1309.08,0
GRID,29405,0,193.5535,0.0,-1310.58,0
GRID,29406,0,192.0512,0.0,-1312.08,0
GRID,29407,0,190.5488,0.0,-1313.58,0
GRID,29408,0,189.0465,0.0,-1315.09,0
GRID,29409,0,187.5441,0.0,-1316.59,0
GRID,29410,0,186.0404,0.0,-1318.09,0
GRID,29411,0,184.5364,0.0,-1319.59,0
GRID,29412,0,183.032,0.0,-1321.1,0
GRID,29413,0,181.5273,0.0,-1322.6,0
GRID,29414,0,180.0223,0.0,-1324.1,0
GRID,29415,0,178.5169,0.0,-1325.6,0
GRID,29416,0,177.0113,0.0,-1327.1,0
GRID,29417,0,175.5053,0.0,-1328.6,0
GRID,29418,0,173.999,0.0,-1330.11,0
GRID,29419,0,172.4924,0.0,-1331.61,0
GRID,29420,0,170.9855,0.0,-1333.11,0
GRID,29421,0,169.4783,0.0,-1334.6,0
GRID,29422,0,167.9708,0.0,-1336.1,0
GRID,29423,0,166.4631,0.0,-1337.6,0
GRID,29424,0,164.955,0.0,-1339.1,0
GRID,29425,0,163.4466,0.0,-1340.6,0
GRID,29426,0,161.938,0.0,-1342.1,0
GRID,29427,0,160.429,0.0,-1343.59,0
GRID,29428,0,158.9198,0.0,-1345.09,0
GRID,29429,0,157.4103,0.0,-1346.59,0
GRID,29430,0,155.9006,0.0,-1348.08,0
GRID,29431,0,154.3906,0.0,-1349.58,0
GRID,29432,0,152.8803,0.0,-1351.07,0
GRID,29433,0,151.3698,0.0,-1352.57,0
GRID,29434,0,149.859,0.0,-1354.06,0
GRID,29435,0,148.3479,0.0,-1355.56,0
GRID,29436,0,146.8367,0.0,-1357.05,0
GRID,29437,0,145.3251,0.0,-1358.54,0
GRID,29438,0,143.8134,0.0,-1360.04,0
GRID,29439,0,142.3014,0.0,-1361.53,0
GRID,29440,0,140.7892,0.0,-1363.02,0
GRID,29441,0,139.2767,0.0,-1364.51,0
GRID,29442,0,137.764,0.0,-1366.0,0
GRID,29443,0,136.2511,0.0,-1367.49,0
GRID,29444,0,134.738,0.0,-1368.98,0
GRID,29445,0,133.2247,0.0,-1370.47,0
GRID,29446,0,131.7112,0.0,-1371.96,0
GRID,29447,0,130.1975,0.0,-1373.45,0
GRID,29448,0,128.6836,0.0,-1374.94,0
GRID,29449,0,127.1695,0.0,-1376.43,0
GRID,29450,0,125.6552,0.0,-1377.91,0
GRID,29451,0,124.1407,0.0,-1379.4,0
GRID,29452,0,122.626,0.0,-1380.89,0
GRID,29453,0,121.1112,0.0,-1382.37,0
GRID,29454,0,119.5962,0.0,-1383.86,0
GRID,29455,0,118.081,0.0,-1385.35,0
GRID,29456,0,116.5656,0.0,-1386.83,0
GRID,29457,0,115.0501,0.0,-1388.32,0
GRID,29458,0,113.5344,0.0,-1389.8,0
GRID,29459,0,112.0045,0.0,-1391.28,0
GRID,29460,0,110.4553,0.0,-1392.73,0
GRID,29461,0,108.8872,0.0,-1394.17,0
GRID,29462,0,107.3004,0.0,-1395.59,0
GRID,29463,0,105.6951,0.0,-1396.98,0
GRID,29464,0,104.0716,0.0,-1398.36,0
GRID,29465,0,102.43,0.0,-1399.71,0
GRID,29466,0,100.7708,0.0,-1401.04,0
GRID,29467,0,99.09394,0.0,-1402.35,0
GRID,29468,0,97.39997,0.0,-1403.64,0
GRID,29469,0,95.68916,0.0,-1404.9,0
GRID,29470,0,93.96181,0.0,-1406.15,0
GRID,29471,0,92.21821,0.0,-1407.37,0
GRID,29472,0,90.45867,0.0,-1408.56,0
GRID,29473,0,88.6835,0.0,-1409.74,0
GRID,29474,0,86.89299,0.0,-1410.89,0
GRID,29475,0,85.08744,0.0,-1412.01,0
GRID,29476,0,83.26716,0.0,-1413.12,0
GRID,29477,0,81.43248,0.0,-1414.2,0
GRID,29478,0,79.58372,0.0,-1415.25,0
GRID,29479,0,77.72119,0.0,-1416.28,0
GRID,29480,0,75.84523,0.0,-1417.29,0
GRID,29481,0,73.95615,0.0,-1418.27,0
GRID,29482,0,72.05428,0.0,-1419.22,0
GRID,29483,0,70.13994,0.0,-1420.15,0
GRID,29484,0,68.21346,0.0,-1421.06,0
GRID,29485,0,66.27517,0.0,-1421.94,0
GRID,29486,0,64.32542,0.0,-1422.79,0
GRID,29487,0,62.36454,0.0,-1423.62,0
GRID,29488,0,60.39287,0.0,-1424.43,0
GRID,29489,0,58.41076,0.0,-1425.2,0
GRID,29490,0,56.41855,0.0,-1425.96,0
GRID,29491,0,54.41658,0.0,-1426.68,0
GRID,29492,0,52.40518,0.0,-1427.38,0
GRID,29493,0,50.38471,0.0,-1428.05,0
GRID,29494,0,48.35552,0.0,-1428.7,0
GRID,29495,0,46.31796,0.0,-1429.32,0
GRID,29496,0,44.27239,0.0,-1429.91,0
GRID,29497,0,42.21916,0.0,-1430.47,0
GRID,29498,0,40.15862,0.0,-1431.01,0
GRID,29499,0,38.09114,0.0,-1431.52,0
GRID,29500,0,36.01706,0.0,-1432.01,0
GRID,29501,0,33.93674,0.0,-1432.46,0
GRID,29502,0,31.85054,0.0,-1432.89,0
GRID,29503,0,29.75883,0.0,-1433.29,0
GRID,29504,0,27.66197,0.0,-1433.67,0
GRID,29505,0,25.56032,0.0,-1434.01,0
GRID,29506,0,23.45425,0.0,-1434.33,0
GRID,29507,0,21.34412,0.0,-1434.62,0
GRID,29508,0,19.23029,0.0,-1434.89,0
GRID,29509,0,17.11313,0.0,-1435.12,0
GRID,29510,0,14.99301,0.0,-1435.33,0
GRID,29511,0,12.87028,0.0,-1435.51,0
GRID,29512,0,10.74533,0.0,-1435.66,0
GRID,29513,0,8.618507,0.0,-1435.79,0
GRID,29514,0,6.490196,0.0,-1435.88,0
GRID,29515,0,4.360762,0.0,-1435.95,0
GRID,29516,0,2.230573,0.0,-1435.99,0
GRID,29517,0,.1,0.0,406.2983,0
GRID,29518,0,.1,0.0,404.4966,0
GRID,29519,0,.1,0.0,402.695,0
GRID,29520,0,.1,0.0,400.8933,0
GRID,29521,0,.1,0.0,399.0916,0
GRID,29522,0,.1,0.0,397.29,0
GRID,29523,0,.1,0.0,395.4883,0
GRID,29524,0,.1,0.0,393.6866,0
GRID,29525,0,.1,0.0,391.885,0
GRID,29526,0,.1,0.0,390.0833,0
GRID,29527,0,.1,0.0,388.2816,0
GRID,29528,0,.1,0.0,386.48,0
GRID,29529,0,.1,0.0,384.6783,0
GRID,29530,0,.1,0.0,382.8766,0
GRID,29531,0,.1,0.0,381.075,0
GRID,29532,0,.1,0.0,379.2733,0
GRID,29533,0,.1,0.0,377.4716,0
GRID,29534,0,.1,0.0,375.67,0
GRID,29535,0,.1,0.0,373.8683,0
GRID,29536,0,.1,0.0,372.0666,0
GRID,29537,0,.1,0.0,370.265,0
GRID,29538,0,.1,0.0,368.4633,0
GRID,29539,0,.1,0.0,366.6616,0
GRID,29540,0,.1,0.0,364.86,0
GRID,29541,0,.1,0.0,363.0583,0
GRID,29542,0,.1,0.0,361.2566,0
GRID,29543,0,.1,0.0,359.455,0
GRID,29544,0,.1,0.0,357.6533,0
GRID,29545,0,.1,0.0,355.8516,0
GRID,29546,0,.1,0.0,354.05,0
GRID,29547,0,.1,0.0,352.2483,0
GRID,29548,0,.1,0.0,350.4466,0
GRID,29549,0,.1,0.0,348.645,0
GRID,29550,0,.1,0.0,346.8433,0
GRID,29551,0,.1,0.0,345.0416,0
GRID,29552,0,.1,0.0,343.24,0
GRID,29553,0,.1,0.0,341.4383,0
GRID,29554,0,.1,0.0,339.6366,0
GRID,29555,0,.1,0.0,337.835,0
GRID,29556,0,.1,0.0,336.0333,0
GRID,29557,0,.1,0.0,334.2316,0
GRID,29558,0,.1,0.0,332.43,0
GRID,29559,0,.1,0.0,330.6283,0
GRID,29560,0,.1,0.0,328.8266,0
GRID,29561,0,.1,0.0,327.025,0
GRID,29562,0,.1,0.0,325.2233,0
GRID,29563,0,.1,0.0,323.4216,0
GRID,29564,0,.1,0.0,321.62,0
GRID,29565,0,.1,0.0,319.8183,0
GRID,29566,0,.1,0.0,318.0166,0
GRID,29567,0,.1,0.0,316.215,0
GRID,29568,0,.1,0.0,314.4133,0
GRID,29569,0,.1,0.0,312.6116,0
GRID,29570,0,.1,0.0,310.81,0
GRID,29571,0,.1,0.0,309.0083,0
GRID,29572,0,.1,0.0,307.2066,0
GRID,29573,0,.1,0.0,305.405,0
GRID,29574,0,.1,0.0,303.6033,0
GRID,29575,0,.1,0.0,301.8016,0
GRID,29576,0,2.33286,0.0,299.9906,0
GRID,29577,0,4.565592,0.0,299.9647,0
GRID,29578,0,6.798071,0.0,299.9223,0
GRID,29579,0,9.030175,0.0,299.8634,0
GRID,29580,0,11.26178,0.0,299.7879,0
GRID,29581,0,13.49276,0.0,299.6958,0
GRID,29582,0,15.72299,0.0,299.5872,0
GRID,29583,0,17.95236,0.0,299.462,0
GRID,29584,0,20.18072,0.0,299.3203,0
GRID,29585,0,22.40797,0.0,299.1619,0
GRID,29586,0,24.63398,0.0,298.9869,0
GRID,29587,0,26.85862,0.0,298.7953,0
GRID,29588,0,29.08177,0.0,298.5871,0
GRID,29589,0,31.30331,0.0,298.3623,0
GRID,29590,0,33.52312,0.0,298.1211,0
GRID,29591,0,35.74107,0.0,297.8633,0
GRID,29592,0,37.95705,0.0,297.589,0
GRID,29593,0,40.17092,0.0,297.2983,0
GRID,29594,0,42.38256,0.0,296.9911,0
GRID,29595,0,44.59186,0.0,296.6674,0
GRID,29596,0,46.79869,0.0,296.3273,0
GRID,29597,0,49.00292,0.0,295.9708,0
GRID,29598,0,51.20444,0.0,295.5979,0
GRID,29599,0,53.40312,0.0,295.2086,0
GRID,29600,0,55.59885,0.0,294.8029,0
GRID,29601,0,57.79149,0.0,294.3809,0
GRID,29602,0,59.98093,0.0,293.9426,0
GRID,29603,0,62.16704,0.0,293.488,0
GRID,29604,0,64.34972,0.0,293.0172,0
GRID,29605,0,66.52883,0.0,292.5301,0
GRID,29606,0,68.70426,0.0,292.0269,0
GRID,29607,0,70.87588,0.0,291.5074,0
GRID,29608,0,73.04357,0.0,290.9719,0
GRID,29609,0,75.20722,0.0,290.4202,0
GRID,29610,0,77.3667,0.0,289.8524,0
GRID,29611,0,79.5219,0.0,289.2685,0
GRID,29612,0,81.67268,0.0,288.6686,0
GRID,29613,0,83.81894,0.0,288.0527,0
GRID,29614,0,85.96056,0.0,287.4209,0
GRID,29615,0,88.09742,0.0,286.7731,0
GRID,29616,0,90.2294,0.0,286.1095,0
GRID,29617,0,92.35638,0.0,285.43,0
GRID,29618,0,94.47824,0.0,284.7347,0
GRID,29619,0,96.59488,0.0,284.0236,0
GRID,29620,0,98.70616,0.0,283.2968,0
GRID,29621,0,100.812,0.0,282.5543,0
GRID,29622,0,102.9122,0.0,281.7962,0
GRID,29623,0,105.0067,0.0,281.0224,0
GRID,29624,0,107.0954,0.0,280.233,0
GRID,29625,0,109.1782,0.0,279.4282,0
GRID,29626,0,111.2549,0.0,278.6078,0
GRID,29627,0,113.3255,0.0,277.772,0
GRID,29628,0,115.3898,0.0,276.9209,0
GRID,29629,0,117.4477,0.0,276.0544,0
GRID,29630,0,119.4991,0.0,275.1726,0
GRID,29631,0,121.5438,0.0,274.2756,0
GRID,29632,0,123.5819,0.0,273.3633,0
GRID,29633,0,125.6131,0.0,272.436,0
GRID,29634,0,127.6373,0.0,271.4935,0
GRID,29635,0,129.6545,0.0,270.536,0
GRID,29636,0,131.6644,0.0,269.5635,0
GRID,29637,0,133.6671,0.0,268.576,0
GRID,29638,0,135.6624,0.0,267.5737,0
GRID,29639,0,137.6501,0.0,266.5566,0
GRID,29640,0,139.6303,0.0,265.5247,0
GRID,29641,0,141.6027,0.0,264.4781,0
GRID,29642,0,143.5672,0.0,263.4168,0
GRID,29643,0,145.5238,0.0,262.341,0
GRID,29644,0,147.4724,0.0,261.2506,0
GRID,29645,0,149.4128,0.0,260.1458,0
GRID,29646,0,151.3449,0.0,259.0265,0
GRID,29647,0,153.2686,0.0,257.8929,0
GRID,29648,0,155.1838,0.0,256.745,0
GRID,29649,0,157.0904,0.0,255.5828,0
GRID,29650,0,158.9883,0.0,254.4065,0
GRID,29651,0,160.8774,0.0,253.2161,0
GRID,29652,0,162.7576,0.0,252.0117,0
GRID,29653,0,164.6288,0.0,250.7934,0
GRID,29654,0,166.4909,0.0,249.5611,0
GRID,29655,0,168.3438,0.0,248.3151,0
GRID,29656,0,170.1873,0.0,247.0552,0
GRID,29657,0,172.0214,0.0,245.7817,0
GRID,29658,0,173.8459,0.0,244.4946,0
GRID,29659,0,175.6609,0.0,243.1939,0
GRID,29660,0,177.466,0.0,241.8797,0
GRID,29661,0,179.2614,0.0,240.5521,0
GRID,29662,0,181.0468,0.0,239.2112,0
GRID,29663,0,182.8222,0.0,237.8571,0
GRID,29664,0,184.5875,0.0,236.4898,0
GRID,29665,0,186.3426,0.0,235.1094,0
GRID,29666,0,188.0873,0.0,233.716,0
GRID,29667,0,189.8216,0.0,232.3096,0
GRID,29668,0,191.5454,0.0,230.8903,0
GRID,29669,0,193.2586,0.0,229.4583,0
GRID,29670,0,194.9611,0.0,228.0135,0
GRID,29671,0,196.6528,0.0,226.5561,0
GRID,29672,0,198.3335,0.0,225.0862,0
GRID,29673,0,200.0033,0.0,223.6038,0
GRID,29674,0,201.6621,0.0,222.109,0
GRID,29675,0,203.3096,0.0,220.6019,0
GRID,29676,0,204.9459,0.0,219.0825,0
GRID,29677,0,206.5708,0.0,217.5511,0
GRID,29678,0,208.1843,0.0,216.0076,0
GRID,29679,0,209.7863,0.0,214.4521,0
GRID,29680,0,211.3766,0.0,212.8848,0
GRID,29681,0,212.9552,0.0,211.3056,0
GRID,29682,0,214.522,0.0,209.7148,0
GRID,29683,0,216.077,0.0,208.1123,0
GRID,29684,0,217.6199,0.0,206.4983,0
GRID,29685,0,219.1509,0.0,204.8728,0
GRID,29686,0,220.6696,0.0,203.236,0
GRID,29687,0,222.1762,0.0,201.588,0
GRID,29688,0,223.6704,0.0,199.9288,0
GRID,29689,0,225.1523,0.0,198.2585,0
GRID,29690,0,226.6217,0.0,196.5772,0
GRID,29691,0,228.0785,0.0,194.8851,0
GRID,29692,0,229.5227,0.0,193.1821,0
GRID,29693,0,230.9542,0.0,191.4685,0
GRID,29694,0,232.3728,0.0,189.7442,0
GRID,29695,0,233.7786,0.0,188.0094,0
GRID,29696,0,235.1715,0.0,186.2642,0
GRID,29697,0,236.5513,0.0,184.5087,0
GRID,29698,0,237.918,0.0,182.7429,0
GRID,29699,0,239.2716,0.0,180.9671,0
GRID,29700,0,240.6119,0.0,179.1812,0
GRID,29701,0,241.9388,0.0,177.3854,0
GRID,29702,0,243.2524,0.0,175.5798,0
GRID,29703,0,244.5525,0.0,173.7644,0
GRID,29704,0,245.839,0.0,171.9394,0
GRID,29705,0,247.1119,0.0,170.1049,0
GRID,29706,0,248.3712,0.0,168.261,0
GRID,29707,0,249.6166,0.0,166.4077,0
GRID,29708,0,250.8482,0.0,164.5452,0
GRID,29709,0,252.066,0.0,162.6736,0
GRID,29710,0,253.2698,0.0,160.793,0
GRID,29711,0,254.4595,0.0,158.9035,0
GRID,29712,0,255.6352,0.0,157.0052,0
GRID,29713,0,256.7967,0.0,155.0982,0
GRID,29714,0,257.9439,0.0,153.1826,0
GRID,29715,0,259.0769,0.0,151.2585,0
GRID,29716,0,260.1956,0.0,149.326,0
GRID,29717,0,261.2998,0.0,147.3853,0
GRID,29718,0,262.3895,0.0,145.4364,0
GRID,29719,0,263.4647,0.0,143.4794,0
GRID,29720,0,264.5253,0.0,141.5145,0
GRID,29721,0,265.5712,0.0,139.5418,0
GRID,29722,0,266.6025,0.0,137.5613,0
GRID,29723,0,267.6189,0.0,135.5732,0
GRID,29724,0,268.6206,0.0,133.5776,0
GRID,29725,0,269.6074,0.0,131.5746,0
GRID,29726,0,270.5792,0.0,129.5643,0
GRID,29727,0,271.536,0.0,127.5468,0
GRID,29728,0,272.4778,0.0,125.5223,0
GRID,29729,0,273.4045,0.0,123.4907,0
GRID,29730,0,274.3161,0.0,121.4524,0
GRID,29731,0,275.2124,0.0,119.4073,0
GRID,29732,0,276.0935,0.0,117.3556,0
GRID,29733,0,276.9593,0.0,115.2975,0
GRID,29734,0,277.8098,0.0,113.2329,0
GRID,29735,0,278.6449,0.0,111.1621,0
GRID,29736,0,279.4645,0.0,109.0851,0
GRID,29737,0,280.2687,0.0,107.002,0
GRID,29738,0,281.0574,0.0,104.913,0
GRID,29739,0,281.8304,0.0,102.8183,0
GRID,29740,0,282.5879,0.0,100.7178,0
GRID,29741,0,283.3297,0.0,98.61172,0
GRID,29742,0,284.0558,0.0,96.5002,0
GRID,29743,0,284.7662,0.0,94.38333,0
GRID,29744,0,285.4607,0.0,92.26123,0
GRID,29745,0,286.1395,0.0,90.13402,0
GRID,29746,0,286.8025,0.0,88.00183,0
GRID,29747,0,287.4495,0.0,85.86475,0
GRID,29748,0,288.0807,0.0,83.72293,0
GRID,29749,0,288.6958,0.0,81.57646,0
GRID,29750,0,289.295,0.0,79.42547,0
GRID,29751,0,289.8782,0.0,77.27009,0
GRID,29752,0,290.4452,0.0,75.11042,0
GRID,29753,0,290.9962,0.0,72.94658,0
GRID,29754,0,291.5311,0.0,70.77871,0
GRID,29755,0,292.0498,0.0,68.60691,0
GRID,29756,0,292.5523,0.0,66.43132,0
GRID,29757,0,293.0386,0.0,64.25204,0
GRID,29758,0,293.5088,0.0,62.06921,0
GRID,29759,0,293.9626,0.0,59.88294,0
GRID,29760,0,294.4002,0.0,57.69336,0
GRID,29761,0,294.8214,0.0,55.50057,0
GRID,29762,0,295.2264,0.0,53.30472,0
GRID,29763,0,295.6149,0.0,51.1059,0
GRID,29764,0,295.9871,0.0,48.90426,0
GRID,29765,0,296.3429,0.0,46.69991,0
GRID,29766,0,296.6822,0.0,44.49296,0
GRID,29767,0,297.0052,0.0,42.28356,0
GRID,29768,0,297.3116,0.0,40.07181,0
GRID,29769,0,297.6017,0.0,37.85785,0
GRID,29770,0,297.8752,0.0,35.64178,0
GRID,29771,0,298.1322,0.0,33.42375,0
GRID,29772,0,298.3728,0.0,31.20386,0
GRID,29773,0,298.5968,0.0,28.98224,0
GRID,29774,0,298.8042,0.0,26.75902,0
GRID,29775,0,298.9951,0.0,24.53431,0
GRID,29776,0,299.1693,0.0,22.30825,0
GRID,29777,0,299.327,0.0,20.08095,0
GRID,29778,0,299.468,0.0,17.85253,0
GRID,29779,0,299.5925,0.0,15.62313,0
GRID,29780,0,299.7003,0.0,13.39286,0
GRID,29781,0,299.7916,0.0,11.16185,0
GRID,29782,0,299.8664,0.0,8.93022,0
GRID,29783,0,299.9246,0.0,6.698097,0
GRID,29784,0,299.9662,0.0,4.465603,0
GRID,29785,0,299.9914,0.0,2.232863,0
GRID,29786,0,408.0884,0.0,3.03761,0
GRID,29787,0,408.0544,0.0,6.075053,0
GRID,29788,0,407.9978,0.0,9.112159,0
GRID,29789,0,407.9186,0.0,12.14876,0
GRID,29790,0,407.817,0.0,15.18469,0
GRID,29791,0,407.6927,0.0,18.21978,0
GRID,29792,0,407.5459,0.0,21.25386,0
GRID,29793,0,407.3766,0.0,24.28676,0
GRID,29794,0,407.1846,0.0,27.31831,0
GRID,29795,0,406.97,0.0,30.34836,0
GRID,29796,0,406.7328,0.0,33.37671,0
GRID,29797,0,406.4731,0.0,36.40322,0
GRID,29798,0,406.1909,0.0,39.42772,0
GRID,29799,0,405.8862,0.0,42.45003,0
GRID,29800,0,405.559,0.0,45.46998,0
GRID,29801,0,405.2093,0.0,48.48742,0
GRID,29802,0,404.8371,0.0,51.50217,0
GRID,29803,0,404.4426,0.0,54.51407,0
GRID,29804,0,404.0256,0.0,57.52295,0
GRID,29805,0,403.5863,0.0,60.52865,0
GRID,29806,0,403.1246,0.0,63.53098,0
GRID,29807,0,402.6405,0.0,66.5298,0
GRID,29808,0,402.1341,0.0,69.52493,0
GRID,29809,0,401.6055,0.0,72.51621,0
GRID,29810,0,401.0546,0.0,75.50347,0
GRID,29811,0,400.4815,0.0,78.48655,0
GRID,29812,0,399.8862,0.0,81.46528,0
GRID,29813,0,399.2688,0.0,84.4395,0
GRID,29814,0,398.6292,0.0,87.40904,0
GRID,29815,0,397.9676,0.0,90.37374,0
GRID,29816,0,397.2839,0.0,93.33343,0
GRID,29817,0,396.5781,0.0,96.28794,0
GRID,29818,0,395.8505,0.0,99.23713,0
GRID,29819,0,395.1008,0.0,102.1808,0
GRID,29820,0,394.3293,0.0,105.1188,0
GRID,29821,0,393.536,0.0,108.051,0
GRID,29822,0,392.7208,0.0,110.9773,0
GRID,29823,0,391.8839,0.0,113.8973,0
GRID,29824,0,391.0253,0.0,116.8111,0
GRID,29825,0,390.145,0.0,119.7184,0
GRID,29826,0,389.2431,0.0,122.619,0
GRID,29827,0,388.3196,0.0,125.5129,0
GRID,29828,0,387.3746,0.0,128.3998,0
GRID,29829,0,386.4082,0.0,131.2796,0
GRID,29830,0,385.4203,0.0,134.1521,0
GRID,29831,0,384.4111,0.0,137.0172,0
GRID,29832,0,383.3806,0.0,139.8746,0
GRID,29833,0,382.3288,0.0,142.7244,0
GRID,29834,0,381.2559,0.0,145.5662,0
GRID,29835,0,380.1619,0.0,148.4,0
GRID,29836,0,379.0467,0.0,151.2255,0
GRID,29837,0,377.9106,0.0,154.0427,0
GRID,29838,0,376.7535,0.0,156.8513,0
GRID,29839,0,375.5756,0.0,159.6513,0
GRID,29840,0,374.3769,0.0,162.4424,0
GRID,29841,0,373.1574,0.0,165.2245,0
GRID,29842,0,371.9173,0.0,167.9974,0
GRID,29843,0,370.6565,0.0,170.7611,0
GRID,29844,0,369.3752,0.0,173.5153,0
GRID,29845,0,368.0735,0.0,176.2598,0
GRID,29846,0,366.7513,0.0,178.9946,0
GRID,29847,0,365.4088,0.0,181.7195,0
GRID,29848,0,364.0461,0.0,184.4343,0
GRID,29849,0,362.6632,0.0,187.1389,0
GRID,29850,0,361.2602,0.0,189.8331,0
GRID,29851,0,359.8372,0.0,192.5168,0
GRID,29852,0,358.3943,0.0,195.1899,0
GRID,29853,0,356.9315,0.0,197.8521,0
GRID,29854,0,355.449,0.0,200.5034,0
GRID,29855,0,353.9467,0.0,203.1436,0
GRID,29856,0,352.4249,0.0,205.7725,0
GRID,29857,0,350.8835,0.0,208.39,0
GRID,29858,0,349.3226,0.0,210.9959,0
GRID,29859,0,347.7424,0.0,213.5902,0
GRID,29860,0,346.143,0.0,216.1726,0
GRID,29861,0,344.5244,0.0,218.7431,0
GRID,29862,0,342.8867,0.0,221.3014,0
GRID,29863,0,341.23,0.0,223.8475,0
GRID,29864,0,339.5544,0.0,226.3812,0
GRID,29865,0,337.8599,0.0,228.9023,0
GRID,29866,0,336.1468,0.0,231.4108,0
GRID,29867,0,334.415,0.0,233.9064,0
GRID,29868,0,332.6647,0.0,236.3891,0
GRID,29869,0,330.896,0.0,238.8586,0
GRID,29870,0,329.1089,0.0,241.315,0
GRID,29871,0,327.3036,0.0,243.758,0
GRID,29872,0,325.4802,0.0,246.1874,0
GRID,29873,0,323.6387,0.0,248.6033,0
GRID,29874,0,321.7793,0.0,251.0053,0
GRID,29875,0,319.9021,0.0,253.3935,0
GRID,29876,0,318.0072,0.0,255.7676,0
GRID,29877,0,316.0946,0.0,258.1275,0
GRID,29878,0,314.1645,0.0,260.4731,0
GRID,29879,0,312.217,0.0,262.8043,0
GRID,29880,0,310.2522,0.0,265.121,0
GRID,29881,0,308.2703,0.0,267.4229,0
GRID,29882,0,306.2712,0.0,269.7101,0
GRID,29883,0,304.2552,0.0,271.9823,0
GRID,29884,0,302.2223,0.0,274.2394,0
GRID,29885,0,300.1727,0.0,276.4814,0
GRID,29886,0,298.1065,0.0,278.708,0
GRID,29887,0,296.0237,0.0,280.9192,0
GRID,29888,0,293.9245,0.0,283.1148,0
GRID,29889,0,291.8091,0.0,285.2947,0
GRID,29890,0,289.6774,0.0,287.4588,0
GRID,29891,0,287.5298,0.0,289.607,0
GRID,29892,0,285.3662,0.0,291.7391,0
GRID,29893,0,283.1868,0.0,293.8551,0
GRID,29894,0,280.9917,0.0,295.9548,0
GRID,29895,0,278.781,0.0,298.0382,0
GRID,29896,0,276.5549,0.0,300.105,0
GRID,29897,0,274.3135,0.0,302.1551,0
GRID,29898,0,272.0568,0.0,304.1885,0
GRID,29899,0,269.7851,0.0,306.2051,0
GRID,29900,0,267.4985,0.0,308.2047,0
GRID,29901,0,265.197,0.0,310.1872,0
GRID,29902,0,262.8808,0.0,312.1526,0
GRID,29903,0,260.5501,0.0,314.1007,0
GRID,29904,0,258.205,0.0,316.0313,0
GRID,29905,0,255.8455,0.0,317.9445,0
GRID,29906,0,253.4719,0.0,319.84,0
GRID,29907,0,251.0842,0.0,321.7178,0
GRID,29908,0,248.6826,0.0,323.5778,0
GRID,29909,0,246.2672,0.0,325.4198,0
GRID,29910,0,243.8382,0.0,327.2438,0
GRID,29911,0,241.3956,0.0,329.0497,0
GRID,29912,0,238.9397,0.0,330.8374,0
GRID,29913,0,236.4706,0.0,332.6068,0
GRID,29914,0,233.9883,0.0,334.3577,0
GRID,29915,0,231.4931,0.0,336.0901,0
GRID,29916,0,228.9851,0.0,337.8038,0
GRID,29917,0,226.4644,0.0,339.4989,0
GRID,29918,0,223.9311,0.0,341.1751,0
GRID,29919,0,221.3854,0.0,342.8324,0
GRID,29920,0,218.8275,0.0,344.4708,0
GRID,29921,0,216.2574,0.0,346.09,0
GRID,29922,0,213.6754,0.0,347.6901,0
GRID,29923,0,211.0815,0.0,349.2709,0
GRID,29924,0,208.476,0.0,350.8324,0
GRID,29925,0,205.8588,0.0,352.3744,0
GRID,29926,0,203.2303,0.0,353.897,0
GRID,29927,0,200.5905,0.0,355.3999,0
GRID,29928,0,197.9396,0.0,356.8831,0
GRID,29929,0,195.2777,0.0,358.3465,0
GRID,29930,0,192.605,0.0,359.7901,0
GRID,29931,0,189.9217,0.0,361.2137,0
GRID,29932,0,187.2278,0.0,362.6174,0
GRID,29933,0,184.5235,0.0,364.0009,0
GRID,29934,0,181.809,0.0,365.3643,0
GRID,29935,0,179.0845,0.0,366.7074,0
GRID,29936,0,176.35,0.0,368.0303,0
GRID,29937,0,173.6058,0.0,369.3327,0
GRID,29938,0,170.8519,0.0,370.6146,0
GRID,29939,0,168.0886,0.0,371.8761,0
GRID,29940,0,165.3159,0.0,373.1169,0
GRID,29941,0,162.5341,0.0,374.3371,0
GRID,29942,0,159.7433,0.0,375.5365,0
GRID,29943,0,156.9437,0.0,376.7151,0
GRID,29944,0,154.1353,0.0,377.8729,0
GRID,29945,0,151.3184,0.0,379.0097,0
GRID,29946,0,148.4932,0.0,380.1255,0
GRID,29947,0,145.6596,0.0,381.2202,0
GRID,29948,0,142.8181,0.0,382.2938,0
GRID,29949,0,139.9686,0.0,383.3463,0
GRID,29950,0,137.1113,0.0,384.3775,0
GRID,29951,0,134.2465,0.0,385.3874,0
GRID,29952,0,131.3742,0.0,386.376,0
GRID,29953,0,128.4947,0.0,387.3431,0
GRID,29954,0,125.608,0.0,388.2888,0
GRID,29955,0,122.7144,0.0,389.213,0
GRID,29956,0,119.814,0.0,390.1156,0
GRID,29957,0,116.9069,0.0,390.9966,0
GRID,29958,0,113.9933,0.0,391.856,0
GRID,29959,0,111.0735,0.0,392.6936,0
GRID,29960,0,108.1475,0.0,393.5095,0
GRID,29961,0,105.2155,0.0,394.3035,0
GRID,29962,0,102.2776,0.0,395.0758,0
GRID,29963,0,99.33412,0.0,395.8261,0
GRID,29964,0,96.38512,0.0,396.5545,0
GRID,29965,0,93.43078,0.0,397.261,0
GRID,29966,0,90.47126,0.0,397.9454,0
GRID,29967,0,87.50672,0.0,398.6078,0
GRID,29968,0,84.53734,0.0,399.2481,0
GRID,29969,0,81.56327,0.0,399.8663,0
GRID,29970,0,78.58468,0.0,400.4623,0
GRID,29971,0,75.60174,0.0,401.0361,0
GRID,29972,0,72.61461,0.0,401.5877,0
GRID,29973,0,69.62347,0.0,402.1171,0
GRID,29974,0,66.62846,0.0,402.6242,0
GRID,29975,0,63.62976,0.0,403.109,0
GRID,29976,0,60.62754,0.0,403.5714,0
GRID,29977,0,57.62195,0.0,404.0115,0
GRID,29978,0,54.61318,0.0,404.4292,0
GRID,29979,0,51.60137,0.0,404.8245,0
GRID,29980,0,48.58671,0.0,405.1974,0
GRID,29981,0,45.56936,0.0,405.5478,0
GRID,29982,0,42.54948,0.0,405.8758,0
GRID,29983,0,39.52725,0.0,406.1812,0
GRID,29984,0,36.50283,0.0,406.4642,0
GRID,29985,0,33.47638,0.0,406.7247,0
GRID,29986,0,30.44808,0.0,406.9626,0
GRID,29987,0,27.41809,0.0,407.1779,0
GRID,29988,0,24.38658,0.0,407.3706,0
GRID,29989,0,21.35372,0.0,407.5407,0
GRID,29990,0,18.31968,0.0,407.6883,0
GRID,29991,0,15.28462,0.0,407.8132,0
GRID,29992,0,12.24872,0.0,407.9157,0
GRID,29993,0,9.212134,0.0,407.9955,0
GRID,29994,0,6.175041,0.0,408.0529,0
GRID,29995,0,3.137607,0.0,408.0877,0
GRID,29996,0,301.8017,0.0,0.0,0
GRID,29997,0,303.6033,0.0,1.67E-15,0
GRID,29998,0,305.405,0.0,2.5E-15,0
GRID,29999,0,307.2067,0.0,3.33E-15,0
GRID,30000,0,309.0083,0.0,4.16E-15,0
GRID,30001,0,310.81,0.0,5.0E-15,0
GRID,30002,0,312.6117,0.0,5.83E-15,0
GRID,30003,0,314.4133,0.0,6.66E-15,0
GRID,30004,0,316.215,0.0,7.5E-15,0
GRID,30005,0,318.0167,0.0,8.33E-15,0
GRID,30006,0,319.8183,0.0,9.16E-15,0
GRID,30007,0,321.62,0.0,1.0E-14,0
GRID,30008,0,323.4217,0.0,1.08E-14,0
GRID,30009,0,325.2233,0.0,1.17E-14,0
GRID,30010,0,327.025,0.0,1.25E-14,0
GRID,30011,0,328.8267,0.0,1.33E-14,0
GRID,30012,0,330.6283,0.0,1.42E-14,0
GRID,30013,0,332.43,0.0,1.5E-14,0
GRID,30014,0,334.2317,0.0,1.58E-14,0
GRID,30015,0,336.0333,0.0,1.67E-14,0
GRID,30016,0,337.835,0.0,1.75E-14,0
GRID,30017,0,339.6367,0.0,1.83E-14,0
GRID,30018,0,341.4383,0.0,1.92E-14,0
GRID,30019,0,343.24,0.0,2.0E-14,0
GRID,30020,0,345.0417,0.0,2.08E-14,0
GRID,30021,0,346.8433,0.0,2.17E-14,0
GRID,30022,0,348.645,0.0,2.25E-14,0
GRID,30023,0,350.4467,0.0,2.33E-14,0
GRID,30024,0,352.2483,0.0,2.42E-14,0
GRID,30025,0,354.05,0.0,2.5E-14,0
GRID,30026,0,355.8517,0.0,2.58E-14,0
GRID,30027,0,357.6533,0.0,2.67E-14,0
GRID,30028,0,359.455,0.0,2.75E-14,0
GRID,30029,0,361.2567,0.0,2.83E-14,0
GRID,30030,0,363.0583,0.0,2.92E-14,0
GRID,30031,0,364.86,0.0,3.0E-14,0
GRID,30032,0,366.6617,0.0,3.08E-14,0
GRID,30033,0,368.4633,0.0,3.17E-14,0
GRID,30034,0,370.265,0.0,3.25E-14,0
GRID,30035,0,372.0667,0.0,3.33E-14,0
GRID,30036,0,373.8683,0.0,3.42E-14,0
GRID,30037,0,375.67,0.0,3.5E-14,0
GRID,30038,0,377.4717,0.0,3.58E-14,0
GRID,30039,0,379.2733,0.0,3.67E-14,0
GRID,30040,0,381.075,0.0,3.75E-14,0
GRID,30041,0,382.8767,0.0,3.83E-14,0
GRID,30042,0,384.6783,0.0,3.91E-14,0
GRID,30043,0,386.48,0.0,4.0E-14,0
GRID,30044,0,388.2817,0.0,4.08E-14,0
GRID,30045,0,390.0833,0.0,4.16E-14,0
GRID,30046,0,391.885,0.0,4.25E-14,0
GRID,30047,0,393.6867,0.0,4.33E-14,0
GRID,30048,0,395.4883,0.0,4.41E-14,0
GRID,30049,0,397.29,0.0,4.5E-14,0
GRID,30050,0,399.0917,0.0,4.58E-14,0
GRID,30051,0,400.8933,0.0,4.66E-14,0
GRID,30052,0,402.695,0.0,4.75E-14,0
GRID,30053,0,404.4967,0.0,4.83E-14,0
GRID,30054,0,406.2983,0.0,4.91E-14,0
GRID,30055,0,407.79,0.0,-30.0,0
GRID,30056,0,407.79,0.0,-60.0,0
GRID,30057,0,407.79,0.0,-90.0,0
GRID,30058,0,407.79,0.0,-120.0,0
GRID,30059,0,407.79,0.0,-150.0,0
GRID,30060,0,407.79,0.0,-180.0,0
GRID,30061,0,407.79,0.0,-210.0,0
GRID,30062,0,407.79,0.0,-240.0,0
GRID,30063,0,407.79,0.0,-270.0,0
GRID,30064,0,407.79,0.0,-300.0,0
GRID,30065,0,407.79,0.0,-330.0,0
GRID,30066,0,407.79,0.0,-360.0,0
GRID,30067,0,407.79,0.0,-390.0,0
GRID,30068,0,407.79,0.0,-420.0,0
GRID,30069,0,407.79,0.0,-450.0,0
GRID,30070,0,407.79,0.0,-480.0,0
GRID,30071,0,407.79,0.0,-510.0,0
GRID,30072,0,407.79,0.0,-540.0,0
GRID,30073,0,407.79,0.0,-570.0,0
GRID,30074,0,407.79,0.0,-600.0,0
GRID,30075,0,407.79,0.0,-630.0,0
GRID,30076,0,407.79,0.0,-660.0,0
GRID,30077,0,407.79,0.0,-690.0,0
GRID,30078,0,407.79,0.0,-720.0,0
GRID,30079,0,407.79,0.0,-750.0,0
GRID,30080,0,407.79,0.0,-780.0,0
GRID,30081,0,407.79,0.0,-810.0,0
GRID,30082,0,407.79,0.0,-840.0,0
GRID,30083,0,407.79,0.0,-870.0,0
GRID,30084,0,407.79,0.0,-900.0,0
GRID,30085,0,407.79,0.0,-930.0,0
GRID,30086,0,407.79,0.0,-960.0,0
GRID,30087,0,407.79,0.0,-990.0,0
GRID,30088,0,407.79,0.0,-1020.0,0
GRID,30089,0,407.79,0.0,-1050.0,0
GRID,30090,0,407.79,0.0,-1080.0,0
GRID,30091,0,407.79,0.0,-1110.0,0
GRID,30092,0,407.79,0.0,-1140.0,0
GRID,30093,0,407.79,0.0,-1170.0,0
GRID,30094,0,414.3817,0.0,-1200.0,0
GRID,30095,0,420.9733,0.0,-1200.0,0
GRID,30096,0,427.565,0.0,-1200.0,0
GRID,30097,0,434.1567,0.0,-1200.0,0
GRID,30098,0,440.7483,0.0,-1200.0,0
GRID,30099,0,447.34,0.0,-1200.0,0
GRID,30100,0,453.9317,0.0,-1200.0,0
GRID,30101,0,460.5233,0.0,-1200.0,0
GRID,30102,0,467.115,0.0,-1200.0,0
GRID,30103,0,473.7067,0.0,-1200.0,0
GRID,30104,0,480.2983,0.0,-1200.0,0
GRID,30105,0,480.2983,0.0,0.0,0
GRID,30106,0,473.7067,0.0,0.0,0
GRID,30107,0,467.115,0.0,0.0,0
GRID,30108,0,460.5233,0.0,0.0,0
GRID,30109,0,453.9317,0.0,0.0,0
GRID,30110,0,447.34,0.0,0.0,0
GRID,30111,0,440.7483,0.0,0.0,0
GRID,30112,0,434.1567,0.0,0.0,0
GRID,30113,0,427.565,0.0,0.0,0
GRID,30114,0,420.9733,0.0,0.0,0
GRID,30115,0,414.3817,0.0,0.0,0
GRID,30116,0,486.89,0.0,-1170.0,0
GRID,30117,0,486.89,0.0,-1140.0,0
GRID,30118,0,486.89,0.0,-1110.0,0
GRID,30119,0,486.89,0.0,-1080.0,0
GRID,30120,0,486.89,0.0,-1050.0,0
GRID,30121,0,486.89,0.0,-1020.0,0
GRID,30122,0,486.89,0.0,-990.0,0
GRID,30123,0,486.89,0.0,-960.0,0
GRID,30124,0,486.89,0.0,-930.0,0
GRID,30125,0,486.89,0.0,-900.0,0
GRID,30126,0,486.89,0.0,-870.0,0
GRID,30127,0,486.89,0.0,-840.0,0
GRID,30128,0,486.89,0.0,-810.0,0
GRID,30129,0,486.89,0.0,-780.0,0
GRID,30130,0,486.89,0.0,-750.0,0
GRID,30131,0,486.89,0.0,-720.0,0
GRID,30132,0,486.89,0.0,-690.0,0
GRID,30133,0,486.89,0.0,-660.0,0
GRID,30134,0,486.89,0.0,-630.0,0
GRID,30135,0,486.89,0.0,-600.0,0
GRID,30136,0,486.89,0.0,-570.0,0
GRID,30137,0,486.89,0.0,-540.0,0
GRID,30138,0,486.89,0.0,-510.0,0
GRID,30139,0,486.89,0.0,-480.0,0
GRID,30140,0,486.89,0.0,-450.0,0
GRID,30141,0,486.89,0.0,-420.0,0
GRID,30142,0,486.89,0.0,-390.0,0
GRID,30143,0,486.89,0.0,-360.0,0
GRID,30144,0,486.89,0.0,-330.0,0
GRID,30145,0,486.89,0.0,-300.0,0
GRID,30146,0,486.89,0.0,-270.0,0
GRID,30147,0,486.89,0.0,-240.0,0
GRID,30148,0,486.89,0.0,-210.0,0
GRID,30149,0,486.89,0.0,-180.0,0
GRID,30150,0,486.89,0.0,-150.0,0
GRID,30151,0,486.89,0.0,-120.0,0
GRID,30152,0,486.89,0.0,-90.0,0
GRID,30153,0,486.89,0.0,-60.0,0
GRID,30154,0,486.89,0.0,-30.0,0
GRID,30155,0,.1,0.0,-1436.0,0
GRID,30156,0,.1,0.0,-1437.61,0
GRID,30157,0,.1,0.0,-1439.22,0
GRID,30158,0,.1,0.0,-1440.83,0
GRID,30159,0,.1,0.0,-1442.44,0
GRID,30160,0,.1,0.0,-1444.05,0
GRID,30161,0,.1,0.0,-1445.66,0
GRID,30162,0,.1,0.0,-1447.27,0
GRID,30163,0,.1,0.0,-1448.88,0
GRID,30164,0,.1,0.0,-1450.49,0
GRID,30165,0,.1,0.0,-1452.1,0
GRID,30166,0,.1,0.0,-1453.71,0
GRID,30167,0,.1,0.0,-1455.32,0
GRID,30168,0,.1,0.0,-1456.93,0
GRID,30169,0,.1,0.0,-1458.54,0
GRID,30170,0,.1,0.0,-1460.15,0
GRID,30171,0,.1,0.0,-1461.76,0
GRID,30172,0,.1,0.0,-1463.37,0
GRID,30173,0,.1,0.0,-1464.98,0
GRID,30174,0,.1,0.0,-1466.59,0
GRID,30175,0,.1,0.0,-1468.2,0
GRID,30176,0,.1,0.0,-1469.81,0
GRID,30177,0,.1,0.0,-1471.42,0
GRID,30178,0,.1,0.0,-1473.03,0
GRID,30179,0,.1,0.0,-1474.64,0
GRID,30180,0,.1,0.0,-1476.25,0
GRID,30181,0,.1,0.0,-1477.86,0
GRID,30182,0,.1,0.0,-1479.46,0
GRID,30183,0,.1,0.0,-1481.07,0
GRID,30184,0,.1,0.0,-1482.68,0
GRID,30185,0,.1,0.0,-1484.29,0
GRID,30186,0,.1,0.0,-1485.9,0
GRID,30187,0,.1,0.0,-1487.51,0
GRID,30188,0,.1,0.0,-1489.12,0
GRID,30189,0,.1,0.0,-1490.73,0
GRID,30190,0,.1,0.0,-1492.34,0
GRID,30191,0,.1,0.0,-1493.95,0
GRID,30192,0,.1,0.0,-1495.56,0
GRID,30193,0,.1,0.0,-1497.17,0
GRID,30194,0,.1,0.0,-1498.78,0
GRID,30195,0,.1,0.0,-1500.39,0
GRID,30196,0,.1,0.0,-1502.0,0
GRID,30197,0,.1,0.0,-1503.61,0
GRID,30198,0,.1,0.0,-1505.22,0
GRID,30199,0,.1,0.0,-1506.83,0
GRID,30200,0,.1,0.0,-1508.44,0
GRID,30201,0,.1,0.0,-1510.05,0
GRID,30202,0,.1,0.0,-1511.66,0
GRID,30203,0,.1,0.0,-1513.27,0
GRID,30204,0,.1,0.0,-1514.88,0
GRID,30205,0,.1,0.0,-1516.49,0
GRID,30206,0,.1,0.0,-1518.1,0
GRID,30207,0,.1,0.0,-1519.71,0
GRID,30208,0,.1,0.0,-1521.32,0
GRID,30209,0,.1,0.0,-1522.93,0
GRID,30210,0,.1,0.0,-1524.54,0
GRID,30211,0,.1,0.0,-1526.15,0
GRID,30212,0,.1,0.0,-1527.76,0
GRID,30213,0,.1,0.0,-1529.37,0
GRID,30214,0,110.961,0.0,-1389.02,0
GRID,30215,0,109.4345,0.0,-1390.48,0
GRID,30216,0,107.889,0.0,-1391.93,0
GRID,30217,0,106.3245,0.0,-1393.36,0
GRID,30218,0,104.7414,0.0,-1394.76,0
GRID,30219,0,103.1399,0.0,-1396.15,0
GRID,30220,0,101.5202,0.0,-1397.51,0
GRID,30221,0,99.88255,0.0,-1398.85,0
GRID,30222,0,98.22721,0.0,-1400.17,0
GRID,30223,0,96.55453,0.0,-1401.47,0
GRID,30224,0,94.86483,0.0,-1402.74,0
GRID,30225,0,93.15842,0.0,-1404.0,0
GRID,30226,0,91.43559,0.0,-1405.23,0
GRID,30227,0,89.69664,0.0,-1406.43,0
GRID,30228,0,87.94188,0.0,-1407.62,0
GRID,30229,0,86.17161,0.0,-1408.78,0
GRID,30230,0,84.38614,0.0,-1409.91,0
GRID,30231,0,82.58576,0.0,-1411.03,0
GRID,30232,0,80.7708,0.0,-1412.12,0
GRID,30233,0,78.94159,0.0,-1413.18,0
GRID,30234,0,77.09845,0.0,-1414.22,0
GRID,30235,0,75.24171,0.0,-1415.24,0
GRID,30236,0,73.37168,0.0,-1416.23,0
GRID,30237,0,71.4887,0.0,-1417.2,0
GRID,30238,0,69.59308,0.0,-1418.14,0
GRID,30239,0,67.68516,0.0,-1419.06,0
GRID,30240,0,65.76526,0.0,-1419.95,0
GRID,30241,0,63.83374,0.0,-1420.82,0
GRID,30242,0,61.89092,0.0,-1421.66,0
GRID,30243,0,59.93716,0.0,-1422.47,0
GRID,30244,0,57.9728,0.0,-1423.26,0
GRID,30245,0,55.99818,0.0,-1424.02,0
GRID,30246,0,54.01364,0.0,-1424.76,0
GRID,30247,0,52.01952,0.0,-1425.47,0
GRID,30248,0,50.01617,0.0,-1426.15,0
GRID,30249,0,48.00395,0.0,-1426.81,0
GRID,30250,0,45.98322,0.0,-1427.44,0
GRID,30251,0,43.95431,0.0,-1428.05,0
GRID,30252,0,41.91761,0.0,-1428.62,0
GRID,30253,0,39.87345,0.0,-1429.17,0
GRID,30254,0,37.82219,0.0,-1429.7,0
GRID,30255,0,35.7642,0.0,-1430.19,0
GRID,30256,0,33.69982,0.0,-1430.66,0
GRID,30257,0,31.62942,0.0,-1431.1,0
GRID,30258,0,29.55337,0.0,-1431.51,0
GRID,30259,0,27.47203,0.0,-1431.9,0
GRID,30260,0,25.38577,0.0,-1432.26,0
GRID,30261,0,23.29494,0.0,-1432.59,0
GRID,30262,0,21.19993,0.0,-1432.89,0
GRID,30263,0,19.10109,0.0,-1433.17,0
GRID,30264,0,16.99878,0.0,-1433.42,0
GRID,30265,0,14.89338,0.0,-1433.64,0
GRID,30266,0,12.78526,0.0,-1433.83,0
GRID,30267,0,10.67477,0.0,-1433.99,0
GRID,30268,0,8.562305,0.0,-1434.13,0
GRID,30269,0,6.448222,0.0,-1434.24,0
GRID,30270,0,4.332896,0.0,-1434.32,0
GRID,30271,0,2.216698,0.0,-1434.37,0
GRID,30272,0,203.5221,0.0,-1296.48,0
GRID,30273,0,202.0294,0.0,-1297.97,0
GRID,30274,0,200.5367,0.0,-1299.46,0
GRID,30275,0,199.044,0.0,-1300.96,0
GRID,30276,0,197.5513,0.0,-1302.45,0
GRID,30277,0,196.0586,0.0,-1303.94,0
GRID,30278,0,194.5659,0.0,-1305.43,0
GRID,30279,0,193.0732,0.0,-1306.93,0
GRID,30280,0,191.5806,0.0,-1308.42,0
GRID,30281,0,190.0879,0.0,-1309.91,0
GRID,30282,0,188.5952,0.0,-1311.4,0
GRID,30283,0,187.1025,0.0,-1312.9,0
GRID,30284,0,185.6098,0.0,-1314.39,0
GRID,30285,0,184.1171,0.0,-1315.88,0
GRID,30286,0,182.6244,0.0,-1317.38,0
GRID,30287,0,181.1317,0.0,-1318.87,0
GRID,30288,0,179.6391,0.0,-1320.36,0
GRID,30289,0,178.1464,0.0,-1321.85,0
GRID,30290,0,176.6537,0.0,-1323.35,0
GRID,30291,0,175.161,0.0,-1324.84,0
GRID,30292,0,173.6683,0.0,-1326.33,0
GRID,30293,0,172.1756,0.0,-1327.82,0
GRID,30294,0,170.6829,0.0,-1329.32,0
GRID,30295,0,169.1902,0.0,-1330.81,0
GRID,30296,0,167.6976,0.0,-1332.3,0
GRID,30297,0,166.2049,0.0,-1333.8,0
GRID,30298,0,164.7122,0.0,-1335.29,0
GRID,30299,0,163.2195,0.0,-1336.78,0
GRID,30300,0,161.7268,0.0,-1338.27,0
GRID,30301,0,160.2341,0.0,-1339.77,0
GRID,30302,0,158.7414,0.0,-1341.26,0
GRID,30303,0,157.2487,0.0,-1342.75,0
GRID,30304,0,155.756,0.0,-1344.24,0
GRID,30305,0,154.2634,0.0,-1345.74,0
GRID,30306,0,152.7707,0.0,-1347.23,0
GRID,30307,0,151.278,0.0,-1348.72,0
GRID,30308,0,149.7853,0.0,-1350.21,0
GRID,30309,0,148.2926,0.0,-1351.71,0
GRID,30310,0,146.7999,0.0,-1353.2,0
GRID,30311,0,145.3072,0.0,-1354.69,0
GRID,30312,0,143.8145,0.0,-1356.19,0
GRID,30313,0,142.3219,0.0,-1357.68,0
GRID,30314,0,140.8292,0.0,-1359.17,0
GRID,30315,0,139.3365,0.0,-1360.66,0
GRID,30316,0,137.8438,0.0,-1362.16,0
GRID,30317,0,136.3511,0.0,-1363.65,0
GRID,30318,0,134.8584,0.0,-1365.14,0
GRID,30319,0,133.3657,0.0,-1366.63,0
GRID,30320,0,131.873,0.0,-1368.13,0
GRID,30321,0,130.3804,0.0,-1369.62,0
GRID,30322,0,128.8877,0.0,-1371.11,0
GRID,30323,0,127.395,0.0,-1372.61,0
GRID,30324,0,125.9023,0.0,-1374.1,0
GRID,30325,0,124.4096,0.0,-1375.59,0
GRID,30326,0,122.9169,0.0,-1377.08,0
GRID,30327,0,121.4242,0.0,-1378.58,0
GRID,30328,0,119.9315,0.0,-1380.07,0
GRID,30329,0,118.4389,0.0,-1381.56,0
GRID,30330,0,116.9462,0.0,-1383.05,0
GRID,30331,0,115.4535,0.0,-1384.55,0
GRID,30332,0,113.9608,0.0,-1386.04,0
GRID,30333,0,3.049194,0.0,-1531.67,0
GRID,30334,0,6.004839,0.0,-1532.35,0
GRID,30335,0,8.966678,0.0,-1532.99,0
GRID,30336,0,11.93445,0.0,-1533.6,0
GRID,30337,0,14.9079,0.0,-1534.19,0
GRID,30338,0,17.88676,0.0,-1534.75,0
GRID,30339,0,20.87078,0.0,-1535.28,0
GRID,30340,0,23.8597,0.0,-1535.78,0
GRID,30341,0,26.85326,0.0,-1536.26,0
GRID,30342,0,29.85118,0.0,-1536.7,0
GRID,30343,0,32.85319,0.0,-1537.12,0
GRID,30344,0,35.85902,0.0,-1537.51,0
GRID,30345,0,38.8684,0.0,-1537.87,0
GRID,30346,0,41.88105,0.0,-1538.2,0
GRID,30347,0,44.8967,0.0,-1538.5,0
GRID,30348,0,47.91509,0.0,-1538.78,0
GRID,30349,0,50.93595,0.0,-1539.02,0
GRID,30350,0,53.959,0.0,-1539.24,0
GRID,30351,0,56.98397,0.0,-1539.43,0
GRID,30352,0,60.0106,0.0,-1539.59,0
GRID,30353,0,63.03861,0.0,-1539.72,0
GRID,30354,0,66.06772,0.0,-1539.82,0
GRID,30355,0,69.09767,0.0,-1539.9,0
GRID,30356,0,72.12819,0.0,-1539.94,0
GRID,30357,0,75.15899,0.0,-1539.96,0
GRID,30358,0,78.18982,0.0,-1539.95,0
GRID,30359,0,81.2204,0.0,-1539.91,0
GRID,30360,0,84.25046,0.0,-1539.84,0
GRID,30361,0,87.27972,0.0,-1539.74,0
GRID,30362,0,90.30791,0.0,-1539.61,0
GRID,30363,0,93.33477,0.0,-1539.46,0
GRID,30364,0,96.36001,0.0,-1539.27,0
GRID,30365,0,99.38338,0.0,-1539.06,0
GRID,30366,0,102.4046,0.0,-1538.82,0
GRID,30367,0,105.4234,0.0,-1538.55,0
GRID,30368,0,108.4395,0.0,-1538.25,0
GRID,30369,0,111.4526,0.0,-1537.92,0
GRID,30370,0,114.4625,0.0,-1537.57,0
GRID,30371,0,117.4689,0.0,-1537.18,0
GRID,30372,0,120.4715,0.0,-1536.77,0
GRID,30373,0,123.4701,0.0,-1536.33,0
GRID,30374,0,126.4644,0.0,-1535.86,0
GRID,30375,0,129.454,0.0,-1535.36,0
GRID,30376,0,132.4389,0.0,-1534.83,0
GRID,30377,0,135.4186,0.0,-1534.28,0
GRID,30378,0,138.3929,0.0,-1533.7,0
GRID,30379,0,141.3616,0.0,-1533.09,0
GRID,30380,0,144.3243,0.0,-1532.45,0
GRID,30381,0,147.2809,0.0,-1531.78,0
GRID,30382,0,150.231,0.0,-1531.09,0
GRID,30383,0,153.1745,0.0,-1530.36,0
GRID,30384,0,156.1109,0.0,-1529.61,0
GRID,30385,0,159.0401,0.0,-1528.83,0
GRID,30386,0,161.9618,0.0,-1528.03,0
GRID,30387,0,164.8757,0.0,-1527.19,0
GRID,30388,0,167.7816,0.0,-1526.33,0
GRID,30389,0,170.6792,0.0,-1525.44,0
GRID,30390,0,173.5683,0.0,-1524.53,0
GRID,30391,0,176.4485,0.0,-1523.58,0
GRID,30392,0,179.3197,0.0,-1522.61,0
GRID,30393,0,182.1816,0.0,-1521.62,0
GRID,30394,0,185.0339,0.0,-1520.59,0
GRID,30395,0,187.8763,0.0,-1519.54,0
GRID,30396,0,190.7087,0.0,-1518.46,0
GRID,30397,0,193.5307,0.0,-1517.35,0
GRID,30398,0,196.3421,0.0,-1516.22,0
GRID,30399,0,199.1427,0.0,-1515.06,0
GRID,30400,0,201.9322,0.0,-1513.88,0
GRID,30401,0,204.7103,0.0,-1512.67,0
GRID,30402,0,207.4768,0.0,-1511.43,0
GRID,30403,0,210.2315,0.0,-1510.16,0
GRID,30404,0,212.974,0.0,-1508.87,0
GRID,30405,0,215.7043,0.0,-1507.56,0
GRID,30406,0,218.4219,0.0,-1506.22,0
GRID,30407,0,221.1267,0.0,-1504.85,0
GRID,30408,0,223.8184,0.0,-1503.46,0
GRID,30409,0,226.4969,0.0,-1502.04,0
GRID,30410,0,229.1617,0.0,-1500.59,0
GRID,30411,0,231.8128,0.0,-1499.12,0
GRID,30412,0,234.4499,0.0,-1497.63,0
GRID,30413,0,237.0726,0.0,-1496.11,0
GRID,30414,0,239.6809,0.0,-1494.57,0
GRID,30415,0,242.2744,0.0,-1493.0,0
GRID,30416,0,244.853,0.0,-1491.41,0
GRID,30417,0,247.4163,0.0,-1489.79,0
GRID,30418,0,249.9643,0.0,-1488.15,0
GRID,30419,0,252.4965,0.0,-1486.48,0
GRID,30420,0,255.0129,0.0,-1484.79,0
GRID,30421,0,257.5132,0.0,-1483.08,0
GRID,30422,0,259.9971,0.0,-1481.34,0
GRID,30423,0,262.4645,0.0,-1479.58,0
GRID,30424,0,264.9151,0.0,-1477.8,0
GRID,30425,0,267.3486,0.0,-1475.99,0
GRID,30426,0,269.765,0.0,-1474.16,0
GRID,30427,0,272.1639,0.0,-1472.31,0
GRID,30428,0,274.5452,0.0,-1470.44,0
GRID,30429,0,276.9086,0.0,-1468.54,0
GRID,30430,0,279.2539,0.0,-1466.62,0
GRID,30431,0,281.581,0.0,-1464.68,0
GRID,30432,0,283.8895,0.0,-1462.71,0
GRID,30433,0,286.1793,0.0,-1460.73,0
GRID,30434,0,288.4501,0.0,-1458.72,0
GRID,30435,0,290.7018,0.0,-1456.69,0
GRID,30436,0,292.9342,0.0,-1454.64,0
GRID,30437,0,295.1472,0.0,-1452.57,0
GRID,30438,0,297.3405,0.0,-1450.48,0
GRID,30439,0,299.514,0.0,-1448.37,0
GRID,30440,0,299.993,0.0,-1067.76,0
GRID,30441,0,299.9726,0.0,-1069.85,0
GRID,30442,0,299.9389,0.0,-1071.93,0
GRID,30443,0,299.8918,0.0,-1074.02,0
GRID,30444,0,299.8313,0.0,-1076.11,0
GRID,30445,0,299.7574,0.0,-1078.19,0
GRID,30446,0,299.6702,0.0,-1080.28,0
GRID,30447,0,299.5695,0.0,-1082.37,0
GRID,30448,0,299.4554,0.0,-1084.45,0
GRID,30449,0,299.3279,0.0,-1086.53,0
GRID,30450,0,299.187,0.0,-1088.62,0
GRID,30451,0,299.0327,0.0,-1090.7,0
GRID,30452,0,298.8649,0.0,-1092.78,0
GRID,30453,0,298.6837,0.0,-1094.86,0
GRID,30454,0,298.4891,0.0,-1096.94,0
GRID,30455,0,298.2811,0.0,-1099.02,0
GRID,30456,0,298.0598,0.0,-1101.09,0
GRID,30457,0,297.8251,0.0,-1103.17,0
GRID,30458,0,297.577,0.0,-1105.24,0
GRID,30459,0,297.3156,0.0,-1107.31,0
GRID,30460,0,297.0409,0.0,-1109.38,0
GRID,30461,0,296.7528,0.0,-1111.45,0
GRID,30462,0,296.4515,0.0,-1113.51,0
GRID,30463,0,296.1369,0.0,-1115.58,0
GRID,30464,0,295.809,0.0,-1117.64,0
GRID,30465,0,295.4678,0.0,-1119.7,0
GRID,30466,0,295.1133,0.0,-1121.76,0
GRID,30467,0,294.7457,0.0,-1123.81,0
GRID,30468,0,294.3648,0.0,-1125.86,0
GRID,30469,0,293.9706,0.0,-1127.91,0
GRID,30470,0,293.5633,0.0,-1129.96,0
GRID,30471,0,293.1429,0.0,-1132.01,0
GRID,30472,0,292.7092,0.0,-1134.05,0
GRID,30473,0,292.2625,0.0,-1136.09,0
GRID,30474,0,291.8026,0.0,-1138.12,0
GRID,30475,0,291.3296,0.0,-1140.16,0
GRID,30476,0,290.8435,0.0,-1142.19,0
GRID,30477,0,290.3444,0.0,-1144.22,0
GRID,30478,0,289.8323,0.0,-1146.24,0
GRID,30479,0,289.3071,0.0,-1148.26,0
GRID,30480,0,288.7689,0.0,-1150.28,0
GRID,30481,0,288.2177,0.0,-1152.29,0
GRID,30482,0,287.6536,0.0,-1154.3,0
GRID,30483,0,287.0766,0.0,-1156.31,0
GRID,30484,0,286.4866,0.0,-1158.31,0
GRID,30485,0,285.8838,0.0,-1160.31,0
GRID,30486,0,285.2681,0.0,-1162.3,0
GRID,30487,0,284.6396,0.0,-1164.29,0
GRID,30488,0,283.9983,0.0,-1166.28,0
GRID,30489,0,283.3442,0.0,-1168.26,0
GRID,30490,0,282.6774,0.0,-1170.24,0
GRID,30491,0,281.9978,0.0,-1172.22,0
GRID,30492,0,281.3056,0.0,-1174.19,0
GRID,30493,0,280.6007,0.0,-1176.15,0
GRID,30494,0,279.8831,0.0,-1178.11,0
GRID,30495,0,279.1529,0.0,-1180.07,0
GRID,30496,0,278.4102,0.0,-1182.02,0
GRID,30497,0,277.6549,0.0,-1183.97,0
GRID,30498,0,276.8871,0.0,-1185.91,0
GRID,30499,0,276.1068,0.0,-1187.84,0
GRID,30500,0,275.3141,0.0,-1189.77,0
GRID,30501,0,274.5089,0.0,-1191.7,0
GRID,30502,0,273.6914,0.0,-1193.62,0
GRID,30503,0,272.8615,0.0,-1195.54,0
GRID,30504,0,272.0194,0.0,-1197.45,0
GRID,30505,0,271.1649,0.0,-1199.35,0
GRID,30506,0,270.2982,0.0,-1201.25,0
GRID,30507,0,269.4192,0.0,-1203.15,0
GRID,30508,0,268.5281,0.0,-1205.03,0
GRID,30509,0,267.6249,0.0,-1206.92,0
GRID,30510,0,266.7095,0.0,-1208.79,0
GRID,30511,0,265.7821,0.0,-1210.66,0
GRID,30512,0,264.8427,0.0,-1212.53,0
GRID,30513,0,263.8913,0.0,-1214.39,0
GRID,30514,0,262.9279,0.0,-1216.24,0
GRID,30515,0,261.9527,0.0,-1218.08,0
GRID,30516,0,260.9656,0.0,-1219.92,0
GRID,30517,0,259.9666,0.0,-1221.76,0
GRID,30518,0,258.9559,0.0,-1223.58,0
GRID,30519,0,257.9335,0.0,-1225.4,0
GRID,30520,0,256.8993,0.0,-1227.22,0
GRID,30521,0,255.8535,0.0,-1229.02,0
GRID,30522,0,254.7961,0.0,-1230.82,0
GRID,30523,0,253.7271,0.0,-1232.62,0
GRID,30524,0,252.6466,0.0,-1234.4,0
GRID,30525,0,251.5546,0.0,-1236.18,0
GRID,30526,0,250.4512,0.0,-1237.96,0
GRID,30527,0,249.3363,0.0,-1239.72,0
GRID,30528,0,248.2102,0.0,-1241.48,0
GRID,30529,0,247.0728,0.0,-1243.23,0
GRID,30530,0,245.9241,0.0,-1244.97,0
GRID,30531,0,244.7642,0.0,-1246.71,0
GRID,30532,0,243.5932,0.0,-1248.44,0
GRID,30533,0,242.411,0.0,-1250.16,0
GRID,30534,0,241.2178,0.0,-1251.87,0
GRID,30535,0,240.0136,0.0,-1253.58,0
GRID,30536,0,238.7985,0.0,-1255.27,0
GRID,30537,0,237.5724,0.0,-1256.96,0
GRID,30538,0,236.3355,0.0,-1258.65,0
GRID,30539,0,235.0878,0.0,-1260.32,0
GRID,30540,0,233.8293,0.0,-1261.99,0
GRID,30541,0,232.5602,0.0,-1263.64,0
GRID,30542,0,231.2804,0.0,-1265.29,0
GRID,30543,0,229.99,0.0,-1266.93,0
GRID,30544,0,228.6891,0.0,-1268.57,0
GRID,30545,0,227.3777,0.0,-1270.19,0
GRID,30546,0,226.0558,0.0,-1271.81,0
GRID,30547,0,224.7236,0.0,-1273.41,0
GRID,30548,0,223.3811,0.0,-1275.01,0
GRID,30549,0,222.0282,0.0,-1276.6,0
GRID,30550,0,220.6651,0.0,-1278.19,0
GRID,30551,0,219.2919,0.0,-1279.76,0
GRID,30552,0,217.9085,0.0,-1281.32,0
GRID,30553,0,216.5151,0.0,-1282.88,0
GRID,30554,0,215.1118,0.0,-1284.42,0
GRID,30555,0,213.6985,0.0,-1285.96,0
GRID,30556,0,212.2754,0.0,-1287.49,0
GRID,30557,0,210.8426,0.0,-1289.0,0
GRID,30558,0,209.4,0.0,-1290.51,0
GRID,30559,0,207.9478,0.0,-1292.01,0
GRID,30560,0,206.486,0.0,-1293.5,0
GRID,30561,0,300.0,0.0,-1052.24,0
GRID,30562,0,300.0,0.0,-1054.48,0
GRID,30563,0,300.0,0.0,-1056.72,0
GRID,30564,0,300.0,0.0,-1058.95,0
GRID,30565,0,300.0,0.0,-1061.19,0
GRID,30566,0,300.0,0.0,-1063.43,0
GRID,30567,0,303.7407,0.0,-1444.16,0
GRID,30568,0,305.8139,0.0,-1442.09,0
GRID,30569,0,307.8871,0.0,-1440.01,0
GRID,30570,0,309.9603,0.0,-1437.94,0
GRID,30571,0,312.0335,0.0,-1435.87,0
GRID,30572,0,314.1067,0.0,-1433.79,0
GRID,30573,0,316.1799,0.0,-1431.72,0
GRID,30574,0,318.2531,0.0,-1429.65,0
GRID,30575,0,322.4489,0.0,-1425.43,0
GRID,30576,0,324.55,0.0,-1423.26,0
GRID,30577,0,326.6293,0.0,-1421.08,0
GRID,30578,0,328.6865,0.0,-1418.87,0
GRID,30579,0,330.7215,0.0,-1416.64,0
GRID,30580,0,332.734,0.0,-1414.39,0
GRID,30581,0,334.7237,0.0,-1412.13,0
GRID,30582,0,336.6904,0.0,-1409.84,0
GRID,30583,0,338.6339,0.0,-1407.53,0
GRID,30584,0,340.554,0.0,-1405.2,0
GRID,30585,0,342.4506,0.0,-1402.85,0
GRID,30586,0,344.3235,0.0,-1400.49,0
GRID,30587,0,346.1725,0.0,-1398.1,0
GRID,30588,0,347.9974,0.0,-1395.7,0
GRID,30589,0,349.798,0.0,-1393.28,0
GRID,30590,0,351.5741,0.0,-1390.84,0
GRID,30591,0,353.3255,0.0,-1388.38,0
GRID,30592,0,355.0522,0.0,-1385.91,0
GRID,30593,0,356.7538,0.0,-1383.42,0
GRID,30594,0,358.4302,0.0,-1380.91,0
GRID,30595,0,360.0813,0.0,-1378.38,0
GRID,30596,0,361.7068,0.0,-1375.84,0
GRID,30597,0,363.3067,0.0,-1373.28,0
GRID,30598,0,364.8808,0.0,-1370.71,0
GRID,30599,0,366.4289,0.0,-1368.12,0
GRID,30600,0,367.9508,0.0,-1365.51,0
GRID,30601,0,369.4463,0.0,-1362.89,0
GRID,30602,0,370.9154,0.0,-1360.25,0
GRID,30603,0,372.3579,0.0,-1357.6,0
GRID,30604,0,373.7737,0.0,-1354.94,0
GRID,30605,0,375.1625,0.0,-1352.26,0
GRID,30606,0,376.5243,0.0,-1349.57,0
GRID,30607,0,377.8589,0.0,-1346.86,0
GRID,30608,0,379.1662,0.0,-1344.14,0
GRID,30609,0,380.4461,0.0,-1341.41,0
GRID,30610,0,381.6983,0.0,-1338.66,0
GRID,30611,0,382.9228,0.0,-1335.9,0
GRID,30612,0,384.1196,0.0,-1333.13,0
GRID,30613,0,385.2883,0.0,-1330.35,0
GRID,30614,0,386.429,0.0,-1327.56,0
GRID,30615,0,387.5415,0.0,-1324.75,0
GRID,30616,0,388.6258,0.0,-1321.94,0
GRID,30617,0,389.6816,0.0,-1319.11,0
GRID,30618,0,390.7089,0.0,-1316.27,0
GRID,30619,0,391.7075,0.0,-1313.43,0
GRID,30620,0,392.6775,0.0,-1310.57,0
GRID,30621,0,393.6186,0.0,-1307.7,0
GRID,30622,0,394.5308,0.0,-1304.83,0
GRID,30623,0,395.414,0.0,-1301.94,0
GRID,30624,0,396.2681,0.0,-1299.05,0
GRID,30625,0,397.0931,0.0,-1296.14,0
GRID,30626,0,397.8887,0.0,-1293.23,0
GRID,30627,0,398.655,0.0,-1290.31,0
GRID,30628,0,399.3919,0.0,-1287.39,0
GRID,30629,0,400.0992,0.0,-1284.45,0
GRID,30630,0,400.777,0.0,-1281.51,0
GRID,30631,0,401.4252,0.0,-1278.57,0
GRID,30632,0,402.0437,0.0,-1275.61,0
GRID,30633,0,402.6324,0.0,-1272.65,0
GRID,30634,0,403.1912,0.0,-1269.69,0
GRID,30635,0,403.7202,0.0,-1266.72,0
GRID,30636,0,404.2192,0.0,-1263.74,0
GRID,30637,0,404.6883,0.0,-1260.76,0
GRID,30638,0,405.1272,0.0,-1257.78,0
GRID,30639,0,405.5362,0.0,-1254.79,0
GRID,30640,0,405.915,0.0,-1251.79,0
GRID,30641,0,406.2636,0.0,-1248.8,0
GRID,30642,0,406.5821,0.0,-1245.79,0
GRID,30643,0,406.8703,0.0,-1242.79,0
GRID,30644,0,407.1282,0.0,-1239.78,0
GRID,30645,0,407.3557,0.0,-1236.78,0
GRID,30646,0,407.5529,0.0,-1233.76,0
GRID,30647,0,407.7198,0.0,-1230.75,0
GRID,30648,0,407.8563,0.0,-1227.74,0
GRID,30649,0,407.9626,0.0,-1224.72,0
GRID,30650,0,408.0386,0.0,-1221.71,0
GRID,30651,0,408.0844,0.0,-1218.69,0
GRID,30652,0,408.1,0.0,-1212.66,0
GRID,30653,0,408.1,0.0,-1209.65,0
GRID,30654,0,408.1,0.0,-1206.63,0
GRID,30655,0,408.1,0.0,-1203.62,0
GRID,30656,0,408.1,0.0,-1200.61,0
GRID,30657,0,408.1,0.0,-1197.6,0
GRID,30658,0,408.1,0.0,-1194.59,0
GRID,30659,0,408.1,0.0,-1191.57,0
GRID,30660,0,408.1,0.0,-1188.56,0
GRID,30661,0,408.1,0.0,-1185.55,0
GRID,30662,0,408.1,0.0,-1182.54,0
GRID,30663,0,408.1,0.0,-1179.52,0
GRID,30664,0,408.1,0.0,-1176.51,0
GRID,30665,0,408.1,0.0,-1173.5,0
GRID,30666,0,408.1,0.0,-1170.49,0
GRID,30667,0,408.1,0.0,-1167.48,0
GRID,30668,0,408.1,0.0,-1164.46,0
GRID,30669,0,408.1,0.0,-1161.45,0
GRID,30670,0,408.1,0.0,-1158.44,0
GRID,30671,0,408.1,0.0,-1155.43,0
GRID,30672,0,408.1,0.0,-1152.41,0
GRID,30673,0,408.1,0.0,-1149.4,0
GRID,30674,0,408.1,0.0,-1146.39,0
GRID,30675,0,408.1,0.0,-1143.38,0
GRID,30676,0,408.1,0.0,-1140.37,0
GRID,30677,0,408.1,0.0,-1137.35,0
GRID,30678,0,408.1,0.0,-1134.34,0
GRID,30679,0,408.1,0.0,-1131.33,0
GRID,30680,0,408.1,0.0,-1128.32,0
GRID,30681,0,408.1,0.0,-1125.3,0
GRID,30682,0,408.1,0.0,-1122.29,0
GRID,30683,0,408.1,0.0,-1119.28,0
GRID,30684,0,408.1,0.0,-1116.27,0
GRID,30685,0,408.1,0.0,-1113.26,0
GRID,30686,0,408.1,0.0,-1110.24,0
GRID,30687,0,408.1,0.0,-1107.23,0
GRID,30688,0,408.1,0.0,-1104.22,0
GRID,30689,0,408.1,0.0,-1101.21,0
GRID,30690,0,408.1,0.0,-1098.2,0
GRID,30691,0,408.1,0.0,-1095.18,0
GRID,30692,0,408.1,0.0,-1092.17,0
GRID,30693,0,408.1,0.0,-1089.16,0
GRID,30694,0,408.1,0.0,-1086.15,0
GRID,30695,0,408.1,0.0,-1083.13,0
GRID,30696,0,408.1,0.0,-1080.12,0
GRID,30697,0,408.1,0.0,-1077.11,0
GRID,30698,0,408.1,0.0,-1074.1,0
GRID,30699,0,408.1,0.0,-1071.09,0
GRID,30700,0,408.1,0.0,-1068.07,0
GRID,30701,0,408.1,0.0,-1065.06,0
GRID,30702,0,408.1,0.0,-1062.05,0
GRID,30703,0,408.1,0.0,-1059.04,0
GRID,30704,0,408.1,0.0,-1056.02,0
GRID,30705,0,408.1,0.0,-1053.01,0
GRID,30706,0,300.0,0.0,-30.0,0
GRID,30707,0,300.0,0.0,-60.0,0
GRID,30708,0,300.0,0.0,-90.0,0
GRID,30709,0,300.0,0.0,-120.0,0
GRID,30710,0,300.0,0.0,-150.0,0
GRID,30711,0,300.0,0.0,-180.0,0
GRID,30712,0,300.0,0.0,-210.0,0
GRID,30713,0,300.0,0.0,-240.0,0
GRID,30714,0,300.0,0.0,-270.0,0
GRID,30715,0,300.0,0.0,-300.0,0
GRID,30716,0,300.0,0.0,-330.0,0
GRID,30717,0,300.0,0.0,-360.0,0
GRID,30718,0,300.0,0.0,-390.0,0
GRID,30719,0,300.0,0.0,-420.0,0
GRID,30720,0,300.0,0.0,-450.0,0
GRID,30721,0,300.0,0.0,-480.0,0
GRID,30722,0,300.0,0.0,-510.0,0
GRID,30723,0,300.0,0.0,-540.0,0
GRID,30724,0,300.0,0.0,-570.0,0
GRID,30725,0,300.0,0.0,-600.0,0
GRID,30726,0,300.0,0.0,-630.0,0
GRID,30727,0,300.0,0.0,-660.0,0
GRID,30728,0,300.0,0.0,-690.0,0
GRID,30729,0,300.0,0.0,-720.0,0
GRID,30730,0,300.0,0.0,-750.0,0
GRID,30731,0,300.0,0.0,-780.0,0
GRID,30732,0,300.0,0.0,-810.0,0
GRID,30733,0,300.0,0.0,-840.0,0
GRID,30734,0,300.0,0.0,-870.0,0
GRID,30735,0,300.0,0.0,-900.0,0
GRID,30736,0,300.0,0.0,-930.0,0
GRID,30737,0,300.0,0.0,-960.0,0
GRID,30738,0,300.0,0.0,-990.0,0
GRID,30739,0,300.0,0.0,-1020.0,0
GRID,30740,0,301.8017,0.0,-1050.0,0
GRID,30741,0,303.6033,0.0,-1050.0,0
GRID,30742,0,305.405,0.0,-1050.0,0
GRID,30743,0,307.2067,0.0,-1050.0,0
GRID,30744,0,309.0083,0.0,-1050.0,0
GRID,30745,0,310.81,0.0,-1050.0,0
GRID,30746,0,312.6117,0.0,-1050.0,0
GRID,30747,0,314.4133,0.0,-1050.0,0
GRID,30748,0,316.215,0.0,-1050.0,0
GRID,30749,0,318.0167,0.0,-1050.0,0
GRID,30750,0,319.8183,0.0,-1050.0,0
GRID,30751,0,321.62,0.0,-1050.0,0
GRID,30752,0,323.4217,0.0,-1050.0,0
GRID,30753,0,325.2233,0.0,-1050.0,0
GRID,30754,0,327.025,0.0,-1050.0,0
GRID,30755,0,328.8267,0.0,-1050.0,0
GRID,30756,0,330.6283,0.0,-1050.0,0
GRID,30757,0,332.43,0.0,-1050.0,0
GRID,30758,0,334.2317,0.0,-1050.0,0
GRID,30759,0,336.0333,0.0,-1050.0,0
GRID,30760,0,337.835,0.0,-1050.0,0
GRID,30761,0,339.6367,0.0,-1050.0,0
GRID,30762,0,341.4383,0.0,-1050.0,0
GRID,30763,0,343.24,0.0,-1050.0,0
GRID,30764,0,345.0417,0.0,-1050.0,0
GRID,30765,0,346.8433,0.0,-1050.0,0
GRID,30766,0,348.645,0.0,-1050.0,0
GRID,30767,0,350.4467,0.0,-1050.0,0
GRID,30768,0,352.2483,0.0,-1050.0,0
GRID,30769,0,354.05,0.0,-1050.0,0
GRID,30770,0,355.8517,0.0,-1050.0,0
GRID,30771,0,357.6533,0.0,-1050.0,0
GRID,30772,0,359.455,0.0,-1050.0,0
GRID,30773,0,361.2567,0.0,-1050.0,0
GRID,30774,0,363.0583,0.0,-1050.0,0
GRID,30775,0,364.86,0.0,-1050.0,0
GRID,30776,0,366.6617,0.0,-1050.0,0
GRID,30777,0,368.4633,0.0,-1050.0,0
GRID,30778,0,370.265,0.0,-1050.0,0
GRID,30779,0,372.0667,0.0,-1050.0,0
GRID,30780,0,373.8683,0.0,-1050.0,0
GRID,30781,0,375.67,0.0,-1050.0,0
GRID,30782,0,377.4717,0.0,-1050.0,0
GRID,30783,0,379.2733,0.0,-1050.0,0
GRID,30784,0,381.075,0.0,-1050.0,0
GRID,30785,0,382.8767,0.0,-1050.0,0
GRID,30786,0,384.6783,0.0,-1050.0,0
GRID,30787,0,386.48,0.0,-1050.0,0
GRID,30788,0,388.2817,0.0,-1050.0,0
GRID,30789,0,390.0833,0.0,-1050.0,0
GRID,30790,0,391.885,0.0,-1050.0,0
GRID,30791,0,393.6867,0.0,-1050.0,0
GRID,30792,0,395.4883,0.0,-1050.0,0
GRID,30793,0,397.29,0.0,-1050.0,0
GRID,30794,0,399.0917,0.0,-1050.0,0
GRID,30795,0,400.8933,0.0,-1050.0,0
GRID,30796,0,402.695,0.0,-1050.0,0
GRID,30797,0,404.4967,0.0,-1050.0,0
GRID,30798,0,406.2983,0.0,-1050.0,0
GRID,30799,0,408.1,0.0,-1020.0,0
GRID,30800,0,408.1,0.0,-990.0,0
GRID,30801,0,408.1,0.0,-960.0,0
GRID,30802,0,408.1,0.0,-930.0,0
GRID,30803,0,408.1,0.0,-900.0,0
GRID,30804,0,408.1,0.0,-870.0,0
GRID,30805,0,408.1,0.0,-840.0,0
GRID,30806,0,408.1,0.0,-810.0,0
GRID,30807,0,408.1,0.0,-780.0,0
GRID,30808,0,408.1,0.0,-750.0,0
GRID,30809,0,408.1,0.0,-720.0,0
GRID,30810,0,408.1,0.0,-690.0,0
GRID,30811,0,408.1,0.0,-660.0,0
GRID,30812,0,408.1,0.0,-630.0,0
GRID,30813,0,408.1,0.0,-600.0,0
GRID,30814,0,408.1,0.0,-570.0,0
GRID,30815,0,408.1,0.0,-540.0,0
GRID,30816,0,408.1,0.0,-510.0,0
GRID,30817,0,408.1,0.0,-480.0,0
GRID,30818,0,408.1,0.0,-450.0,0
GRID,30819,0,408.1,0.0,-420.0,0
GRID,30820,0,408.1,0.0,-390.0,0
GRID,30821,0,408.1,0.0,-360.0,0
GRID,30822,0,408.1,0.0,-330.0,0
GRID,30823,0,408.1,0.0,-300.0,0
GRID,30824,0,408.1,0.0,-270.0,0
GRID,30825,0,408.1,0.0,-240.0,0
GRID,30826,0,408.1,0.0,-210.0,0
GRID,30827,0,408.1,0.0,-180.0,0
GRID,30828,0,408.1,0.0,-150.0,0
GRID,30829,0,408.1,0.0,-120.0,0
GRID,30830,0,408.1,0.0,-90.0,0
GRID,30831,0,408.1,0.0,-60.0,0
GRID,30832,0,408.1,0.0,-30.0,0
GRID,30833,0,.1,0.0,408.1,0
GRID,30834,0,.1,0.0,300.0,0
GRID,30835,0,300.0,0.0,0.0,0
GRID,30836,0,408.1,0.0,5.0E-14,0
GRID,30837,0,407.79,0.0,0.0,0
GRID,30838,0,407.79,0.0,-1200.0,0
GRID,30839,0,486.89,0.0,-1200.0,0
GRID,30840,0,486.89,0.0,0.0,0
GRID,30841,0,.1,0.0,-1434.39,0
GRID,30842,0,.1,0.0,-1530.98,0
GRID,30843,0,112.4681,0.0,-1387.53,0
GRID,30844,0,205.0147,0.0,-1294.99,0
GRID,30845,0,301.6675,0.0,-1446.23,0
GRID,30846,0,300.0,0.0,-1065.67,0
GRID,30847,0,320.3263,0.0,-1427.57,0
GRID,30848,0,408.1,0.0,-1215.67,0
GRID,30849,0,300.0,0.0,-1050.0,0
GRID,30850,0,408.1,0.0,-1050.0,0
CQUADX4,1,1,1,60,61,2
CQUADX4,2,1,2,61,62,3
CQUADX4,3,1,3,62,63,4
CQUADX4,4,1,4,63,64,5
CQUADX4,5,1,5,64,65,6
CQUADX4,6,1,6,65,66,7
CQUADX4,7,1,7,66,67,8
CQUADX4,8,1,8,67,68,9
CQUADX4,9,1,9,68,69,10
CQUADX4,10,1,10,69,70,11
CQUADX4,11,1,11,70,71,12
CQUADX4,12,1,12,71,72,13
CQUADX4,13,1,13,72,73,14
CQUADX4,14,1,14,73,74,15
CQUADX4,15,1,15,74,75,16
CQUADX4,16,1,16,75,76,17
CQUADX4,17,1,17,76,77,18
CQUADX4,18,1,18,77,78,19
CQUADX4,19,1,19,78,79,20
CQUADX4,20,1,20,79,80,21
CQUADX4,21,1,21,80,81,22
CQUADX4,22,1,22,81,82,23
CQUADX4,23,1,23,82,83,24
CQUADX4,24,1,24,83,84,25
CQUADX4,25,1,25,84,85,26
CQUADX4,26,1,26,85,86,27
CQUADX4,27,1,27,86,87,28
CQUADX4,28,1,28,87,88,29
CQUADX4,29,1,29,88,89,30
CQUADX4,30,1,30,89,90,31
CQUADX4,31,1,31,90,91,32
CQUADX4,32,1,32,91,92,33
CQUADX4,33,1,33,92,93,34
CQUADX4,34,1,34,93,94,35
CQUADX4,35,1,35,94,95,36
CQUADX4,36,1,36,95,96,37
CQUADX4,37,1,37,96,97,38
CQUADX4,38,1,38,97,98,39
CQUADX4,39,1,39,98,99,40
CQUADX4,40,1,40,99,100,41
CQUADX4,41,1,41,100,101,42
CQUADX4,42,1,42,101,102,43
CQUADX4,43,1,43,102,103,44
CQUADX4,44,1,44,103,104,45
CQUADX4,45,1,45,104,105,46
CQUADX4,46,1,46,105,106,47
CQUADX4,47,1,47,106,107,48
CQUADX4,48,1,48,107,108,49
CQUADX4,49,1,49,108,109,50
CQUADX4,50,1,50,109,110,51
CQUADX4,51,1,51,110,111,52
CQUADX4,52,1,52,111,112,53
CQUADX4,53,1,53,112,113,54
CQUADX4,54,1,54,113,114,55
CQUADX4,55,1,55,114,115,56
CQUADX4,56,1,56,115,116,57
CQUADX4,57,1,57,116,117,58
CQUADX4,58,1,58,117,118,59
CQUADX4,59,1,60,119,120,61
CQUADX4,60,1,61,120,121,62
CQUADX4,61,1,62,121,122,63
CQUADX4,62,1,63,122,123,64
CQUADX4,63,1,64,123,124,65
CQUADX4,64,1,65,124,125,66
CQUADX4,65,1,66,125,126,67
CQUADX4,66,1,67,126,127,68
CQUADX4,67,1,68,127,128,69
CQUADX4,68,1,69,128,129,70
CQUADX4,69,1,70,129,130,71
CQUADX4,70,1,71,130,131,72
CQUADX4,71,1,72,131,132,73
CQUADX4,72,1,73,132,133,74
CQUADX4,73,1,74,133,134,75
CQUADX4,74,1,75,134,135,76
CQUADX4,75,1,76,135,136,77
CQUADX4,76,1,77,136,137,78
CQUADX4,77,1,78,137,138,79
CQUADX4,78,1,79,138,139,80
CQUADX4,79,1,80,139,140,81
CQUADX4,80,1,81,140,141,82
CQUADX4,81,1,82,141,142,83
CQUADX4,82,1,83,142,143,84
CQUADX4,83,1,84,143,144,85
CQUADX4,84,1,85,144,145,86
CQUADX4,85,1,86,145,146,87
CQUADX4,86,1,87,146,147,88
CQUADX4,87,1,88,147,148,89
CQUADX4,88,1,89,148,149,90
CQUADX4,89,1,90,149,150,91
CQUADX4,90,1,91,150,151,92
CQUADX4,91,1,92,151,152,93
CQUADX4,92,1,93,152,153,94
CQUADX4,93,1,94,153,154,95
CQUADX4,94,1,95,154,155,96
CQUADX4,95,1,96,155,156,97
CQUADX4,96,1,97,156,157,98
CQUADX4,97,1,98,157,158,99
CQUADX4,98,1,99,158,159,100
CQUADX4,99,1,100,159,160,101
CQUADX4,100,1,101,160,161,102
CQUADX4,101,1,102,161,162,103
CQUADX4,102,1,103,162,163,104
CQUADX4,103,1,104,163,164,105
CQUADX4,104,1,105,164,165,106
CQUADX4,105,1,106,165,166,107
CQUADX4,106,1,107,166,167,108
CQUADX4,107,1,108,167,168,109
CQUADX4,108,1,109,168,169,110
CQUADX4,109,1,110,169,170,111
CQUADX4,110,1,111,170,171,112
CQUADX4,111,1,112,171,172,113
CQUADX4,112,1,113,172,173,114
CQUADX4,113,1,114,173,174,115
CQUADX4,114,1,115,174,175,116
CQUADX4,115,1,116,175,176,117
CQUADX4,116,1,117,176,177,118
CQUADX4,117,1,119,178,179,120
CQUADX4,118,1,120,179,180,121
CQUADX4,119,1,121,180,181,122
CQUADX4,120,1,122,181,182,123
CQUADX4,121,1,123,182,183,124
CQUADX4,122,1,124,183,184,125
CQUADX4,123,1,125,184,185,126
CQUADX4,124,1,126,185,186,127
CQUADX4,125,1,127,186,187,128
CQUADX4,126,1,128,187,188,129
CQUADX4,127,1,129,188,189,130
CQUADX4,128,1,130,189,190,131
CQUADX4,129,1,131,190,191,132
CQUADX4,130,1,132,191,192,133
CQUADX4,131,1,133,192,193,134
CQUADX4,132,1,134,193,194,135
CQUADX4,133,1,135,194,195,136
CQUADX4,134,1,136,195,196,137
CQUADX4,135,1,137,196,197,138
CQUADX4,136,1,138,197,198,139
CQUADX4,137,1,139,198,199,140
CQUADX4,138,1,140,199,200,141
CQUADX4,139,1,141,200,201,142
CQUADX4,140,1,142,201,202,143
CQUADX4,141,1,143,202,203,144
CQUADX4,142,1,144,203,204,145
CQUADX4,143,1,145,204,205,146
CQUADX4,144,1,146,205,206,147
CQUADX4,145,1,147,206,207,148
CQUADX4,146,1,148,207,208,149
CQUADX4,147,1,149,208,209,150
CQUADX4,148,1,150,209,210,151
CQUADX4,149,1,151,210,211,152
CQUADX4,150,1,152,211,212,153
CQUADX4,151,1,153,212,213,154
CQUADX4,152,1,154,213,214,155
CQUADX4,153,1,155,214,215,156
CQUADX4,154,1,156,215,216,157
CQUADX4,155,1,157,216,217,158
CQUADX4,156,1,158,217,218,159
CQUADX4,157,1,159,218,219,160
CQUADX4,158,1,160,219,220,161
CQUADX4,159,1,161,220,221,162
CQUADX4,160,1,162,221,222,163
CQUADX4,161,1,163,222,223,164
CQUADX4,162,1,164,223,224,165
CQUADX4,163,1,165,224,225,166
CQUADX4,164,1,166,225,226,167
CQUADX4,165,1,167,226,227,168
CQUADX4,166,1,168,227,228,169
CQUADX4,167,1,169,228,229,170
CQUADX4,168,1,170,229,230,171
CQUADX4,169,1,171,230,231,172
CQUADX4,170,1,172,231,232,173
CQUADX4,171,1,173,232,233,174
CQUADX4,172,1,174,233,234,175
CQUADX4,173,1,175,234,235,176
CQUADX4,174,1,176,235,236,177
CQUADX4,175,1,178,237,238,179
CQUADX4,176,1,179,238,239,180
CQUADX4,177,1,180,239,240,181
CQUADX4,178,1,181,240,241,182
CQUADX4,179,1,182,241,242,183
CQUADX4,180,1,183,242,243,184
CQUADX4,181,1,184,243,244,185
CQUADX4,182,1,185,244,245,186
CQUADX4,183,1,186,245,246,187
CQUADX4,184,1,187,246,247,188
CQUADX4,185,1,188,247,248,189
CQUADX4,186,1,189,248,249,190
CQUADX4,187,1,190,249,250,191
CQUADX4,188,1,191,250,251,192
CQUADX4,189,1,192,251,252,193
CQUADX4,190,1,193,252,253,194
CQUADX4,191,1,194,253,254,195
CQUADX4,192,1,195,254,255,196
CQUADX4,193,1,196,255,256,197
CQUADX4,194,1,197,256,257,198
CQUADX4,195,1,198,257,258,199
CQUADX4,196,1,199,258,259,200
CQUADX4,197,1,200,259,260,201
CQUADX4,198,1,201,260,261,202
CQUADX4,199,1,202,261,262,203
CQUADX4,200,1,203,262,263,204
CQUADX4,201,1,204,263,264,205
CQUADX4,202,1,205,264,265,206
CQUADX4,203,1,206,265,266,207
CQUADX4,204,1,207,266,267,208
CQUADX4,205,1,208,267,268,209
CQUADX4,206,1,209,268,269,210
CQUADX4,207,1,210,269,270,211
CQUADX4,208,1,211,270,271,212
CQUADX4,209,1,212,271,272,213
CQUADX4,210,1,213,272,273,214
CQUADX4,211,1,214,273,274,215
CQUADX4,212,1,215,274,275,216
CQUADX4,213,1,216,275,276,217
CQUADX4,214,1,217,276,277,218
CQUADX4,215,1,218,277,278,219
CQUADX4,216,1,219,278,279,220
CQUADX4,217,1,220,279,280,221
CQUADX4,218,1,221,280,281,222
CQUADX4,219,1,222,281,282,223
CQUADX4,220,1,223,282,283,224
CQUADX4,221,1,224,283,284,225
CQUADX4,222,1,225,284,285,226
CQUADX4,223,1,226,285,286,227
CQUADX4,224,1,227,286,287,228
CQUADX4,225,1,228,287,288,229
CQUADX4,226,1,229,288,289,230
CQUADX4,227,1,230,289,290,231
CQUADX4,228,1,231,290,291,232
CQUADX4,229,1,232,291,292,233
CQUADX4,230,1,233,292,293,234
CQUADX4,231,1,234,293,294,235
CQUADX4,232,1,235,294,295,236
CQUADX4,233,1,237,296,297,238
CQUADX4,234,1,238,297,298,239
CQUADX4,235,1,239,298,299,240
CQUADX4,236,1,240,299,300,241
CQUADX4,237,1,241,300,301,242
CQUADX4,238,1,242,301,302,243
CQUADX4,239,1,243,302,303,244
CQUADX4,240,1,244,303,304,245
CQUADX4,241,1,245,304,305,246
CQUADX4,242,1,246,305,306,247
CQUADX4,243,1,247,306,307,248
CQUADX4,244,1,248,307,308,249
CQUADX4,245,1,249,308,309,250
CQUADX4,246,1,250,309,310,251
CQUADX4,247,1,251,310,311,252
CQUADX4,248,1,252,311,312,253
CQUADX4,249,1,253,312,313,254
CQUADX4,250,1,254,313,314,255
CQUADX4,251,1,255,314,315,256
CQUADX4,252,1,256,315,316,257
CQUADX4,253,1,257,316,317,258
CQUADX4,254,1,258,317,318,259
CQUADX4,255,1,259,318,319,260
CQUADX4,256,1,260,319,320,261
CQUADX4,257,1,261,320,321,262
CQUADX4,258,1,262,321,322,263
CQUADX4,259,1,263,322,323,264
CQUADX4,260,1,264,323,324,265
CQUADX4,261,1,265,324,325,266
CQUADX4,262,1,266,325,326,267
CQUADX4,263,1,267,326,327,268
CQUADX4,264,1,268,327,328,269
CQUADX4,265,1,269,328,329,270
CQUADX4,266,1,270,329,330,271
CQUADX4,267,1,271,330,331,272
CQUADX4,268,1,272,331,332,273
CQUADX4,269,1,273,332,333,274
CQUADX4,270,1,274,333,334,275
CQUADX4,271,1,275,334,335,276
CQUADX4,272,1,276,335,336,277
CQUADX4,273,1,277,336,337,278
CQUADX4,274,1,278,337,338,279
CQUADX4,275,1,279,338,339,280
CQUADX4,276,1,280,339,340,281
CQUADX4,277,1,281,340,341,282
CQUADX4,278,1,282,341,342,283
CQUADX4,279,1,283,342,343,284
CQUADX4,280,1,284,343,344,285
CQUADX4,281,1,285,344,345,286
CQUADX4,282,1,286,345,346,287
CQUADX4,283,1,287,346,347,288
CQUADX4,284,1,288,347,348,289
CQUADX4,285,1,289,348,349,290
CQUADX4,286,1,290,349,350,291
CQUADX4,287,1,291,350,351,292
CQUADX4,288,1,292,351,352,293
CQUADX4,289,1,293,352,353,294
CQUADX4,290,1,294,353,354,295
CQUADX4,291,1,296,355,356,297
CQUADX4,292,1,297,356,357,298
CQUADX4,293,1,298,357,358,299
CQUADX4,294,1,299,358,359,300
CQUADX4,295,1,300,359,360,301
CQUADX4,296,1,301,360,361,302
CQUADX4,297,1,302,361,362,303
CQUADX4,298,1,303,362,363,304
CQUADX4,299,1,304,363,364,305
CQUADX4,300,1,305,364,365,306
CQUADX4,301,1,306,365,366,307
CQUADX4,302,1,307,366,367,308
CQUADX4,303,1,308,367,368,309
CQUADX4,304,1,309,368,369,310
CQUADX4,305,1,310,369,370,311
CQUADX4,306,1,311,370,371,312
CQUADX4,307,1,312,371,372,313
CQUADX4,308,1,313,372,373,314
CQUADX4,309,1,314,373,374,315
CQUADX4,310,1,315,374,375,316
CQUADX4,311,1,316,375,376,317
CQUADX4,312,1,317,376,377,318
CQUADX4,313,1,318,377,378,319
CQUADX4,314,1,319,378,379,320
CQUADX4,315,1,320,379,380,321
CQUADX4,316,1,321,380,381,322
CQUADX4,317,1,322,381,382,323
CQUADX4,318,1,323,382,383,324
CQUADX4,319,1,324,383,384,325
CQUADX4,320,1,325,384,385,326
CQUADX4,321,1,326,385,386,327
CQUADX4,322,1,327,386,387,328
CQUADX4,323,1,328,387,388,329
CQUADX4,324,1,329,388,389,330
CQUADX4,325,1,330,389,390,331
CQUADX4,326,1,331,390,391,332
CQUADX4,327,1,332,391,392,333
CQUADX4,328,1,333,392,393,334
CQUADX4,329,1,334,393,394,335
CQUADX4,330,1,335,394,395,336
CQUADX4,331,1,336,395,396,337
CQUADX4,332,1,337,396,397,338
CQUADX4,333,1,338,397,398,339
CQUADX4,334,1,339,398,399,340
CQUADX4,335,1,340,399,400,341
CQUADX4,336,1,341,400,401,342
CQUADX4,337,1,342,401,402,343
CQUADX4,338,1,343,402,403,344
CQUADX4,339,1,344,403,404,345
CQUADX4,340,1,345,404,405,346
CQUADX4,341,1,346,405,406,347
CQUADX4,342,1,347,406,407,348
CQUADX4,343,1,348,407,408,349
CQUADX4,344,1,349,408,409,350
CQUADX4,345,1,350,409,410,351
CQUADX4,346,1,351,410,411,352
CQUADX4,347,1,352,411,412,353
CQUADX4,348,1,353,412,413,354
CQUADX4,349,1,355,414,415,356
CQUADX4,350,1,356,415,416,357
CQUADX4,351,1,357,416,417,358
CQUADX4,352,1,358,417,418,359
CQUADX4,353,1,359,418,419,360
CQUADX4,354,1,360,419,420,361
CQUADX4,355,1,361,420,421,362
CQUADX4,356,1,362,421,422,363
CQUADX4,357,1,363,422,423,364
CQUADX4,358,1,364,423,424,365
CQUADX4,359,1,365,424,425,366
CQUADX4,360,1,366,425,426,367
CQUADX4,361,1,367,426,427,368
CQUADX4,362,1,368,427,428,369
CQUADX4,363,1,369,428,429,370
CQUADX4,364,1,370,429,430,371
CQUADX4,365,1,371,430,431,372
CQUADX4,366,1,372,431,432,373
CQUADX4,367,1,373,432,433,374
CQUADX4,368,1,374,433,434,375
CQUADX4,369,1,375,434,435,376
CQUADX4,370,1,376,435,436,377
CQUADX4,371,1,377,436,437,378
CQUADX4,372,1,378,437,438,379
CQUADX4,373,1,379,438,439,380
CQUADX4,374,1,380,439,440,381
CQUADX4,375,1,381,440,441,382
CQUADX4,376,1,382,441,442,383
CQUADX4,377,1,383,442,443,384
CQUADX4,378,1,384,443,444,385
CQUADX4,379,1,385,444,445,386
CQUADX4,380,1,386,445,446,387
CQUADX4,381,1,387,446,447,388
CQUADX4,382,1,388,447,448,389
CQUADX4,383,1,389,448,449,390
CQUADX4,384,1,390,449,450,391
CQUADX4,385,1,391,450,451,392
CQUADX4,386,1,392,451,452,393
CQUADX4,387,1,393,452,453,394
CQUADX4,388,1,394,453,454,395
CQUADX4,389,1,395,454,455,396
CQUADX4,390,1,396,455,456,397
CQUADX4,391,1,397,456,457,398
CQUADX4,392,1,398,457,458,399
CQUADX4,393,1,399,458,459,400
CQUADX4,394,1,400,459,460,401
CQUADX4,395,1,401,460,461,402
CQUADX4,396,1,402,461,462,403
CQUADX4,397,1,403,462,463,404
CQUADX4,398,1,404,463,464,405
CQUADX4,399,1,405,464,465,406
CQUADX4,400,1,406,465,466,407
CQUADX4,401,1,407,466,467,408
CQUADX4,402,1,408,467,468,409
CQUADX4,403,1,409,468,469,410
CQUADX4,404,1,410,469,470,411
CQUADX4,405,1,411,470,471,412
CQUADX4,406,1,412,471,472,413
CQUADX4,407,1,414,473,474,415
CQUADX4,408,1,415,474,475,416
CQUADX4,409,1,416,475,476,417
CQUADX4,410,1,417,476,477,418
CQUADX4,411,1,418,477,478,419
CQUADX4,412,1,419,478,479,420
CQUADX4,413,1,420,479,480,421
CQUADX4,414,1,421,480,481,422
CQUADX4,415,1,422,481,482,423
CQUADX4,416,1,423,482,483,424
CQUADX4,417,1,424,483,484,425
CQUADX4,418,1,425,484,485,426
CQUADX4,419,1,426,485,486,427
CQUADX4,420,1,427,486,487,428
CQUADX4,421,1,428,487,488,429
CQUADX4,422,1,429,488,489,430
CQUADX4,423,1,430,489,490,431
CQUADX4,424,1,431,490,491,432
CQUADX4,425,1,432,491,492,433
CQUADX4,426,1,433,492,493,434
CQUADX4,427,1,434,493,494,435
CQUADX4,428,1,435,494,495,436
CQUADX4,429,1,436,495,496,437
CQUADX4,430,1,437,496,497,438
CQUADX4,431,1,438,497,498,439
CQUADX4,432,1,439,498,499,440
CQUADX4,433,1,440,499,500,441
CQUADX4,434,1,441,500,501,442
CQUADX4,435,1,442,501,502,443
CQUADX4,436,1,443,502,503,444
CQUADX4,437,1,444,503,504,445
CQUADX4,438,1,445,504,505,446
CQUADX4,439,1,446,505,506,447
CQUADX4,440,1,447,506,507,448
CQUADX4,441,1,448,507,508,449
CQUADX4,442,1,449,508,509,450
CQUADX4,443,1,450,509,510,451
CQUADX4,444,1,451,510,511,452
CQUADX4,445,1,452,511,512,453
CQUADX4,446,1,453,512,513,454
CQUADX4,447,1,454,513,514,455
CQUADX4,448,1,455,514,515,456
CQUADX4,449,1,456,515,516,457
CQUADX4,450,1,457,516,517,458
CQUADX4,451,1,458,517,518,459
CQUADX4,452,1,459,518,519,460
CQUADX4,453,1,460,519,520,461
CQUADX4,454,1,461,520,521,462
CQUADX4,455,1,462,521,522,463
CQUADX4,456,1,463,522,523,464
CQUADX4,457,1,464,523,524,465
CQUADX4,458,1,465,524,525,466
CQUADX4,459,1,466,525,526,467
CQUADX4,460,1,467,526,527,468
CQUADX4,461,1,468,527,528,469
CQUADX4,462,1,469,528,529,470
CQUADX4,463,1,470,529,530,471
CQUADX4,464,1,471,530,531,472
CQUADX4,465,1,473,532,533,474
CQUADX4,466,1,474,533,534,475
CQUADX4,467,1,475,534,535,476
CQUADX4,468,1,476,535,536,477
CQUADX4,469,1,477,536,537,478
CQUADX4,470,1,478,537,538,479
CQUADX4,471,1,479,538,539,480
CQUADX4,472,1,480,539,540,481
CQUADX4,473,1,481,540,541,482
CQUADX4,474,1,482,541,542,483
CQUADX4,475,1,483,542,543,484
CQUADX4,476,1,484,543,544,485
CQUADX4,477,1,485,544,545,486
CQUADX4,478,1,486,545,546,487
CQUADX4,479,1,487,546,547,488
CQUADX4,480,1,488,547,548,489
CQUADX4,481,1,489,548,549,490
CQUADX4,482,1,490,549,550,491
CQUADX4,483,1,491,550,551,492
CQUADX4,484,1,492,551,552,493
CQUADX4,485,1,493,552,553,494
CQUADX4,486,1,494,553,554,495
CQUADX4,487,1,495,554,555,496
CQUADX4,488,1,496,555,556,497
CQUADX4,489,1,497,556,557,498
CQUADX4,490,1,498,557,558,499
CQUADX4,491,1,499,558,559,500
CQUADX4,492,1,500,559,560,501
CQUADX4,493,1,501,560,561,502
CQUADX4,494,1,502,561,562,503
CQUADX4,495,1,503,562,563,504
CQUADX4,496,1,504,563,564,505
CQUADX4,497,1,505,564,565,506
CQUADX4,498,1,506,565,566,507
CQUADX4,499,1,507,566,567,508
CQUADX4,500,1,508,567,568,509
CQUADX4,501,1,509,568,569,510
CQUADX4,502,1,510,569,570,511
CQUADX4,503,1,511,570,571,512
CQUADX4,504,1,512,571,572,513
CQUADX4,505,1,513,572,573,514
CQUADX4,506,1,514,573,574,515
CQUADX4,507,1,515,574,575,516
CQUADX4,508,1,516,575,576,517
CQUADX4,509,1,517,576,577,518
CQUADX4,510,1,518,577,578,519
CQUADX4,511,1,519,578,579,520
CQUADX4,512,1,520,579,580,521
CQUADX4,513,1,521,580,581,522
CQUADX4,514,1,522,581,582,523
CQUADX4,515,1,523,582,583,524
CQUADX4,516,1,524,583,584,525
CQUADX4,517,1,525,584,585,526
CQUADX4,518,1,526,585,586,527
CQUADX4,519,1,527,586,587,528
CQUADX4,520,1,528,587,588,529
CQUADX4,521,1,529,588,589,530
CQUADX4,522,1,530,589,590,531
CQUADX4,523,1,532,591,592,533
CQUADX4,524,1,533,592,593,534
CQUADX4,525,1,534,593,594,535
CQUADX4,526,1,535,594,595,536
CQUADX4,527,1,536,595,596,537
CQUADX4,528,1,537,596,597,538
CQUADX4,529,1,538,597,598,539
CQUADX4,530,1,539,598,599,540
CQUADX4,531,1,540,599,600,541
CQUADX4,532,1,541,600,601,542
CQUADX4,533,1,542,601,602,543
CQUADX4,534,1,543,602,603,544
CQUADX4,535,1,544,603,604,545
CQUADX4,536,1,545,604,605,546
CQUADX4,537,1,546,605,606,547
CQUADX4,538,1,547,606,607,548
CQUADX4,539,1,548,607,608,549
CQUADX4,540,1,549,608,609,550
CQUADX4,541,1,550,609,610,551
CQUADX4,542,1,551,610,611,552
CQUADX4,543,1,552,611,612,553
CQUADX4,544,1,553,612,613,554
CQUADX4,545,1,554,613,614,555
CQUADX4,546,1,555,614,615,556
CQUADX4,547,1,556,615,616,557
CQUADX4,548,1,557,616,617,558
CQUADX4,549,1,558,617,618,559
CQUADX4,550,1,559,618,619,560
CQUADX4,551,1,560,619,620,561
CQUADX4,552,1,561,620,621,562
CQUADX4,553,1,562,621,622,563
CQUADX4,554,1,563,622,623,564
CQUADX4,555,1,564,623,624,565
CQUADX4,556,1,565,624,625,566
CQUADX4,557,1,566,625,626,567
CQUADX4,558,1,567,626,627,568
CQUADX4,559,1,568,627,628,569
CQUADX4,560,1,569,628,629,570
CQUADX4,561,1,570,629,630,571
CQUADX4,562,1,571,630,631,572
CQUADX4,563,1,572,631,632,573
CQUADX4,564,1,573,632,633,574
CQUADX4,565,1,574,633,634,575
CQUADX4,566,1,575,634,635,576
CQUADX4,567,1,576,635,636,577
CQUADX4,568,1,577,636,637,578
CQUADX4,569,1,578,637,638,579
CQUADX4,570,1,579,638,639,580
CQUADX4,571,1,580,639,640,581
CQUADX4,572,1,581,640,641,582
CQUADX4,573,1,582,641,642,583
CQUADX4,574,1,583,642,643,584
CQUADX4,575,1,584,643,644,585
CQUADX4,576,1,585,644,645,586
CQUADX4,577,1,586,645,646,587
CQUADX4,578,1,587,646,647,588
CQUADX4,579,1,588,647,648,589
CQUADX4,580,1,589,648,649,590
CQUADX4,581,1,591,650,651,592
CQUADX4,582,1,592,651,652,593
CQUADX4,583,1,593,652,653,594
CQUADX4,584,1,594,653,654,595
CQUADX4,585,1,595,654,655,596
CQUADX4,586,1,596,655,656,597
CQUADX4,587,1,597,656,657,598
CQUADX4,588,1,598,657,658,599
CQUADX4,589,1,599,658,659,600
CQUADX4,590,1,600,659,660,601
CQUADX4,591,1,601,660,661,602
CQUADX4,592,1,602,661,662,603
CQUADX4,593,1,603,662,663,604
CQUADX4,594,1,604,663,664,605
CQUADX4,595,1,605,664,665,606
CQUADX4,596,1,606,665,666,607
CQUADX4,597,1,607,666,667,608
CQUADX4,598,1,608,667,668,609
CQUADX4,599,1,609,668,669,610
CQUADX4,600,1,610,669,670,611
CQUADX4,601,1,611,670,671,612
CQUADX4,602,1,612,671,672,613
CQUADX4,603,1,613,672,673,614
CQUADX4,604,1,614,673,674,615
CQUADX4,605,1,615,674,675,616
CQUADX4,606,1,616,675,676,617
CQUADX4,607,1,617,676,677,618
CQUADX4,608,1,618,677,678,619
CQUADX4,609,1,619,678,679,620
CQUADX4,610,1,620,679,680,621
CQUADX4,611,1,621,680,681,622
CQUADX4,612,1,622,681,682,623
CQUADX4,613,1,623,682,683,624
CQUADX4,614,1,624,683,684,625
CQUADX4,615,1,625,684,685,626
CQUADX4,616,1,626,685,686,627
CQUADX4,617,1,627,686,687,628
CQUADX4,618,1,628,687,688,629
CQUADX4,619,1,629,688,689,630
CQUADX4,620,1,630,689,690,631
CQUADX4,621,1,631,690,691,632
CQUADX4,622,1,632,691,692,633
CQUADX4,623,1,633,692,693,634
CQUADX4,624,1,634,693,694,635
CQUADX4,625,1,635,694,695,636
CQUADX4,626,1,636,695,696,637
CQUADX4,627,1,637,696,697,638
CQUADX4,628,1,638,697,698,639
CQUADX4,629,1,639,698,699,640
CQUADX4,630,1,640,699,700,641
CQUADX4,631,1,641,700,701,642
CQUADX4,632,1,642,701,702,643
CQUADX4,633,1,643,702,703,644
CQUADX4,634,1,644,703,704,645
CQUADX4,635,1,645,704,705,646
CQUADX4,636,1,646,705,706,647
CQUADX4,637,1,647,706,707,648
CQUADX4,638,1,648,707,708,649
CQUADX4,639,1,650,709,710,651
CQUADX4,640,1,651,710,711,652
CQUADX4,641,1,652,711,712,653
CQUADX4,642,1,653,712,713,654
CQUADX4,643,1,654,713,714,655
CQUADX4,644,1,655,714,715,656
CQUADX4,645,1,656,715,716,657
CQUADX4,646,1,657,716,717,658
CQUADX4,647,1,658,717,718,659
CQUADX4,648,1,659,718,719,660
CQUADX4,649,1,660,719,720,661
CQUADX4,650,1,661,720,721,662
CQUADX4,651,1,662,721,722,663
CQUADX4,652,1,663,722,723,664
CQUADX4,653,1,664,723,724,665
CQUADX4,654,1,665,724,725,666
CQUADX4,655,1,666,725,726,667
CQUADX4,656,1,667,726,727,668
CQUADX4,657,1,668,727,728,669
CQUADX4,658,1,669,728,729,670
CQUADX4,659,1,670,729,730,671
CQUADX4,660,1,671,730,731,672
CQUADX4,661,1,672,731,732,673
CQUADX4,662,1,673,732,733,674
CQUADX4,663,1,674,733,734,675
CQUADX4,664,1,675,734,735,676
CQUADX4,665,1,676,735,736,677
CQUADX4,666,1,677,736,737,678
CQUADX4,667,1,678,737,738,679
CQUADX4,668,1,679,738,739,680
CQUADX4,669,1,680,739,740,681
CQUADX4,670,1,681,740,741,682
CQUADX4,671,1,682,741,742,683
CQUADX4,672,1,683,742,743,684
CQUADX4,673,1,684,743,744,685
CQUADX4,674,1,685,744,745,686
CQUADX4,675,1,686,745,746,687
CQUADX4,676,1,687,746,747,688
CQUADX4,677,1,688,747,748,689
CQUADX4,678,1,689,748,749,690
CQUADX4,679,1,690,749,750,691
CQUADX4,680,1,691,750,751,692
CQUADX4,681,1,692,751,752,693
CQUADX4,682,1,693,752,753,694
CQUADX4,683,1,694,753,754,695
CQUADX4,684,1,695,754,755,696
CQUADX4,685,1,696,755,756,697
CQUADX4,686,1,697,756,757,698
CQUADX4,687,1,698,757,758,699
CQUADX4,688,1,699,758,759,700
CQUADX4,689,1,700,759,760,701
CQUADX4,690,1,701,760,761,702
CQUADX4,691,1,702,761,762,703
CQUADX4,692,1,703,762,763,704
CQUADX4,693,1,704,763,764,705
CQUADX4,694,1,705,764,765,706
CQUADX4,695,1,706,765,766,707
CQUADX4,696,1,707,766,767,708
CQUADX4,697,1,709,768,769,710
CQUADX4,698,1,710,769,770,711
CQUADX4,699,1,711,770,771,712
CQUADX4,700,1,712,771,772,713
CQUADX4,701,1,713,772,773,714
CQUADX4,702,1,714,773,774,715
CQUADX4,703,1,715,774,775,716
CQUADX4,704,1,716,775,776,717
CQUADX4,705,1,717,776,777,718
CQUADX4,706,1,718,777,778,719
CQUADX4,707,1,719,778,779,720
CQUADX4,708,1,720,779,780,721
CQUADX4,709,1,721,780,781,722
CQUADX4,710,1,722,781,782,723
CQUADX4,711,1,723,782,783,724
CQUADX4,712,1,724,783,784,725
CQUADX4,713,1,725,784,785,726
CQUADX4,714,1,726,785,786,727
CQUADX4,715,1,727,786,787,728
CQUADX4,716,1,728,787,788,729
CQUADX4,717,1,729,788,789,730
CQUADX4,718,1,730,789,790,731
CQUADX4,719,1,731,790,791,732
CQUADX4,720,1,732,791,792,733
CQUADX4,721,1,733,792,793,734
CQUADX4,722,1,734,793,794,735
CQUADX4,723,1,735,794,795,736
CQUADX4,724,1,736,795,796,737
CQUADX4,725,1,737,796,797,738
CQUADX4,726,1,738,797,798,739
CQUADX4,727,1,739,798,799,740
CQUADX4,728,1,740,799,800,741
CQUADX4,729,1,741,800,801,742
CQUADX4,730,1,742,801,802,743
CQUADX4,731,1,743,802,803,744
CQUADX4,732,1,744,803,804,745
CQUADX4,733,1,745,804,805,746
CQUADX4,734,1,746,805,806,747
CQUADX4,735,1,747,806,807,748
CQUADX4,736,1,748,807,808,749
CQUADX4,737,1,749,808,809,750
CQUADX4,738,1,750,809,810,751
CQUADX4,739,1,751,810,811,752
CQUADX4,740,1,752,811,812,753
CQUADX4,741,1,753,812,813,754
CQUADX4,742,1,754,813,814,755
CQUADX4,743,1,755,814,815,756
CQUADX4,744,1,756,815,816,757
CQUADX4,745,1,757,816,817,758
CQUADX4,746,1,758,817,818,759
CQUADX4,747,1,759,818,819,760
CQUADX4,748,1,760,819,820,761
CQUADX4,749,1,761,820,821,762
CQUADX4,750,1,762,821,822,763
CQUADX4,751,1,763,822,823,764
CQUADX4,752,1,764,823,824,765
CQUADX4,753,1,765,824,825,766
CQUADX4,754,1,766,825,826,767
CQUADX4,755,1,768,827,828,769
CQUADX4,756,1,769,828,829,770
CQUADX4,757,1,770,829,830,771
CQUADX4,758,1,771,830,831,772
CQUADX4,759,1,772,831,832,773
CQUADX4,760,1,773,832,833,774
CQUADX4,761,1,774,833,834,775
CQUADX4,762,1,775,834,835,776
CQUADX4,763,1,776,835,836,777
CQUADX4,764,1,777,836,837,778
CQUADX4,765,1,778,837,838,779
CQUADX4,766,1,779,838,839,780
CQUADX4,767,1,780,839,840,781
CQUADX4,768,1,781,840,841,782
CQUADX4,769,1,782,841,842,783
CQUADX4,770,1,783,842,843,784
CQUADX4,771,1,784,843,844,785
CQUADX4,772,1,785,844,845,786
CQUADX4,773,1,786,845,846,787
CQUADX4,774,1,787,846,847,788
CQUADX4,775,1,788,847,848,789
CQUADX4,776,1,789,848,849,790
CQUADX4,777,1,790,849,850,791
CQUADX4,778,1,791,850,851,792
CQUADX4,779,1,792,851,852,793
CQUADX4,780,1,793,852,853,794
CQUADX4,781,1,794,853,854,795
CQUADX4,782,1,795,854,855,796
CQUADX4,783,1,796,855,856,797
CQUADX4,784,1,797,856,857,798
CQUADX4,785,1,798,857,858,799
CQUADX4,786,1,799,858,859,800
CQUADX4,787,1,800,859,860,801
CQUADX4,788,1,801,860,861,802
CQUADX4,789,1,802,861,862,803
CQUADX4,790,1,803,862,863,804
CQUADX4,791,1,804,863,864,805
CQUADX4,792,1,805,864,865,806
CQUADX4,793,1,806,865,866,807
CQUADX4,794,1,807,866,867,808
CQUADX4,795,1,808,867,868,809
CQUADX4,796,1,809,868,869,810
CQUADX4,797,1,810,869,870,811
CQUADX4,798,1,811,870,871,812
CQUADX4,799,1,812,871,872,813
CQUADX4,800,1,813,872,873,814
CQUADX4,801,1,814,873,874,815
CQUADX4,802,1,815,874,875,816
CQUADX4,803,1,816,875,876,817
CQUADX4,804,1,817,876,877,818
CQUADX4,805,1,818,877,878,819
CQUADX4,806,1,819,878,879,820
CQUADX4,807,1,820,879,880,821
CQUADX4,808,1,821,880,881,822
CQUADX4,809,1,822,881,882,823
CQUADX4,810,1,823,882,883,824
CQUADX4,811,1,824,883,884,825
CQUADX4,812,1,825,884,885,826
CQUADX4,813,1,827,886,887,828
CQUADX4,814,1,828,887,888,829
CQUADX4,815,1,829,888,889,830
CQUADX4,816,1,830,889,890,831
CQUADX4,817,1,831,890,891,832
CQUADX4,818,1,832,891,892,833
CQUADX4,819,1,833,892,893,834
CQUADX4,820,1,834,893,894,835
CQUADX4,821,1,835,894,895,836
CQUADX4,822,1,836,895,896,837
CQUADX4,823,1,837,896,897,838
CQUADX4,824,1,838,897,898,839
CQUADX4,825,1,839,898,899,840
CQUADX4,826,1,840,899,900,841
CQUADX4,827,1,841,900,901,842
CQUADX4,828,1,842,901,902,843
CQUADX4,829,1,843,902,903,844
CQUADX4,830,1,844,903,904,845
CQUADX4,831,1,845,904,905,846
CQUADX4,832,1,846,905,906,847
CQUADX4,833,1,847,906,907,848
CQUADX4,834,1,848,907,908,849
CQUADX4,835,1,849,908,909,850
CQUADX4,836,1,850,909,910,851
CQUADX4,837,1,851,910,911,852
CQUADX4,838,1,852,911,912,853
CQUADX4,839,1,853,912,913,854
CQUADX4,840,1,854,913,914,855
CQUADX4,841,1,855,914,915,856
CQUADX4,842,1,856,915,916,857
CQUADX4,843,1,857,916,917,858
CQUADX4,844,1,858,917,918,859
CQUADX4,845,1,859,918,919,860
CQUADX4,846,1,860,919,920,861
CQUADX4,847,1,861,920,921,862
CQUADX4,848,1,862,921,922,863
CQUADX4,849,1,863,922,923,864
CQUADX4,850,1,864,923,924,865
CQUADX4,851,1,865,924,925,866
CQUADX4,852,1,866,925,926,867
CQUADX4,853,1,867,926,927,868
CQUADX4,854,1,868,927,928,869
CQUADX4,855,1,869,928,929,870
CQUADX4,856,1,870,929,930,871
CQUADX4,857,1,871,930,931,872
CQUADX4,858,1,872,931,932,873
CQUADX4,859,1,873,932,933,874
CQUADX4,860,1,874,933,934,875
CQUADX4,861,1,875,934,935,876
CQUADX4,862,1,876,935,936,877
CQUADX4,863,1,877,936,937,878
CQUADX4,864,1,878,937,938,879
CQUADX4,865,1,879,938,939,880
CQUADX4,866,1,880,939,940,881
CQUADX4,867,1,881,940,941,882
CQUADX4,868,1,882,941,942,883
CQUADX4,869,1,883,942,943,884
CQUADX4,870,1,884,943,944,885
CQUADX4,871,1,886,945,946,887
CQUADX4,872,1,887,946,947,888
CQUADX4,873,1,888,947,948,889
CQUADX4,874,1,889,948,949,890
CQUADX4,875,1,890,949,950,891
CQUADX4,876,1,891,950,951,892
CQUADX4,877,1,892,951,952,893
CQUADX4,878,1,893,952,953,894
CQUADX4,879,1,894,953,954,895
CQUADX4,880,1,895,954,955,896
CQUADX4,881,1,896,955,956,897
CQUADX4,882,1,897,956,957,898
CQUADX4,883,1,898,957,958,899
CQUADX4,884,1,899,958,959,900
CQUADX4,885,1,900,959,960,901
CQUADX4,886,1,901,960,961,902
CQUADX4,887,1,902,961,962,903
CQUADX4,888,1,903,962,963,904
CQUADX4,889,1,904,963,964,905
CQUADX4,890,1,905,964,965,906
CQUADX4,891,1,906,965,966,907
CQUADX4,892,1,907,966,967,908
CQUADX4,893,1,908,967,968,909
CQUADX4,894,1,909,968,969,910
CQUADX4,895,1,910,969,970,911
CQUADX4,896,1,911,970,971,912
CQUADX4,897,1,912,971,972,913
CQUADX4,898,1,913,972,973,914
CQUADX4,899,1,914,973,974,915
CQUADX4,900,1,915,974,975,916
CQUADX4,901,1,916,975,976,917
CQUADX4,902,1,917,976,977,918
CQUADX4,903,1,918,977,978,919
CQUADX4,904,1,919,978,979,920
CQUADX4,905,1,920,979,980,921
CQUADX4,906,1,921,980,981,922
CQUADX4,907,1,922,981,982,923
CQUADX4,908,1,923,982,983,924
CQUADX4,909,1,924,983,984,925
CQUADX4,910,1,925,984,985,926
CQUADX4,911,1,926,985,986,927
CQUADX4,912,1,927,986,987,928
CQUADX4,913,1,928,987,988,929
CQUADX4,914,1,929,988,989,930
CQUADX4,915,1,930,989,990,931
CQUADX4,916,1,931,990,991,932
CQUADX4,917,1,932,991,992,933
CQUADX4,918,1,933,992,993,934
CQUADX4,919,1,934,993,994,935
CQUADX4,920,1,935,994,995,936
CQUADX4,921,1,936,995,996,937
CQUADX4,922,1,937,996,997,938
CQUADX4,923,1,938,997,998,939
CQUADX4,924,1,939,998,999,940
CQUADX4,925,1,940,999,1000,941
CQUADX4,926,1,941,1000,1001,942
CQUADX4,927,1,942,1001,1002,943
CQUADX4,928,1,943,1002,1003,944
CQUADX4,929,1,945,1004,1005,946
CQUADX4,930,1,946,1005,1006,947
CQUADX4,931,1,947,1006,1007,948
CQUADX4,932,1,948,1007,1008,949
CQUADX4,933,1,949,1008,1009,950
CQUADX4,934,1,950,1009,1010,951
CQUADX4,935,1,951,1010,1011,952
CQUADX4,936,1,952,1011,1012,953
CQUADX4,937,1,953,1012,1013,954
CQUADX4,938,1,954,1013,1014,955
CQUADX4,939,1,955,1014,1015,956
CQUADX4,940,1,956,1015,1016,957
CQUADX4,941,1,957,1016,1017,958
CQUADX4,942,1,958,1017,1018,959
CQUADX4,943,1,959,1018,1019,960
CQUADX4,944,1,960,1019,1020,961
CQUADX4,945,1,961,1020,1021,962
CQUADX4,946,1,962,1021,1022,963
CQUADX4,947,1,963,1022,1023,964
CQUADX4,948,1,964,1023,1024,965
CQUADX4,949,1,965,1024,1025,966
CQUADX4,950,1,966,1025,1026,967
CQUADX4,951,1,967,1026,1027,968
CQUADX4,952,1,968,1027,1028,969
CQUADX4,953,1,969,1028,1029,970
CQUADX4,954,1,970,1029,1030,971
CQUADX4,955,1,971,1030,1031,972
CQUADX4,956,1,972,1031,1032,973
CQUADX4,957,1,973,1032,1033,974
CQUADX4,958,1,974,1033,1034,975
CQUADX4,959,1,975,1034,1035,976
CQUADX4,960,1,976,1035,1036,977
CQUADX4,961,1,977,1036,1037,978
CQUADX4,962,1,978,1037,1038,979
CQUADX4,963,1,979,1038,1039,980
CQUADX4,964,1,980,1039,1040,981
CQUADX4,965,1,981,1040,1041,982
CQUADX4,966,1,982,1041,1042,983
CQUADX4,967,1,983,1042,1043,984
CQUADX4,968,1,984,1043,1044,985
CQUADX4,969,1,985,1044,1045,986
CQUADX4,970,1,986,1045,1046,987
CQUADX4,971,1,987,1046,1047,988
CQUADX4,972,1,988,1047,1048,989
CQUADX4,973,1,989,1048,1049,990
CQUADX4,974,1,990,1049,1050,991
CQUADX4,975,1,991,1050,1051,992
CQUADX4,976,1,992,1051,1052,993
CQUADX4,977,1,993,1052,1053,994
CQUADX4,978,1,994,1053,1054,995
CQUADX4,979,1,995,1054,1055,996
CQUADX4,980,1,996,1055,1056,997
CQUADX4,981,1,997,1056,1057,998
CQUADX4,982,1,998,1057,1058,999
CQUADX4,983,1,999,1058,1059,1000
CQUADX4,984,1,1000,1059,1060,1001
CQUADX4,985,1,1001,1060,1061,1002
CQUADX4,986,1,1002,1061,1062,1003
CQUADX4,987,1,1004,1063,1064,1005
CQUADX4,988,1,1005,1064,1065,1006
CQUADX4,989,1,1006,1065,1066,1007
CQUADX4,990,1,1007,1066,1067,1008
CQUADX4,991,1,1008,1067,1068,1009
CQUADX4,992,1,1009,1068,1069,1010
CQUADX4,993,1,1010,1069,1070,1011
CQUADX4,994,1,1011,1070,1071,1012
CQUADX4,995,1,1012,1071,1072,1013
CQUADX4,996,1,1013,1072,1073,1014
CQUADX4,997,1,1014,1073,1074,1015
CQUADX4,998,1,1015,1074,1075,1016
CQUADX4,999,1,1016,1075,1076,1017
CQUADX4,1000,1,1017,1076,1077,1018
CQUADX4,1001,1,1018,1077,1078,1019
CQUADX4,1002,1,1019,1078,1079,1020
CQUADX4,1003,1,1020,1079,1080,1021
CQUADX4,1004,1,1021,1080,1081,1022
CQUADX4,1005,1,1022,1081,1082,1023
CQUADX4,1006,1,1023,1082,1083,1024
CQUADX4,1007,1,1024,1083,1084,1025
CQUADX4,1008,1,1025,1084,1085,1026
CQUADX4,1009,1,1026,1085,1086,1027
CQUADX4,1010,1,1027,1086,1087,1028
CQUADX4,1011,1,1028,1087,1088,1029
CQUADX4,1012,1,1029,1088,1089,1030
CQUADX4,1013,1,1030,1089,1090,1031
CQUADX4,1014,1,1031,1090,1091,1032
CQUADX4,1015,1,1032,1091,1092,1033
CQUADX4,1016,1,1033,1092,1093,1034
CQUADX4,1017,1,1034,1093,1094,1035
CQUADX4,1018,1,1035,1094,1095,1036
CQUADX4,1019,1,1036,1095,1096,1037
CQUADX4,1020,1,1037,1096,1097,1038
CQUADX4,1021,1,1038,1097,1098,1039
CQUADX4,1022,1,1039,1098,1099,1040
CQUADX4,1023,1,1040,1099,1100,1041
CQUADX4,1024,1,1041,1100,1101,1042
CQUADX4,1025,1,1042,1101,1102,1043
CQUADX4,1026,1,1043,1102,1103,1044
CQUADX4,1027,1,1044,1103,1104,1045
CQUADX4,1028,1,1045,1104,1105,1046
CQUADX4,1029,1,1046,1105,1106,1047
CQUADX4,1030,1,1047,1106,1107,1048
CQUADX4,1031,1,1048,1107,1108,1049
CQUADX4,1032,1,1049,1108,1109,1050
CQUADX4,1033,1,1050,1109,1110,1051
CQUADX4,1034,1,1051,1110,1111,1052
CQUADX4,1035,1,1052,1111,1112,1053
CQUADX4,1036,1,1053,1112,1113,1054
CQUADX4,1037,1,1054,1113,1114,1055
CQUADX4,1038,1,1055,1114,1115,1056
CQUADX4,1039,1,1056,1115,1116,1057
CQUADX4,1040,1,1057,1116,1117,1058
CQUADX4,1041,1,1058,1117,1118,1059
CQUADX4,1042,1,1059,1118,1119,1060
CQUADX4,1043,1,1060,1119,1120,1061
CQUADX4,1044,1,1061,1120,1121,1062
CQUADX4,1045,1,1063,1122,1123,1064
CQUADX4,1046,1,1064,1123,1124,1065
CQUADX4,1047,1,1065,1124,1125,1066
CQUADX4,1048,1,1066,1125,1126,1067
CQUADX4,1049,1,1067,1126,1127,1068
CQUADX4,1050,1,1068,1127,1128,1069
CQUADX4,1051,1,1069,1128,1129,1070
CQUADX4,1052,1,1070,1129,1130,1071
CQUADX4,1053,1,1071,1130,1131,1072
CQUADX4,1054,1,1072,1131,1132,1073
CQUADX4,1055,1,1073,1132,1133,1074
CQUADX4,1056,1,1074,1133,1134,1075
CQUADX4,1057,1,1075,1134,1135,1076
CQUADX4,1058,1,1076,1135,1136,1077
CQUADX4,1059,1,1077,1136,1137,1078
CQUADX4,1060,1,1078,1137,1138,1079
CQUADX4,1061,1,1079,1138,1139,1080
CQUADX4,1062,1,1080,1139,1140,1081
CQUADX4,1063,1,1081,1140,1141,1082
CQUADX4,1064,1,1082,1141,1142,1083
CQUADX4,1065,1,1083,1142,1143,1084
CQUADX4,1066,1,1084,1143,1144,1085
CQUADX4,1067,1,1085,1144,1145,1086
CQUADX4,1068,1,1086,1145,1146,1087
CQUADX4,1069,1,1087,1146,1147,1088
CQUADX4,1070,1,1088,1147,1148,1089
CQUADX4,1071,1,1089,1148,1149,1090
CQUADX4,1072,1,1090,1149,1150,1091
CQUADX4,1073,1,1091,1150,1151,1092
CQUADX4,1074,1,1092,1151,1152,1093
CQUADX4,1075,1,1093,1152,1153,1094
CQUADX4,1076,1,1094,1153,1154,1095
CQUADX4,1077,1,1095,1154,1155,1096
CQUADX4,1078,1,1096,1155,1156,1097
CQUADX4,1079,1,1097,1156,1157,1098
CQUADX4,1080,1,1098,1157,1158,1099
CQUADX4,1081,1,1099,1158,1159,1100
CQUADX4,1082,1,1100,1159,1160,1101
CQUADX4,1083,1,1101,1160,1161,1102
CQUADX4,1084,1,1102,1161,1162,1103
CQUADX4,1085,1,1103,1162,1163,1104
CQUADX4,1086,1,1104,1163,1164,1105
CQUADX4,1087,1,1105,1164,1165,1106
CQUADX4,1088,1,1106,1165,1166,1107
CQUADX4,1089,1,1107,1166,1167,1108
CQUADX4,1090,1,1108,1167,1168,1109
CQUADX4,1091,1,1109,1168,1169,1110
CQUADX4,1092,1,1110,1169,1170,1111
CQUADX4,1093,1,1111,1170,1171,1112
CQUADX4,1094,1,1112,1171,1172,1113
CQUADX4,1095,1,1113,1172,1173,1114
CQUADX4,1096,1,1114,1173,1174,1115
CQUADX4,1097,1,1115,1174,1175,1116
CQUADX4,1098,1,1116,1175,1176,1117
CQUADX4,1099,1,1117,1176,1177,1118
CQUADX4,1100,1,1118,1177,1178,1119
CQUADX4,1101,1,1119,1178,1179,1120
CQUADX4,1102,1,1120,1179,1180,1121
CQUADX4,1103,1,1122,1181,1182,1123
CQUADX4,1104,1,1123,1182,1183,1124
CQUADX4,1105,1,1124,1183,1184,1125
CQUADX4,1106,1,1125,1184,1185,1126
CQUADX4,1107,1,1126,1185,1186,1127
CQUADX4,1108,1,1127,1186,1187,1128
CQUADX4,1109,1,1128,1187,1188,1129
CQUADX4,1110,1,1129,1188,1189,1130
CQUADX4,1111,1,1130,1189,1190,1131
CQUADX4,1112,1,1131,1190,1191,1132
CQUADX4,1113,1,1132,1191,1192,1133
CQUADX4,1114,1,1133,1192,1193,1134
CQUADX4,1115,1,1134,1193,1194,1135
CQUADX4,1116,1,1135,1194,1195,1136
CQUADX4,1117,1,1136,1195,1196,1137
CQUADX4,1118,1,1137,1196,1197,1138
CQUADX4,1119,1,1138,1197,1198,1139
CQUADX4,1120,1,1139,1198,1199,1140
CQUADX4,1121,1,1140,1199,1200,1141
CQUADX4,1122,1,1141,1200,1201,1142
CQUADX4,1123,1,1142,1201,1202,1143
CQUADX4,1124,1,1143,1202,1203,1144
CQUADX4,1125,1,1144,1203,1204,1145
CQUADX4,1126,1,1145,1204,1205,1146
CQUADX4,1127,1,1146,1205,1206,1147
CQUADX4,1128,1,1147,1206,1207,1148
CQUADX4,1129,1,1148,1207,1208,1149
CQUADX4,1130,1,1149,1208,1209,1150
CQUADX4,1131,1,1150,1209,1210,1151
CQUADX4,1132,1,1151,1210,1211,1152
CQUADX4,1133,1,1152,1211,1212,1153
CQUADX4,1134,1,1153,1212,1213,1154
CQUADX4,1135,1,1154,1213,1214,1155
CQUADX4,1136,1,1155,1214,1215,1156
CQUADX4,1137,1,1156,1215,1216,1157
CQUADX4,1138,1,1157,1216,1217,1158
CQUADX4,1139,1,1158,1217,1218,1159
CQUADX4,1140,1,1159,1218,1219,1160
CQUADX4,1141,1,1160,1219,1220,1161
CQUADX4,1142,1,1161,1220,1221,1162
CQUADX4,1143,1,1162,1221,1222,1163
CQUADX4,1144,1,1163,1222,1223,1164
CQUADX4,1145,1,1164,1223,1224,1165
CQUADX4,1146,1,1165,1224,1225,1166
CQUADX4,1147,1,1166,1225,1226,1167
CQUADX4,1148,1,1167,1226,1227,1168
CQUADX4,1149,1,1168,1227,1228,1169
CQUADX4,1150,1,1169,1228,1229,1170
CQUADX4,1151,1,1170,1229,1230,1171
CQUADX4,1152,1,1171,1230,1231,1172
CQUADX4,1153,1,1172,1231,1232,1173
CQUADX4,1154,1,1173,1232,1233,1174
CQUADX4,1155,1,1174,1233,1234,1175
CQUADX4,1156,1,1175,1234,1235,1176
CQUADX4,1157,1,1176,1235,1236,1177
CQUADX4,1158,1,1177,1236,1237,1178
CQUADX4,1159,1,1178,1237,1238,1179
CQUADX4,1160,1,1179,1238,1239,1180
CQUADX4,1161,1,1181,1240,1241,1182
CQUADX4,1162,1,1182,1241,1242,1183
CQUADX4,1163,1,1183,1242,1243,1184
CQUADX4,1164,1,1184,1243,1244,1185
CQUADX4,1165,1,1185,1244,1245,1186
CQUADX4,1166,1,1186,1245,1246,1187
CQUADX4,1167,1,1187,1246,1247,1188
CQUADX4,1168,1,1188,1247,1248,1189
CQUADX4,1169,1,1189,1248,1249,1190
CQUADX4,1170,1,1190,1249,1250,1191
CQUADX4,1171,1,1191,1250,1251,1192
CQUADX4,1172,1,1192,1251,1252,1193
CQUADX4,1173,1,1193,1252,1253,1194
CQUADX4,1174,1,1194,1253,1254,1195
CQUADX4,1175,1,1195,1254,1255,1196
CQUADX4,1176,1,1196,1255,1256,1197
CQUADX4,1177,1,1197,1256,1257,1198
CQUADX4,1178,1,1198,1257,1258,1199
CQUADX4,1179,1,1199,1258,1259,1200
CQUADX4,1180,1,1200,1259,1260,1201
CQUADX4,1181,1,1201,1260,1261,1202
CQUADX4,1182,1,1202,1261,1262,1203
CQUADX4,1183,1,1203,1262,1263,1204
CQUADX4,1184,1,1204,1263,1264,1205
CQUADX4,1185,1,1205,1264,1265,1206
CQUADX4,1186,1,1206,1265,1266,1207
CQUADX4,1187,1,1207,1266,1267,1208
CQUADX4,1188,1,1208,1267,1268,1209
CQUADX4,1189,1,1209,1268,1269,1210
CQUADX4,1190,1,1210,1269,1270,1211
CQUADX4,1191,1,1211,1270,1271,1212
CQUADX4,1192,1,1212,1271,1272,1213
CQUADX4,1193,1,1213,1272,1273,1214
CQUADX4,1194,1,1214,1273,1274,1215
CQUADX4,1195,1,1215,1274,1275,1216
CQUADX4,1196,1,1216,1275,1276,1217
CQUADX4,1197,1,1217,1276,1277,1218
CQUADX4,1198,1,1218,1277,1278,1219
CQUADX4,1199,1,1219,1278,1279,1220
CQUADX4,1200,1,1220,1279,1280,1221
CQUADX4,1201,1,1221,1280,1281,1222
CQUADX4,1202,1,1222,1281,1282,1223
CQUADX4,1203,1,1223,1282,1283,1224
CQUADX4,1204,1,1224,1283,1284,1225
CQUADX4,1205,1,1225,1284,1285,1226
CQUADX4,1206,1,1226,1285,1286,1227
CQUADX4,1207,1,1227,1286,1287,1228
CQUADX4,1208,1,1228,1287,1288,1229
CQUADX4,1209,1,1229,1288,1289,1230
CQUADX4,1210,1,1230,1289,1290,1231
CQUADX4,1211,1,1231,1290,1291,1232
CQUADX4,1212,1,1232,1291,1292,1233
CQUADX4,1213,1,1233,1292,1293,1234
CQUADX4,1214,1,1234,1293,1294,1235
CQUADX4,1215,1,1235,1294,1295,1236
CQUADX4,1216,1,1236,1295,1296,1237
CQUADX4,1217,1,1237,1296,1297,1238
CQUADX4,1218,1,1238,1297,1298,1239
CQUADX4,1219,1,1240,1299,1300,1241
CQUADX4,1220,1,1241,1300,1301,1242
CQUADX4,1221,1,1242,1301,1302,1243
CQUADX4,1222,1,1243,1302,1303,1244
CQUADX4,1223,1,1244,1303,1304,1245
CQUADX4,1224,1,1245,1304,1305,1246
CQUADX4,1225,1,1246,1305,1306,1247
CQUADX4,1226,1,1247,1306,1307,1248
CQUADX4,1227,1,1248,1307,1308,1249
CQUADX4,1228,1,1249,1308,1309,1250
CQUADX4,1229,1,1250,1309,1310,1251
CQUADX4,1230,1,1251,1310,1311,1252
CQUADX4,1231,1,1252,1311,1312,1253
CQUADX4,1232,1,1253,1312,1313,1254
CQUADX4,1233,1,1254,1313,1314,1255
CQUADX4,1234,1,1255,1314,1315,1256
CQUADX4,1235,1,1256,1315,1316,1257
CQUADX4,1236,1,1257,1316,1317,1258
CQUADX4,1237,1,1258,1317,1318,1259
CQUADX4,1238,1,1259,1318,1319,1260
CQUADX4,1239,1,1260,1319,1320,1261
CQUADX4,1240,1,1261,1320,1321,1262
CQUADX4,1241,1,1262,1321,1322,1263
CQUADX4,1242,1,1263,1322,1323,1264
CQUADX4,1243,1,1264,1323,1324,1265
CQUADX4,1244,1,1265,1324,1325,1266
CQUADX4,1245,1,1266,1325,1326,1267
CQUADX4,1246,1,1267,1326,1327,1268
CQUADX4,1247,1,1268,1327,1328,1269
CQUADX4,1248,1,1269,1328,1329,1270
CQUADX4,1249,1,1270,1329,1330,1271
CQUADX4,1250,1,1271,1330,1331,1272
CQUADX4,1251,1,1272,1331,1332,1273
CQUADX4,1252,1,1273,1332,1333,1274
CQUADX4,1253,1,1274,1333,1334,1275
CQUADX4,1254,1,1275,1334,1335,1276
CQUADX4,1255,1,1276,1335,1336,1277
CQUADX4,1256,1,1277,1336,1337,1278
CQUADX4,1257,1,1278,1337,1338,1279
CQUADX4,1258,1,1279,1338,1339,1280
CQUADX4,1259,1,1280,1339,1340,1281
CQUADX4,1260,1,1281,1340,1341,1282
CQUADX4,1261,1,1282,1341,1342,1283
CQUADX4,1262,1,1283,1342,1343,1284
CQUADX4,1263,1,1284,1343,1344,1285
CQUADX4,1264,1,1285,1344,1345,1286
CQUADX4,1265,1,1286,1345,1346,1287
CQUADX4,1266,1,1287,1346,1347,1288
CQUADX4,1267,1,1288,1347,1348,1289
CQUADX4,1268,1,1289,1348,1349,1290
CQUADX4,1269,1,1290,1349,1350,1291
CQUADX4,1270,1,1291,1350,1351,1292
CQUADX4,1271,1,1292,1351,1352,1293
CQUADX4,1272,1,1293,1352,1353,1294
CQUADX4,1273,1,1294,1353,1354,1295
CQUADX4,1274,1,1295,1354,1355,1296
CQUADX4,1275,1,1296,1355,1356,1297
CQUADX4,1276,1,1297,1356,1357,1298
CQUADX4,1277,1,1299,1358,1359,1300
CQUADX4,1278,1,1300,1359,1360,1301
CQUADX4,1279,1,1301,1360,1361,1302
CQUADX4,1280,1,1302,1361,1362,1303
CQUADX4,1281,1,1303,1362,1363,1304
CQUADX4,1282,1,1304,1363,1364,1305
CQUADX4,1283,1,1305,1364,1365,1306
CQUADX4,1284,1,1306,1365,1366,1307
CQUADX4,1285,1,1307,1366,1367,1308
CQUADX4,1286,1,1308,1367,1368,1309
CQUADX4,1287,1,1309,1368,1369,1310
CQUADX4,1288,1,1310,1369,1370,1311
CQUADX4,1289,1,1311,1370,1371,1312
CQUADX4,1290,1,1312,1371,1372,1313
CQUADX4,1291,1,1313,1372,1373,1314
CQUADX4,1292,1,1314,1373,1374,1315
CQUADX4,1293,1,1315,1374,1375,1316
CQUADX4,1294,1,1316,1375,1376,1317
CQUADX4,1295,1,1317,1376,1377,1318
CQUADX4,1296,1,1318,1377,1378,1319
CQUADX4,1297,1,1319,1378,1379,1320
CQUADX4,1298,1,1320,1379,1380,1321
CQUADX4,1299,1,1321,1380,1381,1322
CQUADX4,1300,1,1322,1381,1382,1323
CQUADX4,1301,1,1323,1382,1383,1324
CQUADX4,1302,1,1324,1383,1384,1325
CQUADX4,1303,1,1325,1384,1385,1326
CQUADX4,1304,1,1326,1385,1386,1327
CQUADX4,1305,1,1327,1386,1387,1328
CQUADX4,1306,1,1328,1387,1388,1329
CQUADX4,1307,1,1329,1388,1389,1330
CQUADX4,1308,1,1330,1389,1390,1331
CQUADX4,1309,1,1331,1390,1391,1332
CQUADX4,1310,1,1332,1391,1392,1333
CQUADX4,1311,1,1333,1392,1393,1334
CQUADX4,1312,1,1334,1393,1394,1335
CQUADX4,1313,1,1335,1394,1395,1336
CQUADX4,1314,1,1336,1395,1396,1337
CQUADX4,1315,1,1337,1396,1397,1338
CQUADX4,1316,1,1338,1397,1398,1339
CQUADX4,1317,1,1339,1398,1399,1340
CQUADX4,1318,1,1340,1399,1400,1341
CQUADX4,1319,1,1341,1400,1401,1342
CQUADX4,1320,1,1342,1401,1402,1343
CQUADX4,1321,1,1343,1402,1403,1344
CQUADX4,1322,1,1344,1403,1404,1345
CQUADX4,1323,1,1345,1404,1405,1346
CQUADX4,1324,1,1346,1405,1406,1347
CQUADX4,1325,1,1347,1406,1407,1348
CQUADX4,1326,1,1348,1407,1408,1349
CQUADX4,1327,1,1349,1408,1409,1350
CQUADX4,1328,1,1350,1409,1410,1351
CQUADX4,1329,1,1351,1410,1411,1352
CQUADX4,1330,1,1352,1411,1412,1353
CQUADX4,1331,1,1353,1412,1413,1354
CQUADX4,1332,1,1354,1413,1414,1355
CQUADX4,1333,1,1355,1414,1415,1356
CQUADX4,1334,1,1356,1415,1416,1357
CQUADX4,1335,1,1358,1417,1418,1359
CQUADX4,1336,1,1359,1418,1419,1360
CQUADX4,1337,1,1360,1419,1420,1361
CQUADX4,1338,1,1361,1420,1421,1362
CQUADX4,1339,1,1362,1421,1422,1363
CQUADX4,1340,1,1363,1422,1423,1364
CQUADX4,1341,1,1364,1423,1424,1365
CQUADX4,1342,1,1365,1424,1425,1366
CQUADX4,1343,1,1366,1425,1426,1367
CQUADX4,1344,1,1367,1426,1427,1368
CQUADX4,1345,1,1368,1427,1428,1369
CQUADX4,1346,1,1369,1428,1429,1370
CQUADX4,1347,1,1370,1429,1430,1371
CQUADX4,1348,1,1371,1430,1431,1372
CQUADX4,1349,1,1372,1431,1432,1373
CQUADX4,1350,1,1373,1432,1433,1374
CQUADX4,1351,1,1374,1433,1434,1375
CQUADX4,1352,1,1375,1434,1435,1376
CQUADX4,1353,1,1376,1435,1436,1377
CQUADX4,1354,1,1377,1436,1437,1378
CQUADX4,1355,1,1378,1437,1438,1379
CQUADX4,1356,1,1379,1438,1439,1380
CQUADX4,1357,1,1380,1439,1440,1381
CQUADX4,1358,1,1381,1440,1441,1382
CQUADX4,1359,1,1382,1441,1442,1383
CQUADX4,1360,1,1383,1442,1443,1384
CQUADX4,1361,1,1384,1443,1444,1385
CQUADX4,1362,1,1385,1444,1445,1386
CQUADX4,1363,1,1386,1445,1446,1387
CQUADX4,1364,1,1387,1446,1447,1388
CQUADX4,1365,1,1388,1447,1448,1389
CQUADX4,1366,1,1389,1448,1449,1390
CQUADX4,1367,1,1390,1449,1450,1391
CQUADX4,1368,1,1391,1450,1451,1392
CQUADX4,1369,1,1392,1451,1452,1393
CQUADX4,1370,1,1393,1452,1453,1394
CQUADX4,1371,1,1394,1453,1454,1395
CQUADX4,1372,1,1395,1454,1455,1396
CQUADX4,1373,1,1396,1455,1456,1397
CQUADX4,1374,1,1397,1456,1457,1398
CQUADX4,1375,1,1398,1457,1458,1399
CQUADX4,1376,1,1399,1458,1459,1400
CQUADX4,1377,1,1400,1459,1460,1401
CQUADX4,1378,1,1401,1460,1461,1402
CQUADX4,1379,1,1402,1461,1462,1403
CQUADX4,1380,1,1403,1462,1463,1404
CQUADX4,1381,1,1404,1463,1464,1405
CQUADX4,1382,1,1405,1464,1465,1406
CQUADX4,1383,1,1406,1465,1466,1407
CQUADX4,1384,1,1407,1466,1467,1408
CQUADX4,1385,1,1408,1467,1468,1409
CQUADX4,1386,1,1409,1468,1469,1410
CQUADX4,1387,1,1410,1469,1470,1411
CQUADX4,1388,1,1411,1470,1471,1412
CQUADX4,1389,1,1412,1471,1472,1413
CQUADX4,1390,1,1413,1472,1473,1414
CQUADX4,1391,1,1414,1473,1474,1415
CQUADX4,1392,1,1415,1474,1475,1416
CQUADX4,1393,1,1417,1476,1477,1418
CQUADX4,1394,1,1418,1477,1478,1419
CQUADX4,1395,1,1419,1478,1479,1420
CQUADX4,1396,1,1420,1479,1480,1421
CQUADX4,1397,1,1421,1480,1481,1422
CQUADX4,1398,1,1422,1481,1482,1423
CQUADX4,1399,1,1423,1482,1483,1424
CQUADX4,1400,1,1424,1483,1484,1425
CQUADX4,1401,1,1425,1484,1485,1426
CQUADX4,1402,1,1426,1485,1486,1427
CQUADX4,1403,1,1427,1486,1487,1428
CQUADX4,1404,1,1428,1487,1488,1429
CQUADX4,1405,1,1429,1488,1489,1430
CQUADX4,1406,1,1430,1489,1490,1431
CQUADX4,1407,1,1431,1490,1491,1432
CQUADX4,1408,1,1432,1491,1492,1433
CQUADX4,1409,1,1433,1492,1493,1434
CQUADX4,1410,1,1434,1493,1494,1435
CQUADX4,1411,1,1435,1494,1495,1436
CQUADX4,1412,1,1436,1495,1496,1437
CQUADX4,1413,1,1437,1496,1497,1438
CQUADX4,1414,1,1438,1497,1498,1439
CQUADX4,1415,1,1439,1498,1499,1440
CQUADX4,1416,1,1440,1499,1500,1441
CQUADX4,1417,1,1441,1500,1501,1442
CQUADX4,1418,1,1442,1501,1502,1443
CQUADX4,1419,1,1443,1502,1503,1444
CQUADX4,1420,1,1444,1503,1504,1445
CQUADX4,1421,1,1445,1504,1505,1446
CQUADX4,1422,1,1446,1505,1506,1447
CQUADX4,1423,1,1447,1506,1507,1448
CQUADX4,1424,1,1448,1507,1508,1449
CQUADX4,1425,1,1449,1508,1509,1450
CQUADX4,1426,1,1450,1509,1510,1451
CQUADX4,1427,1,1451,1510,1511,1452
CQUADX4,1428,1,1452,1511,1512,1453
CQUADX4,1429,1,1453,1512,1513,1454
CQUADX4,1430,1,1454,1513,1514,1455
CQUADX4,1431,1,1455,1514,1515,1456
CQUADX4,1432,1,1456,1515,1516,1457
CQUADX4,1433,1,1457,1516,1517,1458
CQUADX4,1434,1,1458,1517,1518,1459
CQUADX4,1435,1,1459,1518,1519,1460
CQUADX4,1436,1,1460,1519,1520,1461
CQUADX4,1437,1,1461,1520,1521,1462
CQUADX4,1438,1,1462,1521,1522,1463
CQUADX4,1439,1,1463,1522,1523,1464
CQUADX4,1440,1,1464,1523,1524,1465
CQUADX4,1441,1,1465,1524,1525,1466
CQUADX4,1442,1,1466,1525,1526,1467
CQUADX4,1443,1,1467,1526,1527,1468
CQUADX4,1444,1,1468,1527,1528,1469
CQUADX4,1445,1,1469,1528,1529,1470
CQUADX4,1446,1,1470,1529,1530,1471
CQUADX4,1447,1,1471,1530,1531,1472
CQUADX4,1448,1,1472,1531,1532,1473
CQUADX4,1449,1,1473,1532,1533,1474
CQUADX4,1450,1,1474,1533,1534,1475
CQUADX4,1451,1,1476,1535,1536,1477
CQUADX4,1452,1,1477,1536,1537,1478
CQUADX4,1453,1,1478,1537,1538,1479
CQUADX4,1454,1,1479,1538,1539,1480
CQUADX4,1455,1,1480,1539,1540,1481
CQUADX4,1456,1,1481,1540,1541,1482
CQUADX4,1457,1,1482,1541,1542,1483
CQUADX4,1458,1,1483,1542,1543,1484
CQUADX4,1459,1,1484,1543,1544,1485
CQUADX4,1460,1,1485,1544,1545,1486
CQUADX4,1461,1,1486,1545,1546,1487
CQUADX4,1462,1,1487,1546,1547,1488
CQUADX4,1463,1,1488,1547,1548,1489
CQUADX4,1464,1,1489,1548,1549,1490
CQUADX4,1465,1,1490,1549,1550,1491
CQUADX4,1466,1,1491,1550,1551,1492
CQUADX4,1467,1,1492,1551,1552,1493
CQUADX4,1468,1,1493,1552,1553,1494
CQUADX4,1469,1,1494,1553,1554,1495
CQUADX4,1470,1,1495,1554,1555,1496
CQUADX4,1471,1,1496,1555,1556,1497
CQUADX4,1472,1,1497,1556,1557,1498
CQUADX4,1473,1,1498,1557,1558,1499
CQUADX4,1474,1,1499,1558,1559,1500
CQUADX4,1475,1,1500,1559,1560,1501
CQUADX4,1476,1,1501,1560,1561,1502
CQUADX4,1477,1,1502,1561,1562,1503
CQUADX4,1478,1,1503,1562,1563,1504
CQUADX4,1479,1,1504,1563,1564,1505
CQUADX4,1480,1,1505,1564,1565,1506
CQUADX4,1481,1,1506,1565,1566,1507
CQUADX4,1482,1,1507,1566,1567,1508
CQUADX4,1483,1,1508,1567,1568,1509
CQUADX4,1484,1,1509,1568,1569,1510
CQUADX4,1485,1,1510,1569,1570,1511
CQUADX4,1486,1,1511,1570,1571,1512
CQUADX4,1487,1,1512,1571,1572,1513
CQUADX4,1488,1,1513,1572,1573,1514
CQUADX4,1489,1,1514,1573,1574,1515
CQUADX4,1490,1,1515,1574,1575,1516
CQUADX4,1491,1,1516,1575,1576,1517
CQUADX4,1492,1,1517,1576,1577,1518
CQUADX4,1493,1,1518,1577,1578,1519
CQUADX4,1494,1,1519,1578,1579,1520
CQUADX4,1495,1,1520,1579,1580,1521
CQUADX4,1496,1,1521,1580,1581,1522
CQUADX4,1497,1,1522,1581,1582,1523
CQUADX4,1498,1,1523,1582,1583,1524
CQUADX4,1499,1,1524,1583,1584,1525
CQUADX4,1500,1,1525,1584,1585,1526
CQUADX4,1501,1,1526,1585,1586,1527
CQUADX4,1502,1,1527,1586,1587,1528
CQUADX4,1503,1,1528,1587,1588,1529
CQUADX4,1504,1,1529,1588,1589,1530
CQUADX4,1505,1,1530,1589,1590,1531
CQUADX4,1506,1,1531,1590,1591,1532
CQUADX4,1507,1,1532,1591,1592,1533
CQUADX4,1508,1,1533,1592,1593,1534
CQUADX4,1509,1,1535,1594,1595,1536
CQUADX4,1510,1,1536,1595,1596,1537
CQUADX4,1511,1,1537,1596,1597,1538
CQUADX4,1512,1,1538,1597,1598,1539
CQUADX4,1513,1,1539,1598,1599,1540
CQUADX4,1514,1,1540,1599,1600,1541
CQUADX4,1515,1,1541,1600,1601,1542
CQUADX4,1516,1,1542,1601,1602,1543
CQUADX4,1517,1,1543,1602,1603,1544
CQUADX4,1518,1,1544,1603,1604,1545
CQUADX4,1519,1,1545,1604,1605,1546
CQUADX4,1520,1,1546,1605,1606,1547
CQUADX4,1521,1,1547,1606,1607,1548
CQUADX4,1522,1,1548,1607,1608,1549
CQUADX4,1523,1,1549,1608,1609,1550
CQUADX4,1524,1,1550,1609,1610,1551
CQUADX4,1525,1,1551,1610,1611,1552
CQUADX4,1526,1,1552,1611,1612,1553
CQUADX4,1527,1,1553,1612,1613,1554
CQUADX4,1528,1,1554,1613,1614,1555
CQUADX4,1529,1,1555,1614,1615,1556
CQUADX4,1530,1,1556,1615,1616,1557
CQUADX4,1531,1,1557,1616,1617,1558
CQUADX4,1532,1,1558,1617,1618,1559
CQUADX4,1533,1,1559,1618,1619,1560
CQUADX4,1534,1,1560,1619,1620,1561
CQUADX4,1535,1,1561,1620,1621,1562
CQUADX4,1536,1,1562,1621,1622,1563
CQUADX4,1537,1,1563,1622,1623,1564
CQUADX4,1538,1,1564,1623,1624,1565
CQUADX4,1539,1,1565,1624,1625,1566
CQUADX4,1540,1,1566,1625,1626,1567
CQUADX4,1541,1,1567,1626,1627,1568
CQUADX4,1542,1,1568,1627,1628,1569
CQUADX4,1543,1,1569,1628,1629,1570
CQUADX4,1544,1,1570,1629,1630,1571
CQUADX4,1545,1,1571,1630,1631,1572
CQUADX4,1546,1,1572,1631,1632,1573
CQUADX4,1547,1,1573,1632,1633,1574
CQUADX4,1548,1,1574,1633,1634,1575
CQUADX4,1549,1,1575,1634,1635,1576
CQUADX4,1550,1,1576,1635,1636,1577
CQUADX4,1551,1,1577,1636,1637,1578
CQUADX4,1552,1,1578,1637,1638,1579
CQUADX4,1553,1,1579,1638,1639,1580
CQUADX4,1554,1,1580,1639,1640,1581
CQUADX4,1555,1,1581,1640,1641,1582
CQUADX4,1556,1,1582,1641,1642,1583
CQUADX4,1557,1,1583,1642,1643,1584
CQUADX4,1558,1,1584,1643,1644,1585
CQUADX4,1559,1,1585,1644,1645,1586
CQUADX4,1560,1,1586,1645,1646,1587
CQUADX4,1561,1,1587,1646,1647,1588
CQUADX4,1562,1,1588,1647,1648,1589
CQUADX4,1563,1,1589,1648,1649,1590
CQUADX4,1564,1,1590,1649,1650,1591
CQUADX4,1565,1,1591,1650,1651,1592
CQUADX4,1566,1,1592,1651,1652,1593
CQUADX4,1567,1,1594,1653,1654,1595
CQUADX4,1568,1,1595,1654,1655,1596
CQUADX4,1569,1,1596,1655,1656,1597
CQUADX4,1570,1,1597,1656,1657,1598
CQUADX4,1571,1,1598,1657,1658,1599
CQUADX4,1572,1,1599,1658,1659,1600
CQUADX4,1573,1,1600,1659,1660,1601
CQUADX4,1574,1,1601,1660,1661,1602
CQUADX4,1575,1,1602,1661,1662,1603
CQUADX4,1576,1,1603,1662,1663,1604
CQUADX4,1577,1,1604,1663,1664,1605
CQUADX4,1578,1,1605,1664,1665,1606
CQUADX4,1579,1,1606,1665,1666,1607
CQUADX4,1580,1,1607,1666,1667,1608
CQUADX4,1581,1,1608,1667,1668,1609
CQUADX4,1582,1,1609,1668,1669,1610
CQUADX4,1583,1,1610,1669,1670,1611
CQUADX4,1584,1,1611,1670,1671,1612
CQUADX4,1585,1,1612,1671,1672,1613
CQUADX4,1586,1,1613,1672,1673,1614
CQUADX4,1587,1,1614,1673,1674,1615
CQUADX4,1588,1,1615,1674,1675,1616
CQUADX4,1589,1,1616,1675,1676,1617
CQUADX4,1590,1,1617,1676,1677,1618
CQUADX4,1591,1,1618,1677,1678,1619
CQUADX4,1592,1,1619,1678,1679,1620
CQUADX4,1593,1,1620,1679,1680,1621
CQUADX4,1594,1,1621,1680,1681,1622
CQUADX4,1595,1,1622,1681,1682,1623
CQUADX4,1596,1,1623,1682,1683,1624
CQUADX4,1597,1,1624,1683,1684,1625
CQUADX4,1598,1,1625,1684,1685,1626
CQUADX4,1599,1,1626,1685,1686,1627
CQUADX4,1600,1,1627,1686,1687,1628
CQUADX4,1601,1,1628,1687,1688,1629
CQUADX4,1602,1,1629,1688,1689,1630
CQUADX4,1603,1,1630,1689,1690,1631
CQUADX4,1604,1,1631,1690,1691,1632
CQUADX4,1605,1,1632,1691,1692,1633
CQUADX4,1606,1,1633,1692,1693,1634
CQUADX4,1607,1,1634,1693,1694,1635
CQUADX4,1608,1,1635,1694,1695,1636
CQUADX4,1609,1,1636,1695,1696,1637
CQUADX4,1610,1,1637,1696,1697,1638
CQUADX4,1611,1,1638,1697,1698,1639
CQUADX4,1612,1,1639,1698,1699,1640
CQUADX4,1613,1,1640,1699,1700,1641
CQUADX4,1614,1,1641,1700,1701,1642
CQUADX4,1615,1,1642,1701,1702,1643
CQUADX4,1616,1,1643,1702,1703,1644
CQUADX4,1617,1,1644,1703,1704,1645
CQUADX4,1618,1,1645,1704,1705,1646
CQUADX4,1619,1,1646,1705,1706,1647
CQUADX4,1620,1,1647,1706,1707,1648
CQUADX4,1621,1,1648,1707,1708,1649
CQUADX4,1622,1,1649,1708,1709,1650
CQUADX4,1623,1,1650,1709,1710,1651
CQUADX4,1624,1,1651,1710,1711,1652
CQUADX4,1625,1,1653,1712,1713,1654
CQUADX4,1626,1,1654,1713,1714,1655
CQUADX4,1627,1,1655,1714,1715,1656
CQUADX4,1628,1,1656,1715,1716,1657
CQUADX4,1629,1,1657,1716,1717,1658
CQUADX4,1630,1,1658,1717,1718,1659
CQUADX4,1631,1,1659,1718,1719,1660
CQUADX4,1632,1,1660,1719,1720,1661
CQUADX4,1633,1,1661,1720,1721,1662
CQUADX4,1634,1,1662,1721,1722,1663
CQUADX4,1635,1,1663,1722,1723,1664
CQUADX4,1636,1,1664,1723,1724,1665
CQUADX4,1637,1,1665,1724,1725,1666
CQUADX4,1638,1,1666,1725,1726,1667
CQUADX4,1639,1,1667,1726,1727,1668
CQUADX4,1640,1,1668,1727,1728,1669
CQUADX4,1641,1,1669,1728,1729,1670
CQUADX4,1642,1,1670,1729,1730,1671
CQUADX4,1643,1,1671,1730,1731,1672
CQUADX4,1644,1,1672,1731,1732,1673
CQUADX4,1645,1,1673,1732,1733,1674
CQUADX4,1646,1,1674,1733,1734,1675
CQUADX4,1647,1,1675,1734,1735,1676
CQUADX4,1648,1,1676,1735,1736,1677
CQUADX4,1649,1,1677,1736,1737,1678
CQUADX4,1650,1,1678,1737,1738,1679
CQUADX4,1651,1,1679,1738,1739,1680
CQUADX4,1652,1,1680,1739,1740,1681
CQUADX4,1653,1,1681,1740,1741,1682
CQUADX4,1654,1,1682,1741,1742,1683
CQUADX4,1655,1,1683,1742,1743,1684
CQUADX4,1656,1,1684,1743,1744,1685
CQUADX4,1657,1,1685,1744,1745,1686
CQUADX4,1658,1,1686,1745,1746,1687
CQUADX4,1659,1,1687,1746,1747,1688
CQUADX4,1660,1,1688,1747,1748,1689
CQUADX4,1661,1,1689,1748,1749,1690
CQUADX4,1662,1,1690,1749,1750,1691
CQUADX4,1663,1,1691,1750,1751,1692
CQUADX4,1664,1,1692,1751,1752,1693
CQUADX4,1665,1,1693,1752,1753,1694
CQUADX4,1666,1,1694,1753,1754,1695
CQUADX4,1667,1,1695,1754,1755,1696
CQUADX4,1668,1,1696,1755,1756,1697
CQUADX4,1669,1,1697,1756,1757,1698
CQUADX4,1670,1,1698,1757,1758,1699
CQUADX4,1671,1,1699,1758,1759,1700
CQUADX4,1672,1,1700,1759,1760,1701
CQUADX4,1673,1,1701,1760,1761,1702
CQUADX4,1674,1,1702,1761,1762,1703
CQUADX4,1675,1,1703,1762,1763,1704
CQUADX4,1676,1,1704,1763,1764,1705
CQUADX4,1677,1,1705,1764,1765,1706
CQUADX4,1678,1,1706,1765,1766,1707
CQUADX4,1679,1,1707,1766,1767,1708
CQUADX4,1680,1,1708,1767,1768,1709
CQUADX4,1681,1,1709,1768,1769,1710
CQUADX4,1682,1,1710,1769,1770,1711
CQUADX4,1683,1,1712,1771,1772,1713
CQUADX4,1684,1,1713,1772,1773,1714
CQUADX4,1685,1,1714,1773,1774,1715
CQUADX4,1686,1,1715,1774,1775,1716
CQUADX4,1687,1,1716,1775,1776,1717
CQUADX4,1688,1,1717,1776,1777,1718
CQUADX4,1689,1,1718,1777,1778,1719
CQUADX4,1690,1,1719,1778,1779,1720
CQUADX4,1691,1,1720,1779,1780,1721
CQUADX4,1692,1,1721,1780,1781,1722
CQUADX4,1693,1,1722,1781,1782,1723
CQUADX4,1694,1,1723,1782,1783,1724
CQUADX4,1695,1,1724,1783,1784,1725
CQUADX4,1696,1,1725,1784,1785,1726
CQUADX4,1697,1,1726,1785,1786,1727
CQUADX4,1698,1,1727,1786,1787,1728
CQUADX4,1699,1,1728,1787,1788,1729
CQUADX4,1700,1,1729,1788,1789,1730
CQUADX4,1701,1,1730,1789,1790,1731
CQUADX4,1702,1,1731,1790,1791,1732
CQUADX4,1703,1,1732,1791,1792,1733
CQUADX4,1704,1,1733,1792,1793,1734
CQUADX4,1705,1,1734,1793,1794,1735
CQUADX4,1706,1,1735,1794,1795,1736
CQUADX4,1707,1,1736,1795,1796,1737
CQUADX4,1708,1,1737,1796,1797,1738
CQUADX4,1709,1,1738,1797,1798,1739
CQUADX4,1710,1,1739,1798,1799,1740
CQUADX4,1711,1,1740,1799,1800,1741
CQUADX4,1712,1,1741,1800,1801,1742
CQUADX4,1713,1,1742,1801,1802,1743
CQUADX4,1714,1,1743,1802,1803,1744
CQUADX4,1715,1,1744,1803,1804,1745
CQUADX4,1716,1,1745,1804,1805,1746
CQUADX4,1717,1,1746,1805,1806,1747
CQUADX4,1718,1,1747,1806,1807,1748
CQUADX4,1719,1,1748,1807,1808,1749
CQUADX4,1720,1,1749,1808,1809,1750
CQUADX4,1721,1,1750,1809,1810,1751
CQUADX4,1722,1,1751,1810,1811,1752
CQUADX4,1723,1,1752,1811,1812,1753
CQUADX4,1724,1,1753,1812,1813,1754
CQUADX4,1725,1,1754,1813,1814,1755
CQUADX4,1726,1,1755,1814,1815,1756
CQUADX4,1727,1,1756,1815,1816,1757
CQUADX4,1728,1,1757,1816,1817,1758
CQUADX4,1729,1,1758,1817,1818,1759
CQUADX4,1730,1,1759,1818,1819,1760
CQUADX4,1731,1,1760,1819,1820,1761
CQUADX4,1732,1,1761,1820,1821,1762
CQUADX4,1733,1,1762,1821,1822,1763
CQUADX4,1734,1,1763,1822,1823,1764
CQUADX4,1735,1,1764,1823,1824,1765
CQUADX4,1736,1,1765,1824,1825,1766
CQUADX4,1737,1,1766,1825,1826,1767
CQUADX4,1738,1,1767,1826,1827,1768
CQUADX4,1739,1,1768,1827,1828,1769
CQUADX4,1740,1,1769,1828,1829,1770
CQUADX4,1741,1,1771,1830,1831,1772
CQUADX4,1742,1,1772,1831,1832,1773
CQUADX4,1743,1,1773,1832,1833,1774
CQUADX4,1744,1,1774,1833,1834,1775
CQUADX4,1745,1,1775,1834,1835,1776
CQUADX4,1746,1,1776,1835,1836,1777
CQUADX4,1747,1,1777,1836,1837,1778
CQUADX4,1748,1,1778,1837,1838,1779
CQUADX4,1749,1,1779,1838,1839,1780
CQUADX4,1750,1,1780,1839,1840,1781
CQUADX4,1751,1,1781,1840,1841,1782
CQUADX4,1752,1,1782,1841,1842,1783
CQUADX4,1753,1,1783,1842,1843,1784
CQUADX4,1754,1,1784,1843,1844,1785
CQUADX4,1755,1,1785,1844,1845,1786
CQUADX4,1756,1,1786,1845,1846,1787
CQUADX4,1757,1,1787,1846,1847,1788
CQUADX4,1758,1,1788,1847,1848,1789
CQUADX4,1759,1,1789,1848,1849,1790
CQUADX4,1760,1,1790,1849,1850,1791
CQUADX4,1761,1,1791,1850,1851,1792
CQUADX4,1762,1,1792,1851,1852,1793
CQUADX4,1763,1,1793,1852,1853,1794
CQUADX4,1764,1,1794,1853,1854,1795
CQUADX4,1765,1,1795,1854,1855,1796
CQUADX4,1766,1,1796,1855,1856,1797
CQUADX4,1767,1,1797,1856,1857,1798
CQUADX4,1768,1,1798,1857,1858,1799
CQUADX4,1769,1,1799,1858,1859,1800
CQUADX4,1770,1,1800,1859,1860,1801
CQUADX4,1771,1,1801,1860,1861,1802
CQUADX4,1772,1,1802,1861,1862,1803
CQUADX4,1773,1,1803,1862,1863,1804
CQUADX4,1774,1,1804,1863,1864,1805
CQUADX4,1775,1,1805,1864,1865,1806
CQUADX4,1776,1,1806,1865,1866,1807
CQUADX4,1777,1,1807,1866,1867,1808
CQUADX4,1778,1,1808,1867,1868,1809
CQUADX4,1779,1,1809,1868,1869,1810
CQUADX4,1780,1,1810,1869,1870,1811
CQUADX4,1781,1,1811,1870,1871,1812
CQUADX4,1782,1,1812,1871,1872,1813
CQUADX4,1783,1,1813,1872,1873,1814
CQUADX4,1784,1,1814,1873,1874,1815
CQUADX4,1785,1,1815,1874,1875,1816
CQUADX4,1786,1,1816,1875,1876,1817
CQUADX4,1787,1,1817,1876,1877,1818
CQUADX4,1788,1,1818,1877,1878,1819
CQUADX4,1789,1,1819,1878,1879,1820
CQUADX4,1790,1,1820,1879,1880,1821
CQUADX4,1791,1,1821,1880,1881,1822
CQUADX4,1792,1,1822,1881,1882,1823
CQUADX4,1793,1,1823,1882,1883,1824
CQUADX4,1794,1,1824,1883,1884,1825
CQUADX4,1795,1,1825,1884,1885,1826
CQUADX4,1796,1,1826,1885,1886,1827
CQUADX4,1797,1,1827,1886,1887,1828
CQUADX4,1798,1,1828,1887,1888,1829
CQUADX4,1799,1,1830,1889,1890,1831
CQUADX4,1800,1,1831,1890,1891,1832
CQUADX4,1801,1,1832,1891,1892,1833
CQUADX4,1802,1,1833,1892,1893,1834
CQUADX4,1803,1,1834,1893,1894,1835
CQUADX4,1804,1,1835,1894,1895,1836
CQUADX4,1805,1,1836,1895,1896,1837
CQUADX4,1806,1,1837,1896,1897,1838
CQUADX4,1807,1,1838,1897,1898,1839
CQUADX4,1808,1,1839,1898,1899,1840
CQUADX4,1809,1,1840,1899,1900,1841
CQUADX4,1810,1,1841,1900,1901,1842
CQUADX4,1811,1,1842,1901,1902,1843
CQUADX4,1812,1,1843,1902,1903,1844
CQUADX4,1813,1,1844,1903,1904,1845
CQUADX4,1814,1,1845,1904,1905,1846
CQUADX4,1815,1,1846,1905,1906,1847
CQUADX4,1816,1,1847,1906,1907,1848
CQUADX4,1817,1,1848,1907,1908,1849
CQUADX4,1818,1,1849,1908,1909,1850
CQUADX4,1819,1,1850,1909,1910,1851
CQUADX4,1820,1,1851,1910,1911,1852
CQUADX4,1821,1,1852,1911,1912,1853
CQUADX4,1822,1,1853,1912,1913,1854
CQUADX4,1823,1,1854,1913,1914,1855
CQUADX4,1824,1,1855,1914,1915,1856
CQUADX4,1825,1,1856,1915,1916,1857
CQUADX4,1826,1,1857,1916,1917,1858
CQUADX4,1827,1,1858,1917,1918,1859
CQUADX4,1828,1,1859,1918,1919,1860
CQUADX4,1829,1,1860,1919,1920,1861
CQUADX4,1830,1,1861,1920,1921,1862
CQUADX4,1831,1,1862,1921,1922,1863
CQUADX4,1832,1,1863,1922,1923,1864
CQUADX4,1833,1,1864,1923,1924,1865
CQUADX4,1834,1,1865,1924,1925,1866
CQUADX4,1835,1,1866,1925,1926,1867
CQUADX4,1836,1,1867,1926,1927,1868
CQUADX4,1837,1,1868,1927,1928,1869
CQUADX4,1838,1,1869,1928,1929,1870
CQUADX4,1839,1,1870,1929,1930,1871
CQUADX4,1840,1,1871,1930,1931,1872
CQUADX4,1841,1,1872,1931,1932,1873
CQUADX4,1842,1,1873,1932,1933,1874
CQUADX4,1843,1,1874,1933,1934,1875
CQUADX4,1844,1,1875,1934,1935,1876
CQUADX4,1845,1,1876,1935,1936,1877
CQUADX4,1846,1,1877,1936,1937,1878
CQUADX4,1847,1,1878,1937,1938,1879
CQUADX4,1848,1,1879,1938,1939,1880
CQUADX4,1849,1,1880,1939,1940,1881
CQUADX4,1850,1,1881,1940,1941,1882
CQUADX4,1851,1,1882,1941,1942,1883
CQUADX4,1852,1,1883,1942,1943,1884
CQUADX4,1853,1,1884,1943,1944,1885
CQUADX4,1854,1,1885,1944,1945,1886
CQUADX4,1855,1,1886,1945,1946,1887
CQUADX4,1856,1,1887,1946,1947,1888
CQUADX4,1857,1,1889,1948,1949,1890
CQUADX4,1858,1,1890,1949,1950,1891
CQUADX4,1859,1,1891,1950,1951,1892
CQUADX4,1860,1,1892,1951,1952,1893
CQUADX4,1861,1,1893,1952,1953,1894
CQUADX4,1862,1,1894,1953,1954,1895
CQUADX4,1863,1,1895,1954,1955,1896
CQUADX4,1864,1,1896,1955,1956,1897
CQUADX4,1865,1,1897,1956,1957,1898
CQUADX4,1866,1,1898,1957,1958,1899
CQUADX4,1867,1,1899,1958,1959,1900
CQUADX4,1868,1,1900,1959,1960,1901
CQUADX4,1869,1,1901,1960,1961,1902
CQUADX4,1870,1,1902,1961,1962,1903
CQUADX4,1871,1,1903,1962,1963,1904
CQUADX4,1872,1,1904,1963,1964,1905
CQUADX4,1873,1,1905,1964,1965,1906
CQUADX4,1874,1,1906,1965,1966,1907
CQUADX4,1875,1,1907,1966,1967,1908
CQUADX4,1876,1,1908,1967,1968,1909
CQUADX4,1877,1,1909,1968,1969,1910
CQUADX4,1878,1,1910,1969,1970,1911
CQUADX4,1879,1,1911,1970,1971,1912
CQUADX4,1880,1,1912,1971,1972,1913
CQUADX4,1881,1,1913,1972,1973,1914
CQUADX4,1882,1,1914,1973,1974,1915
CQUADX4,1883,1,1915,1974,1975,1916
CQUADX4,1884,1,1916,1975,1976,1917
CQUADX4,1885,1,1917,1976,1977,1918
CQUADX4,1886,1,1918,1977,1978,1919
CQUADX4,1887,1,1919,1978,1979,1920
CQUADX4,1888,1,1920,1979,1980,1921
CQUADX4,1889,1,1921,1980,1981,1922
CQUADX4,1890,1,1922,1981,1982,1923
CQUADX4,1891,1,1923,1982,1983,1924
CQUADX4,1892,1,1924,1983,1984,1925
CQUADX4,1893,1,1925,1984,1985,1926
CQUADX4,1894,1,1926,1985,1986,1927
CQUADX4,1895,1,1927,1986,1987,1928
CQUADX4,1896,1,1928,1987,1988,1929
CQUADX4,1897,1,1929,1988,1989,1930
CQUADX4,1898,1,1930,1989,1990,1931
CQUADX4,1899,1,1931,1990,1991,1932
CQUADX4,1900,1,1932,1991,1992,1933
CQUADX4,1901,1,1933,1992,1993,1934
CQUADX4,1902,1,1934,1993,1994,1935
CQUADX4,1903,1,1935,1994,1995,1936
CQUADX4,1904,1,1936,1995,1996,1937
CQUADX4,1905,1,1937,1996,1997,1938
CQUADX4,1906,1,1938,1997,1998,1939
CQUADX4,1907,1,1939,1998,1999,1940
CQUADX4,1908,1,1940,1999,2000,1941
CQUADX4,1909,1,1941,2000,2001,1942
CQUADX4,1910,1,1942,2001,2002,1943
CQUADX4,1911,1,1943,2002,2003,1944
CQUADX4,1912,1,1944,2003,2004,1945
CQUADX4,1913,1,1945,2004,2005,1946
CQUADX4,1914,1,1946,2005,2006,1947
CQUADX4,1915,1,1948,2007,2008,1949
CQUADX4,1916,1,1949,2008,2009,1950
CQUADX4,1917,1,1950,2009,2010,1951
CQUADX4,1918,1,1951,2010,2011,1952
CQUADX4,1919,1,1952,2011,2012,1953
CQUADX4,1920,1,1953,2012,2013,1954
CQUADX4,1921,1,1954,2013,2014,1955
CQUADX4,1922,1,1955,2014,2015,1956
CQUADX4,1923,1,1956,2015,2016,1957
CQUADX4,1924,1,1957,2016,2017,1958
CQUADX4,1925,1,1958,2017,2018,1959
CQUADX4,1926,1,1959,2018,2019,1960
CQUADX4,1927,1,1960,2019,2020,1961
CQUADX4,1928,1,1961,2020,2021,1962
CQUADX4,1929,1,1962,2021,2022,1963
CQUADX4,1930,1,1963,2022,2023,1964
CQUADX4,1931,1,1964,2023,2024,1965
CQUADX4,1932,1,1965,2024,2025,1966
CQUADX4,1933,1,1966,2025,2026,1967
CQUADX4,1934,1,1967,2026,2027,1968
CQUADX4,1935,1,1968,2027,2028,1969
CQUADX4,1936,1,1969,2028,2029,1970
CQUADX4,1937,1,1970,2029,2030,1971
CQUADX4,1938,1,1971,2030,2031,1972
CQUADX4,1939,1,1972,2031,2032,1973
CQUADX4,1940,1,1973,2032,2033,1974
CQUADX4,1941,1,1974,2033,2034,1975
CQUADX4,1942,1,1975,2034,2035,1976
CQUADX4,1943,1,1976,2035,2036,1977
CQUADX4,1944,1,1977,2036,2037,1978
CQUADX4,1945,1,1978,2037,2038,1979
CQUADX4,1946,1,1979,2038,2039,1980
CQUADX4,1947,1,1980,2039,2040,1981
CQUADX4,1948,1,1981,2040,2041,1982
CQUADX4,1949,1,1982,2041,2042,1983
CQUADX4,1950,1,1983,2042,2043,1984
CQUADX4,1951,1,1984,2043,2044,1985
CQUADX4,1952,1,1985,2044,2045,1986
CQUADX4,1953,1,1986,2045,2046,1987
CQUADX4,1954,1,1987,2046,2047,1988
CQUADX4,1955,1,1988,2047,2048,1989
CQUADX4,1956,1,1989,2048,2049,1990
CQUADX4,1957,1,1990,2049,2050,1991
CQUADX4,1958,1,1991,2050,2051,1992
CQUADX4,1959,1,1992,2051,2052,1993
CQUADX4,1960,1,1993,2052,2053,1994
CQUADX4,1961,1,1994,2053,2054,1995
CQUADX4,1962,1,1995,2054,2055,1996
CQUADX4,1963,1,1996,2055,2056,1997
CQUADX4,1964,1,1997,2056,2057,1998
CQUADX4,1965,1,1998,2057,2058,1999
CQUADX4,1966,1,1999,2058,2059,2000
CQUADX4,1967,1,2000,2059,2060,2001
CQUADX4,1968,1,2001,2060,2061,2002
CQUADX4,1969,1,2002,2061,2062,2003
CQUADX4,1970,1,2003,2062,2063,2004
CQUADX4,1971,1,2004,2063,2064,2005
CQUADX4,1972,1,2005,2064,2065,2006
CQUADX4,1973,1,2007,2066,2067,2008
CQUADX4,1974,1,2008,2067,2068,2009
CQUADX4,1975,1,2009,2068,2069,2010
CQUADX4,1976,1,2010,2069,2070,2011
CQUADX4,1977,1,2011,2070,2071,2012
CQUADX4,1978,1,2012,2071,2072,2013
CQUADX4,1979,1,2013,2072,2073,2014
CQUADX4,1980,1,2014,2073,2074,2015
CQUADX4,1981,1,2015,2074,2075,2016
CQUADX4,1982,1,2016,2075,2076,2017
CQUADX4,1983,1,2017,2076,2077,2018
CQUADX4,1984,1,2018,2077,2078,2019
CQUADX4,1985,1,2019,2078,2079,2020
CQUADX4,1986,1,2020,2079,2080,2021
CQUADX4,1987,1,2021,2080,2081,2022
CQUADX4,1988,1,2022,2081,2082,2023
CQUADX4,1989,1,2023,2082,2083,2024
CQUADX4,1990,1,2024,2083,2084,2025
CQUADX4,1991,1,2025,2084,2085,2026
CQUADX4,1992,1,2026,2085,2086,2027
CQUADX4,1993,1,2027,2086,2087,2028
CQUADX4,1994,1,2028,2087,2088,2029
CQUADX4,1995,1,2029,2088,2089,2030
CQUADX4,1996,1,2030,2089,2090,2031
CQUADX4,1997,1,2031,2090,2091,2032
CQUADX4,1998,1,2032,2091,2092,2033
CQUADX4,1999,1,2033,2092,2093,2034
CQUADX4,2000,1,2034,2093,2094,2035
CQUADX4,2001,1,2035,2094,2095,2036
CQUADX4,2002,1,2036,2095,2096,2037
CQUADX4,2003,1,2037,2096,2097,2038
CQUADX4,2004,1,2038,2097,2098,2039
CQUADX4,2005,1,2039,2098,2099,2040
CQUADX4,2006,1,2040,2099,2100,2041
CQUADX4,2007,1,2041,2100,2101,2042
CQUADX4,2008,1,2042,2101,2102,2043
CQUADX4,2009,1,2043,2102,2103,2044
CQUADX4,2010,1,2044,2103,2104,2045
CQUADX4,2011,1,2045,2104,2105,2046
CQUADX4,2012,1,2046,2105,2106,2047
CQUADX4,2013,1,2047,2106,2107,2048
CQUADX4,2014,1,2048,2107,2108,2049
CQUADX4,2015,1,2049,2108,2109,2050
CQUADX4,2016,1,2050,2109,2110,2051
CQUADX4,2017,1,2051,2110,2111,2052
CQUADX4,2018,1,2052,2111,2112,2053
CQUADX4,2019,1,2053,2112,2113,2054
CQUADX4,2020,1,2054,2113,2114,2055
CQUADX4,2021,1,2055,2114,2115,2056
CQUADX4,2022,1,2056,2115,2116,2057
CQUADX4,2023,1,2057,2116,2117,2058
CQUADX4,2024,1,2058,2117,2118,2059
CQUADX4,2025,1,2059,2118,2119,2060
CQUADX4,2026,1,2060,2119,2120,2061
CQUADX4,2027,1,2061,2120,2121,2062
CQUADX4,2028,1,2062,2121,2122,2063
CQUADX4,2029,1,2063,2122,2123,2064
CQUADX4,2030,1,2064,2123,2124,2065
CQUADX4,2031,1,2066,2125,2126,2067
CQUADX4,2032,1,2067,2126,2127,2068
CQUADX4,2033,1,2068,2127,2128,2069
CQUADX4,2034,1,2069,2128,2129,2070
CQUADX4,2035,1,2070,2129,2130,2071
CQUADX4,2036,1,2071,2130,2131,2072
CQUADX4,2037,1,2072,2131,2132,2073
CQUADX4,2038,1,2073,2132,2133,2074
CQUADX4,2039,1,2074,2133,2134,2075
CQUADX4,2040,1,2075,2134,2135,2076
CQUADX4,2041,1,2076,2135,2136,2077
CQUADX4,2042,1,2077,2136,2137,2078
CQUADX4,2043,1,2078,2137,2138,2079
CQUADX4,2044,1,2079,2138,2139,2080
CQUADX4,2045,1,2080,2139,2140,2081
CQUADX4,2046,1,2081,2140,2141,2082
CQUADX4,2047,1,2082,2141,2142,2083
CQUADX4,2048,1,2083,2142,2143,2084
CQUADX4,2049,1,2084,2143,2144,2085
CQUADX4,2050,1,2085,2144,2145,2086
CQUADX4,2051,1,2086,2145,2146,2087
CQUADX4,2052,1,2087,2146,2147,2088
CQUADX4,2053,1,2088,2147,2148,2089
CQUADX4,2054,1,2089,2148,2149,2090
CQUADX4,2055,1,2090,2149,2150,2091
CQUADX4,2056,1,2091,2150,2151,2092
CQUADX4,2057,1,2092,2151,2152,2093
CQUADX4,2058,1,2093,2152,2153,2094
CQUADX4,2059,1,2094,2153,2154,2095
CQUADX4,2060,1,2095,2154,2155,2096
CQUADX4,2061,1,2096,2155,2156,2097
CQUADX4,2062,1,2097,2156,2157,2098
CQUADX4,2063,1,2098,2157,2158,2099
CQUADX4,2064,1,2099,2158,2159,2100
CQUADX4,2065,1,2100,2159,2160,2101
CQUADX4,2066,1,2101,2160,2161,2102
CQUADX4,2067,1,2102,2161,2162,2103
CQUADX4,2068,1,2103,2162,2163,2104
CQUADX4,2069,1,2104,2163,2164,2105
CQUADX4,2070,1,2105,2164,2165,2106
CQUADX4,2071,1,2106,2165,2166,2107
CQUADX4,2072,1,2107,2166,2167,2108
CQUADX4,2073,1,2108,2167,2168,2109
CQUADX4,2074,1,2109,2168,2169,2110
CQUADX4,2075,1,2110,2169,2170,2111
CQUADX4,2076,1,2111,2170,2171,2112
CQUADX4,2077,1,2112,2171,2172,2113
CQUADX4,2078,1,2113,2172,2173,2114
CQUADX4,2079,1,2114,2173,2174,2115
CQUADX4,2080,1,2115,2174,2175,2116
CQUADX4,2081,1,2116,2175,2176,2117
CQUADX4,2082,1,2117,2176,2177,2118
CQUADX4,2083,1,2118,2177,2178,2119
CQUADX4,2084,1,2119,2178,2179,2120
CQUADX4,2085,1,2120,2179,2180,2121
CQUADX4,2086,1,2121,2180,2181,2122
CQUADX4,2087,1,2122,2181,2182,2123
CQUADX4,2088,1,2123,2182,2183,2124
CQUADX4,2089,1,2125,2184,2185,2126
CQUADX4,2090,1,2126,2185,2186,2127
CQUADX4,2091,1,2127,2186,2187,2128
CQUADX4,2092,1,2128,2187,2188,2129
CQUADX4,2093,1,2129,2188,2189,2130
CQUADX4,2094,1,2130,2189,2190,2131
CQUADX4,2095,1,2131,2190,2191,2132
CQUADX4,2096,1,2132,2191,2192,2133
CQUADX4,2097,1,2133,2192,2193,2134
CQUADX4,2098,1,2134,2193,2194,2135
CQUADX4,2099,1,2135,2194,2195,2136
CQUADX4,2100,1,2136,2195,2196,2137
CQUADX4,2101,1,2137,2196,2197,2138
CQUADX4,2102,1,2138,2197,2198,2139
CQUADX4,2103,1,2139,2198,2199,2140
CQUADX4,2104,1,2140,2199,2200,2141
CQUADX4,2105,1,2141,2200,2201,2142
CQUADX4,2106,1,2142,2201,2202,2143
CQUADX4,2107,1,2143,2202,2203,2144
CQUADX4,2108,1,2144,2203,2204,2145
CQUADX4,2109,1,2145,2204,2205,2146
CQUADX4,2110,1,2146,2205,2206,2147
CQUADX4,2111,1,2147,2206,2207,2148
CQUADX4,2112,1,2148,2207,2208,2149
CQUADX4,2113,1,2149,2208,2209,2150
CQUADX4,2114,1,2150,2209,2210,2151
CQUADX4,2115,1,2151,2210,2211,2152
CQUADX4,2116,1,2152,2211,2212,2153
CQUADX4,2117,1,2153,2212,2213,2154
CQUADX4,2118,1,2154,2213,2214,2155
CQUADX4,2119,1,2155,2214,2215,2156
CQUADX4,2120,1,2156,2215,2216,2157
CQUADX4,2121,1,2157,2216,2217,2158
CQUADX4,2122,1,2158,2217,2218,2159
CQUADX4,2123,1,2159,2218,2219,2160
CQUADX4,2124,1,2160,2219,2220,2161
CQUADX4,2125,1,2161,2220,2221,2162
CQUADX4,2126,1,2162,2221,2222,2163
CQUADX4,2127,1,2163,2222,2223,2164
CQUADX4,2128,1,2164,2223,2224,2165
CQUADX4,2129,1,2165,2224,2225,2166
CQUADX4,2130,1,2166,2225,2226,2167
CQUADX4,2131,1,2167,2226,2227,2168
CQUADX4,2132,1,2168,2227,2228,2169
CQUADX4,2133,1,2169,2228,2229,2170
CQUADX4,2134,1,2170,2229,2230,2171
CQUADX4,2135,1,2171,2230,2231,2172
CQUADX4,2136,1,2172,2231,2232,2173
CQUADX4,2137,1,2173,2232,2233,2174
CQUADX4,2138,1,2174,2233,2234,2175
CQUADX4,2139,1,2175,2234,2235,2176
CQUADX4,2140,1,2176,2235,2236,2177
CQUADX4,2141,1,2177,2236,2237,2178
CQUADX4,2142,1,2178,2237,2238,2179
CQUADX4,2143,1,2179,2238,2239,2180
CQUADX4,2144,1,2180,2239,2240,2181
CQUADX4,2145,1,2181,2240,2241,2182
CQUADX4,2146,1,2182,2241,2242,2183
CQUADX4,2147,1,2184,2243,2244,2185
CQUADX4,2148,1,2185,2244,2245,2186
CQUADX4,2149,1,2186,2245,2246,2187
CQUADX4,2150,1,2187,2246,2247,2188
CQUADX4,2151,1,2188,2247,2248,2189
CQUADX4,2152,1,2189,2248,2249,2190
CQUADX4,2153,1,2190,2249,2250,2191
CQUADX4,2154,1,2191,2250,2251,2192
CQUADX4,2155,1,2192,2251,2252,2193
CQUADX4,2156,1,2193,2252,2253,2194
CQUADX4,2157,1,2194,2253,2254,2195
CQUADX4,2158,1,2195,2254,2255,2196
CQUADX4,2159,1,2196,2255,2256,2197
CQUADX4,2160,1,2197,2256,2257,2198
CQUADX4,2161,1,2198,2257,2258,2199
CQUADX4,2162,1,2199,2258,2259,2200
CQUADX4,2163,1,2200,2259,2260,2201
CQUADX4,2164,1,2201,2260,2261,2202
CQUADX4,2165,1,2202,2261,2262,2203
CQUADX4,2166,1,2203,2262,2263,2204
CQUADX4,2167,1,2204,2263,2264,2205
CQUADX4,2168,1,2205,2264,2265,2206
CQUADX4,2169,1,2206,2265,2266,2207
CQUADX4,2170,1,2207,2266,2267,2208
CQUADX4,2171,1,2208,2267,2268,2209
CQUADX4,2172,1,2209,2268,2269,2210
CQUADX4,2173,1,2210,2269,2270,2211
CQUADX4,2174,1,2211,2270,2271,2212
CQUADX4,2175,1,2212,2271,2272,2213
CQUADX4,2176,1,2213,2272,2273,2214
CQUADX4,2177,1,2214,2273,2274,2215
CQUADX4,2178,1,2215,2274,2275,2216
CQUADX4,2179,1,2216,2275,2276,2217
CQUADX4,2180,1,2217,2276,2277,2218
CQUADX4,2181,1,2218,2277,2278,2219
CQUADX4,2182,1,2219,2278,2279,2220
CQUADX4,2183,1,2220,2279,2280,2221
CQUADX4,2184,1,2221,2280,2281,2222
CQUADX4,2185,1,2222,2281,2282,2223
CQUADX4,2186,1,2223,2282,2283,2224
CQUADX4,2187,1,2224,2283,2284,2225
CQUADX4,2188,1,2225,2284,2285,2226
CQUADX4,2189,1,2226,2285,2286,2227
CQUADX4,2190,1,2227,2286,2287,2228
CQUADX4,2191,1,2228,2287,2288,2229
CQUADX4,2192,1,2229,2288,2289,2230
CQUADX4,2193,1,2230,2289,2290,2231
CQUADX4,2194,1,2231,2290,2291,2232
CQUADX4,2195,1,2232,2291,2292,2233
CQUADX4,2196,1,2233,2292,2293,2234
CQUADX4,2197,1,2234,2293,2294,2235
CQUADX4,2198,1,2235,2294,2295,2236
CQUADX4,2199,1,2236,2295,2296,2237
CQUADX4,2200,1,2237,2296,2297,2238
CQUADX4,2201,1,2238,2297,2298,2239
CQUADX4,2202,1,2239,2298,2299,2240
CQUADX4,2203,1,2240,2299,2300,2241
CQUADX4,2204,1,2241,2300,2301,2242
CQUADX4,2205,1,2243,2302,2303,2244
CQUADX4,2206,1,2244,2303,2304,2245
CQUADX4,2207,1,2245,2304,2305,2246
CQUADX4,2208,1,2246,2305,2306,2247
CQUADX4,2209,1,2247,2306,2307,2248
CQUADX4,2210,1,2248,2307,2308,2249
CQUADX4,2211,1,2249,2308,2309,2250
CQUADX4,2212,1,2250,2309,2310,2251
CQUADX4,2213,1,2251,2310,2311,2252
CQUADX4,2214,1,2252,2311,2312,2253
CQUADX4,2215,1,2253,2312,2313,2254
CQUADX4,2216,1,2254,2313,2314,2255
CQUADX4,2217,1,2255,2314,2315,2256
CQUADX4,2218,1,2256,2315,2316,2257
CQUADX4,2219,1,2257,2316,2317,2258
CQUADX4,2220,1,2258,2317,2318,2259
CQUADX4,2221,1,2259,2318,2319,2260
CQUADX4,2222,1,2260,2319,2320,2261
CQUADX4,2223,1,2261,2320,2321,2262
CQUADX4,2224,1,2262,2321,2322,2263
CQUADX4,2225,1,2263,2322,2323,2264
CQUADX4,2226,1,2264,2323,2324,2265
CQUADX4,2227,1,2265,2324,2325,2266
CQUADX4,2228,1,2266,2325,2326,2267
CQUADX4,2229,1,2267,2326,2327,2268
CQUADX4,2230,1,2268,2327,2328,2269
CQUADX4,2231,1,2269,2328,2329,2270
CQUADX4,2232,1,2270,2329,2330,2271
CQUADX4,2233,1,2271,2330,2331,2272
CQUADX4,2234,1,2272,2331,2332,2273
CQUADX4,2235,1,2273,2332,2333,2274
CQUADX4,2236,1,2274,2333,2334,2275
CQUADX4,2237,1,2275,2334,2335,2276
CQUADX4,2238,1,2276,2335,2336,2277
CQUADX4,2239,1,2277,2336,2337,2278
CQUADX4,2240,1,2278,2337,2338,2279
CQUADX4,2241,1,2279,2338,2339,2280
CQUADX4,2242,1,2280,2339,2340,2281
CQUADX4,2243,1,2281,2340,2341,2282
CQUADX4,2244,1,2282,2341,2342,2283
CQUADX4,2245,1,2283,2342,2343,2284
CQUADX4,2246,1,2284,2343,2344,2285
CQUADX4,2247,1,2285,2344,2345,2286
CQUADX4,2248,1,2286,2345,2346,2287
CQUADX4,2249,1,2287,2346,2347,2288
CQUADX4,2250,1,2288,2347,2348,2289
CQUADX4,2251,1,2289,2348,2349,2290
CQUADX4,2252,1,2290,2349,2350,2291
CQUADX4,2253,1,2291,2350,2351,2292
CQUADX4,2254,1,2292,2351,2352,2293
CQUADX4,2255,1,2293,2352,2353,2294
CQUADX4,2256,1,2294,2353,2354,2295
CQUADX4,2257,1,2295,2354,2355,2296
CQUADX4,2258,1,2296,2355,2356,2297
CQUADX4,2259,1,2297,2356,2357,2298
CQUADX4,2260,1,2298,2357,2358,2299
CQUADX4,2261,1,2299,2358,2359,2300
CQUADX4,2262,1,2300,2359,2360,2301
CQUADX4,2263,1,2302,2361,2362,2303
CQUADX4,2264,1,2303,2362,2363,2304
CQUADX4,2265,1,2304,2363,2364,2305
CQUADX4,2266,1,2305,2364,2365,2306
CQUADX4,2267,1,2306,2365,2366,2307
CQUADX4,2268,1,2307,2366,2367,2308
CQUADX4,2269,1,2308,2367,2368,2309
CQUADX4,2270,1,2309,2368,2369,2310
CQUADX4,2271,1,2310,2369,2370,2311
CQUADX4,2272,1,2311,2370,2371,2312
CQUADX4,2273,1,2312,2371,2372,2313
CQUADX4,2274,1,2313,2372,2373,2314
CQUADX4,2275,1,2314,2373,2374,2315
CQUADX4,2276,1,2315,2374,2375,2316
CQUADX4,2277,1,2316,2375,2376,2317
CQUADX4,2278,1,2317,2376,2377,2318
CQUADX4,2279,1,2318,2377,2378,2319
CQUADX4,2280,1,2319,2378,2379,2320
CQUADX4,2281,1,2320,2379,2380,2321
CQUADX4,2282,1,2321,2380,2381,2322
CQUADX4,2283,1,2322,2381,2382,2323
CQUADX4,2284,1,2323,2382,2383,2324
CQUADX4,2285,1,2324,2383,2384,2325
CQUADX4,2286,1,2325,2384,2385,2326
CQUADX4,2287,1,2326,2385,2386,2327
CQUADX4,2288,1,2327,2386,2387,2328
CQUADX4,2289,1,2328,2387,2388,2329
CQUADX4,2290,1,2329,2388,2389,2330
CQUADX4,2291,1,2330,2389,2390,2331
CQUADX4,2292,1,2331,2390,2391,2332
CQUADX4,2293,1,2332,2391,2392,2333
CQUADX4,2294,1,2333,2392,2393,2334
CQUADX4,2295,1,2334,2393,2394,2335
CQUADX4,2296,1,2335,2394,2395,2336
CQUADX4,2297,1,2336,2395,2396,2337
CQUADX4,2298,1,2337,2396,2397,2338
CQUADX4,2299,1,2338,2397,2398,2339
CQUADX4,2300,1,2339,2398,2399,2340
CQUADX4,2301,1,2340,2399,2400,2341
CQUADX4,2302,1,2341,2400,2401,2342
CQUADX4,2303,1,2342,2401,2402,2343
CQUADX4,2304,1,2343,2402,2403,2344
CQUADX4,2305,1,2344,2403,2404,2345
CQUADX4,2306,1,2345,2404,2405,2346
CQUADX4,2307,1,2346,2405,2406,2347
CQUADX4,2308,1,2347,2406,2407,2348
CQUADX4,2309,1,2348,2407,2408,2349
CQUADX4,2310,1,2349,2408,2409,2350
CQUADX4,2311,1,2350,2409,2410,2351
CQUADX4,2312,1,2351,2410,2411,2352
CQUADX4,2313,1,2352,2411,2412,2353
CQUADX4,2314,1,2353,2412,2413,2354
CQUADX4,2315,1,2354,2413,2414,2355
CQUADX4,2316,1,2355,2414,2415,2356
CQUADX4,2317,1,2356,2415,2416,2357
CQUADX4,2318,1,2357,2416,2417,2358
CQUADX4,2319,1,2358,2417,2418,2359
CQUADX4,2320,1,2359,2418,2419,2360
CQUADX4,2321,1,2361,2420,2421,2362
CQUADX4,2322,1,2362,2421,2422,2363
CQUADX4,2323,1,2363,2422,2423,2364
CQUADX4,2324,1,2364,2423,2424,2365
CQUADX4,2325,1,2365,2424,2425,2366
CQUADX4,2326,1,2366,2425,2426,2367
CQUADX4,2327,1,2367,2426,2427,2368
CQUADX4,2328,1,2368,2427,2428,2369
CQUADX4,2329,1,2369,2428,2429,2370
CQUADX4,2330,1,2370,2429,2430,2371
CQUADX4,2331,1,2371,2430,2431,2372
CQUADX4,2332,1,2372,2431,2432,2373
CQUADX4,2333,1,2373,2432,2433,2374
CQUADX4,2334,1,2374,2433,2434,2375
CQUADX4,2335,1,2375,2434,2435,2376
CQUADX4,2336,1,2376,2435,2436,2377
CQUADX4,2337,1,2377,2436,2437,2378
CQUADX4,2338,1,2378,2437,2438,2379
CQUADX4,2339,1,2379,2438,2439,2380
CQUADX4,2340,1,2380,2439,2440,2381
CQUADX4,2341,1,2381,2440,2441,2382
CQUADX4,2342,1,2382,2441,2442,2383
CQUADX4,2343,1,2383,2442,2443,2384
CQUADX4,2344,1,2384,2443,2444,2385
CQUADX4,2345,1,2385,2444,2445,2386
CQUADX4,2346,1,2386,2445,2446,2387
CQUADX4,2347,1,2387,2446,2447,2388
CQUADX4,2348,1,2388,2447,2448,2389
CQUADX4,2349,1,2389,2448,2449,2390
CQUADX4,2350,1,2390,2449,2450,2391
CQUADX4,2351,1,2391,2450,2451,2392
CQUADX4,2352,1,2392,2451,2452,2393
CQUADX4,2353,1,2393,2452,2453,2394
CQUADX4,2354,1,2394,2453,2454,2395
CQUADX4,2355,1,2395,2454,2455,2396
CQUADX4,2356,1,2396,2455,2456,2397
CQUADX4,2357,1,2397,2456,2457,2398
CQUADX4,2358,1,2398,2457,2458,2399
CQUADX4,2359,1,2399,2458,2459,2400
CQUADX4,2360,1,2400,2459,2460,2401
CQUADX4,2361,1,2401,2460,2461,2402
CQUADX4,2362,1,2402,2461,2462,2403
CQUADX4,2363,1,2403,2462,2463,2404
CQUADX4,2364,1,2404,2463,2464,2405
CQUADX4,2365,1,2405,2464,2465,2406
CQUADX4,2366,1,2406,2465,2466,2407
CQUADX4,2367,1,2407,2466,2467,2408
CQUADX4,2368,1,2408,2467,2468,2409
CQUADX4,2369,1,2409,2468,2469,2410
CQUADX4,2370,1,2410,2469,2470,2411
CQUADX4,2371,1,2411,2470,2471,2412
CQUADX4,2372,1,2412,2471,2472,2413
CQUADX4,2373,1,2413,2472,2473,2414
CQUADX4,2374,1,2414,2473,2474,2415
CQUADX4,2375,1,2415,2474,2475,2416
CQUADX4,2376,1,2416,2475,2476,2417
CQUADX4,2377,1,2417,2476,2477,2418
CQUADX4,2378,1,2418,2477,2478,2419
CQUADX4,2379,1,2420,2479,2480,2421
CQUADX4,2380,1,2421,2480,2481,2422
CQUADX4,2381,1,2422,2481,2482,2423
CQUADX4,2382,1,2423,2482,2483,2424
CQUADX4,2383,1,2424,2483,2484,2425
CQUADX4,2384,1,2425,2484,2485,2426
CQUADX4,2385,1,2426,2485,2486,2427
CQUADX4,2386,1,2427,2486,2487,2428
CQUADX4,2387,1,2428,2487,2488,2429
CQUADX4,2388,1,2429,2488,2489,2430
CQUADX4,2389,1,2430,2489,2490,2431
CQUADX4,2390,1,2431,2490,2491,2432
CQUADX4,2391,1,2432,2491,2492,2433
CQUADX4,2392,1,2433,2492,2493,2434
CQUADX4,2393,1,2434,2493,2494,2435
CQUADX4,2394,1,2435,2494,2495,2436
CQUADX4,2395,1,2436,2495,2496,2437
CQUADX4,2396,1,2437,2496,2497,2438
CQUADX4,2397,1,2438,2497,2498,2439
CQUADX4,2398,1,2439,2498,2499,2440
CQUADX4,2399,1,2440,2499,2500,2441
CQUADX4,2400,1,2441,2500,2501,2442
CQUADX4,2401,1,2442,2501,2502,2443
CQUADX4,2402,1,2443,2502,2503,2444
CQUADX4,2403,1,2444,2503,2504,2445
CQUADX4,2404,1,2445,2504,2505,2446
CQUADX4,2405,1,2446,2505,2506,2447
CQUADX4,2406,1,2447,2506,2507,2448
CQUADX4,2407,1,2448,2507,2508,2449
CQUADX4,2408,1,2449,2508,2509,2450
CQUADX4,2409,1,2450,2509,2510,2451
CQUADX4,2410,1,2451,2510,2511,2452
CQUADX4,2411,1,2452,2511,2512,2453
CQUADX4,2412,1,2453,2512,2513,2454
CQUADX4,2413,1,2454,2513,2514,2455
CQUADX4,2414,1,2455,2514,2515,2456
CQUADX4,2415,1,2456,2515,2516,2457
CQUADX4,2416,1,2457,2516,2517,2458
CQUADX4,2417,1,2458,2517,2518,2459
CQUADX4,2418,1,2459,2518,2519,2460
CQUADX4,2419,1,2460,2519,2520,2461
CQUADX4,2420,1,2461,2520,2521,2462
CQUADX4,2421,1,2462,2521,2522,2463
CQUADX4,2422,1,2463,2522,2523,2464
CQUADX4,2423,1,2464,2523,2524,2465
CQUADX4,2424,1,2465,2524,2525,2466
CQUADX4,2425,1,2466,2525,2526,2467
CQUADX4,2426,1,2467,2526,2527,2468
CQUADX4,2427,1,2468,2527,2528,2469
CQUADX4,2428,1,2469,2528,2529,2470
CQUADX4,2429,1,2470,2529,2530,2471
CQUADX4,2430,1,2471,2530,2531,2472
CQUADX4,2431,1,2472,2531,2532,2473
CQUADX4,2432,1,2473,2532,2533,2474
CQUADX4,2433,1,2474,2533,2534,2475
CQUADX4,2434,1,2475,2534,2535,2476
CQUADX4,2435,1,2476,2535,2536,2477
CQUADX4,2436,1,2477,2536,2537,2478
CQUADX4,2437,1,2479,2538,2539,2480
CQUADX4,2438,1,2480,2539,2540,2481
CQUADX4,2439,1,2481,2540,2541,2482
CQUADX4,2440,1,2482,2541,2542,2483
CQUADX4,2441,1,2483,2542,2543,2484
CQUADX4,2442,1,2484,2543,2544,2485
CQUADX4,2443,1,2485,2544,2545,2486
CQUADX4,2444,1,2486,2545,2546,2487
CQUADX4,2445,1,2487,2546,2547,2488
CQUADX4,2446,1,2488,2547,2548,2489
CQUADX4,2447,1,2489,2548,2549,2490
CQUADX4,2448,1,2490,2549,2550,2491
CQUADX4,2449,1,2491,2550,2551,2492
CQUADX4,2450,1,2492,2551,2552,2493
CQUADX4,2451,1,2493,2552,2553,2494
CQUADX4,2452,1,2494,2553,2554,2495
CQUADX4,2453,1,2495,2554,2555,2496
CQUADX4,2454,1,2496,2555,2556,2497
CQUADX4,2455,1,2497,2556,2557,2498
CQUADX4,2456,1,2498,2557,2558,2499
CQUADX4,2457,1,2499,2558,2559,2500
CQUADX4,2458,1,2500,2559,2560,2501
CQUADX4,2459,1,2501,2560,2561,2502
CQUADX4,2460,1,2502,2561,2562,2503
CQUADX4,2461,1,2503,2562,2563,2504
CQUADX4,2462,1,2504,2563,2564,2505
CQUADX4,2463,1,2505,2564,2565,2506
CQUADX4,2464,1,2506,2565,2566,2507
CQUADX4,2465,1,2507,2566,2567,2508
CQUADX4,2466,1,2508,2567,2568,2509
CQUADX4,2467,1,2509,2568,2569,2510
CQUADX4,2468,1,2510,2569,2570,2511
CQUADX4,2469,1,2511,2570,2571,2512
CQUADX4,2470,1,2512,2571,2572,2513
CQUADX4,2471,1,2513,2572,2573,2514
CQUADX4,2472,1,2514,2573,2574,2515
CQUADX4,2473,1,2515,2574,2575,2516
CQUADX4,2474,1,2516,2575,2576,2517
CQUADX4,2475,1,2517,2576,2577,2518
CQUADX4,2476,1,2518,2577,2578,2519
CQUADX4,2477,1,2519,2578,2579,2520
CQUADX4,2478,1,2520,2579,2580,2521
CQUADX4,2479,1,2521,2580,2581,2522
CQUADX4,2480,1,2522,2581,2582,2523
CQUADX4,2481,1,2523,2582,2583,2524
CQUADX4,2482,1,2524,2583,2584,2525
CQUADX4,2483,1,2525,2584,2585,2526
CQUADX4,2484,1,2526,2585,2586,2527
CQUADX4,2485,1,2527,2586,2587,2528
CQUADX4,2486,1,2528,2587,2588,2529
CQUADX4,2487,1,2529,2588,2589,2530
CQUADX4,2488,1,2530,2589,2590,2531
CQUADX4,2489,1,2531,2590,2591,2532
CQUADX4,2490,1,2532,2591,2592,2533
CQUADX4,2491,1,2533,2592,2593,2534
CQUADX4,2492,1,2534,2593,2594,2535
CQUADX4,2493,1,2535,2594,2595,2536
CQUADX4,2494,1,2536,2595,2596,2537
CQUADX4,2495,1,2538,2597,2598,2539
CQUADX4,2496,1,2539,2598,2599,2540
CQUADX4,2497,1,2540,2599,2600,2541
CQUADX4,2498,1,2541,2600,2601,2542
CQUADX4,2499,1,2542,2601,2602,2543
CQUADX4,2500,1,2543,2602,2603,2544
CQUADX4,2501,1,2544,2603,2604,2545
CQUADX4,2502,1,2545,2604,2605,2546
CQUADX4,2503,1,2546,2605,2606,2547
CQUADX4,2504,1,2547,2606,2607,2548
CQUADX4,2505,1,2548,2607,2608,2549
CQUADX4,2506,1,2549,2608,2609,2550
CQUADX4,2507,1,2550,2609,2610,2551
CQUADX4,2508,1,2551,2610,2611,2552
CQUADX4,2509,1,2552,2611,2612,2553
CQUADX4,2510,1,2553,2612,2613,2554
CQUADX4,2511,1,2554,2613,2614,2555
CQUADX4,2512,1,2555,2614,2615,2556
CQUADX4,2513,1,2556,2615,2616,2557
CQUADX4,2514,1,2557,2616,2617,2558
CQUADX4,2515,1,2558,2617,2618,2559
CQUADX4,2516,1,2559,2618,2619,2560
CQUADX4,2517,1,2560,2619,2620,2561
CQUADX4,2518,1,2561,2620,2621,2562
CQUADX4,2519,1,2562,2621,2622,2563
CQUADX4,2520,1,2563,2622,2623,2564
CQUADX4,2521,1,2564,2623,2624,2565
CQUADX4,2522,1,2565,2624,2625,2566
CQUADX4,2523,1,2566,2625,2626,2567
CQUADX4,2524,1,2567,2626,2627,2568
CQUADX4,2525,1,2568,2627,2628,2569
CQUADX4,2526,1,2569,2628,2629,2570
CQUADX4,2527,1,2570,2629,2630,2571
CQUADX4,2528,1,2571,2630,2631,2572
CQUADX4,2529,1,2572,2631,2632,2573
CQUADX4,2530,1,2573,2632,2633,2574
CQUADX4,2531,1,2574,2633,2634,2575
CQUADX4,2532,1,2575,2634,2635,2576
CQUADX4,2533,1,2576,2635,2636,2577
CQUADX4,2534,1,2577,2636,2637,2578
CQUADX4,2535,1,2578,2637,2638,2579
CQUADX4,2536,1,2579,2638,2639,2580
CQUADX4,2537,1,2580,2639,2640,2581
CQUADX4,2538,1,2581,2640,2641,2582
CQUADX4,2539,1,2582,2641,2642,2583
CQUADX4,2540,1,2583,2642,2643,2584
CQUADX4,2541,1,2584,2643,2644,2585
CQUADX4,2542,1,2585,2644,2645,2586
CQUADX4,2543,1,2586,2645,2646,2587
CQUADX4,2544,1,2587,2646,2647,2588
CQUADX4,2545,1,2588,2647,2648,2589
CQUADX4,2546,1,2589,2648,2649,2590
CQUADX4,2547,1,2590,2649,2650,2591
CQUADX4,2548,1,2591,2650,2651,2592
CQUADX4,2549,1,2592,2651,2652,2593
CQUADX4,2550,1,2593,2652,2653,2594
CQUADX4,2551,1,2594,2653,2654,2595
CQUADX4,2552,1,2595,2654,2655,2596
CQUADX4,2553,1,2597,2656,2657,2598
CQUADX4,2554,1,2598,2657,2658,2599
CQUADX4,2555,1,2599,2658,2659,2600
CQUADX4,2556,1,2600,2659,2660,2601
CQUADX4,2557,1,2601,2660,2661,2602
CQUADX4,2558,1,2602,2661,2662,2603
CQUADX4,2559,1,2603,2662,2663,2604
CQUADX4,2560,1,2604,2663,2664,2605
CQUADX4,2561,1,2605,2664,2665,2606
CQUADX4,2562,1,2606,2665,2666,2607
CQUADX4,2563,1,2607,2666,2667,2608
CQUADX4,2564,1,2608,2667,2668,2609
CQUADX4,2565,1,2609,2668,2669,2610
CQUADX4,2566,1,2610,2669,2670,2611
CQUADX4,2567,1,2611,2670,2671,2612
CQUADX4,2568,1,2612,2671,2672,2613
CQUADX4,2569,1,2613,2672,2673,2614
CQUADX4,2570,1,2614,2673,2674,2615
CQUADX4,2571,1,2615,2674,2675,2616
CQUADX4,2572,1,2616,2675,2676,2617
CQUADX4,2573,1,2617,2676,2677,2618
CQUADX4,2574,1,2618,2677,2678,2619
CQUADX4,2575,1,2619,2678,2679,2620
CQUADX4,2576,1,2620,2679,2680,2621
CQUADX4,2577,1,2621,2680,2681,2622
CQUADX4,2578,1,2622,2681,2682,2623
CQUADX4,2579,1,2623,2682,2683,2624
CQUADX4,2580,1,2624,2683,2684,2625
CQUADX4,2581,1,2625,2684,2685,2626
CQUADX4,2582,1,2626,2685,2686,2627
CQUADX4,2583,1,2627,2686,2687,2628
CQUADX4,2584,1,2628,2687,2688,2629
CQUADX4,2585,1,2629,2688,2689,2630
CQUADX4,2586,1,2630,2689,2690,2631
CQUADX4,2587,1,2631,2690,2691,2632
CQUADX4,2588,1,2632,2691,2692,2633
CQUADX4,2589,1,2633,2692,2693,2634
CQUADX4,2590,1,2634,2693,2694,2635
CQUADX4,2591,1,2635,2694,2695,2636
CQUADX4,2592,1,2636,2695,2696,2637
CQUADX4,2593,1,2637,2696,2697,2638
CQUADX4,2594,1,2638,2697,2698,2639
CQUADX4,2595,1,2639,2698,2699,2640
CQUADX4,2596,1,2640,2699,2700,2641
CQUADX4,2597,1,2641,2700,2701,2642
CQUADX4,2598,1,2642,2701,2702,2643
CQUADX4,2599,1,2643,2702,2703,2644
CQUADX4,2600,1,2644,2703,2704,2645
CQUADX4,2601,1,2645,2704,2705,2646
CQUADX4,2602,1,2646,2705,2706,2647
CQUADX4,2603,1,2647,2706,2707,2648
CQUADX4,2604,1,2648,2707,2708,2649
CQUADX4,2605,1,2649,2708,2709,2650
CQUADX4,2606,1,2650,2709,2710,2651
CQUADX4,2607,1,2651,2710,2711,2652
CQUADX4,2608,1,2652,2711,2712,2653
CQUADX4,2609,1,2653,2712,2713,2654
CQUADX4,2610,1,2654,2713,2714,2655
CQUADX4,2611,1,2656,2715,2716,2657
CQUADX4,2612,1,2657,2716,2717,2658
CQUADX4,2613,1,2658,2717,2718,2659
CQUADX4,2614,1,2659,2718,2719,2660
CQUADX4,2615,1,2660,2719,2720,2661
CQUADX4,2616,1,2661,2720,2721,2662
CQUADX4,2617,1,2662,2721,2722,2663
CQUADX4,2618,1,2663,2722,2723,2664
CQUADX4,2619,1,2664,2723,2724,2665
CQUADX4,2620,1,2665,2724,2725,2666
CQUADX4,2621,1,2666,2725,2726,2667
CQUADX4,2622,1,2667,2726,2727,2668
CQUADX4,2623,1,2668,2727,2728,2669
CQUADX4,2624,1,2669,2728,2729,2670
CQUADX4,2625,1,2670,2729,2730,2671
CQUADX4,2626,1,2671,2730,2731,2672
CQUADX4,2627,1,2672,2731,2732,2673
CQUADX4,2628,1,2673,2732,2733,2674
CQUADX4,2629,1,2674,2733,2734,2675
CQUADX4,2630,1,2675,2734,2735,2676
CQUADX4,2631,1,2676,2735,2736,2677
CQUADX4,2632,1,2677,2736,2737,2678
CQUADX4,2633,1,2678,2737,2738,2679
CQUADX4,2634,1,2679,2738,2739,2680
CQUADX4,2635,1,2680,2739,2740,2681
CQUADX4,2636,1,2681,2740,2741,2682
CQUADX4,2637,1,2682,2741,2742,2683
CQUADX4,2638,1,2683,2742,2743,2684
CQUADX4,2639,1,2684,2743,2744,2685
CQUADX4,2640,1,2685,2744,2745,2686
CQUADX4,2641,1,2686,2745,2746,2687
CQUADX4,2642,1,2687,2746,2747,2688
CQUADX4,2643,1,2688,2747,2748,2689
CQUADX4,2644,1,2689,2748,2749,2690
CQUADX4,2645,1,2690,2749,2750,2691
CQUADX4,2646,1,2691,2750,2751,2692
CQUADX4,2647,1,2692,2751,2752,2693
CQUADX4,2648,1,2693,2752,2753,2694
CQUADX4,2649,1,2694,2753,2754,2695
CQUADX4,2650,1,2695,2754,2755,2696
CQUADX4,2651,1,2696,2755,2756,2697
CQUADX4,2652,1,2697,2756,2757,2698
CQUADX4,2653,1,2698,2757,2758,2699
CQUADX4,2654,1,2699,2758,2759,2700
CQUADX4,2655,1,2700,2759,2760,2701
CQUADX4,2656,1,2701,2760,2761,2702
CQUADX4,2657,1,2702,2761,2762,2703
CQUADX4,2658,1,2703,2762,2763,2704
CQUADX4,2659,1,2704,2763,2764,2705
CQUADX4,2660,1,2705,2764,2765,2706
CQUADX4,2661,1,2706,2765,2766,2707
CQUADX4,2662,1,2707,2766,2767,2708
CQUADX4,2663,1,2708,2767,2768,2709
CQUADX4,2664,1,2709,2768,2769,2710
CQUADX4,2665,1,2710,2769,2770,2711
CQUADX4,2666,1,2711,2770,2771,2712
CQUADX4,2667,1,2712,2771,2772,2713
CQUADX4,2668,1,2713,2772,2773,2714
CQUADX4,2669,1,2715,2774,2775,2716
CQUADX4,2670,1,2716,2775,2776,2717
CQUADX4,2671,1,2717,2776,2777,2718
CQUADX4,2672,1,2718,2777,2778,2719
CQUADX4,2673,1,2719,2778,2779,2720
CQUADX4,2674,1,2720,2779,2780,2721
CQUADX4,2675,1,2721,2780,2781,2722
CQUADX4,2676,1,2722,2781,2782,2723
CQUADX4,2677,1,2723,2782,2783,2724
CQUADX4,2678,1,2724,2783,2784,2725
CQUADX4,2679,1,2725,2784,2785,2726
CQUADX4,2680,1,2726,2785,2786,2727
CQUADX4,2681,1,2727,2786,2787,2728
CQUADX4,2682,1,2728,2787,2788,2729
CQUADX4,2683,1,2729,2788,2789,2730
CQUADX4,2684,1,2730,2789,2790,2731
CQUADX4,2685,1,2731,2790,2791,2732
CQUADX4,2686,1,2732,2791,2792,2733
CQUADX4,2687,1,2733,2792,2793,2734
CQUADX4,2688,1,2734,2793,2794,2735
CQUADX4,2689,1,2735,2794,2795,2736
CQUADX4,2690,1,2736,2795,2796,2737
CQUADX4,2691,1,2737,2796,2797,2738
CQUADX4,2692,1,2738,2797,2798,2739
CQUADX4,2693,1,2739,2798,2799,2740
CQUADX4,2694,1,2740,2799,2800,2741
CQUADX4,2695,1,2741,2800,2801,2742
CQUADX4,2696,1,2742,2801,2802,2743
CQUADX4,2697,1,2743,2802,2803,2744
CQUADX4,2698,1,2744,2803,2804,2745
CQUADX4,2699,1,2745,2804,2805,2746
CQUADX4,2700,1,2746,2805,2806,2747
CQUADX4,2701,1,2747,2806,2807,2748
CQUADX4,2702,1,2748,2807,2808,2749
CQUADX4,2703,1,2749,2808,2809,2750
CQUADX4,2704,1,2750,2809,2810,2751
CQUADX4,2705,1,2751,2810,2811,2752
CQUADX4,2706,1,2752,2811,2812,2753
CQUADX4,2707,1,2753,2812,2813,2754
CQUADX4,2708,1,2754,2813,2814,2755
CQUADX4,2709,1,2755,2814,2815,2756
CQUADX4,2710,1,2756,2815,2816,2757
CQUADX4,2711,1,2757,2816,2817,2758
CQUADX4,2712,1,2758,2817,2818,2759
CQUADX4,2713,1,2759,2818,2819,2760
CQUADX4,2714,1,2760,2819,2820,2761
CQUADX4,2715,1,2761,2820,2821,2762
CQUADX4,2716,1,2762,2821,2822,2763
CQUADX4,2717,1,2763,2822,2823,2764
CQUADX4,2718,1,2764,2823,2824,2765
CQUADX4,2719,1,2765,2824,2825,2766
CQUADX4,2720,1,2766,2825,2826,2767
CQUADX4,2721,1,2767,2826,2827,2768
CQUADX4,2722,1,2768,2827,2828,2769
CQUADX4,2723,1,2769,2828,2829,2770
CQUADX4,2724,1,2770,2829,2830,2771
CQUADX4,2725,1,2771,2830,2831,2772
CQUADX4,2726,1,2772,2831,2832,2773
CQUADX4,2727,1,2774,2833,2834,2775
CQUADX4,2728,1,2775,2834,2835,2776
CQUADX4,2729,1,2776,2835,2836,2777
CQUADX4,2730,1,2777,2836,2837,2778
CQUADX4,2731,1,2778,2837,2838,2779
CQUADX4,2732,1,2779,2838,2839,2780
CQUADX4,2733,1,2780,2839,2840,2781
CQUADX4,2734,1,2781,2840,2841,2782
CQUADX4,2735,1,2782,2841,2842,2783
CQUADX4,2736,1,2783,2842,2843,2784
CQUADX4,2737,1,2784,2843,2844,2785
CQUADX4,2738,1,2785,2844,2845,2786
CQUADX4,2739,1,2786,2845,2846,2787
CQUADX4,2740,1,2787,2846,2847,2788
CQUADX4,2741,1,2788,2847,2848,2789
CQUADX4,2742,1,2789,2848,2849,2790
CQUADX4,2743,1,2790,2849,2850,2791
CQUADX4,2744,1,2791,2850,2851,2792
CQUADX4,2745,1,2792,2851,2852,2793
CQUADX4,2746,1,2793,2852,2853,2794
CQUADX4,2747,1,2794,2853,2854,2795
CQUADX4,2748,1,2795,2854,2855,2796
CQUADX4,2749,1,2796,2855,2856,2797
CQUADX4,2750,1,2797,2856,2857,2798
CQUADX4,2751,1,2798,2857,2858,2799
CQUADX4,2752,1,2799,2858,2859,2800
CQUADX4,2753,1,2800,2859,2860,2801
CQUADX4,2754,1,2801,2860,2861,2802
CQUADX4,2755,1,2802,2861,2862,2803
CQUADX4,2756,1,2803,2862,2863,2804
CQUADX4,2757,1,2804,2863,2864,2805
CQUADX4,2758,1,2805,2864,2865,2806
CQUADX4,2759,1,2806,2865,2866,2807
CQUADX4,2760,1,2807,2866,2867,2808
CQUADX4,2761,1,2808,2867,2868,2809
CQUADX4,2762,1,2809,2868,2869,2810
CQUADX4,2763,1,2810,2869,2870,2811
CQUADX4,2764,1,2811,2870,2871,2812
CQUADX4,2765,1,2812,2871,2872,2813
CQUADX4,2766,1,2813,2872,2873,2814
CQUADX4,2767,1,2814,2873,2874,2815
CQUADX4,2768,1,2815,2874,2875,2816
CQUADX4,2769,1,2816,2875,2876,2817
CQUADX4,2770,1,2817,2876,2877,2818
CQUADX4,2771,1,2818,2877,2878,2819
CQUADX4,2772,1,2819,2878,2879,2820
CQUADX4,2773,1,2820,2879,2880,2821
CQUADX4,2774,1,2821,2880,2881,2822
CQUADX4,2775,1,2822,2881,2882,2823
CQUADX4,2776,1,2823,2882,2883,2824
CQUADX4,2777,1,2824,2883,2884,2825
CQUADX4,2778,1,2825,2884,2885,2826
CQUADX4,2779,1,2826,2885,2886,2827
CQUADX4,2780,1,2827,2886,2887,2828
CQUADX4,2781,1,2828,2887,2888,2829
CQUADX4,2782,1,2829,2888,2889,2830
CQUADX4,2783,1,2830,2889,2890,2831
CQUADX4,2784,1,2831,2890,2891,2832
CQUADX4,2785,1,2833,2892,2893,2834
CQUADX4,2786,1,2834,2893,2894,2835
CQUADX4,2787,1,2835,2894,2895,2836
CQUADX4,2788,1,2836,2895,2896,2837
CQUADX4,2789,1,2837,2896,2897,2838
CQUADX4,2790,1,2838,2897,2898,2839
CQUADX4,2791,1,2839,2898,2899,2840
CQUADX4,2792,1,2840,2899,2900,2841
CQUADX4,2793,1,2841,2900,2901,2842
CQUADX4,2794,1,2842,2901,2902,2843
CQUADX4,2795,1,2843,2902,2903,2844
CQUADX4,2796,1,2844,2903,2904,2845
CQUADX4,2797,1,2845,2904,2905,2846
CQUADX4,2798,1,2846,2905,2906,2847
CQUADX4,2799,1,2847,2906,2907,2848
CQUADX4,2800,1,2848,2907,2908,2849
CQUADX4,2801,1,2849,2908,2909,2850
CQUADX4,2802,1,2850,2909,2910,2851
CQUADX4,2803,1,2851,2910,2911,2852
CQUADX4,2804,1,2852,2911,2912,2853
CQUADX4,2805,1,2853,2912,2913,2854
CQUADX4,2806,1,2854,2913,2914,2855
CQUADX4,2807,1,2855,2914,2915,2856
CQUADX4,2808,1,2856,2915,2916,2857
CQUADX4,2809,1,2857,2916,2917,2858
CQUADX4,2810,1,2858,2917,2918,2859
CQUADX4,2811,1,2859,2918,2919,2860
CQUADX4,2812,1,2860,2919,2920,2861
CQUADX4,2813,1,2861,2920,2921,2862
CQUADX4,2814,1,2862,2921,2922,2863
CQUADX4,2815,1,2863,2922,2923,2864
CQUADX4,2816,1,2864,2923,2924,2865
CQUADX4,2817,1,2865,2924,2925,2866
CQUADX4,2818,1,2866,2925,2926,2867
CQUADX4,2819,1,2867,2926,2927,2868
CQUADX4,2820,1,2868,2927,2928,2869
CQUADX4,2821,1,2869,2928,2929,2870
CQUADX4,2822,1,2870,2929,2930,2871
CQUADX4,2823,1,2871,2930,2931,2872
CQUADX4,2824,1,2872,2931,2932,2873
CQUADX4,2825,1,2873,2932,2933,2874
CQUADX4,2826,1,2874,2933,2934,2875
CQUADX4,2827,1,2875,2934,2935,2876
CQUADX4,2828,1,2876,2935,2936,2877
CQUADX4,2829,1,2877,2936,2937,2878
CQUADX4,2830,1,2878,2937,2938,2879
CQUADX4,2831,1,2879,2938,2939,2880
CQUADX4,2832,1,2880,2939,2940,2881
CQUADX4,2833,1,2881,2940,2941,2882
CQUADX4,2834,1,2882,2941,2942,2883
CQUADX4,2835,1,2883,2942,2943,2884
CQUADX4,2836,1,2884,2943,2944,2885
CQUADX4,2837,1,2885,2944,2945,2886
CQUADX4,2838,1,2886,2945,2946,2887
CQUADX4,2839,1,2887,2946,2947,2888
CQUADX4,2840,1,2888,2947,2948,2889
CQUADX4,2841,1,2889,2948,2949,2890
CQUADX4,2842,1,2890,2949,2950,2891
CQUADX4,2843,1,2892,2951,2952,2893
CQUADX4,2844,1,2893,2952,2953,2894
CQUADX4,2845,1,2894,2953,2954,2895
CQUADX4,2846,1,2895,2954,2955,2896
CQUADX4,2847,1,2896,2955,2956,2897
CQUADX4,2848,1,2897,2956,2957,2898
CQUADX4,2849,1,2898,2957,2958,2899
CQUADX4,2850,1,2899,2958,2959,2900
CQUADX4,2851,1,2900,2959,2960,2901
CQUADX4,2852,1,2901,2960,2961,2902
CQUADX4,2853,1,2902,2961,2962,2903
CQUADX4,2854,1,2903,2962,2963,2904
CQUADX4,2855,1,2904,2963,2964,2905
CQUADX4,2856,1,2905,2964,2965,2906
CQUADX4,2857,1,2906,2965,2966,2907
CQUADX4,2858,1,2907,2966,2967,2908
CQUADX4,2859,1,2908,2967,2968,2909
CQUADX4,2860,1,2909,2968,2969,2910
CQUADX4,2861,1,2910,2969,2970,2911
CQUADX4,2862,1,2911,2970,2971,2912
CQUADX4,2863,1,2912,2971,2972,2913
CQUADX4,2864,1,2913,2972,2973,2914
CQUADX4,2865,1,2914,2973,2974,2915
CQUADX4,2866,1,2915,2974,2975,2916
CQUADX4,2867,1,2916,2975,2976,2917
CQUADX4,2868,1,2917,2976,2977,2918
CQUADX4,2869,1,2918,2977,2978,2919
CQUADX4,2870,1,2919,2978,2979,2920
CQUADX4,2871,1,2920,2979,2980,2921
CQUADX4,2872,1,2921,2980,2981,2922
CQUADX4,2873,1,2922,2981,2982,2923
CQUADX4,2874,1,2923,2982,2983,2924
CQUADX4,2875,1,2924,2983,2984,2925
CQUADX4,2876,1,2925,2984,2985,2926
CQUADX4,2877,1,2926,2985,2986,2927
CQUADX4,2878,1,2927,2986,2987,2928
CQUADX4,2879,1,2928,2987,2988,2929
CQUADX4,2880,1,2929,2988,2989,2930
CQUADX4,2881,1,2930,2989,2990,2931
CQUADX4,2882,1,2931,2990,2991,2932
CQUADX4,2883,1,2932,2991,2992,2933
CQUADX4,2884,1,2933,2992,2993,2934
CQUADX4,2885,1,2934,2993,2994,2935
CQUADX4,2886,1,2935,2994,2995,2936
CQUADX4,2887,1,2936,2995,2996,2937
CQUADX4,2888,1,2937,2996,2997,2938
CQUADX4,2889,1,2938,2997,2998,2939
CQUADX4,2890,1,2939,2998,2999,2940
CQUADX4,2891,1,2940,2999,3000,2941
CQUADX4,2892,1,2941,3000,3001,2942
CQUADX4,2893,1,2942,3001,3002,2943
CQUADX4,2894,1,2943,3002,3003,2944
CQUADX4,2895,1,2944,3003,3004,2945
CQUADX4,2896,1,2945,3004,3005,2946
CQUADX4,2897,1,2946,3005,3006,2947
CQUADX4,2898,1,2947,3006,3007,2948
CQUADX4,2899,1,2948,3007,3008,2949
CQUADX4,2900,1,2949,3008,3009,2950
CQUADX4,2901,1,2951,3010,3011,2952
CQUADX4,2902,1,2952,3011,3012,2953
CQUADX4,2903,1,2953,3012,3013,2954
CQUADX4,2904,1,2954,3013,3014,2955
CQUADX4,2905,1,2955,3014,3015,2956
CQUADX4,2906,1,2956,3015,3016,2957
CQUADX4,2907,1,2957,3016,3017,2958
CQUADX4,2908,1,2958,3017,3018,2959
CQUADX4,2909,1,2959,3018,3019,2960
CQUADX4,2910,1,2960,3019,3020,2961
CQUADX4,2911,1,2961,3020,3021,2962
CQUADX4,2912,1,2962,3021,3022,2963
CQUADX4,2913,1,2963,3022,3023,2964
CQUADX4,2914,1,2964,3023,3024,2965
CQUADX4,2915,1,2965,3024,3025,2966
CQUADX4,2916,1,2966,3025,3026,2967
CQUADX4,2917,1,2967,3026,3027,2968
CQUADX4,2918,1,2968,3027,3028,2969
CQUADX4,2919,1,2969,3028,3029,2970
CQUADX4,2920,1,2970,3029,3030,2971
CQUADX4,2921,1,2971,3030,3031,2972
CQUADX4,2922,1,2972,3031,3032,2973
CQUADX4,2923,1,2973,3032,3033,2974
CQUADX4,2924,1,2974,3033,3034,2975
CQUADX4,2925,1,2975,3034,3035,2976
CQUADX4,2926,1,2976,3035,3036,2977
CQUADX4,2927,1,2977,3036,3037,2978
CQUADX4,2928,1,2978,3037,3038,2979
CQUADX4,2929,1,2979,3038,3039,2980
CQUADX4,2930,1,2980,3039,3040,2981
CQUADX4,2931,1,2981,3040,3041,2982
CQUADX4,2932,1,2982,3041,3042,2983
CQUADX4,2933,1,2983,3042,3043,2984
CQUADX4,2934,1,2984,3043,3044,2985
CQUADX4,2935,1,2985,3044,3045,2986
CQUADX4,2936,1,2986,3045,3046,2987
CQUADX4,2937,1,2987,3046,3047,2988
CQUADX4,2938,1,2988,3047,3048,2989
CQUADX4,2939,1,2989,3048,3049,2990
CQUADX4,2940,1,2990,3049,3050,2991
CQUADX4,2941,1,2991,3050,3051,2992
CQUADX4,2942,1,2992,3051,3052,2993
CQUADX4,2943,1,2993,3052,3053,2994
CQUADX4,2944,1,2994,3053,3054,2995
CQUADX4,2945,1,2995,3054,3055,2996
CQUADX4,2946,1,2996,3055,3056,2997
CQUADX4,2947,1,2997,3056,3057,2998
CQUADX4,2948,1,2998,3057,3058,2999
CQUADX4,2949,1,2999,3058,3059,3000
CQUADX4,2950,1,3000,3059,3060,3001
CQUADX4,2951,1,3001,3060,3061,3002
CQUADX4,2952,1,3002,3061,3062,3003
CQUADX4,2953,1,3003,3062,3063,3004
CQUADX4,2954,1,3004,3063,3064,3005
CQUADX4,2955,1,3005,3064,3065,3006
CQUADX4,2956,1,3006,3065,3066,3007
CQUADX4,2957,1,3007,3066,3067,3008
CQUADX4,2958,1,3008,3067,3068,3009
CQUADX4,2959,1,3010,3069,3070,3011
CQUADX4,2960,1,3011,3070,3071,3012
CQUADX4,2961,1,3012,3071,3072,3013
CQUADX4,2962,1,3013,3072,3073,3014
CQUADX4,2963,1,3014,3073,3074,3015
CQUADX4,2964,1,3015,3074,3075,3016
CQUADX4,2965,1,3016,3075,3076,3017
CQUADX4,2966,1,3017,3076,3077,3018
CQUADX4,2967,1,3018,3077,3078,3019
CQUADX4,2968,1,3019,3078,3079,3020
CQUADX4,2969,1,3020,3079,3080,3021
CQUADX4,2970,1,3021,3080,3081,3022
CQUADX4,2971,1,3022,3081,3082,3023
CQUADX4,2972,1,3023,3082,3083,3024
CQUADX4,2973,1,3024,3083,3084,3025
CQUADX4,2974,1,3025,3084,3085,3026
CQUADX4,2975,1,3026,3085,3086,3027
CQUADX4,2976,1,3027,3086,3087,3028
CQUADX4,2977,1,3028,3087,3088,3029
CQUADX4,2978,1,3029,3088,3089,3030
CQUADX4,2979,1,3030,3089,3090,3031
CQUADX4,2980,1,3031,3090,3091,3032
CQUADX4,2981,1,3032,3091,3092,3033
CQUADX4,2982,1,3033,3092,3093,3034
CQUADX4,2983,1,3034,3093,3094,3035
CQUADX4,2984,1,3035,3094,3095,3036
CQUADX4,2985,1,3036,3095,3096,3037
CQUADX4,2986,1,3037,3096,3097,3038
CQUADX4,2987,1,3038,3097,3098,3039
CQUADX4,2988,1,3039,3098,3099,3040
CQUADX4,2989,1,3040,3099,3100,3041
CQUADX4,2990,1,3041,3100,3101,3042
CQUADX4,2991,1,3042,3101,3102,3043
CQUADX4,2992,1,3043,3102,3103,3044
CQUADX4,2993,1,3044,3103,3104,3045
CQUADX4,2994,1,3045,3104,3105,3046
CQUADX4,2995,1,3046,3105,3106,3047
CQUADX4,2996,1,3047,3106,3107,3048
CQUADX4,2997,1,3048,3107,3108,3049
CQUADX4,2998,1,3049,3108,3109,3050
CQUADX4,2999,1,3050,3109,3110,3051
CQUADX4,3000,1,3051,3110,3111,3052
CQUADX4,3001,1,3052,3111,3112,3053
CQUADX4,3002,1,3053,3112,3113,3054
CQUADX4,3003,1,3054,3113,3114,3055
CQUADX4,3004,1,3055,3114,3115,3056
CQUADX4,3005,1,3056,3115,3116,3057
CQUADX4,3006,1,3057,3116,3117,3058
CQUADX4,3007,1,3058,3117,3118,3059
CQUADX4,3008,1,3059,3118,3119,3060
CQUADX4,3009,1,3060,3119,3120,3061
CQUADX4,3010,1,3061,3120,3121,3062
CQUADX4,3011,1,3062,3121,3122,3063
CQUADX4,3012,1,3063,3122,3123,3064
CQUADX4,3013,1,3064,3123,3124,3065
CQUADX4,3014,1,3065,3124,3125,3066
CQUADX4,3015,1,3066,3125,3126,3067
CQUADX4,3016,1,3067,3126,3127,3068
CQUADX4,3017,1,3069,3128,3129,3070
CQUADX4,3018,1,3070,3129,3130,3071
CQUADX4,3019,1,3071,3130,3131,3072
CQUADX4,3020,1,3072,3131,3132,3073
CQUADX4,3021,1,3073,3132,3133,3074
CQUADX4,3022,1,3074,3133,3134,3075
CQUADX4,3023,1,3075,3134,3135,3076
CQUADX4,3024,1,3076,3135,3136,3077
CQUADX4,3025,1,3077,3136,3137,3078
CQUADX4,3026,1,3078,3137,3138,3079
CQUADX4,3027,1,3079,3138,3139,3080
CQUADX4,3028,1,3080,3139,3140,3081
CQUADX4,3029,1,3081,3140,3141,3082
CQUADX4,3030,1,3082,3141,3142,3083
CQUADX4,3031,1,3083,3142,3143,3084
CQUADX4,3032,1,3084,3143,3144,3085
CQUADX4,3033,1,3085,3144,3145,3086
CQUADX4,3034,1,3086,3145,3146,3087
CQUADX4,3035,1,3087,3146,3147,3088
CQUADX4,3036,1,3088,3147,3148,3089
CQUADX4,3037,1,3089,3148,3149,3090
CQUADX4,3038,1,3090,3149,3150,3091
CQUADX4,3039,1,3091,3150,3151,3092
CQUADX4,3040,1,3092,3151,3152,3093
CQUADX4,3041,1,3093,3152,3153,3094
CQUADX4,3042,1,3094,3153,3154,3095
CQUADX4,3043,1,3095,3154,3155,3096
CQUADX4,3044,1,3096,3155,3156,3097
CQUADX4,3045,1,3097,3156,3157,3098
CQUADX4,3046,1,3098,3157,3158,3099
CQUADX4,3047,1,3099,3158,3159,3100
CQUADX4,3048,1,3100,3159,3160,3101
CQUADX4,3049,1,3101,3160,3161,3102
CQUADX4,3050,1,3102,3161,3162,3103
CQUADX4,3051,1,3103,3162,3163,3104
CQUADX4,3052,1,3104,3163,3164,3105
CQUADX4,3053,1,3105,3164,3165,3106
CQUADX4,3054,1,3106,3165,3166,3107
CQUADX4,3055,1,3107,3166,3167,3108
CQUADX4,3056,1,3108,3167,3168,3109
CQUADX4,3057,1,3109,3168,3169,3110
CQUADX4,3058,1,3110,3169,3170,3111
CQUADX4,3059,1,3111,3170,3171,3112
CQUADX4,3060,1,3112,3171,3172,3113
CQUADX4,3061,1,3113,3172,3173,3114
CQUADX4,3062,1,3114,3173,3174,3115
CQUADX4,3063,1,3115,3174,3175,3116
CQUADX4,3064,1,3116,3175,3176,3117
CQUADX4,3065,1,3117,3176,3177,3118
CQUADX4,3066,1,3118,3177,3178,3119
CQUADX4,3067,1,3119,3178,3179,3120
CQUADX4,3068,1,3120,3179,3180,3121
CQUADX4,3069,1,3121,3180,3181,3122
CQUADX4,3070,1,3122,3181,3182,3123
CQUADX4,3071,1,3123,3182,3183,3124
CQUADX4,3072,1,3124,3183,3184,3125
CQUADX4,3073,1,3125,3184,3185,3126
CQUADX4,3074,1,3126,3185,3186,3127
CQUADX4,3075,1,3128,3187,3188,3129
CQUADX4,3076,1,3129,3188,3189,3130
CQUADX4,3077,1,3130,3189,3190,3131
CQUADX4,3078,1,3131,3190,3191,3132
CQUADX4,3079,1,3132,3191,3192,3133
CQUADX4,3080,1,3133,3192,3193,3134
CQUADX4,3081,1,3134,3193,3194,3135
CQUADX4,3082,1,3135,3194,3195,3136
CQUADX4,3083,1,3136,3195,3196,3137
CQUADX4,3084,1,3137,3196,3197,3138
CQUADX4,3085,1,3138,3197,3198,3139
CQUADX4,3086,1,3139,3198,3199,3140
CQUADX4,3087,1,3140,3199,3200,3141
CQUADX4,3088,1,3141,3200,3201,3142
CQUADX4,3089,1,3142,3201,3202,3143
CQUADX4,3090,1,3143,3202,3203,3144
CQUADX4,3091,1,3144,3203,3204,3145
CQUADX4,3092,1,3145,3204,3205,3146
CQUADX4,3093,1,3146,3205,3206,3147
CQUADX4,3094,1,3147,3206,3207,3148
CQUADX4,3095,1,3148,3207,3208,3149
CQUADX4,3096,1,3149,3208,3209,3150
CQUADX4,3097,1,3150,3209,3210,3151
CQUADX4,3098,1,3151,3210,3211,3152
CQUADX4,3099,1,3152,3211,3212,3153
CQUADX4,3100,1,3153,3212,3213,3154
CQUADX4,3101,1,3154,3213,3214,3155
CQUADX4,3102,1,3155,3214,3215,3156
CQUADX4,3103,1,3156,3215,3216,3157
CQUADX4,3104,1,3157,3216,3217,3158
CQUADX4,3105,1,3158,3217,3218,3159
CQUADX4,3106,1,3159,3218,3219,3160
CQUADX4,3107,1,3160,3219,3220,3161
CQUADX4,3108,1,3161,3220,3221,3162
CQUADX4,3109,1,3162,3221,3222,3163
CQUADX4,3110,1,3163,3222,3223,3164
CQUADX4,3111,1,3164,3223,3224,3165
CQUADX4,3112,1,3165,3224,3225,3166
CQUADX4,3113,1,3166,3225,3226,3167
CQUADX4,3114,1,3167,3226,3227,3168
CQUADX4,3115,1,3168,3227,3228,3169
CQUADX4,3116,1,3169,3228,3229,3170
CQUADX4,3117,1,3170,3229,3230,3171
CQUADX4,3118,1,3171,3230,3231,3172
CQUADX4,3119,1,3172,3231,3232,3173
CQUADX4,3120,1,3173,3232,3233,3174
CQUADX4,3121,1,3174,3233,3234,3175
CQUADX4,3122,1,3175,3234,3235,3176
CQUADX4,3123,1,3176,3235,3236,3177
CQUADX4,3124,1,3177,3236,3237,3178
CQUADX4,3125,1,3178,3237,3238,3179
CQUADX4,3126,1,3179,3238,3239,3180
CQUADX4,3127,1,3180,3239,3240,3181
CQUADX4,3128,1,3181,3240,3241,3182
CQUADX4,3129,1,3182,3241,3242,3183
CQUADX4,3130,1,3183,3242,3243,3184
CQUADX4,3131,1,3184,3243,3244,3185
CQUADX4,3132,1,3185,3244,3245,3186
CQUADX4,3133,1,3187,3246,3247,3188
CQUADX4,3134,1,3188,3247,3248,3189
CQUADX4,3135,1,3189,3248,3249,3190
CQUADX4,3136,1,3190,3249,3250,3191
CQUADX4,3137,1,3191,3250,3251,3192
CQUADX4,3138,1,3192,3251,3252,3193
CQUADX4,3139,1,3193,3252,3253,3194
CQUADX4,3140,1,3194,3253,3254,3195
CQUADX4,3141,1,3195,3254,3255,3196
CQUADX4,3142,1,3196,3255,3256,3197
CQUADX4,3143,1,3197,3256,3257,3198
CQUADX4,3144,1,3198,3257,3258,3199
CQUADX4,3145,1,3199,3258,3259,3200
CQUADX4,3146,1,3200,3259,3260,3201
CQUADX4,3147,1,3201,3260,3261,3202
CQUADX4,3148,1,3202,3261,3262,3203
CQUADX4,3149,1,3203,3262,3263,3204
CQUADX4,3150,1,3204,3263,3264,3205
CQUADX4,3151,1,3205,3264,3265,3206
CQUADX4,3152,1,3206,3265,3266,3207
CQUADX4,3153,1,3207,3266,3267,3208
CQUADX4,3154,1,3208,3267,3268,3209
CQUADX4,3155,1,3209,3268,3269,3210
CQUADX4,3156,1,3210,3269,3270,3211
CQUADX4,3157,1,3211,3270,3271,3212
CQUADX4,3158,1,3212,3271,3272,3213
CQUADX4,3159,1,3213,3272,3273,3214
CQUADX4,3160,1,3214,3273,3274,3215
CQUADX4,3161,1,3215,3274,3275,3216
CQUADX4,3162,1,3216,3275,3276,3217
CQUADX4,3163,1,3217,3276,3277,3218
CQUADX4,3164,1,3218,3277,3278,3219
CQUADX4,3165,1,3219,3278,3279,3220
CQUADX4,3166,1,3220,3279,3280,3221
CQUADX4,3167,1,3221,3280,3281,3222
CQUADX4,3168,1,3222,3281,3282,3223
CQUADX4,3169,1,3223,3282,3283,3224
CQUADX4,3170,1,3224,3283,3284,3225
CQUADX4,3171,1,3225,3284,3285,3226
CQUADX4,3172,1,3226,3285,3286,3227
CQUADX4,3173,1,3227,3286,3287,3228
CQUADX4,3174,1,3228,3287,3288,3229
CQUADX4,3175,1,3229,3288,3289,3230
CQUADX4,3176,1,3230,3289,3290,3231
CQUADX4,3177,1,3231,3290,3291,3232
CQUADX4,3178,1,3232,3291,3292,3233
CQUADX4,3179,1,3233,3292,3293,3234
CQUADX4,3180,1,3234,3293,3294,3235
CQUADX4,3181,1,3235,3294,3295,3236
CQUADX4,3182,1,3236,3295,3296,3237
CQUADX4,3183,1,3237,3296,3297,3238
CQUADX4,3184,1,3238,3297,3298,3239
CQUADX4,3185,1,3239,3298,3299,3240
CQUADX4,3186,1,3240,3299,3300,3241
CQUADX4,3187,1,3241,3300,3301,3242
CQUADX4,3188,1,3242,3301,3302,3243
CQUADX4,3189,1,3243,3302,3303,3244
CQUADX4,3190,1,3244,3303,3304,3245
CQUADX4,3191,1,3246,3305,3306,3247
CQUADX4,3192,1,3247,3306,3307,3248
CQUADX4,3193,1,3248,3307,3308,3249
CQUADX4,3194,1,3249,3308,3309,3250
CQUADX4,3195,1,3250,3309,3310,3251
CQUADX4,3196,1,3251,3310,3311,3252
CQUADX4,3197,1,3252,3311,3312,3253
CQUADX4,3198,1,3253,3312,3313,3254
CQUADX4,3199,1,3254,3313,3314,3255
CQUADX4,3200,1,3255,3314,3315,3256
CQUADX4,3201,1,3256,3315,3316,3257
CQUADX4,3202,1,3257,3316,3317,3258
CQUADX4,3203,1,3258,3317,3318,3259
CQUADX4,3204,1,3259,3318,3319,3260
CQUADX4,3205,1,3260,3319,3320,3261
CQUADX4,3206,1,3261,3320,3321,3262
CQUADX4,3207,1,3262,3321,3322,3263
CQUADX4,3208,1,3263,3322,3323,3264
CQUADX4,3209,1,3264,3323,3324,3265
CQUADX4,3210,1,3265,3324,3325,3266
CQUADX4,3211,1,3266,3325,3326,3267
CQUADX4,3212,1,3267,3326,3327,3268
CQUADX4,3213,1,3268,3327,3328,3269
CQUADX4,3214,1,3269,3328,3329,3270
CQUADX4,3215,1,3270,3329,3330,3271
CQUADX4,3216,1,3271,3330,3331,3272
CQUADX4,3217,1,3272,3331,3332,3273
CQUADX4,3218,1,3273,3332,3333,3274
CQUADX4,3219,1,3274,3333,3334,3275
CQUADX4,3220,1,3275,3334,3335,3276
CQUADX4,3221,1,3276,3335,3336,3277
CQUADX4,3222,1,3277,3336,3337,3278
CQUADX4,3223,1,3278,3337,3338,3279
CQUADX4,3224,1,3279,3338,3339,3280
CQUADX4,3225,1,3280,3339,3340,3281
CQUADX4,3226,1,3281,3340,3341,3282
CQUADX4,3227,1,3282,3341,3342,3283
CQUADX4,3228,1,3283,3342,3343,3284
CQUADX4,3229,1,3284,3343,3344,3285
CQUADX4,3230,1,3285,3344,3345,3286
CQUADX4,3231,1,3286,3345,3346,3287
CQUADX4,3232,1,3287,3346,3347,3288
CQUADX4,3233,1,3288,3347,3348,3289
CQUADX4,3234,1,3289,3348,3349,3290
CQUADX4,3235,1,3290,3349,3350,3291
CQUADX4,3236,1,3291,3350,3351,3292
CQUADX4,3237,1,3292,3351,3352,3293
CQUADX4,3238,1,3293,3352,3353,3294
CQUADX4,3239,1,3294,3353,3354,3295
CQUADX4,3240,1,3295,3354,3355,3296
CQUADX4,3241,1,3296,3355,3356,3297
CQUADX4,3242,1,3297,3356,3357,3298
CQUADX4,3243,1,3298,3357,3358,3299
CQUADX4,3244,1,3299,3358,3359,3300
CQUADX4,3245,1,3300,3359,3360,3301
CQUADX4,3246,1,3301,3360,3361,3302
CQUADX4,3247,1,3302,3361,3362,3303
CQUADX4,3248,1,3303,3362,3363,3304
CQUADX4,3249,1,3305,3364,3365,3306
CQUADX4,3250,1,3306,3365,3366,3307
CQUADX4,3251,1,3307,3366,3367,3308
CQUADX4,3252,1,3308,3367,3368,3309
CQUADX4,3253,1,3309,3368,3369,3310
CQUADX4,3254,1,3310,3369,3370,3311
CQUADX4,3255,1,3311,3370,3371,3312
CQUADX4,3256,1,3312,3371,3372,3313
CQUADX4,3257,1,3313,3372,3373,3314
CQUADX4,3258,1,3314,3373,3374,3315
CQUADX4,3259,1,3315,3374,3375,3316
CQUADX4,3260,1,3316,3375,3376,3317
CQUADX4,3261,1,3317,3376,3377,3318
CQUADX4,3262,1,3318,3377,3378,3319
CQUADX4,3263,1,3319,3378,3379,3320
CQUADX4,3264,1,3320,3379,3380,3321
CQUADX4,3265,1,3321,3380,3381,3322
CQUADX4,3266,1,3322,3381,3382,3323
CQUADX4,3267,1,3323,3382,3383,3324
CQUADX4,3268,1,3324,3383,3384,3325
CQUADX4,3269,1,3325,3384,3385,3326
CQUADX4,3270,1,3326,3385,3386,3327
CQUADX4,3271,1,3327,3386,3387,3328
CQUADX4,3272,1,3328,3387,3388,3329
CQUADX4,3273,1,3329,3388,3389,3330
CQUADX4,3274,1,3330,3389,3390,3331
CQUADX4,3275,1,3331,3390,3391,3332
CQUADX4,3276,1,3332,3391,3392,3333
CQUADX4,3277,1,3333,3392,3393,3334
CQUADX4,3278,1,3334,3393,3394,3335
CQUADX4,3279,1,3335,3394,3395,3336
CQUADX4,3280,1,3336,3395,3396,3337
CQUADX4,3281,1,3337,3396,3397,3338
CQUADX4,3282,1,3338,3397,3398,3339
CQUADX4,3283,1,3339,3398,3399,3340
CQUADX4,3284,1,3340,3399,3400,3341
CQUADX4,3285,1,3341,3400,3401,3342
CQUADX4,3286,1,3342,3401,3402,3343
CQUADX4,3287,1,3343,3402,3403,3344
CQUADX4,3288,1,3344,3403,3404,3345
CQUADX4,3289,1,3345,3404,3405,3346
CQUADX4,3290,1,3346,3405,3406,3347
CQUADX4,3291,1,3347,3406,3407,3348
CQUADX4,3292,1,3348,3407,3408,3349
CQUADX4,3293,1,3349,3408,3409,3350
CQUADX4,3294,1,3350,3409,3410,3351
CQUADX4,3295,1,3351,3410,3411,3352
CQUADX4,3296,1,3352,3411,3412,3353
CQUADX4,3297,1,3353,3412,3413,3354
CQUADX4,3298,1,3354,3413,3414,3355
CQUADX4,3299,1,3355,3414,3415,3356
CQUADX4,3300,1,3356,3415,3416,3357
CQUADX4,3301,1,3357,3416,3417,3358
CQUADX4,3302,1,3358,3417,3418,3359
CQUADX4,3303,1,3359,3418,3419,3360
CQUADX4,3304,1,3360,3419,3420,3361
CQUADX4,3305,1,3361,3420,3421,3362
CQUADX4,3306,1,3362,3421,3422,3363
CQUADX4,3307,1,3364,3423,3424,3365
CQUADX4,3308,1,3365,3424,3425,3366
CQUADX4,3309,1,3366,3425,3426,3367
CQUADX4,3310,1,3367,3426,3427,3368
CQUADX4,3311,1,3368,3427,3428,3369
CQUADX4,3312,1,3369,3428,3429,3370
CQUADX4,3313,1,3370,3429,3430,3371
CQUADX4,3314,1,3371,3430,3431,3372
CQUADX4,3315,1,3372,3431,3432,3373
CQUADX4,3316,1,3373,3432,3433,3374
CQUADX4,3317,1,3374,3433,3434,3375
CQUADX4,3318,1,3375,3434,3435,3376
CQUADX4,3319,1,3376,3435,3436,3377
CQUADX4,3320,1,3377,3436,3437,3378
CQUADX4,3321,1,3378,3437,3438,3379
CQUADX4,3322,1,3379,3438,3439,3380
CQUADX4,3323,1,3380,3439,3440,3381
CQUADX4,3324,1,3381,3440,3441,3382
CQUADX4,3325,1,3382,3441,3442,3383
CQUADX4,3326,1,3383,3442,3443,3384
CQUADX4,3327,1,3384,3443,3444,3385
CQUADX4,3328,1,3385,3444,3445,3386
CQUADX4,3329,1,3386,3445,3446,3387
CQUADX4,3330,1,3387,3446,3447,3388
CQUADX4,3331,1,3388,3447,3448,3389
CQUADX4,3332,1,3389,3448,3449,3390
CQUADX4,3333,1,3390,3449,3450,3391
CQUADX4,3334,1,3391,3450,3451,3392
CQUADX4,3335,1,3392,3451,3452,3393
CQUADX4,3336,1,3393,3452,3453,3394
CQUADX4,3337,1,3394,3453,3454,3395
CQUADX4,3338,1,3395,3454,3455,3396
CQUADX4,3339,1,3396,3455,3456,3397
CQUADX4,3340,1,3397,3456,3457,3398
CQUADX4,3341,1,3398,3457,3458,3399
CQUADX4,3342,1,3399,3458,3459,3400
CQUADX4,3343,1,3400,3459,3460,3401
CQUADX4,3344,1,3401,3460,3461,3402
CQUADX4,3345,1,3402,3461,3462,3403
CQUADX4,3346,1,3403,3462,3463,3404
CQUADX4,3347,1,3404,3463,3464,3405
CQUADX4,3348,1,3405,3464,3465,3406
CQUADX4,3349,1,3406,3465,3466,3407
CQUADX4,3350,1,3407,3466,3467,3408
CQUADX4,3351,1,3408,3467,3468,3409
CQUADX4,3352,1,3409,3468,3469,3410
CQUADX4,3353,1,3410,3469,3470,3411
CQUADX4,3354,1,3411,3470,3471,3412
CQUADX4,3355,1,3412,3471,3472,3413
CQUADX4,3356,1,3413,3472,3473,3414
CQUADX4,3357,1,3414,3473,3474,3415
CQUADX4,3358,1,3415,3474,3475,3416
CQUADX4,3359,1,3416,3475,3476,3417
CQUADX4,3360,1,3417,3476,3477,3418
CQUADX4,3361,1,3418,3477,3478,3419
CQUADX4,3362,1,3419,3478,3479,3420
CQUADX4,3363,1,3420,3479,3480,3421
CQUADX4,3364,1,3421,3480,3481,3422
CQUADX4,3365,1,3423,3482,3483,3424
CQUADX4,3366,1,3424,3483,3484,3425
CQUADX4,3367,1,3425,3484,3485,3426
CQUADX4,3368,1,3426,3485,3486,3427
CQUADX4,3369,1,3427,3486,3487,3428
CQUADX4,3370,1,3428,3487,3488,3429
CQUADX4,3371,1,3429,3488,3489,3430
CQUADX4,3372,1,3430,3489,3490,3431
CQUADX4,3373,1,3431,3490,3491,3432
CQUADX4,3374,1,3432,3491,3492,3433
CQUADX4,3375,1,3433,3492,3493,3434
CQUADX4,3376,1,3434,3493,3494,3435
CQUADX4,3377,1,3435,3494,3495,3436
CQUADX4,3378,1,3436,3495,3496,3437
CQUADX4,3379,1,3437,3496,3497,3438
CQUADX4,3380,1,3438,3497,3498,3439
CQUADX4,3381,1,3439,3498,3499,3440
CQUADX4,3382,1,3440,3499,3500,3441
CQUADX4,3383,1,3441,3500,3501,3442
CQUADX4,3384,1,3442,3501,3502,3443
CQUADX4,3385,1,3443,3502,3503,3444
CQUADX4,3386,1,3444,3503,3504,3445
CQUADX4,3387,1,3445,3504,3505,3446
CQUADX4,3388,1,3446,3505,3506,3447
CQUADX4,3389,1,3447,3506,3507,3448
CQUADX4,3390,1,3448,3507,3508,3449
CQUADX4,3391,1,3449,3508,3509,3450
CQUADX4,3392,1,3450,3509,3510,3451
CQUADX4,3393,1,3451,3510,3511,3452
CQUADX4,3394,1,3452,3511,3512,3453
CQUADX4,3395,1,3453,3512,3513,3454
CQUADX4,3396,1,3454,3513,3514,3455
CQUADX4,3397,1,3455,3514,3515,3456
CQUADX4,3398,1,3456,3515,3516,3457
CQUADX4,3399,1,3457,3516,3517,3458
CQUADX4,3400,1,3458,3517,3518,3459
CQUADX4,3401,1,3459,3518,3519,3460
CQUADX4,3402,1,3460,3519,3520,3461
CQUADX4,3403,1,3461,3520,3521,3462
CQUADX4,3404,1,3462,3521,3522,3463
CQUADX4,3405,1,3463,3522,3523,3464
CQUADX4,3406,1,3464,3523,3524,3465
CQUADX4,3407,1,3465,3524,3525,3466
CQUADX4,3408,1,3466,3525,3526,3467
CQUADX4,3409,1,3467,3526,3527,3468
CQUADX4,3410,1,3468,3527,3528,3469
CQUADX4,3411,1,3469,3528,3529,3470
CQUADX4,3412,1,3470,3529,3530,3471
CQUADX4,3413,1,3471,3530,3531,3472
CQUADX4,3414,1,3472,3531,3532,3473
CQUADX4,3415,1,3473,3532,3533,3474
CQUADX4,3416,1,3474,3533,3534,3475
CQUADX4,3417,1,3475,3534,3535,3476
CQUADX4,3418,1,3476,3535,3536,3477
CQUADX4,3419,1,3477,3536,3537,3478
CQUADX4,3420,1,3478,3537,3538,3479
CQUADX4,3421,1,3479,3538,3539,3480
CQUADX4,3422,1,3480,3539,3540,3481
CQUADX4,3423,1,3482,3541,3542,3483
CQUADX4,3424,1,3483,3542,3543,3484
CQUADX4,3425,1,3484,3543,3544,3485
CQUADX4,3426,1,3485,3544,3545,3486
CQUADX4,3427,1,3486,3545,3546,3487
CQUADX4,3428,1,3487,3546,3547,3488
CQUADX4,3429,1,3488,3547,3548,3489
CQUADX4,3430,1,3489,3548,3549,3490
CQUADX4,3431,1,3490,3549,3550,3491
CQUADX4,3432,1,3491,3550,3551,3492
CQUADX4,3433,1,3492,3551,3552,3493
CQUADX4,3434,1,3493,3552,3553,3494
CQUADX4,3435,1,3494,3553,3554,3495
CQUADX4,3436,1,3495,3554,3555,3496
CQUADX4,3437,1,3496,3555,3556,3497
CQUADX4,3438,1,3497,3556,3557,3498
CQUADX4,3439,1,3498,3557,3558,3499
CQUADX4,3440,1,3499,3558,3559,3500
CQUADX4,3441,1,3500,3559,3560,3501
CQUADX4,3442,1,3501,3560,3561,3502
CQUADX4,3443,1,3502,3561,3562,3503
CQUADX4,3444,1,3503,3562,3563,3504
CQUADX4,3445,1,3504,3563,3564,3505
CQUADX4,3446,1,3505,3564,3565,3506
CQUADX4,3447,1,3506,3565,3566,3507
CQUADX4,3448,1,3507,3566,3567,3508
CQUADX4,3449,1,3508,3567,3568,3509
CQUADX4,3450,1,3509,3568,3569,3510
CQUADX4,3451,1,3510,3569,3570,3511
CQUADX4,3452,1,3511,3570,3571,3512
CQUADX4,3453,1,3512,3571,3572,3513
CQUADX4,3454,1,3513,3572,3573,3514
CQUADX4,3455,1,3514,3573,3574,3515
CQUADX4,3456,1,3515,3574,3575,3516
CQUADX4,3457,1,3516,3575,3576,3517
CQUADX4,3458,1,3517,3576,3577,3518
CQUADX4,3459,1,3518,3577,3578,3519
CQUADX4,3460,1,3519,3578,3579,3520
CQUADX4,3461,1,3520,3579,3580,3521
CQUADX4,3462,1,3521,3580,3581,3522
CQUADX4,3463,1,3522,3581,3582,3523
CQUADX4,3464,1,3523,3582,3583,3524
CQUADX4,3465,1,3524,3583,3584,3525
CQUADX4,3466,1,3525,3584,3585,3526
CQUADX4,3467,1,3526,3585,3586,3527
CQUADX4,3468,1,3527,3586,3587,3528
CQUADX4,3469,1,3528,3587,3588,3529
CQUADX4,3470,1,3529,3588,3589,3530
CQUADX4,3471,1,3530,3589,3590,3531
CQUADX4,3472,1,3531,3590,3591,3532
CQUADX4,3473,1,3532,3591,3592,3533
CQUADX4,3474,1,3533,3592,3593,3534
CQUADX4,3475,1,3534,3593,3594,3535
CQUADX4,3476,1,3535,3594,3595,3536
CQUADX4,3477,1,3536,3595,3596,3537
CQUADX4,3478,1,3537,3596,3597,3538
CQUADX4,3479,1,3538,3597,3598,3539
CQUADX4,3480,1,3539,3598,3599,3540
CQUADX4,3481,1,3541,3600,3601,3542
CQUADX4,3482,1,3542,3601,3602,3543
CQUADX4,3483,1,3543,3602,3603,3544
CQUADX4,3484,1,3544,3603,3604,3545
CQUADX4,3485,1,3545,3604,3605,3546
CQUADX4,3486,1,3546,3605,3606,3547
CQUADX4,3487,1,3547,3606,3607,3548
CQUADX4,3488,1,3548,3607,3608,3549
CQUADX4,3489,1,3549,3608,3609,3550
CQUADX4,3490,1,3550,3609,3610,3551
CQUADX4,3491,1,3551,3610,3611,3552
CQUADX4,3492,1,3552,3611,3612,3553
CQUADX4,3493,1,3553,3612,3613,3554
CQUADX4,3494,1,3554,3613,3614,3555
CQUADX4,3495,1,3555,3614,3615,3556
CQUADX4,3496,1,3556,3615,3616,3557
CQUADX4,3497,1,3557,3616,3617,3558
CQUADX4,3498,1,3558,3617,3618,3559
CQUADX4,3499,1,3559,3618,3619,3560
CQUADX4,3500,1,3560,3619,3620,3561
CQUADX4,3501,1,3561,3620,3621,3562
CQUADX4,3502,1,3562,3621,3622,3563
CQUADX4,3503,1,3563,3622,3623,3564
CQUADX4,3504,1,3564,3623,3624,3565
CQUADX4,3505,1,3565,3624,3625,3566
CQUADX4,3506,1,3566,3625,3626,3567
CQUADX4,3507,1,3567,3626,3627,3568
CQUADX4,3508,1,3568,3627,3628,3569
CQUADX4,3509,1,3569,3628,3629,3570
CQUADX4,3510,1,3570,3629,3630,3571
CQUADX4,3511,1,3571,3630,3631,3572
CQUADX4,3512,1,3572,3631,3632,3573
CQUADX4,3513,1,3573,3632,3633,3574
CQUADX4,3514,1,3574,3633,3634,3575
CQUADX4,3515,1,3575,3634,3635,3576
CQUADX4,3516,1,3576,3635,3636,3577
CQUADX4,3517,1,3577,3636,3637,3578
CQUADX4,3518,1,3578,3637,3638,3579
CQUADX4,3519,1,3579,3638,3639,3580
CQUADX4,3520,1,3580,3639,3640,3581
CQUADX4,3521,1,3581,3640,3641,3582
CQUADX4,3522,1,3582,3641,3642,3583
CQUADX4,3523,1,3583,3642,3643,3584
CQUADX4,3524,1,3584,3643,3644,3585
CQUADX4,3525,1,3585,3644,3645,3586
CQUADX4,3526,1,3586,3645,3646,3587
CQUADX4,3527,1,3587,3646,3647,3588
CQUADX4,3528,1,3588,3647,3648,3589
CQUADX4,3529,1,3589,3648,3649,3590
CQUADX4,3530,1,3590,3649,3650,3591
CQUADX4,3531,1,3591,3650,3651,3592
CQUADX4,3532,1,3592,3651,3652,3593
CQUADX4,3533,1,3593,3652,3653,3594
CQUADX4,3534,1,3594,3653,3654,3595
CQUADX4,3535,1,3595,3654,3655,3596
CQUADX4,3536,1,3596,3655,3656,3597
CQUADX4,3537,1,3597,3656,3657,3598
CQUADX4,3538,1,3598,3657,3658,3599
CQUADX4,3539,1,3600,3659,3660,3601
CQUADX4,3540,1,3601,3660,3661,3602
CQUADX4,3541,1,3602,3661,3662,3603
CQUADX4,3542,1,3603,3662,3663,3604
CQUADX4,3543,1,3604,3663,3664,3605
CQUADX4,3544,1,3605,3664,3665,3606
CQUADX4,3545,1,3606,3665,3666,3607
CQUADX4,3546,1,3607,3666,3667,3608
CQUADX4,3547,1,3608,3667,3668,3609
CQUADX4,3548,1,3609,3668,3669,3610
CQUADX4,3549,1,3610,3669,3670,3611
CQUADX4,3550,1,3611,3670,3671,3612
CQUADX4,3551,1,3612,3671,3672,3613
CQUADX4,3552,1,3613,3672,3673,3614
CQUADX4,3553,1,3614,3673,3674,3615
CQUADX4,3554,1,3615,3674,3675,3616
CQUADX4,3555,1,3616,3675,3676,3617
CQUADX4,3556,1,3617,3676,3677,3618
CQUADX4,3557,1,3618,3677,3678,3619
CQUADX4,3558,1,3619,3678,3679,3620
CQUADX4,3559,1,3620,3679,3680,3621
CQUADX4,3560,1,3621,3680,3681,3622
CQUADX4,3561,1,3622,3681,3682,3623
CQUADX4,3562,1,3623,3682,3683,3624
CQUADX4,3563,1,3624,3683,3684,3625
CQUADX4,3564,1,3625,3684,3685,3626
CQUADX4,3565,1,3626,3685,3686,3627
CQUADX4,3566,1,3627,3686,3687,3628
CQUADX4,3567,1,3628,3687,3688,3629
CQUADX4,3568,1,3629,3688,3689,3630
CQUADX4,3569,1,3630,3689,3690,3631
CQUADX4,3570,1,3631,3690,3691,3632
CQUADX4,3571,1,3632,3691,3692,3633
CQUADX4,3572,1,3633,3692,3693,3634
CQUADX4,3573,1,3634,3693,3694,3635
CQUADX4,3574,1,3635,3694,3695,3636
CQUADX4,3575,1,3636,3695,3696,3637
CQUADX4,3576,1,3637,3696,3697,3638
CQUADX4,3577,1,3638,3697,3698,3639
CQUADX4,3578,1,3639,3698,3699,3640
CQUADX4,3579,1,3640,3699,3700,3641
CQUADX4,3580,1,3641,3700,3701,3642
CQUADX4,3581,1,3642,3701,3702,3643
CQUADX4,3582,1,3643,3702,3703,3644
CQUADX4,3583,1,3644,3703,3704,3645
CQUADX4,3584,1,3645,3704,3705,3646
CQUADX4,3585,1,3646,3705,3706,3647
CQUADX4,3586,1,3647,3706,3707,3648
CQUADX4,3587,1,3648,3707,3708,3649
CQUADX4,3588,1,3649,3708,3709,3650
CQUADX4,3589,1,3650,3709,3710,3651
CQUADX4,3590,1,3651,3710,3711,3652
CQUADX4,3591,1,3652,3711,3712,3653
CQUADX4,3592,1,3653,3712,3713,3654
CQUADX4,3593,1,3654,3713,3714,3655
CQUADX4,3594,1,3655,3714,3715,3656
CQUADX4,3595,1,3656,3715,3716,3657
CQUADX4,3596,1,3657,3716,3717,3658
CQUADX4,3597,1,3659,3718,3719,3660
CQUADX4,3598,1,3660,3719,3720,3661
CQUADX4,3599,1,3661,3720,3721,3662
CQUADX4,3600,1,3662,3721,3722,3663
CQUADX4,3601,1,3663,3722,3723,3664
CQUADX4,3602,1,3664,3723,3724,3665
CQUADX4,3603,1,3665,3724,3725,3666
CQUADX4,3604,1,3666,3725,3726,3667
CQUADX4,3605,1,3667,3726,3727,3668
CQUADX4,3606,1,3668,3727,3728,3669
CQUADX4,3607,1,3669,3728,3729,3670
CQUADX4,3608,1,3670,3729,3730,3671
CQUADX4,3609,1,3671,3730,3731,3672
CQUADX4,3610,1,3672,3731,3732,3673
CQUADX4,3611,1,3673,3732,3733,3674
CQUADX4,3612,1,3674,3733,3734,3675
CQUADX4,3613,1,3675,3734,3735,3676
CQUADX4,3614,1,3676,3735,3736,3677
CQUADX4,3615,1,3677,3736,3737,3678
CQUADX4,3616,1,3678,3737,3738,3679
CQUADX4,3617,1,3679,3738,3739,3680
CQUADX4,3618,1,3680,3739,3740,3681
CQUADX4,3619,1,3681,3740,3741,3682
CQUADX4,3620,1,3682,3741,3742,3683
CQUADX4,3621,1,3683,3742,3743,3684
CQUADX4,3622,1,3684,3743,3744,3685
CQUADX4,3623,1,3685,3744,3745,3686
CQUADX4,3624,1,3686,3745,3746,3687
CQUADX4,3625,1,3687,3746,3747,3688
CQUADX4,3626,1,3688,3747,3748,3689
CQUADX4,3627,1,3689,3748,3749,3690
CQUADX4,3628,1,3690,3749,3750,3691
CQUADX4,3629,1,3691,3750,3751,3692
CQUADX4,3630,1,3692,3751,3752,3693
CQUADX4,3631,1,3693,3752,3753,3694
CQUADX4,3632,1,3694,3753,3754,3695
CQUADX4,3633,1,3695,3754,3755,3696
CQUADX4,3634,1,3696,3755,3756,3697
CQUADX4,3635,1,3697,3756,3757,3698
CQUADX4,3636,1,3698,3757,3758,3699
CQUADX4,3637,1,3699,3758,3759,3700
CQUADX4,3638,1,3700,3759,3760,3701
CQUADX4,3639,1,3701,3760,3761,3702
CQUADX4,3640,1,3702,3761,3762,3703
CQUADX4,3641,1,3703,3762,3763,3704
CQUADX4,3642,1,3704,3763,3764,3705
CQUADX4,3643,1,3705,3764,3765,3706
CQUADX4,3644,1,3706,3765,3766,3707
CQUADX4,3645,1,3707,3766,3767,3708
CQUADX4,3646,1,3708,3767,3768,3709
CQUADX4,3647,1,3709,3768,3769,3710
CQUADX4,3648,1,3710,3769,3770,3711
CQUADX4,3649,1,3711,3770,3771,3712
CQUADX4,3650,1,3712,3771,3772,3713
CQUADX4,3651,1,3713,3772,3773,3714
CQUADX4,3652,1,3714,3773,3774,3715
CQUADX4,3653,1,3715,3774,3775,3716
CQUADX4,3654,1,3716,3775,3776,3717
CQUADX4,3655,1,3718,3777,3778,3719
CQUADX4,3656,1,3719,3778,3779,3720
CQUADX4,3657,1,3720,3779,3780,3721
CQUADX4,3658,1,3721,3780,3781,3722
CQUADX4,3659,1,3722,3781,3782,3723
CQUADX4,3660,1,3723,3782,3783,3724
CQUADX4,3661,1,3724,3783,3784,3725
CQUADX4,3662,1,3725,3784,3785,3726
CQUADX4,3663,1,3726,3785,3786,3727
CQUADX4,3664,1,3727,3786,3787,3728
CQUADX4,3665,1,3728,3787,3788,3729
CQUADX4,3666,1,3729,3788,3789,3730
CQUADX4,3667,1,3730,3789,3790,3731
CQUADX4,3668,1,3731,3790,3791,3732
CQUADX4,3669,1,3732,3791,3792,3733
CQUADX4,3670,1,3733,3792,3793,3734
CQUADX4,3671,1,3734,3793,3794,3735
CQUADX4,3672,1,3735,3794,3795,3736
CQUADX4,3673,1,3736,3795,3796,3737
CQUADX4,3674,1,3737,3796,3797,3738
CQUADX4,3675,1,3738,3797,3798,3739
CQUADX4,3676,1,3739,3798,3799,3740
CQUADX4,3677,1,3740,3799,3800,3741
CQUADX4,3678,1,3741,3800,3801,3742
CQUADX4,3679,1,3742,3801,3802,3743
CQUADX4,3680,1,3743,3802,3803,3744
CQUADX4,3681,1,3744,3803,3804,3745
CQUADX4,3682,1,3745,3804,3805,3746
CQUADX4,3683,1,3746,3805,3806,3747
CQUADX4,3684,1,3747,3806,3807,3748
CQUADX4,3685,1,3748,3807,3808,3749
CQUADX4,3686,1,3749,3808,3809,3750
CQUADX4,3687,1,3750,3809,3810,3751
CQUADX4,3688,1,3751,3810,3811,3752
CQUADX4,3689,1,3752,3811,3812,3753
CQUADX4,3690,1,3753,3812,3813,3754
CQUADX4,3691,1,3754,3813,3814,3755
CQUADX4,3692,1,3755,3814,3815,3756
CQUADX4,3693,1,3756,3815,3816,3757
CQUADX4,3694,1,3757,3816,3817,3758
CQUADX4,3695,1,3758,3817,3818,3759
CQUADX4,3696,1,3759,3818,3819,3760
CQUADX4,3697,1,3760,3819,3820,3761
CQUADX4,3698,1,3761,3820,3821,3762
CQUADX4,3699,1,3762,3821,3822,3763
CQUADX4,3700,1,3763,3822,3823,3764
CQUADX4,3701,1,3764,3823,3824,3765
CQUADX4,3702,1,3765,3824,3825,3766
CQUADX4,3703,1,3766,3825,3826,3767
CQUADX4,3704,1,3767,3826,3827,3768
CQUADX4,3705,1,3768,3827,3828,3769
CQUADX4,3706,1,3769,3828,3829,3770
CQUADX4,3707,1,3770,3829,3830,3771
CQUADX4,3708,1,3771,3830,3831,3772
CQUADX4,3709,1,3772,3831,3832,3773
CQUADX4,3710,1,3773,3832,3833,3774
CQUADX4,3711,1,3774,3833,3834,3775
CQUADX4,3712,1,3775,3834,3835,3776
CQUADX4,3713,1,3777,3836,3837,3778
CQUADX4,3714,1,3778,3837,3838,3779
CQUADX4,3715,1,3779,3838,3839,3780
CQUADX4,3716,1,3780,3839,3840,3781
CQUADX4,3717,1,3781,3840,3841,3782
CQUADX4,3718,1,3782,3841,3842,3783
CQUADX4,3719,1,3783,3842,3843,3784
CQUADX4,3720,1,3784,3843,3844,3785
CQUADX4,3721,1,3785,3844,3845,3786
CQUADX4,3722,1,3786,3845,3846,3787
CQUADX4,3723,1,3787,3846,3847,3788
CQUADX4,3724,1,3788,3847,3848,3789
CQUADX4,3725,1,3789,3848,3849,3790
CQUADX4,3726,1,3790,3849,3850,3791
CQUADX4,3727,1,3791,3850,3851,3792
CQUADX4,3728,1,3792,3851,3852,3793
CQUADX4,3729,1,3793,3852,3853,3794
CQUADX4,3730,1,3794,3853,3854,3795
CQUADX4,3731,1,3795,3854,3855,3796
CQUADX4,3732,1,3796,3855,3856,3797
CQUADX4,3733,1,3797,3856,3857,3798
CQUADX4,3734,1,3798,3857,3858,3799
CQUADX4,3735,1,3799,3858,3859,3800
CQUADX4,3736,1,3800,3859,3860,3801
CQUADX4,3737,1,3801,3860,3861,3802
CQUADX4,3738,1,3802,3861,3862,3803
CQUADX4,3739,1,3803,3862,3863,3804
CQUADX4,3740,1,3804,3863,3864,3805
CQUADX4,3741,1,3805,3864,3865,3806
CQUADX4,3742,1,3806,3865,3866,3807
CQUADX4,3743,1,3807,3866,3867,3808
CQUADX4,3744,1,3808,3867,3868,3809
CQUADX4,3745,1,3809,3868,3869,3810
CQUADX4,3746,1,3810,3869,3870,3811
CQUADX4,3747,1,3811,3870,3871,3812
CQUADX4,3748,1,3812,3871,3872,3813
CQUADX4,3749,1,3813,3872,3873,3814
CQUADX4,3750,1,3814,3873,3874,3815
CQUADX4,3751,1,3815,3874,3875,3816
CQUADX4,3752,1,3816,3875,3876,3817
CQUADX4,3753,1,3817,3876,3877,3818
CQUADX4,3754,1,3818,3877,3878,3819
CQUADX4,3755,1,3819,3878,3879,3820
CQUADX4,3756,1,3820,3879,3880,3821
CQUADX4,3757,1,3821,3880,3881,3822
CQUADX4,3758,1,3822,3881,3882,3823
CQUADX4,3759,1,3823,3882,3883,3824
CQUADX4,3760,1,3824,3883,3884,3825
CQUADX4,3761,1,3825,3884,3885,3826
CQUADX4,3762,1,3826,3885,3886,3827
CQUADX4,3763,1,3827,3886,3887,3828
CQUADX4,3764,1,3828,3887,3888,3829
CQUADX4,3765,1,3829,3888,3889,3830
CQUADX4,3766,1,3830,3889,3890,3831
CQUADX4,3767,1,3831,3890,3891,3832
CQUADX4,3768,1,3832,3891,3892,3833
CQUADX4,3769,1,3833,3892,3893,3834
CQUADX4,3770,1,3834,3893,3894,3835
CQUADX4,3771,1,3836,3895,3896,3837
CQUADX4,3772,1,3837,3896,3897,3838
CQUADX4,3773,1,3838,3897,3898,3839
CQUADX4,3774,1,3839,3898,3899,3840
CQUADX4,3775,1,3840,3899,3900,3841
CQUADX4,3776,1,3841,3900,3901,3842
CQUADX4,3777,1,3842,3901,3902,3843
CQUADX4,3778,1,3843,3902,3903,3844
CQUADX4,3779,1,3844,3903,3904,3845
CQUADX4,3780,1,3845,3904,3905,3846
CQUADX4,3781,1,3846,3905,3906,3847
CQUADX4,3782,1,3847,3906,3907,3848
CQUADX4,3783,1,3848,3907,3908,3849
CQUADX4,3784,1,3849,3908,3909,3850
CQUADX4,3785,1,3850,3909,3910,3851
CQUADX4,3786,1,3851,3910,3911,3852
CQUADX4,3787,1,3852,3911,3912,3853
CQUADX4,3788,1,3853,3912,3913,3854
CQUADX4,3789,1,3854,3913,3914,3855
CQUADX4,3790,1,3855,3914,3915,3856
CQUADX4,3791,1,3856,3915,3916,3857
CQUADX4,3792,1,3857,3916,3917,3858
CQUADX4,3793,1,3858,3917,3918,3859
CQUADX4,3794,1,3859,3918,3919,3860
CQUADX4,3795,1,3860,3919,3920,3861
CQUADX4,3796,1,3861,3920,3921,3862
CQUADX4,3797,1,3862,3921,3922,3863
CQUADX4,3798,1,3863,3922,3923,3864
CQUADX4,3799,1,3864,3923,3924,3865
CQUADX4,3800,1,3865,3924,3925,3866
CQUADX4,3801,1,3866,3925,3926,3867
CQUADX4,3802,1,3867,3926,3927,3868
CQUADX4,3803,1,3868,3927,3928,3869
CQUADX4,3804,1,3869,3928,3929,3870
CQUADX4,3805,1,3870,3929,3930,3871
CQUADX4,3806,1,3871,3930,3931,3872
CQUADX4,3807,1,3872,3931,3932,3873
CQUADX4,3808,1,3873,3932,3933,3874
CQUADX4,3809,1,3874,3933,3934,3875
CQUADX4,3810,1,3875,3934,3935,3876
CQUADX4,3811,1,3876,3935,3936,3877
CQUADX4,3812,1,3877,3936,3937,3878
CQUADX4,3813,1,3878,3937,3938,3879
CQUADX4,3814,1,3879,3938,3939,3880
CQUADX4,3815,1,3880,3939,3940,3881
CQUADX4,3816,1,3881,3940,3941,3882
CQUADX4,3817,1,3882,3941,3942,3883
CQUADX4,3818,1,3883,3942,3943,3884
CQUADX4,3819,1,3884,3943,3944,3885
CQUADX4,3820,1,3885,3944,3945,3886
CQUADX4,3821,1,3886,3945,3946,3887
CQUADX4,3822,1,3887,3946,3947,3888
CQUADX4,3823,1,3888,3947,3948,3889
CQUADX4,3824,1,3889,3948,3949,3890
CQUADX4,3825,1,3890,3949,3950,3891
CQUADX4,3826,1,3891,3950,3951,3892
CQUADX4,3827,1,3892,3951,3952,3893
CQUADX4,3828,1,3893,3952,3953,3894
CQUADX4,3829,1,3895,3954,3955,3896
CQUADX4,3830,1,3896,3955,3956,3897
CQUADX4,3831,1,3897,3956,3957,3898
CQUADX4,3832,1,3898,3957,3958,3899
CQUADX4,3833,1,3899,3958,3959,3900
CQUADX4,3834,1,3900,3959,3960,3901
CQUADX4,3835,1,3901,3960,3961,3902
CQUADX4,3836,1,3902,3961,3962,3903
CQUADX4,3837,1,3903,3962,3963,3904
CQUADX4,3838,1,3904,3963,3964,3905
CQUADX4,3839,1,3905,3964,3965,3906
CQUADX4,3840,1,3906,3965,3966,3907
CQUADX4,3841,1,3907,3966,3967,3908
CQUADX4,3842,1,3908,3967,3968,3909
CQUADX4,3843,1,3909,3968,3969,3910
CQUADX4,3844,1,3910,3969,3970,3911
CQUADX4,3845,1,3911,3970,3971,3912
CQUADX4,3846,1,3912,3971,3972,3913
CQUADX4,3847,1,3913,3972,3973,3914
CQUADX4,3848,1,3914,3973,3974,3915
CQUADX4,3849,1,3915,3974,3975,3916
CQUADX4,3850,1,3916,3975,3976,3917
CQUADX4,3851,1,3917,3976,3977,3918
CQUADX4,3852,1,3918,3977,3978,3919
CQUADX4,3853,1,3919,3978,3979,3920
CQUADX4,3854,1,3920,3979,3980,3921
CQUADX4,3855,1,3921,3980,3981,3922
CQUADX4,3856,1,3922,3981,3982,3923
CQUADX4,3857,1,3923,3982,3983,3924
CQUADX4,3858,1,3924,3983,3984,3925
CQUADX4,3859,1,3925,3984,3985,3926
CQUADX4,3860,1,3926,3985,3986,3927
CQUADX4,3861,1,3927,3986,3987,3928
CQUADX4,3862,1,3928,3987,3988,3929
CQUADX4,3863,1,3929,3988,3989,3930
CQUADX4,3864,1,3930,3989,3990,3931
CQUADX4,3865,1,3931,3990,3991,3932
CQUADX4,3866,1,3932,3991,3992,3933
CQUADX4,3867,1,3933,3992,3993,3934
CQUADX4,3868,1,3934,3993,3994,3935
CQUADX4,3869,1,3935,3994,3995,3936
CQUADX4,3870,1,3936,3995,3996,3937
CQUADX4,3871,1,3937,3996,3997,3938
CQUADX4,3872,1,3938,3997,3998,3939
CQUADX4,3873,1,3939,3998,3999,3940
CQUADX4,3874,1,3940,3999,4000,3941
CQUADX4,3875,1,3941,4000,4001,3942
CQUADX4,3876,1,3942,4001,4002,3943
CQUADX4,3877,1,3943,4002,4003,3944
CQUADX4,3878,1,3944,4003,4004,3945
CQUADX4,3879,1,3945,4004,4005,3946
CQUADX4,3880,1,3946,4005,4006,3947
CQUADX4,3881,1,3947,4006,4007,3948
CQUADX4,3882,1,3948,4007,4008,3949
CQUADX4,3883,1,3949,4008,4009,3950
CQUADX4,3884,1,3950,4009,4010,3951
CQUADX4,3885,1,3951,4010,4011,3952
CQUADX4,3886,1,3952,4011,4012,3953
CQUADX4,3887,1,3954,4013,4014,3955
CQUADX4,3888,1,3955,4014,4015,3956
CQUADX4,3889,1,3956,4015,4016,3957
CQUADX4,3890,1,3957,4016,4017,3958
CQUADX4,3891,1,3958,4017,4018,3959
CQUADX4,3892,1,3959,4018,4019,3960
CQUADX4,3893,1,3960,4019,4020,3961
CQUADX4,3894,1,3961,4020,4021,3962
CQUADX4,3895,1,3962,4021,4022,3963
CQUADX4,3896,1,3963,4022,4023,3964
CQUADX4,3897,1,3964,4023,4024,3965
CQUADX4,3898,1,3965,4024,4025,3966
CQUADX4,3899,1,3966,4025,4026,3967
CQUADX4,3900,1,3967,4026,4027,3968
CQUADX4,3901,1,3968,4027,4028,3969
CQUADX4,3902,1,3969,4028,4029,3970
CQUADX4,3903,1,3970,4029,4030,3971
CQUADX4,3904,1,3971,4030,4031,3972
CQUADX4,3905,1,3972,4031,4032,3973
CQUADX4,3906,1,3973,4032,4033,3974
CQUADX4,3907,1,3974,4033,4034,3975
CQUADX4,3908,1,3975,4034,4035,3976
CQUADX4,3909,1,3976,4035,4036,3977
CQUADX4,3910,1,3977,4036,4037,3978
CQUADX4,3911,1,3978,4037,4038,3979
CQUADX4,3912,1,3979,4038,4039,3980
CQUADX4,3913,1,3980,4039,4040,3981
CQUADX4,3914,1,3981,4040,4041,3982
CQUADX4,3915,1,3982,4041,4042,3983
CQUADX4,3916,1,3983,4042,4043,3984
CQUADX4,3917,1,3984,4043,4044,3985
CQUADX4,3918,1,3985,4044,4045,3986
CQUADX4,3919,1,3986,4045,4046,3987
CQUADX4,3920,1,3987,4046,4047,3988
CQUADX4,3921,1,3988,4047,4048,3989
CQUADX4,3922,1,3989,4048,4049,3990
CQUADX4,3923,1,3990,4049,4050,3991
CQUADX4,3924,1,3991,4050,4051,3992
CQUADX4,3925,1,3992,4051,4052,3993
CQUADX4,3926,1,3993,4052,4053,3994
CQUADX4,3927,1,3994,4053,4054,3995
CQUADX4,3928,1,3995,4054,4055,3996
CQUADX4,3929,1,3996,4055,4056,3997
CQUADX4,3930,1,3997,4056,4057,3998
CQUADX4,3931,1,3998,4057,4058,3999
CQUADX4,3932,1,3999,4058,4059,4000
CQUADX4,3933,1,4000,4059,4060,4001
CQUADX4,3934,1,4001,4060,4061,4002
CQUADX4,3935,1,4002,4061,4062,4003
CQUADX4,3936,1,4003,4062,4063,4004
CQUADX4,3937,1,4004,4063,4064,4005
CQUADX4,3938,1,4005,4064,4065,4006
CQUADX4,3939,1,4006,4065,4066,4007
CQUADX4,3940,1,4007,4066,4067,4008
CQUADX4,3941,1,4008,4067,4068,4009
CQUADX4,3942,1,4009,4068,4069,4010
CQUADX4,3943,1,4010,4069,4070,4011
CQUADX4,3944,1,4011,4070,4071,4012
CQUADX4,3945,1,4013,4072,4073,4014
CQUADX4,3946,1,4014,4073,4074,4015
CQUADX4,3947,1,4015,4074,4075,4016
CQUADX4,3948,1,4016,4075,4076,4017
CQUADX4,3949,1,4017,4076,4077,4018
CQUADX4,3950,1,4018,4077,4078,4019
CQUADX4,3951,1,4019,4078,4079,4020
CQUADX4,3952,1,4020,4079,4080,4021
CQUADX4,3953,1,4021,4080,4081,4022
CQUADX4,3954,1,4022,4081,4082,4023
CQUADX4,3955,1,4023,4082,4083,4024
CQUADX4,3956,1,4024,4083,4084,4025
CQUADX4,3957,1,4025,4084,4085,4026
CQUADX4,3958,1,4026,4085,4086,4027
CQUADX4,3959,1,4027,4086,4087,4028
CQUADX4,3960,1,4028,4087,4088,4029
CQUADX4,3961,1,4029,4088,4089,4030
CQUADX4,3962,1,4030,4089,4090,4031
CQUADX4,3963,1,4031,4090,4091,4032
CQUADX4,3964,1,4032,4091,4092,4033
CQUADX4,3965,1,4033,4092,4093,4034
CQUADX4,3966,1,4034,4093,4094,4035
CQUADX4,3967,1,4035,4094,4095,4036
CQUADX4,3968,1,4036,4095,4096,4037
CQUADX4,3969,1,4037,4096,4097,4038
CQUADX4,3970,1,4038,4097,4098,4039
CQUADX4,3971,1,4039,4098,4099,4040
CQUADX4,3972,1,4040,4099,4100,4041
CQUADX4,3973,1,4041,4100,4101,4042
CQUADX4,3974,1,4042,4101,4102,4043
CQUADX4,3975,1,4043,4102,4103,4044
CQUADX4,3976,1,4044,4103,4104,4045
CQUADX4,3977,1,4045,4104,4105,4046
CQUADX4,3978,1,4046,4105,4106,4047
CQUADX4,3979,1,4047,4106,4107,4048
CQUADX4,3980,1,4048,4107,4108,4049
CQUADX4,3981,1,4049,4108,4109,4050
CQUADX4,3982,1,4050,4109,4110,4051
CQUADX4,3983,1,4051,4110,4111,4052
CQUADX4,3984,1,4052,4111,4112,4053
CQUADX4,3985,1,4053,4112,4113,4054
CQUADX4,3986,1,4054,4113,4114,4055
CQUADX4,3987,1,4055,4114,4115,4056
CQUADX4,3988,1,4056,4115,4116,4057
CQUADX4,3989,1,4057,4116,4117,4058
CQUADX4,3990,1,4058,4117,4118,4059
CQUADX4,3991,1,4059,4118,4119,4060
CQUADX4,3992,1,4060,4119,4120,4061
CQUADX4,3993,1,4061,4120,4121,4062
CQUADX4,3994,1,4062,4121,4122,4063
CQUADX4,3995,1,4063,4122,4123,4064
CQUADX4,3996,1,4064,4123,4124,4065
CQUADX4,3997,1,4065,4124,4125,4066
CQUADX4,3998,1,4066,4125,4126,4067
CQUADX4,3999,1,4067,4126,4127,4068
CQUADX4,4000,1,4068,4127,4128,4069
CQUADX4,4001,1,4069,4128,4129,4070
CQUADX4,4002,1,4070,4129,4130,4071
CQUADX4,4003,1,4072,4131,4132,4073
CQUADX4,4004,1,4073,4132,4133,4074
CQUADX4,4005,1,4074,4133,4134,4075
CQUADX4,4006,1,4075,4134,4135,4076
CQUADX4,4007,1,4076,4135,4136,4077
CQUADX4,4008,1,4077,4136,4137,4078
CQUADX4,4009,1,4078,4137,4138,4079
CQUADX4,4010,1,4079,4138,4139,4080
CQUADX4,4011,1,4080,4139,4140,4081
CQUADX4,4012,1,4081,4140,4141,4082
CQUADX4,4013,1,4082,4141,4142,4083
CQUADX4,4014,1,4083,4142,4143,4084
CQUADX4,4015,1,4084,4143,4144,4085
CQUADX4,4016,1,4085,4144,4145,4086
CQUADX4,4017,1,4086,4145,4146,4087
CQUADX4,4018,1,4087,4146,4147,4088
CQUADX4,4019,1,4088,4147,4148,4089
CQUADX4,4020,1,4089,4148,4149,4090
CQUADX4,4021,1,4090,4149,4150,4091
CQUADX4,4022,1,4091,4150,4151,4092
CQUADX4,4023,1,4092,4151,4152,4093
CQUADX4,4024,1,4093,4152,4153,4094
CQUADX4,4025,1,4094,4153,4154,4095
CQUADX4,4026,1,4095,4154,4155,4096
CQUADX4,4027,1,4096,4155,4156,4097
CQUADX4,4028,1,4097,4156,4157,4098
CQUADX4,4029,1,4098,4157,4158,4099
CQUADX4,4030,1,4099,4158,4159,4100
CQUADX4,4031,1,4100,4159,4160,4101
CQUADX4,4032,1,4101,4160,4161,4102
CQUADX4,4033,1,4102,4161,4162,4103
CQUADX4,4034,1,4103,4162,4163,4104
CQUADX4,4035,1,4104,4163,4164,4105
CQUADX4,4036,1,4105,4164,4165,4106
CQUADX4,4037,1,4106,4165,4166,4107
CQUADX4,4038,1,4107,4166,4167,4108
CQUADX4,4039,1,4108,4167,4168,4109
CQUADX4,4040,1,4109,4168,4169,4110
CQUADX4,4041,1,4110,4169,4170,4111
CQUADX4,4042,1,4111,4170,4171,4112
CQUADX4,4043,1,4112,4171,4172,4113
CQUADX4,4044,1,4113,4172,4173,4114
CQUADX4,4045,1,4114,4173,4174,4115
CQUADX4,4046,1,4115,4174,4175,4116
CQUADX4,4047,1,4116,4175,4176,4117
CQUADX4,4048,1,4117,4176,4177,4118
CQUADX4,4049,1,4118,4177,4178,4119
CQUADX4,4050,1,4119,4178,4179,4120
CQUADX4,4051,1,4120,4179,4180,4121
CQUADX4,4052,1,4121,4180,4181,4122
CQUADX4,4053,1,4122,4181,4182,4123
CQUADX4,4054,1,4123,4182,4183,4124
CQUADX4,4055,1,4124,4183,4184,4125
CQUADX4,4056,1,4125,4184,4185,4126
CQUADX4,4057,1,4126,4185,4186,4127
CQUADX4,4058,1,4127,4186,4187,4128
CQUADX4,4059,1,4128,4187,4188,4129
CQUADX4,4060,1,4129,4188,4189,4130
CQUADX4,4061,1,4131,4190,4191,4132
CQUADX4,4062,1,4132,4191,4192,4133
CQUADX4,4063,1,4133,4192,4193,4134
CQUADX4,4064,1,4134,4193,4194,4135
CQUADX4,4065,1,4135,4194,4195,4136
CQUADX4,4066,1,4136,4195,4196,4137
CQUADX4,4067,1,4137,4196,4197,4138
CQUADX4,4068,1,4138,4197,4198,4139
CQUADX4,4069,1,4139,4198,4199,4140
CQUADX4,4070,1,4140,4199,4200,4141
CQUADX4,4071,1,4141,4200,4201,4142
CQUADX4,4072,1,4142,4201,4202,4143
CQUADX4,4073,1,4143,4202,4203,4144
CQUADX4,4074,1,4144,4203,4204,4145
CQUADX4,4075,1,4145,4204,4205,4146
CQUADX4,4076,1,4146,4205,4206,4147
CQUADX4,4077,1,4147,4206,4207,4148
CQUADX4,4078,1,4148,4207,4208,4149
CQUADX4,4079,1,4149,4208,4209,4150
CQUADX4,4080,1,4150,4209,4210,4151
CQUADX4,4081,1,4151,4210,4211,4152
CQUADX4,4082,1,4152,4211,4212,4153
CQUADX4,4083,1,4153,4212,4213,4154
CQUADX4,4084,1,4154,4213,4214,4155
CQUADX4,4085,1,4155,4214,4215,4156
CQUADX4,4086,1,4156,4215,4216,4157
CQUADX4,4087,1,4157,4216,4217,4158
CQUADX4,4088,1,4158,4217,4218,4159
CQUADX4,4089,1,4159,4218,4219,4160
CQUADX4,4090,1,4160,4219,4220,4161
CQUADX4,4091,1,4161,4220,4221,4162
CQUADX4,4092,1,4162,4221,4222,4163
CQUADX4,4093,1,4163,4222,4223,4164
CQUADX4,4094,1,4164,4223,4224,4165
CQUADX4,4095,1,4165,4224,4225,4166
CQUADX4,4096,1,4166,4225,4226,4167
CQUADX4,4097,1,4167,4226,4227,4168
CQUADX4,4098,1,4168,4227,4228,4169
CQUADX4,4099,1,4169,4228,4229,4170
CQUADX4,4100,1,4170,4229,4230,4171
CQUADX4,4101,1,4171,4230,4231,4172
CQUADX4,4102,1,4172,4231,4232,4173
CQUADX4,4103,1,4173,4232,4233,4174
CQUADX4,4104,1,4174,4233,4234,4175
CQUADX4,4105,1,4175,4234,4235,4176
CQUADX4,4106,1,4176,4235,4236,4177
CQUADX4,4107,1,4177,4236,4237,4178
CQUADX4,4108,1,4178,4237,4238,4179
CQUADX4,4109,1,4179,4238,4239,4180
CQUADX4,4110,1,4180,4239,4240,4181
CQUADX4,4111,1,4181,4240,4241,4182
CQUADX4,4112,1,4182,4241,4242,4183
CQUADX4,4113,1,4183,4242,4243,4184
CQUADX4,4114,1,4184,4243,4244,4185
CQUADX4,4115,1,4185,4244,4245,4186
CQUADX4,4116,1,4186,4245,4246,4187
CQUADX4,4117,1,4187,4246,4247,4188
CQUADX4,4118,1,4188,4247,4248,4189
CQUADX4,4119,1,4190,4249,4250,4191
CQUADX4,4120,1,4191,4250,4251,4192
CQUADX4,4121,1,4192,4251,4252,4193
CQUADX4,4122,1,4193,4252,4253,4194
CQUADX4,4123,1,4194,4253,4254,4195
CQUADX4,4124,1,4195,4254,4255,4196
CQUADX4,4125,1,4196,4255,4256,4197
CQUADX4,4126,1,4197,4256,4257,4198
CQUADX4,4127,1,4198,4257,4258,4199
CQUADX4,4128,1,4199,4258,4259,4200
CQUADX4,4129,1,4200,4259,4260,4201
CQUADX4,4130,1,4201,4260,4261,4202
CQUADX4,4131,1,4202,4261,4262,4203
CQUADX4,4132,1,4203,4262,4263,4204
CQUADX4,4133,1,4204,4263,4264,4205
CQUADX4,4134,1,4205,4264,4265,4206
CQUADX4,4135,1,4206,4265,4266,4207
CQUADX4,4136,1,4207,4266,4267,4208
CQUADX4,4137,1,4208,4267,4268,4209
CQUADX4,4138,1,4209,4268,4269,4210
CQUADX4,4139,1,4210,4269,4270,4211
CQUADX4,4140,1,4211,4270,4271,4212
CQUADX4,4141,1,4212,4271,4272,4213
CQUADX4,4142,1,4213,4272,4273,4214
CQUADX4,4143,1,4214,4273,4274,4215
CQUADX4,4144,1,4215,4274,4275,4216
CQUADX4,4145,1,4216,4275,4276,4217
CQUADX4,4146,1,4217,4276,4277,4218
CQUADX4,4147,1,4218,4277,4278,4219
CQUADX4,4148,1,4219,4278,4279,4220
CQUADX4,4149,1,4220,4279,4280,4221
CQUADX4,4150,1,4221,4280,4281,4222
CQUADX4,4151,1,4222,4281,4282,4223
CQUADX4,4152,1,4223,4282,4283,4224
CQUADX4,4153,1,4224,4283,4284,4225
CQUADX4,4154,1,4225,4284,4285,4226
CQUADX4,4155,1,4226,4285,4286,4227
CQUADX4,4156,1,4227,4286,4287,4228
CQUADX4,4157,1,4228,4287,4288,4229
CQUADX4,4158,1,4229,4288,4289,4230
CQUADX4,4159,1,4230,4289,4290,4231
CQUADX4,4160,1,4231,4290,4291,4232
CQUADX4,4161,1,4232,4291,4292,4233
CQUADX4,4162,1,4233,4292,4293,4234
CQUADX4,4163,1,4234,4293,4294,4235
CQUADX4,4164,1,4235,4294,4295,4236
CQUADX4,4165,1,4236,4295,4296,4237
CQUADX4,4166,1,4237,4296,4297,4238
CQUADX4,4167,1,4238,4297,4298,4239
CQUADX4,4168,1,4239,4298,4299,4240
CQUADX4,4169,1,4240,4299,4300,4241
CQUADX4,4170,1,4241,4300,4301,4242
CQUADX4,4171,1,4242,4301,4302,4243
CQUADX4,4172,1,4243,4302,4303,4244
CQUADX4,4173,1,4244,4303,4304,4245
CQUADX4,4174,1,4245,4304,4305,4246
CQUADX4,4175,1,4246,4305,4306,4247
CQUADX4,4176,1,4247,4306,4307,4248
CQUADX4,4177,1,4249,4308,4309,4250
CQUADX4,4178,1,4250,4309,4310,4251
CQUADX4,4179,1,4251,4310,4311,4252
CQUADX4,4180,1,4252,4311,4312,4253
CQUADX4,4181,1,4253,4312,4313,4254
CQUADX4,4182,1,4254,4313,4314,4255
CQUADX4,4183,1,4255,4314,4315,4256
CQUADX4,4184,1,4256,4315,4316,4257
CQUADX4,4185,1,4257,4316,4317,4258
CQUADX4,4186,1,4258,4317,4318,4259
CQUADX4,4187,1,4259,4318,4319,4260
CQUADX4,4188,1,4260,4319,4320,4261
CQUADX4,4189,1,4261,4320,4321,4262
CQUADX4,4190,1,4262,4321,4322,4263
CQUADX4,4191,1,4263,4322,4323,4264
CQUADX4,4192,1,4264,4323,4324,4265
CQUADX4,4193,1,4265,4324,4325,4266
CQUADX4,4194,1,4266,4325,4326,4267
CQUADX4,4195,1,4267,4326,4327,4268
CQUADX4,4196,1,4268,4327,4328,4269
CQUADX4,4197,1,4269,4328,4329,4270
CQUADX4,4198,1,4270,4329,4330,4271
CQUADX4,4199,1,4271,4330,4331,4272
CQUADX4,4200,1,4272,4331,4332,4273
CQUADX4,4201,1,4273,4332,4333,4274
CQUADX4,4202,1,4274,4333,4334,4275
CQUADX4,4203,1,4275,4334,4335,4276
CQUADX4,4204,1,4276,4335,4336,4277
CQUADX4,4205,1,4277,4336,4337,4278
CQUADX4,4206,1,4278,4337,4338,4279
CQUADX4,4207,1,4279,4338,4339,4280
CQUADX4,4208,1,4280,4339,4340,4281
CQUADX4,4209,1,4281,4340,4341,4282
CQUADX4,4210,1,4282,4341,4342,4283
CQUADX4,4211,1,4283,4342,4343,4284
CQUADX4,4212,1,4284,4343,4344,4285
CQUADX4,4213,1,4285,4344,4345,4286
CQUADX4,4214,1,4286,4345,4346,4287
CQUADX4,4215,1,4287,4346,4347,4288
CQUADX4,4216,1,4288,4347,4348,4289
CQUADX4,4217,1,4289,4348,4349,4290
CQUADX4,4218,1,4290,4349,4350,4291
CQUADX4,4219,1,4291,4350,4351,4292
CQUADX4,4220,1,4292,4351,4352,4293
CQUADX4,4221,1,4293,4352,4353,4294
CQUADX4,4222,1,4294,4353,4354,4295
CQUADX4,4223,1,4295,4354,4355,4296
CQUADX4,4224,1,4296,4355,4356,4297
CQUADX4,4225,1,4297,4356,4357,4298
CQUADX4,4226,1,4298,4357,4358,4299
CQUADX4,4227,1,4299,4358,4359,4300
CQUADX4,4228,1,4300,4359,4360,4301
CQUADX4,4229,1,4301,4360,4361,4302
CQUADX4,4230,1,4302,4361,4362,4303
CQUADX4,4231,1,4303,4362,4363,4304
CQUADX4,4232,1,4304,4363,4364,4305
CQUADX4,4233,1,4305,4364,4365,4306
CQUADX4,4234,1,4306,4365,4366,4307
CQUADX4,4235,1,4308,4367,4368,4309
CQUADX4,4236,1,4309,4368,4369,4310
CQUADX4,4237,1,4310,4369,4370,4311
CQUADX4,4238,1,4311,4370,4371,4312
CQUADX4,4239,1,4312,4371,4372,4313
CQUADX4,4240,1,4313,4372,4373,4314
CQUADX4,4241,1,4314,4373,4374,4315
CQUADX4,4242,1,4315,4374,4375,4316
CQUADX4,4243,1,4316,4375,4376,4317
CQUADX4,4244,1,4317,4376,4377,4318
CQUADX4,4245,1,4318,4377,4378,4319
CQUADX4,4246,1,4319,4378,4379,4320
CQUADX4,4247,1,4320,4379,4380,4321
CQUADX4,4248,1,4321,4380,4381,4322
CQUADX4,4249,1,4322,4381,4382,4323
CQUADX4,4250,1,4323,4382,4383,4324
CQUADX4,4251,1,4324,4383,4384,4325
CQUADX4,4252,1,4325,4384,4385,4326
CQUADX4,4253,1,4326,4385,4386,4327
CQUADX4,4254,1,4327,4386,4387,4328
CQUADX4,4255,1,4328,4387,4388,4329
CQUADX4,4256,1,4329,4388,4389,4330
CQUADX4,4257,1,4330,4389,4390,4331
CQUADX4,4258,1,4331,4390,4391,4332
CQUADX4,4259,1,4332,4391,4392,4333
CQUADX4,4260,1,4333,4392,4393,4334
CQUADX4,4261,1,4334,4393,4394,4335
CQUADX4,4262,1,4335,4394,4395,4336
CQUADX4,4263,1,4336,4395,4396,4337
CQUADX4,4264,1,4337,4396,4397,4338
CQUADX4,4265,1,4338,4397,4398,4339
CQUADX4,4266,1,4339,4398,4399,4340
CQUADX4,4267,1,4340,4399,4400,4341
CQUADX4,4268,1,4341,4400,4401,4342
CQUADX4,4269,1,4342,4401,4402,4343
CQUADX4,4270,1,4343,4402,4403,4344
CQUADX4,4271,1,4344,4403,4404,4345
CQUADX4,4272,1,4345,4404,4405,4346
CQUADX4,4273,1,4346,4405,4406,4347
CQUADX4,4274,1,4347,4406,4407,4348
CQUADX4,4275,1,4348,4407,4408,4349
CQUADX4,4276,1,4349,4408,4409,4350
CQUADX4,4277,1,4350,4409,4410,4351
CQUADX4,4278,1,4351,4410,4411,4352
CQUADX4,4279,1,4352,4411,4412,4353
CQUADX4,4280,1,4353,4412,4413,4354
CQUADX4,4281,1,4354,4413,4414,4355
CQUADX4,4282,1,4355,4414,4415,4356
CQUADX4,4283,1,4356,4415,4416,4357
CQUADX4,4284,1,4357,4416,4417,4358
CQUADX4,4285,1,4358,4417,4418,4359
CQUADX4,4286,1,4359,4418,4419,4360
CQUADX4,4287,1,4360,4419,4420,4361
CQUADX4,4288,1,4361,4420,4421,4362
CQUADX4,4289,1,4362,4421,4422,4363
CQUADX4,4290,1,4363,4422,4423,4364
CQUADX4,4291,1,4364,4423,4424,4365
CQUADX4,4292,1,4365,4424,4425,4366
CQUADX4,4293,1,4367,4426,4427,4368
CQUADX4,4294,1,4368,4427,4428,4369
CQUADX4,4295,1,4369,4428,4429,4370
CQUADX4,4296,1,4370,4429,4430,4371
CQUADX4,4297,1,4371,4430,4431,4372
CQUADX4,4298,1,4372,4431,4432,4373
CQUADX4,4299,1,4373,4432,4433,4374
CQUADX4,4300,1,4374,4433,4434,4375
CQUADX4,4301,1,4375,4434,4435,4376
CQUADX4,4302,1,4376,4435,4436,4377
CQUADX4,4303,1,4377,4436,4437,4378
CQUADX4,4304,1,4378,4437,4438,4379
CQUADX4,4305,1,4379,4438,4439,4380
CQUADX4,4306,1,4380,4439,4440,4381
CQUADX4,4307,1,4381,4440,4441,4382
CQUADX4,4308,1,4382,4441,4442,4383
CQUADX4,4309,1,4383,4442,4443,4384
CQUADX4,4310,1,4384,4443,4444,4385
CQUADX4,4311,1,4385,4444,4445,4386
CQUADX4,4312,1,4386,4445,4446,4387
CQUADX4,4313,1,4387,4446,4447,4388
CQUADX4,4314,1,4388,4447,4448,4389
CQUADX4,4315,1,4389,4448,4449,4390
CQUADX4,4316,1,4390,4449,4450,4391
CQUADX4,4317,1,4391,4450,4451,4392
CQUADX4,4318,1,4392,4451,4452,4393
CQUADX4,4319,1,4393,4452,4453,4394
CQUADX4,4320,1,4394,4453,4454,4395
CQUADX4,4321,1,4395,4454,4455,4396
CQUADX4,4322,1,4396,4455,4456,4397
CQUADX4,4323,1,4397,4456,4457,4398
CQUADX4,4324,1,4398,4457,4458,4399
CQUADX4,4325,1,4399,4458,4459,4400
CQUADX4,4326,1,4400,4459,4460,4401
CQUADX4,4327,1,4401,4460,4461,4402
CQUADX4,4328,1,4402,4461,4462,4403
CQUADX4,4329,1,4403,4462,4463,4404
CQUADX4,4330,1,4404,4463,4464,4405
CQUADX4,4331,1,4405,4464,4465,4406
CQUADX4,4332,1,4406,4465,4466,4407
CQUADX4,4333,1,4407,4466,4467,4408
CQUADX4,4334,1,4408,4467,4468,4409
CQUADX4,4335,1,4409,4468,4469,4410
CQUADX4,4336,1,4410,4469,4470,4411
CQUADX4,4337,1,4411,4470,4471,4412
CQUADX4,4338,1,4412,4471,4472,4413
CQUADX4,4339,1,4413,4472,4473,4414
CQUADX4,4340,1,4414,4473,4474,4415
CQUADX4,4341,1,4415,4474,4475,4416
CQUADX4,4342,1,4416,4475,4476,4417
CQUADX4,4343,1,4417,4476,4477,4418
CQUADX4,4344,1,4418,4477,4478,4419
CQUADX4,4345,1,4419,4478,4479,4420
CQUADX4,4346,1,4420,4479,4480,4421
CQUADX4,4347,1,4421,4480,4481,4422
CQUADX4,4348,1,4422,4481,4482,4423
CQUADX4,4349,1,4423,4482,4483,4424
CQUADX4,4350,1,4424,4483,4484,4425
CQUADX4,4351,1,4426,4485,4486,4427
CQUADX4,4352,1,4427,4486,4487,4428
CQUADX4,4353,1,4428,4487,4488,4429
CQUADX4,4354,1,4429,4488,4489,4430
CQUADX4,4355,1,4430,4489,4490,4431
CQUADX4,4356,1,4431,4490,4491,4432
CQUADX4,4357,1,4432,4491,4492,4433
CQUADX4,4358,1,4433,4492,4493,4434
CQUADX4,4359,1,4434,4493,4494,4435
CQUADX4,4360,1,4435,4494,4495,4436
CQUADX4,4361,1,4436,4495,4496,4437
CQUADX4,4362,1,4437,4496,4497,4438
CQUADX4,4363,1,4438,4497,4498,4439
CQUADX4,4364,1,4439,4498,4499,4440
CQUADX4,4365,1,4440,4499,4500,4441
CQUADX4,4366,1,4441,4500,4501,4442
CQUADX4,4367,1,4442,4501,4502,4443
CQUADX4,4368,1,4443,4502,4503,4444
CQUADX4,4369,1,4444,4503,4504,4445
CQUADX4,4370,1,4445,4504,4505,4446
CQUADX4,4371,1,4446,4505,4506,4447
CQUADX4,4372,1,4447,4506,4507,4448
CQUADX4,4373,1,4448,4507,4508,4449
CQUADX4,4374,1,4449,4508,4509,4450
CQUADX4,4375,1,4450,4509,4510,4451
CQUADX4,4376,1,4451,4510,4511,4452
CQUADX4,4377,1,4452,4511,4512,4453
CQUADX4,4378,1,4453,4512,4513,4454
CQUADX4,4379,1,4454,4513,4514,4455
CQUADX4,4380,1,4455,4514,4515,4456
CQUADX4,4381,1,4456,4515,4516,4457
CQUADX4,4382,1,4457,4516,4517,4458
CQUADX4,4383,1,4458,4517,4518,4459
CQUADX4,4384,1,4459,4518,4519,4460
CQUADX4,4385,1,4460,4519,4520,4461
CQUADX4,4386,1,4461,4520,4521,4462
CQUADX4,4387,1,4462,4521,4522,4463
CQUADX4,4388,1,4463,4522,4523,4464
CQUADX4,4389,1,4464,4523,4524,4465
CQUADX4,4390,1,4465,4524,4525,4466
CQUADX4,4391,1,4466,4525,4526,4467
CQUADX4,4392,1,4467,4526,4527,4468
CQUADX4,4393,1,4468,4527,4528,4469
CQUADX4,4394,1,4469,4528,4529,4470
CQUADX4,4395,1,4470,4529,4530,4471
CQUADX4,4396,1,4471,4530,4531,4472
CQUADX4,4397,1,4472,4531,4532,4473
CQUADX4,4398,1,4473,4532,4533,4474
CQUADX4,4399,1,4474,4533,4534,4475
CQUADX4,4400,1,4475,4534,4535,4476
CQUADX4,4401,1,4476,4535,4536,4477
CQUADX4,4402,1,4477,4536,4537,4478
CQUADX4,4403,1,4478,4537,4538,4479
CQUADX4,4404,1,4479,4538,4539,4480
CQUADX4,4405,1,4480,4539,4540,4481
CQUADX4,4406,1,4481,4540,4541,4482
CQUADX4,4407,1,4482,4541,4542,4483
CQUADX4,4408,1,4483,4542,4543,4484
CQUADX4,4409,1,4485,4544,4545,4486
CQUADX4,4410,1,4486,4545,4546,4487
CQUADX4,4411,1,4487,4546,4547,4488
CQUADX4,4412,1,4488,4547,4548,4489
CQUADX4,4413,1,4489,4548,4549,4490
CQUADX4,4414,1,4490,4549,4550,4491
CQUADX4,4415,1,4491,4550,4551,4492
CQUADX4,4416,1,4492,4551,4552,4493
CQUADX4,4417,1,4493,4552,4553,4494
CQUADX4,4418,1,4494,4553,4554,4495
CQUADX4,4419,1,4495,4554,4555,4496
CQUADX4,4420,1,4496,4555,4556,4497
CQUADX4,4421,1,4497,4556,4557,4498
CQUADX4,4422,1,4498,4557,4558,4499
CQUADX4,4423,1,4499,4558,4559,4500
CQUADX4,4424,1,4500,4559,4560,4501
CQUADX4,4425,1,4501,4560,4561,4502
CQUADX4,4426,1,4502,4561,4562,4503
CQUADX4,4427,1,4503,4562,4563,4504
CQUADX4,4428,1,4504,4563,4564,4505
CQUADX4,4429,1,4505,4564,4565,4506
CQUADX4,4430,1,4506,4565,4566,4507
CQUADX4,4431,1,4507,4566,4567,4508
CQUADX4,4432,1,4508,4567,4568,4509
CQUADX4,4433,1,4509,4568,4569,4510
CQUADX4,4434,1,4510,4569,4570,4511
CQUADX4,4435,1,4511,4570,4571,4512
CQUADX4,4436,1,4512,4571,4572,4513
CQUADX4,4437,1,4513,4572,4573,4514
CQUADX4,4438,1,4514,4573,4574,4515
CQUADX4,4439,1,4515,4574,4575,4516
CQUADX4,4440,1,4516,4575,4576,4517
CQUADX4,4441,1,4517,4576,4577,4518
CQUADX4,4442,1,4518,4577,4578,4519
CQUADX4,4443,1,4519,4578,4579,4520
CQUADX4,4444,1,4520,4579,4580,4521
CQUADX4,4445,1,4521,4580,4581,4522
CQUADX4,4446,1,4522,4581,4582,4523
CQUADX4,4447,1,4523,4582,4583,4524
CQUADX4,4448,1,4524,4583,4584,4525
CQUADX4,4449,1,4525,4584,4585,4526
CQUADX4,4450,1,4526,4585,4586,4527
CQUADX4,4451,1,4527,4586,4587,4528
CQUADX4,4452,1,4528,4587,4588,4529
CQUADX4,4453,1,4529,4588,4589,4530
CQUADX4,4454,1,4530,4589,4590,4531
CQUADX4,4455,1,4531,4590,4591,4532
CQUADX4,4456,1,4532,4591,4592,4533
CQUADX4,4457,1,4533,4592,4593,4534
CQUADX4,4458,1,4534,4593,4594,4535
CQUADX4,4459,1,4535,4594,4595,4536
CQUADX4,4460,1,4536,4595,4596,4537
CQUADX4,4461,1,4537,4596,4597,4538
CQUADX4,4462,1,4538,4597,4598,4539
CQUADX4,4463,1,4539,4598,4599,4540
CQUADX4,4464,1,4540,4599,4600,4541
CQUADX4,4465,1,4541,4600,4601,4542
CQUADX4,4466,1,4542,4601,4602,4543
CQUADX4,4467,1,4544,4603,4604,4545
CQUADX4,4468,1,4545,4604,4605,4546
CQUADX4,4469,1,4546,4605,4606,4547
CQUADX4,4470,1,4547,4606,4607,4548
CQUADX4,4471,1,4548,4607,4608,4549
CQUADX4,4472,1,4549,4608,4609,4550
CQUADX4,4473,1,4550,4609,4610,4551
CQUADX4,4474,1,4551,4610,4611,4552
CQUADX4,4475,1,4552,4611,4612,4553
CQUADX4,4476,1,4553,4612,4613,4554
CQUADX4,4477,1,4554,4613,4614,4555
CQUADX4,4478,1,4555,4614,4615,4556
CQUADX4,4479,1,4556,4615,4616,4557
CQUADX4,4480,1,4557,4616,4617,4558
CQUADX4,4481,1,4558,4617,4618,4559
CQUADX4,4482,1,4559,4618,4619,4560
CQUADX4,4483,1,4560,4619,4620,4561
CQUADX4,4484,1,4561,4620,4621,4562
CQUADX4,4485,1,4562,4621,4622,4563
CQUADX4,4486,1,4563,4622,4623,4564
CQUADX4,4487,1,4564,4623,4624,4565
CQUADX4,4488,1,4565,4624,4625,4566
CQUADX4,4489,1,4566,4625,4626,4567
CQUADX4,4490,1,4567,4626,4627,4568
CQUADX4,4491,1,4568,4627,4628,4569
CQUADX4,4492,1,4569,4628,4629,4570
CQUADX4,4493,1,4570,4629,4630,4571
CQUADX4,4494,1,4571,4630,4631,4572
CQUADX4,4495,1,4572,4631,4632,4573
CQUADX4,4496,1,4573,4632,4633,4574
CQUADX4,4497,1,4574,4633,4634,4575
CQUADX4,4498,1,4575,4634,4635,4576
CQUADX4,4499,1,4576,4635,4636,4577
CQUADX4,4500,1,4577,4636,4637,4578
CQUADX4,4501,1,4578,4637,4638,4579
CQUADX4,4502,1,4579,4638,4639,4580
CQUADX4,4503,1,4580,4639,4640,4581
CQUADX4,4504,1,4581,4640,4641,4582
CQUADX4,4505,1,4582,4641,4642,4583
CQUADX4,4506,1,4583,4642,4643,4584
CQUADX4,4507,1,4584,4643,4644,4585
CQUADX4,4508,1,4585,4644,4645,4586
CQUADX4,4509,1,4586,4645,4646,4587
CQUADX4,4510,1,4587,4646,4647,4588
CQUADX4,4511,1,4588,4647,4648,4589
CQUADX4,4512,1,4589,4648,4649,4590
CQUADX4,4513,1,4590,4649,4650,4591
CQUADX4,4514,1,4591,4650,4651,4592
CQUADX4,4515,1,4592,4651,4652,4593
CQUADX4,4516,1,4593,4652,4653,4594
CQUADX4,4517,1,4594,4653,4654,4595
CQUADX4,4518,1,4595,4654,4655,4596
CQUADX4,4519,1,4596,4655,4656,4597
CQUADX4,4520,1,4597,4656,4657,4598
CQUADX4,4521,1,4598,4657,4658,4599
CQUADX4,4522,1,4599,4658,4659,4600
CQUADX4,4523,1,4600,4659,4660,4601
CQUADX4,4524,1,4601,4660,4661,4602
CQUADX4,4525,1,4603,4662,4663,4604
CQUADX4,4526,1,4604,4663,4664,4605
CQUADX4,4527,1,4605,4664,4665,4606
CQUADX4,4528,1,4606,4665,4666,4607
CQUADX4,4529,1,4607,4666,4667,4608
CQUADX4,4530,1,4608,4667,4668,4609
CQUADX4,4531,1,4609,4668,4669,4610
CQUADX4,4532,1,4610,4669,4670,4611
CQUADX4,4533,1,4611,4670,4671,4612
CQUADX4,4534,1,4612,4671,4672,4613
CQUADX4,4535,1,4613,4672,4673,4614
CQUADX4,4536,1,4614,4673,4674,4615
CQUADX4,4537,1,4615,4674,4675,4616
CQUADX4,4538,1,4616,4675,4676,4617
CQUADX4,4539,1,4617,4676,4677,4618
CQUADX4,4540,1,4618,4677,4678,4619
CQUADX4,4541,1,4619,4678,4679,4620
CQUADX4,4542,1,4620,4679,4680,4621
CQUADX4,4543,1,4621,4680,4681,4622
CQUADX4,4544,1,4622,4681,4682,4623
CQUADX4,4545,1,4623,4682,4683,4624
CQUADX4,4546,1,4624,4683,4684,4625
CQUADX4,4547,1,4625,4684,4685,4626
CQUADX4,4548,1,4626,4685,4686,4627
CQUADX4,4549,1,4627,4686,4687,4628
CQUADX4,4550,1,4628,4687,4688,4629
CQUADX4,4551,1,4629,4688,4689,4630
CQUADX4,4552,1,4630,4689,4690,4631
CQUADX4,4553,1,4631,4690,4691,4632
CQUADX4,4554,1,4632,4691,4692,4633
CQUADX4,4555,1,4633,4692,4693,4634
CQUADX4,4556,1,4634,4693,4694,4635
CQUADX4,4557,1,4635,4694,4695,4636
CQUADX4,4558,1,4636,4695,4696,4637
CQUADX4,4559,1,4637,4696,4697,4638
CQUADX4,4560,1,4638,4697,4698,4639
CQUADX4,4561,1,4639,4698,4699,4640
CQUADX4,4562,1,4640,4699,4700,4641
CQUADX4,4563,1,4641,4700,4701,4642
CQUADX4,4564,1,4642,4701,4702,4643
CQUADX4,4565,1,4643,4702,4703,4644
CQUADX4,4566,1,4644,4703,4704,4645
CQUADX4,4567,1,4645,4704,4705,4646
CQUADX4,4568,1,4646,4705,4706,4647
CQUADX4,4569,1,4647,4706,4707,4648
CQUADX4,4570,1,4648,4707,4708,4649
CQUADX4,4571,1,4649,4708,4709,4650
CQUADX4,4572,1,4650,4709,4710,4651
CQUADX4,4573,1,4651,4710,4711,4652
CQUADX4,4574,1,4652,4711,4712,4653
CQUADX4,4575,1,4653,4712,4713,4654
CQUADX4,4576,1,4654,4713,4714,4655
CQUADX4,4577,1,4655,4714,4715,4656
CQUADX4,4578,1,4656,4715,4716,4657
CQUADX4,4579,1,4657,4716,4717,4658
CQUADX4,4580,1,4658,4717,4718,4659
CQUADX4,4581,1,4659,4718,4719,4660
CQUADX4,4582,1,4660,4719,4720,4661
CQUADX4,4583,1,4662,4721,4722,4663
CQUADX4,4584,1,4663,4722,4723,4664
CQUADX4,4585,1,4664,4723,4724,4665
CQUADX4,4586,1,4665,4724,4725,4666
CQUADX4,4587,1,4666,4725,4726,4667
CQUADX4,4588,1,4667,4726,4727,4668
CQUADX4,4589,1,4668,4727,4728,4669
CQUADX4,4590,1,4669,4728,4729,4670
CQUADX4,4591,1,4670,4729,4730,4671
CQUADX4,4592,1,4671,4730,4731,4672
CQUADX4,4593,1,4672,4731,4732,4673
CQUADX4,4594,1,4673,4732,4733,4674
CQUADX4,4595,1,4674,4733,4734,4675
CQUADX4,4596,1,4675,4734,4735,4676
CQUADX4,4597,1,4676,4735,4736,4677
CQUADX4,4598,1,4677,4736,4737,4678
CQUADX4,4599,1,4678,4737,4738,4679
CQUADX4,4600,1,4679,4738,4739,4680
CQUADX4,4601,1,4680,4739,4740,4681
CQUADX4,4602,1,4681,4740,4741,4682
CQUADX4,4603,1,4682,4741,4742,4683
CQUADX4,4604,1,4683,4742,4743,4684
CQUADX4,4605,1,4684,4743,4744,4685
CQUADX4,4606,1,4685,4744,4745,4686
CQUADX4,4607,1,4686,4745,4746,4687
CQUADX4,4608,1,4687,4746,4747,4688
CQUADX4,4609,1,4688,4747,4748,4689
CQUADX4,4610,1,4689,4748,4749,4690
CQUADX4,4611,1,4690,4749,4750,4691
CQUADX4,4612,1,4691,4750,4751,4692
CQUADX4,4613,1,4692,4751,4752,4693
CQUADX4,4614,1,4693,4752,4753,4694
CQUADX4,4615,1,4694,4753,4754,4695
CQUADX4,4616,1,4695,4754,4755,4696
CQUADX4,4617,1,4696,4755,4756,4697
CQUADX4,4618,1,4697,4756,4757,4698
CQUADX4,4619,1,4698,4757,4758,4699
CQUADX4,4620,1,4699,4758,4759,4700
CQUADX4,4621,1,4700,4759,4760,4701
CQUADX4,4622,1,4701,4760,4761,4702
CQUADX4,4623,1,4702,4761,4762,4703
CQUADX4,4624,1,4703,4762,4763,4704
CQUADX4,4625,1,4704,4763,4764,4705
CQUADX4,4626,1,4705,4764,4765,4706
CQUADX4,4627,1,4706,4765,4766,4707
CQUADX4,4628,1,4707,4766,4767,4708
CQUADX4,4629,1,4708,4767,4768,4709
CQUADX4,4630,1,4709,4768,4769,4710
CQUADX4,4631,1,4710,4769,4770,4711
CQUADX4,4632,1,4711,4770,4771,4712
CQUADX4,4633,1,4712,4771,4772,4713
CQUADX4,4634,1,4713,4772,4773,4714
CQUADX4,4635,1,4714,4773,4774,4715
CQUADX4,4636,1,4715,4774,4775,4716
CQUADX4,4637,1,4716,4775,4776,4717
CQUADX4,4638,1,4717,4776,4777,4718
CQUADX4,4639,1,4718,4777,4778,4719
CQUADX4,4640,1,4719,4778,4779,4720
CQUADX4,4641,1,4721,4780,4781,4722
CQUADX4,4642,1,4722,4781,4782,4723
CQUADX4,4643,1,4723,4782,4783,4724
CQUADX4,4644,1,4724,4783,4784,4725
CQUADX4,4645,1,4725,4784,4785,4726
CQUADX4,4646,1,4726,4785,4786,4727
CQUADX4,4647,1,4727,4786,4787,4728
CQUADX4,4648,1,4728,4787,4788,4729
CQUADX4,4649,1,4729,4788,4789,4730
CQUADX4,4650,1,4730,4789,4790,4731
CQUADX4,4651,1,4731,4790,4791,4732
CQUADX4,4652,1,4732,4791,4792,4733
CQUADX4,4653,1,4733,4792,4793,4734
CQUADX4,4654,1,4734,4793,4794,4735
CQUADX4,4655,1,4735,4794,4795,4736
CQUADX4,4656,1,4736,4795,4796,4737
CQUADX4,4657,1,4737,4796,4797,4738
CQUADX4,4658,1,4738,4797,4798,4739
CQUADX4,4659,1,4739,4798,4799,4740
CQUADX4,4660,1,4740,4799,4800,4741
CQUADX4,4661,1,4741,4800,4801,4742
CQUADX4,4662,1,4742,4801,4802,4743
CQUADX4,4663,1,4743,4802,4803,4744
CQUADX4,4664,1,4744,4803,4804,4745
CQUADX4,4665,1,4745,4804,4805,4746
CQUADX4,4666,1,4746,4805,4806,4747
CQUADX4,4667,1,4747,4806,4807,4748
CQUADX4,4668,1,4748,4807,4808,4749
CQUADX4,4669,1,4749,4808,4809,4750
CQUADX4,4670,1,4750,4809,4810,4751
CQUADX4,4671,1,4751,4810,4811,4752
CQUADX4,4672,1,4752,4811,4812,4753
CQUADX4,4673,1,4753,4812,4813,4754
CQUADX4,4674,1,4754,4813,4814,4755
CQUADX4,4675,1,4755,4814,4815,4756
CQUADX4,4676,1,4756,4815,4816,4757
CQUADX4,4677,1,4757,4816,4817,4758
CQUADX4,4678,1,4758,4817,4818,4759
CQUADX4,4679,1,4759,4818,4819,4760
CQUADX4,4680,1,4760,4819,4820,4761
CQUADX4,4681,1,4761,4820,4821,4762
CQUADX4,4682,1,4762,4821,4822,4763
CQUADX4,4683,1,4763,4822,4823,4764
CQUADX4,4684,1,4764,4823,4824,4765
CQUADX4,4685,1,4765,4824,4825,4766
CQUADX4,4686,1,4766,4825,4826,4767
CQUADX4,4687,1,4767,4826,4827,4768
CQUADX4,4688,1,4768,4827,4828,4769
CQUADX4,4689,1,4769,4828,4829,4770
CQUADX4,4690,1,4770,4829,4830,4771
CQUADX4,4691,1,4771,4830,4831,4772
CQUADX4,4692,1,4772,4831,4832,4773
CQUADX4,4693,1,4773,4832,4833,4774
CQUADX4,4694,1,4774,4833,4834,4775
CQUADX4,4695,1,4775,4834,4835,4776
CQUADX4,4696,1,4776,4835,4836,4777
CQUADX4,4697,1,4777,4836,4837,4778
CQUADX4,4698,1,4778,4837,4838,4779
CQUADX4,4699,1,4780,4839,4840,4781
CQUADX4,4700,1,4781,4840,4841,4782
CQUADX4,4701,1,4782,4841,4842,4783
CQUADX4,4702,1,4783,4842,4843,4784
CQUADX4,4703,1,4784,4843,4844,4785
CQUADX4,4704,1,4785,4844,4845,4786
CQUADX4,4705,1,4786,4845,4846,4787
CQUADX4,4706,1,4787,4846,4847,4788
CQUADX4,4707,1,4788,4847,4848,4789
CQUADX4,4708,1,4789,4848,4849,4790
CQUADX4,4709,1,4790,4849,4850,4791
CQUADX4,4710,1,4791,4850,4851,4792
CQUADX4,4711,1,4792,4851,4852,4793
CQUADX4,4712,1,4793,4852,4853,4794
CQUADX4,4713,1,4794,4853,4854,4795
CQUADX4,4714,1,4795,4854,4855,4796
CQUADX4,4715,1,4796,4855,4856,4797
CQUADX4,4716,1,4797,4856,4857,4798
CQUADX4,4717,1,4798,4857,4858,4799
CQUADX4,4718,1,4799,4858,4859,4800
CQUADX4,4719,1,4800,4859,4860,4801
CQUADX4,4720,1,4801,4860,4861,4802
CQUADX4,4721,1,4802,4861,4862,4803
CQUADX4,4722,1,4803,4862,4863,4804
CQUADX4,4723,1,4804,4863,4864,4805
CQUADX4,4724,1,4805,4864,4865,4806
CQUADX4,4725,1,4806,4865,4866,4807
CQUADX4,4726,1,4807,4866,4867,4808
CQUADX4,4727,1,4808,4867,4868,4809
CQUADX4,4728,1,4809,4868,4869,4810
CQUADX4,4729,1,4810,4869,4870,4811
CQUADX4,4730,1,4811,4870,4871,4812
CQUADX4,4731,1,4812,4871,4872,4813
CQUADX4,4732,1,4813,4872,4873,4814
CQUADX4,4733,1,4814,4873,4874,4815
CQUADX4,4734,1,4815,4874,4875,4816
CQUADX4,4735,1,4816,4875,4876,4817
CQUADX4,4736,1,4817,4876,4877,4818
CQUADX4,4737,1,4818,4877,4878,4819
CQUADX4,4738,1,4819,4878,4879,4820
CQUADX4,4739,1,4820,4879,4880,4821
CQUADX4,4740,1,4821,4880,4881,4822
CQUADX4,4741,1,4822,4881,4882,4823
CQUADX4,4742,1,4823,4882,4883,4824
CQUADX4,4743,1,4824,4883,4884,4825
CQUADX4,4744,1,4825,4884,4885,4826
CQUADX4,4745,1,4826,4885,4886,4827
CQUADX4,4746,1,4827,4886,4887,4828
CQUADX4,4747,1,4828,4887,4888,4829
CQUADX4,4748,1,4829,4888,4889,4830
CQUADX4,4749,1,4830,4889,4890,4831
CQUADX4,4750,1,4831,4890,4891,4832
CQUADX4,4751,1,4832,4891,4892,4833
CQUADX4,4752,1,4833,4892,4893,4834
CQUADX4,4753,1,4834,4893,4894,4835
CQUADX4,4754,1,4835,4894,4895,4836
CQUADX4,4755,1,4836,4895,4896,4837
CQUADX4,4756,1,4837,4896,4897,4838
CQUADX4,4757,1,4839,4898,4899,4840
CQUADX4,4758,1,4840,4899,4900,4841
CQUADX4,4759,1,4841,4900,4901,4842
CQUADX4,4760,1,4842,4901,4902,4843
CQUADX4,4761,1,4843,4902,4903,4844
CQUADX4,4762,1,4844,4903,4904,4845
CQUADX4,4763,1,4845,4904,4905,4846
CQUADX4,4764,1,4846,4905,4906,4847
CQUADX4,4765,1,4847,4906,4907,4848
CQUADX4,4766,1,4848,4907,4908,4849
CQUADX4,4767,1,4849,4908,4909,4850
CQUADX4,4768,1,4850,4909,4910,4851
CQUADX4,4769,1,4851,4910,4911,4852
CQUADX4,4770,1,4852,4911,4912,4853
CQUADX4,4771,1,4853,4912,4913,4854
CQUADX4,4772,1,4854,4913,4914,4855
CQUADX4,4773,1,4855,4914,4915,4856
CQUADX4,4774,1,4856,4915,4916,4857
CQUADX4,4775,1,4857,4916,4917,4858
CQUADX4,4776,1,4858,4917,4918,4859
CQUADX4,4777,1,4859,4918,4919,4860
CQUADX4,4778,1,4860,4919,4920,4861
CQUADX4,4779,1,4861,4920,4921,4862
CQUADX4,4780,1,4862,4921,4922,4863
CQUADX4,4781,1,4863,4922,4923,4864
CQUADX4,4782,1,4864,4923,4924,4865
CQUADX4,4783,1,4865,4924,4925,4866
CQUADX4,4784,1,4866,4925,4926,4867
CQUADX4,4785,1,4867,4926,4927,4868
CQUADX4,4786,1,4868,4927,4928,4869
CQUADX4,4787,1,4869,4928,4929,4870
CQUADX4,4788,1,4870,4929,4930,4871
CQUADX4,4789,1,4871,4930,4931,4872
CQUADX4,4790,1,4872,4931,4932,4873
CQUADX4,4791,1,4873,4932,4933,4874
CQUADX4,4792,1,4874,4933,4934,4875
CQUADX4,4793,1,4875,4934,4935,4876
CQUADX4,4794,1,4876,4935,4936,4877
CQUADX4,4795,1,4877,4936,4937,4878
CQUADX4,4796,1,4878,4937,4938,4879
CQUADX4,4797,1,4879,4938,4939,4880
CQUADX4,4798,1,4880,4939,4940,4881
CQUADX4,4799,1,4881,4940,4941,4882
CQUADX4,4800,1,4882,4941,4942,4883
CQUADX4,4801,1,4883,4942,4943,4884
CQUADX4,4802,1,4884,4943,4944,4885
CQUADX4,4803,1,4885,4944,4945,4886
CQUADX4,4804,1,4886,4945,4946,4887
CQUADX4,4805,1,4887,4946,4947,4888
CQUADX4,4806,1,4888,4947,4948,4889
CQUADX4,4807,1,4889,4948,4949,4890
CQUADX4,4808,1,4890,4949,4950,4891
CQUADX4,4809,1,4891,4950,4951,4892
CQUADX4,4810,1,4892,4951,4952,4893
CQUADX4,4811,1,4893,4952,4953,4894
CQUADX4,4812,1,4894,4953,4954,4895
CQUADX4,4813,1,4895,4954,4955,4896
CQUADX4,4814,1,4896,4955,4956,4897
CQUADX4,4815,1,4898,4957,4958,4899
CQUADX4,4816,1,4899,4958,4959,4900
CQUADX4,4817,1,4900,4959,4960,4901
CQUADX4,4818,1,4901,4960,4961,4902
CQUADX4,4819,1,4902,4961,4962,4903
CQUADX4,4820,1,4903,4962,4963,4904
CQUADX4,4821,1,4904,4963,4964,4905
CQUADX4,4822,1,4905,4964,4965,4906
CQUADX4,4823,1,4906,4965,4966,4907
CQUADX4,4824,1,4907,4966,4967,4908
CQUADX4,4825,1,4908,4967,4968,4909
CQUADX4,4826,1,4909,4968,4969,4910
CQUADX4,4827,1,4910,4969,4970,4911
CQUADX4,4828,1,4911,4970,4971,4912
CQUADX4,4829,1,4912,4971,4972,4913
CQUADX4,4830,1,4913,4972,4973,4914
CQUADX4,4831,1,4914,4973,4974,4915
CQUADX4,4832,1,4915,4974,4975,4916
CQUADX4,4833,1,4916,4975,4976,4917
CQUADX4,4834,1,4917,4976,4977,4918
CQUADX4,4835,1,4918,4977,4978,4919
CQUADX4,4836,1,4919,4978,4979,4920
CQUADX4,4837,1,4920,4979,4980,4921
CQUADX4,4838,1,4921,4980,4981,4922
CQUADX4,4839,1,4922,4981,4982,4923
CQUADX4,4840,1,4923,4982,4983,4924
CQUADX4,4841,1,4924,4983,4984,4925
CQUADX4,4842,1,4925,4984,4985,4926
CQUADX4,4843,1,4926,4985,4986,4927
CQUADX4,4844,1,4927,4986,4987,4928
CQUADX4,4845,1,4928,4987,4988,4929
CQUADX4,4846,1,4929,4988,4989,4930
CQUADX4,4847,1,4930,4989,4990,4931
CQUADX4,4848,1,4931,4990,4991,4932
CQUADX4,4849,1,4932,4991,4992,4933
CQUADX4,4850,1,4933,4992,4993,4934
CQUADX4,4851,1,4934,4993,4994,4935
CQUADX4,4852,1,4935,4994,4995,4936
CQUADX4,4853,1,4936,4995,4996,4937
CQUADX4,4854,1,4937,4996,4997,4938
CQUADX4,4855,1,4938,4997,4998,4939
CQUADX4,4856,1,4939,4998,4999,4940
CQUADX4,4857,1,4940,4999,5000,4941
CQUADX4,4858,1,4941,5000,5001,4942
CQUADX4,4859,1,4942,5001,5002,4943
CQUADX4,4860,1,4943,5002,5003,4944
CQUADX4,4861,1,4944,5003,5004,4945
CQUADX4,4862,1,4945,5004,5005,4946
CQUADX4,4863,1,4946,5005,5006,4947
CQUADX4,4864,1,4947,5006,5007,4948
CQUADX4,4865,1,4948,5007,5008,4949
CQUADX4,4866,1,4949,5008,5009,4950
CQUADX4,4867,1,4950,5009,5010,4951
CQUADX4,4868,1,4951,5010,5011,4952
CQUADX4,4869,1,4952,5011,5012,4953
CQUADX4,4870,1,4953,5012,5013,4954
CQUADX4,4871,1,4954,5013,5014,4955
CQUADX4,4872,1,4955,5014,5015,4956
CQUADX4,4873,1,4957,5016,5017,4958
CQUADX4,4874,1,4958,5017,5018,4959
CQUADX4,4875,1,4959,5018,5019,4960
CQUADX4,4876,1,4960,5019,5020,4961
CQUADX4,4877,1,4961,5020,5021,4962
CQUADX4,4878,1,4962,5021,5022,4963
CQUADX4,4879,1,4963,5022,5023,4964
CQUADX4,4880,1,4964,5023,5024,4965
CQUADX4,4881,1,4965,5024,5025,4966
CQUADX4,4882,1,4966,5025,5026,4967
CQUADX4,4883,1,4967,5026,5027,4968
CQUADX4,4884,1,4968,5027,5028,4969
CQUADX4,4885,1,4969,5028,5029,4970
CQUADX4,4886,1,4970,5029,5030,4971
CQUADX4,4887,1,4971,5030,5031,4972
CQUADX4,4888,1,4972,5031,5032,4973
CQUADX4,4889,1,4973,5032,5033,4974
CQUADX4,4890,1,4974,5033,5034,4975
CQUADX4,4891,1,4975,5034,5035,4976
CQUADX4,4892,1,4976,5035,5036,4977
CQUADX4,4893,1,4977,5036,5037,4978
CQUADX4,4894,1,4978,5037,5038,4979
CQUADX4,4895,1,4979,5038,5039,4980
CQUADX4,4896,1,4980,5039,5040,4981
CQUADX4,4897,1,4981,5040,5041,4982
CQUADX4,4898,1,4982,5041,5042,4983
CQUADX4,4899,1,4983,5042,5043,4984
CQUADX4,4900,1,4984,5043,5044,4985
CQUADX4,4901,1,4985,5044,5045,4986
CQUADX4,4902,1,4986,5045,5046,4987
CQUADX4,4903,1,4987,5046,5047,4988
CQUADX4,4904,1,4988,5047,5048,4989
CQUADX4,4905,1,4989,5048,5049,4990
CQUADX4,4906,1,4990,5049,5050,4991
CQUADX4,4907,1,4991,5050,5051,4992
CQUADX4,4908,1,4992,5051,5052,4993
CQUADX4,4909,1,4993,5052,5053,4994
CQUADX4,4910,1,4994,5053,5054,4995
CQUADX4,4911,1,4995,5054,5055,4996
CQUADX4,4912,1,4996,5055,5056,4997
CQUADX4,4913,1,4997,5056,5057,4998
CQUADX4,4914,1,4998,5057,5058,4999
CQUADX4,4915,1,4999,5058,5059,5000
CQUADX4,4916,1,5000,5059,5060,5001
CQUADX4,4917,1,5001,5060,5061,5002
CQUADX4,4918,1,5002,5061,5062,5003
CQUADX4,4919,1,5003,5062,5063,5004
CQUADX4,4920,1,5004,5063,5064,5005
CQUADX4,4921,1,5005,5064,5065,5006
CQUADX4,4922,1,5006,5065,5066,5007
CQUADX4,4923,1,5007,5066,5067,5008
CQUADX4,4924,1,5008,5067,5068,5009
CQUADX4,4925,1,5009,5068,5069,5010
CQUADX4,4926,1,5010,5069,5070,5011
CQUADX4,4927,1,5011,5070,5071,5012
CQUADX4,4928,1,5012,5071,5072,5013
CQUADX4,4929,1,5013,5072,5073,5014
CQUADX4,4930,1,5014,5073,5074,5015
CQUADX4,4931,1,5016,5075,5076,5017
CQUADX4,4932,1,5017,5076,5077,5018
CQUADX4,4933,1,5018,5077,5078,5019
CQUADX4,4934,1,5019,5078,5079,5020
CQUADX4,4935,1,5020,5079,5080,5021
CQUADX4,4936,1,5021,5080,5081,5022
CQUADX4,4937,1,5022,5081,5082,5023
CQUADX4,4938,1,5023,5082,5083,5024
CQUADX4,4939,1,5024,5083,5084,5025
CQUADX4,4940,1,5025,5084,5085,5026
CQUADX4,4941,1,5026,5085,5086,5027
CQUADX4,4942,1,5027,5086,5087,5028
CQUADX4,4943,1,5028,5087,5088,5029
CQUADX4,4944,1,5029,5088,5089,5030
CQUADX4,4945,1,5030,5089,5090,5031
CQUADX4,4946,1,5031,5090,5091,5032
CQUADX4,4947,1,5032,5091,5092,5033
CQUADX4,4948,1,5033,5092,5093,5034
CQUADX4,4949,1,5034,5093,5094,5035
CQUADX4,4950,1,5035,5094,5095,5036
CQUADX4,4951,1,5036,5095,5096,5037
CQUADX4,4952,1,5037,5096,5097,5038
CQUADX4,4953,1,5038,5097,5098,5039
CQUADX4,4954,1,5039,5098,5099,5040
CQUADX4,4955,1,5040,5099,5100,5041
CQUADX4,4956,1,5041,5100,5101,5042
CQUADX4,4957,1,5042,5101,5102,5043
CQUADX4,4958,1,5043,5102,5103,5044
CQUADX4,4959,1,5044,5103,5104,5045
CQUADX4,4960,1,5045,5104,5105,5046
CQUADX4,4961,1,5046,5105,5106,5047
CQUADX4,4962,1,5047,5106,5107,5048
CQUADX4,4963,1,5048,5107,5108,5049
CQUADX4,4964,1,5049,5108,5109,5050
CQUADX4,4965,1,5050,5109,5110,5051
CQUADX4,4966,1,5051,5110,5111,5052
CQUADX4,4967,1,5052,5111,5112,5053
CQUADX4,4968,1,5053,5112,5113,5054
CQUADX4,4969,1,5054,5113,5114,5055
CQUADX4,4970,1,5055,5114,5115,5056
CQUADX4,4971,1,5056,5115,5116,5057
CQUADX4,4972,1,5057,5116,5117,5058
CQUADX4,4973,1,5058,5117,5118,5059
CQUADX4,4974,1,5059,5118,5119,5060
CQUADX4,4975,1,5060,5119,5120,5061
CQUADX4,4976,1,5061,5120,5121,5062
CQUADX4,4977,1,5062,5121,5122,5063
CQUADX4,4978,1,5063,5122,5123,5064
CQUADX4,4979,1,5064,5123,5124,5065
CQUADX4,4980,1,5065,5124,5125,5066
CQUADX4,4981,1,5066,5125,5126,5067
CQUADX4,4982,1,5067,5126,5127,5068
CQUADX4,4983,1,5068,5127,5128,5069
CQUADX4,4984,1,5069,5128,5129,5070
CQUADX4,4985,1,5070,5129,5130,5071
CQUADX4,4986,1,5071,5130,5131,5072
CQUADX4,4987,1,5072,5131,5132,5073
CQUADX4,4988,1,5073,5132,5133,5074
CQUADX4,4989,1,5075,5134,5135,5076
CQUADX4,4990,1,5076,5135,5136,5077
CQUADX4,4991,1,5077,5136,5137,5078
CQUADX4,4992,1,5078,5137,5138,5079
CQUADX4,4993,1,5079,5138,5139,5080
CQUADX4,4994,1,5080,5139,5140,5081
CQUADX4,4995,1,5081,5140,5141,5082
CQUADX4,4996,1,5082,5141,5142,5083
CQUADX4,4997,1,5083,5142,5143,5084
CQUADX4,4998,1,5084,5143,5144,5085
CQUADX4,4999,1,5085,5144,5145,5086
CQUADX4,5000,1,5086,5145,5146,5087
CQUADX4,5001,1,5087,5146,5147,5088
CQUADX4,5002,1,5088,5147,5148,5089
CQUADX4,5003,1,5089,5148,5149,5090
CQUADX4,5004,1,5090,5149,5150,5091
CQUADX4,5005,1,5091,5150,5151,5092
CQUADX4,5006,1,5092,5151,5152,5093
CQUADX4,5007,1,5093,5152,5153,5094
CQUADX4,5008,1,5094,5153,5154,5095
CQUADX4,5009,1,5095,5154,5155,5096
CQUADX4,5010,1,5096,5155,5156,5097
CQUADX4,5011,1,5097,5156,5157,5098
CQUADX4,5012,1,5098,5157,5158,5099
CQUADX4,5013,1,5099,5158,5159,5100
CQUADX4,5014,1,5100,5159,5160,5101
CQUADX4,5015,1,5101,5160,5161,5102
CQUADX4,5016,1,5102,5161,5162,5103
CQUADX4,5017,1,5103,5162,5163,5104
CQUADX4,5018,1,5104,5163,5164,5105
CQUADX4,5019,1,5105,5164,5165,5106
CQUADX4,5020,1,5106,5165,5166,5107
CQUADX4,5021,1,5107,5166,5167,5108
CQUADX4,5022,1,5108,5167,5168,5109
CQUADX4,5023,1,5109,5168,5169,5110
CQUADX4,5024,1,5110,5169,5170,5111
CQUADX4,5025,1,5111,5170,5171,5112
CQUADX4,5026,1,5112,5171,5172,5113
CQUADX4,5027,1,5113,5172,5173,5114
CQUADX4,5028,1,5114,5173,5174,5115
CQUADX4,5029,1,5115,5174,5175,5116
CQUADX4,5030,1,5116,5175,5176,5117
CQUADX4,5031,1,5117,5176,5177,5118
CQUADX4,5032,1,5118,5177,5178,5119
CQUADX4,5033,1,5119,5178,5179,5120
CQUADX4,5034,1,5120,5179,5180,5121
CQUADX4,5035,1,5121,5180,5181,5122
CQUADX4,5036,1,5122,5181,5182,5123
CQUADX4,5037,1,5123,5182,5183,5124
CQUADX4,5038,1,5124,5183,5184,5125
CQUADX4,5039,1,5125,5184,5185,5126
CQUADX4,5040,1,5126,5185,5186,5127
CQUADX4,5041,1,5127,5186,5187,5128
CQUADX4,5042,1,5128,5187,5188,5129
CQUADX4,5043,1,5129,5188,5189,5130
CQUADX4,5044,1,5130,5189,5190,5131
CQUADX4,5045,1,5131,5190,5191,5132
CQUADX4,5046,1,5132,5191,5192,5133
CQUADX4,5047,1,5134,5193,5194,5135
CQUADX4,5048,1,5135,5194,5195,5136
CQUADX4,5049,1,5136,5195,5196,5137
CQUADX4,5050,1,5137,5196,5197,5138
CQUADX4,5051,1,5138,5197,5198,5139
CQUADX4,5052,1,5139,5198,5199,5140
CQUADX4,5053,1,5140,5199,5200,5141
CQUADX4,5054,1,5141,5200,5201,5142
CQUADX4,5055,1,5142,5201,5202,5143
CQUADX4,5056,1,5143,5202,5203,5144
CQUADX4,5057,1,5144,5203,5204,5145
CQUADX4,5058,1,5145,5204,5205,5146
CQUADX4,5059,1,5146,5205,5206,5147
CQUADX4,5060,1,5147,5206,5207,5148
CQUADX4,5061,1,5148,5207,5208,5149
CQUADX4,5062,1,5149,5208,5209,5150
CQUADX4,5063,1,5150,5209,5210,5151
CQUADX4,5064,1,5151,5210,5211,5152
CQUADX4,5065,1,5152,5211,5212,5153
CQUADX4,5066,1,5153,5212,5213,5154
CQUADX4,5067,1,5154,5213,5214,5155
CQUADX4,5068,1,5155,5214,5215,5156
CQUADX4,5069,1,5156,5215,5216,5157
CQUADX4,5070,1,5157,5216,5217,5158
CQUADX4,5071,1,5158,5217,5218,5159
CQUADX4,5072,1,5159,5218,5219,5160
CQUADX4,5073,1,5160,5219,5220,5161
CQUADX4,5074,1,5161,5220,5221,5162
CQUADX4,5075,1,5162,5221,5222,5163
CQUADX4,5076,1,5163,5222,5223,5164
CQUADX4,5077,1,5164,5223,5224,5165
CQUADX4,5078,1,5165,5224,5225,5166
CQUADX4,5079,1,5166,5225,5226,5167
CQUADX4,5080,1,5167,5226,5227,5168
CQUADX4,5081,1,5168,5227,5228,5169
CQUADX4,5082,1,5169,5228,5229,5170
CQUADX4,5083,1,5170,5229,5230,5171
CQUADX4,5084,1,5171,5230,5231,5172
CQUADX4,5085,1,5172,5231,5232,5173
CQUADX4,5086,1,5173,5232,5233,5174
CQUADX4,5087,1,5174,5233,5234,5175
CQUADX4,5088,1,5175,5234,5235,5176
CQUADX4,5089,1,5176,5235,5236,5177
CQUADX4,5090,1,5177,5236,5237,5178
CQUADX4,5091,1,5178,5237,5238,5179
CQUADX4,5092,1,5179,5238,5239,5180
CQUADX4,5093,1,5180,5239,5240,5181
CQUADX4,5094,1,5181,5240,5241,5182
CQUADX4,5095,1,5182,5241,5242,5183
CQUADX4,5096,1,5183,5242,5243,5184
CQUADX4,5097,1,5184,5243,5244,5185
CQUADX4,5098,1,5185,5244,5245,5186
CQUADX4,5099,1,5186,5245,5246,5187
CQUADX4,5100,1,5187,5246,5247,5188
CQUADX4,5101,1,5188,5247,5248,5189
CQUADX4,5102,1,5189,5248,5249,5190
CQUADX4,5103,1,5190,5249,5250,5191
CQUADX4,5104,1,5191,5250,5251,5192
CQUADX4,5105,1,5193,5252,5253,5194
CQUADX4,5106,1,5194,5253,5254,5195
CQUADX4,5107,1,5195,5254,5255,5196
CQUADX4,5108,1,5196,5255,5256,5197
CQUADX4,5109,1,5197,5256,5257,5198
CQUADX4,5110,1,5198,5257,5258,5199
CQUADX4,5111,1,5199,5258,5259,5200
CQUADX4,5112,1,5200,5259,5260,5201
CQUADX4,5113,1,5201,5260,5261,5202
CQUADX4,5114,1,5202,5261,5262,5203
CQUADX4,5115,1,5203,5262,5263,5204
CQUADX4,5116,1,5204,5263,5264,5205
CQUADX4,5117,1,5205,5264,5265,5206
CQUADX4,5118,1,5206,5265,5266,5207
CQUADX4,5119,1,5207,5266,5267,5208
CQUADX4,5120,1,5208,5267,5268,5209
CQUADX4,5121,1,5209,5268,5269,5210
CQUADX4,5122,1,5210,5269,5270,5211
CQUADX4,5123,1,5211,5270,5271,5212
CQUADX4,5124,1,5212,5271,5272,5213
CQUADX4,5125,1,5213,5272,5273,5214
CQUADX4,5126,1,5214,5273,5274,5215
CQUADX4,5127,1,5215,5274,5275,5216
CQUADX4,5128,1,5216,5275,5276,5217
CQUADX4,5129,1,5217,5276,5277,5218
CQUADX4,5130,1,5218,5277,5278,5219
CQUADX4,5131,1,5219,5278,5279,5220
CQUADX4,5132,1,5220,5279,5280,5221
CQUADX4,5133,1,5221,5280,5281,5222
CQUADX4,5134,1,5222,5281,5282,5223
CQUADX4,5135,1,5223,5282,5283,5224
CQUADX4,5136,1,5224,5283,5284,5225
CQUADX4,5137,1,5225,5284,5285,5226
CQUADX4,5138,1,5226,5285,5286,5227
CQUADX4,5139,1,5227,5286,5287,5228
CQUADX4,5140,1,5228,5287,5288,5229
CQUADX4,5141,1,5229,5288,5289,5230
CQUADX4,5142,1,5230,5289,5290,5231
CQUADX4,5143,1,5231,5290,5291,5232
CQUADX4,5144,1,5232,5291,5292,5233
CQUADX4,5145,1,5233,5292,5293,5234
CQUADX4,5146,1,5234,5293,5294,5235
CQUADX4,5147,1,5235,5294,5295,5236
CQUADX4,5148,1,5236,5295,5296,5237
CQUADX4,5149,1,5237,5296,5297,5238
CQUADX4,5150,1,5238,5297,5298,5239
CQUADX4,5151,1,5239,5298,5299,5240
CQUADX4,5152,1,5240,5299,5300,5241
CQUADX4,5153,1,5241,5300,5301,5242
CQUADX4,5154,1,5242,5301,5302,5243
CQUADX4,5155,1,5243,5302,5303,5244
CQUADX4,5156,1,5244,5303,5304,5245
CQUADX4,5157,1,5245,5304,5305,5246
CQUADX4,5158,1,5246,5305,5306,5247
CQUADX4,5159,1,5247,5306,5307,5248
CQUADX4,5160,1,5248,5307,5308,5249
CQUADX4,5161,1,5249,5308,5309,5250
CQUADX4,5162,1,5250,5309,5310,5251
CQUADX4,5163,1,5252,5311,5312,5253
CQUADX4,5164,1,5253,5312,5313,5254
CQUADX4,5165,1,5254,5313,5314,5255
CQUADX4,5166,1,5255,5314,5315,5256
CQUADX4,5167,1,5256,5315,5316,5257
CQUADX4,5168,1,5257,5316,5317,5258
CQUADX4,5169,1,5258,5317,5318,5259
CQUADX4,5170,1,5259,5318,5319,5260
CQUADX4,5171,1,5260,5319,5320,5261
CQUADX4,5172,1,5261,5320,5321,5262
CQUADX4,5173,1,5262,5321,5322,5263
CQUADX4,5174,1,5263,5322,5323,5264
CQUADX4,5175,1,5264,5323,5324,5265
CQUADX4,5176,1,5265,5324,5325,5266
CQUADX4,5177,1,5266,5325,5326,5267
CQUADX4,5178,1,5267,5326,5327,5268
CQUADX4,5179,1,5268,5327,5328,5269
CQUADX4,5180,1,5269,5328,5329,5270
CQUADX4,5181,1,5270,5329,5330,5271
CQUADX4,5182,1,5271,5330,5331,5272
CQUADX4,5183,1,5272,5331,5332,5273
CQUADX4,5184,1,5273,5332,5333,5274
CQUADX4,5185,1,5274,5333,5334,5275
CQUADX4,5186,1,5275,5334,5335,5276
CQUADX4,5187,1,5276,5335,5336,5277
CQUADX4,5188,1,5277,5336,5337,5278
CQUADX4,5189,1,5278,5337,5338,5279
CQUADX4,5190,1,5279,5338,5339,5280
CQUADX4,5191,1,5280,5339,5340,5281
CQUADX4,5192,1,5281,5340,5341,5282
CQUADX4,5193,1,5282,5341,5342,5283
CQUADX4,5194,1,5283,5342,5343,5284
CQUADX4,5195,1,5284,5343,5344,5285
CQUADX4,5196,1,5285,5344,5345,5286
CQUADX4,5197,1,5286,5345,5346,5287
CQUADX4,5198,1,5287,5346,5347,5288
CQUADX4,5199,1,5288,5347,5348,5289
CQUADX4,5200,1,5289,5348,5349,5290
CQUADX4,5201,1,5290,5349,5350,5291
CQUADX4,5202,1,5291,5350,5351,5292
CQUADX4,5203,1,5292,5351,5352,5293
CQUADX4,5204,1,5293,5352,5353,5294
CQUADX4,5205,1,5294,5353,5354,5295
CQUADX4,5206,1,5295,5354,5355,5296
CQUADX4,5207,1,5296,5355,5356,5297
CQUADX4,5208,1,5297,5356,5357,5298
CQUADX4,5209,1,5298,5357,5358,5299
CQUADX4,5210,1,5299,5358,5359,5300
CQUADX4,5211,1,5300,5359,5360,5301
CQUADX4,5212,1,5301,5360,5361,5302
CQUADX4,5213,1,5302,5361,5362,5303
CQUADX4,5214,1,5303,5362,5363,5304
CQUADX4,5215,1,5304,5363,5364,5305
CQUADX4,5216,1,5305,5364,5365,5306
CQUADX4,5217,1,5306,5365,5366,5307
CQUADX4,5218,1,5307,5366,5367,5308
CQUADX4,5219,1,5308,5367,5368,5309
CQUADX4,5220,1,5309,5368,5369,5310
CQUADX4,5221,1,5311,5370,5371,5312
CQUADX4,5222,1,5312,5371,5372,5313
CQUADX4,5223,1,5313,5372,5373,5314
CQUADX4,5224,1,5314,5373,5374,5315
CQUADX4,5225,1,5315,5374,5375,5316
CQUADX4,5226,1,5316,5375,5376,5317
CQUADX4,5227,1,5317,5376,5377,5318
CQUADX4,5228,1,5318,5377,5378,5319
CQUADX4,5229,1,5319,5378,5379,5320
CQUADX4,5230,1,5320,5379,5380,5321
CQUADX4,5231,1,5321,5380,5381,5322
CQUADX4,5232,1,5322,5381,5382,5323
CQUADX4,5233,1,5323,5382,5383,5324
CQUADX4,5234,1,5324,5383,5384,5325
CQUADX4,5235,1,5325,5384,5385,5326
CQUADX4,5236,1,5326,5385,5386,5327
CQUADX4,5237,1,5327,5386,5387,5328
CQUADX4,5238,1,5328,5387,5388,5329
CQUADX4,5239,1,5329,5388,5389,5330
CQUADX4,5240,1,5330,5389,5390,5331
CQUADX4,5241,1,5331,5390,5391,5332
CQUADX4,5242,1,5332,5391,5392,5333
CQUADX4,5243,1,5333,5392,5393,5334
CQUADX4,5244,1,5334,5393,5394,5335
CQUADX4,5245,1,5335,5394,5395,5336
CQUADX4,5246,1,5336,5395,5396,5337
CQUADX4,5247,1,5337,5396,5397,5338
CQUADX4,5248,1,5338,5397,5398,5339
CQUADX4,5249,1,5339,5398,5399,5340
CQUADX4,5250,1,5340,5399,5400,5341
CQUADX4,5251,1,5341,5400,5401,5342
CQUADX4,5252,1,5342,5401,5402,5343
CQUADX4,5253,1,5343,5402,5403,5344
CQUADX4,5254,1,5344,5403,5404,5345
CQUADX4,5255,1,5345,5404,5405,5346
CQUADX4,5256,1,5346,5405,5406,5347
CQUADX4,5257,1,5347,5406,5407,5348
CQUADX4,5258,1,5348,5407,5408,5349
CQUADX4,5259,1,5349,5408,5409,5350
CQUADX4,5260,1,5350,5409,5410,5351
CQUADX4,5261,1,5351,5410,5411,5352
CQUADX4,5262,1,5352,5411,5412,5353
CQUADX4,5263,1,5353,5412,5413,5354
CQUADX4,5264,1,5354,5413,5414,5355
CQUADX4,5265,1,5355,5414,5415,5356
CQUADX4,5266,1,5356,5415,5416,5357
CQUADX4,5267,1,5357,5416,5417,5358
CQUADX4,5268,1,5358,5417,5418,5359
CQUADX4,5269,1,5359,5418,5419,5360
CQUADX4,5270,1,5360,5419,5420,5361
CQUADX4,5271,1,5361,5420,5421,5362
CQUADX4,5272,1,5362,5421,5422,5363
CQUADX4,5273,1,5363,5422,5423,5364
CQUADX4,5274,1,5364,5423,5424,5365
CQUADX4,5275,1,5365,5424,5425,5366
CQUADX4,5276,1,5366,5425,5426,5367
CQUADX4,5277,1,5367,5426,5427,5368
CQUADX4,5278,1,5368,5427,5428,5369
CQUADX4,5279,1,5370,5429,5430,5371
CQUADX4,5280,1,5371,5430,5431,5372
CQUADX4,5281,1,5372,5431,5432,5373
CQUADX4,5282,1,5373,5432,5433,5374
CQUADX4,5283,1,5374,5433,5434,5375
CQUADX4,5284,1,5375,5434,5435,5376
CQUADX4,5285,1,5376,5435,5436,5377
CQUADX4,5286,1,5377,5436,5437,5378
CQUADX4,5287,1,5378,5437,5438,5379
CQUADX4,5288,1,5379,5438,5439,5380
CQUADX4,5289,1,5380,5439,5440,5381
CQUADX4,5290,1,5381,5440,5441,5382
CQUADX4,5291,1,5382,5441,5442,5383
CQUADX4,5292,1,5383,5442,5443,5384
CQUADX4,5293,1,5384,5443,5444,5385
CQUADX4,5294,1,5385,5444,5445,5386
CQUADX4,5295,1,5386,5445,5446,5387
CQUADX4,5296,1,5387,5446,5447,5388
CQUADX4,5297,1,5388,5447,5448,5389
CQUADX4,5298,1,5389,5448,5449,5390
CQUADX4,5299,1,5390,5449,5450,5391
CQUADX4,5300,1,5391,5450,5451,5392
CQUADX4,5301,1,5392,5451,5452,5393
CQUADX4,5302,1,5393,5452,5453,5394
CQUADX4,5303,1,5394,5453,5454,5395
CQUADX4,5304,1,5395,5454,5455,5396
CQUADX4,5305,1,5396,5455,5456,5397
CQUADX4,5306,1,5397,5456,5457,5398
CQUADX4,5307,1,5398,5457,5458,5399
CQUADX4,5308,1,5399,5458,5459,5400
CQUADX4,5309,1,5400,5459,5460,5401
CQUADX4,5310,1,5401,5460,5461,5402
CQUADX4,5311,1,5402,5461,5462,5403
CQUADX4,5312,1,5403,5462,5463,5404
CQUADX4,5313,1,5404,5463,5464,5405
CQUADX4,5314,1,5405,5464,5465,5406
CQUADX4,5315,1,5406,5465,5466,5407
CQUADX4,5316,1,5407,5466,5467,5408
CQUADX4,5317,1,5408,5467,5468,5409
CQUADX4,5318,1,5409,5468,5469,5410
CQUADX4,5319,1,5410,5469,5470,5411
CQUADX4,5320,1,5411,5470,5471,5412
CQUADX4,5321,1,5412,5471,5472,5413
CQUADX4,5322,1,5413,5472,5473,5414
CQUADX4,5323,1,5414,5473,5474,5415
CQUADX4,5324,1,5415,5474,5475,5416
CQUADX4,5325,1,5416,5475,5476,5417
CQUADX4,5326,1,5417,5476,5477,5418
CQUADX4,5327,1,5418,5477,5478,5419
CQUADX4,5328,1,5419,5478,5479,5420
CQUADX4,5329,1,5420,5479,5480,5421
CQUADX4,5330,1,5421,5480,5481,5422
CQUADX4,5331,1,5422,5481,5482,5423
CQUADX4,5332,1,5423,5482,5483,5424
CQUADX4,5333,1,5424,5483,5484,5425
CQUADX4,5334,1,5425,5484,5485,5426
CQUADX4,5335,1,5426,5485,5486,5427
CQUADX4,5336,1,5427,5486,5487,5428
CQUADX4,5337,1,5429,5488,5489,5430
CQUADX4,5338,1,5430,5489,5490,5431
CQUADX4,5339,1,5431,5490,5491,5432
CQUADX4,5340,1,5432,5491,5492,5433
CQUADX4,5341,1,5433,5492,5493,5434
CQUADX4,5342,1,5434,5493,5494,5435
CQUADX4,5343,1,5435,5494,5495,5436
CQUADX4,5344,1,5436,5495,5496,5437
CQUADX4,5345,1,5437,5496,5497,5438
CQUADX4,5346,1,5438,5497,5498,5439
CQUADX4,5347,1,5439,5498,5499,5440
CQUADX4,5348,1,5440,5499,5500,5441
CQUADX4,5349,1,5441,5500,5501,5442
CQUADX4,5350,1,5442,5501,5502,5443
CQUADX4,5351,1,5443,5502,5503,5444
CQUADX4,5352,1,5444,5503,5504,5445
CQUADX4,5353,1,5445,5504,5505,5446
CQUADX4,5354,1,5446,5505,5506,5447
CQUADX4,5355,1,5447,5506,5507,5448
CQUADX4,5356,1,5448,5507,5508,5449
CQUADX4,5357,1,5449,5508,5509,5450
CQUADX4,5358,1,5450,5509,5510,5451
CQUADX4,5359,1,5451,5510,5511,5452
CQUADX4,5360,1,5452,5511,5512,5453
CQUADX4,5361,1,5453,5512,5513,5454
CQUADX4,5362,1,5454,5513,5514,5455
CQUADX4,5363,1,5455,5514,5515,5456
CQUADX4,5364,1,5456,5515,5516,5457
CQUADX4,5365,1,5457,5516,5517,5458
CQUADX4,5366,1,5458,5517,5518,5459
CQUADX4,5367,1,5459,5518,5519,5460
CQUADX4,5368,1,5460,5519,5520,5461
CQUADX4,5369,1,5461,5520,5521,5462
CQUADX4,5370,1,5462,5521,5522,5463
CQUADX4,5371,1,5463,5522,5523,5464
CQUADX4,5372,1,5464,5523,5524,5465
CQUADX4,5373,1,5465,5524,5525,5466
CQUADX4,5374,1,5466,5525,5526,5467
CQUADX4,5375,1,5467,5526,5527,5468
CQUADX4,5376,1,5468,5527,5528,5469
CQUADX4,5377,1,5469,5528,5529,5470
CQUADX4,5378,1,5470,5529,5530,5471
CQUADX4,5379,1,5471,5530,5531,5472
CQUADX4,5380,1,5472,5531,5532,5473
CQUADX4,5381,1,5473,5532,5533,5474
CQUADX4,5382,1,5474,5533,5534,5475
CQUADX4,5383,1,5475,5534,5535,5476
CQUADX4,5384,1,5476,5535,5536,5477
CQUADX4,5385,1,5477,5536,5537,5478
CQUADX4,5386,1,5478,5537,5538,5479
CQUADX4,5387,1,5479,5538,5539,5480
CQUADX4,5388,1,5480,5539,5540,5481
CQUADX4,5389,1,5481,5540,5541,5482
CQUADX4,5390,1,5482,5541,5542,5483
CQUADX4,5391,1,5483,5542,5543,5484
CQUADX4,5392,1,5484,5543,5544,5485
CQUADX4,5393,1,5485,5544,5545,5486
CQUADX4,5394,1,5486,5545,5546,5487
CQUADX4,5395,1,5488,5547,5548,5489
CQUADX4,5396,1,5489,5548,5549,5490
CQUADX4,5397,1,5490,5549,5550,5491
CQUADX4,5398,1,5491,5550,5551,5492
CQUADX4,5399,1,5492,5551,5552,5493
CQUADX4,5400,1,5493,5552,5553,5494
CQUADX4,5401,1,5494,5553,5554,5495
CQUADX4,5402,1,5495,5554,5555,5496
CQUADX4,5403,1,5496,5555,5556,5497
CQUADX4,5404,1,5497,5556,5557,5498
CQUADX4,5405,1,5498,5557,5558,5499
CQUADX4,5406,1,5499,5558,5559,5500
CQUADX4,5407,1,5500,5559,5560,5501
CQUADX4,5408,1,5501,5560,5561,5502
CQUADX4,5409,1,5502,5561,5562,5503
CQUADX4,5410,1,5503,5562,5563,5504
CQUADX4,5411,1,5504,5563,5564,5505
CQUADX4,5412,1,5505,5564,5565,5506
CQUADX4,5413,1,5506,5565,5566,5507
CQUADX4,5414,1,5507,5566,5567,5508
CQUADX4,5415,1,5508,5567,5568,5509
CQUADX4,5416,1,5509,5568,5569,5510
CQUADX4,5417,1,5510,5569,5570,5511
CQUADX4,5418,1,5511,5570,5571,5512
CQUADX4,5419,1,5512,5571,5572,5513
CQUADX4,5420,1,5513,5572,5573,5514
CQUADX4,5421,1,5514,5573,5574,5515
CQUADX4,5422,1,5515,5574,5575,5516
CQUADX4,5423,1,5516,5575,5576,5517
CQUADX4,5424,1,5517,5576,5577,5518
CQUADX4,5425,1,5518,5577,5578,5519
CQUADX4,5426,1,5519,5578,5579,5520
CQUADX4,5427,1,5520,5579,5580,5521
CQUADX4,5428,1,5521,5580,5581,5522
CQUADX4,5429,1,5522,5581,5582,5523
CQUADX4,5430,1,5523,5582,5583,5524
CQUADX4,5431,1,5524,5583,5584,5525
CQUADX4,5432,1,5525,5584,5585,5526
CQUADX4,5433,1,5526,5585,5586,5527
CQUADX4,5434,1,5527,5586,5587,5528
CQUADX4,5435,1,5528,5587,5588,5529
CQUADX4,5436,1,5529,5588,5589,5530
CQUADX4,5437,1,5530,5589,5590,5531
CQUADX4,5438,1,5531,5590,5591,5532
CQUADX4,5439,1,5532,5591,5592,5533
CQUADX4,5440,1,5533,5592,5593,5534
CQUADX4,5441,1,5534,5593,5594,5535
CQUADX4,5442,1,5535,5594,5595,5536
CQUADX4,5443,1,5536,5595,5596,5537
CQUADX4,5444,1,5537,5596,5597,5538
CQUADX4,5445,1,5538,5597,5598,5539
CQUADX4,5446,1,5539,5598,5599,5540
CQUADX4,5447,1,5540,5599,5600,5541
CQUADX4,5448,1,5541,5600,5601,5542
CQUADX4,5449,1,5542,5601,5602,5543
CQUADX4,5450,1,5543,5602,5603,5544
CQUADX4,5451,1,5544,5603,5604,5545
CQUADX4,5452,1,5545,5604,5605,5546
CQUADX4,5453,1,5547,5606,5607,5548
CQUADX4,5454,1,5548,5607,5608,5549
CQUADX4,5455,1,5549,5608,5609,5550
CQUADX4,5456,1,5550,5609,5610,5551
CQUADX4,5457,1,5551,5610,5611,5552
CQUADX4,5458,1,5552,5611,5612,5553
CQUADX4,5459,1,5553,5612,5613,5554
CQUADX4,5460,1,5554,5613,5614,5555
CQUADX4,5461,1,5555,5614,5615,5556
CQUADX4,5462,1,5556,5615,5616,5557
CQUADX4,5463,1,5557,5616,5617,5558
CQUADX4,5464,1,5558,5617,5618,5559
CQUADX4,5465,1,5559,5618,5619,5560
CQUADX4,5466,1,5560,5619,5620,5561
CQUADX4,5467,1,5561,5620,5621,5562
CQUADX4,5468,1,5562,5621,5622,5563
CQUADX4,5469,1,5563,5622,5623,5564
CQUADX4,5470,1,5564,5623,5624,5565
CQUADX4,5471,1,5565,5624,5625,5566
CQUADX4,5472,1,5566,5625,5626,5567
CQUADX4,5473,1,5567,5626,5627,5568
CQUADX4,5474,1,5568,5627,5628,5569
CQUADX4,5475,1,5569,5628,5629,5570
CQUADX4,5476,1,5570,5629,5630,5571
CQUADX4,5477,1,5571,5630,5631,5572
CQUADX4,5478,1,5572,5631,5632,5573
CQUADX4,5479,1,5573,5632,5633,5574
CQUADX4,5480,1,5574,5633,5634,5575
CQUADX4,5481,1,5575,5634,5635,5576
CQUADX4,5482,1,5576,5635,5636,5577
CQUADX4,5483,1,5577,5636,5637,5578
CQUADX4,5484,1,5578,5637,5638,5579
CQUADX4,5485,1,5579,5638,5639,5580
CQUADX4,5486,1,5580,5639,5640,5581
CQUADX4,5487,1,5581,5640,5641,5582
CQUADX4,5488,1,5582,5641,5642,5583
CQUADX4,5489,1,5583,5642,5643,5584
CQUADX4,5490,1,5584,5643,5644,5585
CQUADX4,5491,1,5585,5644,5645,5586
CQUADX4,5492,1,5586,5645,5646,5587
CQUADX4,5493,1,5587,5646,5647,5588
CQUADX4,5494,1,5588,5647,5648,5589
CQUADX4,5495,1,5589,5648,5649,5590
CQUADX4,5496,1,5590,5649,5650,5591
CQUADX4,5497,1,5591,5650,5651,5592
CQUADX4,5498,1,5592,5651,5652,5593
CQUADX4,5499,1,5593,5652,5653,5594
CQUADX4,5500,1,5594,5653,5654,5595
CQUADX4,5501,1,5595,5654,5655,5596
CQUADX4,5502,1,5596,5655,5656,5597
CQUADX4,5503,1,5597,5656,5657,5598
CQUADX4,5504,1,5598,5657,5658,5599
CQUADX4,5505,1,5599,5658,5659,5600
CQUADX4,5506,1,5600,5659,5660,5601
CQUADX4,5507,1,5601,5660,5661,5602
CQUADX4,5508,1,5602,5661,5662,5603
CQUADX4,5509,1,5603,5662,5663,5604
CQUADX4,5510,1,5604,5663,5664,5605
CQUADX4,5511,1,5606,5665,5666,5607
CQUADX4,5512,1,5607,5666,5667,5608
CQUADX4,5513,1,5608,5667,5668,5609
CQUADX4,5514,1,5609,5668,5669,5610
CQUADX4,5515,1,5610,5669,5670,5611
CQUADX4,5516,1,5611,5670,5671,5612
CQUADX4,5517,1,5612,5671,5672,5613
CQUADX4,5518,1,5613,5672,5673,5614
CQUADX4,5519,1,5614,5673,5674,5615
CQUADX4,5520,1,5615,5674,5675,5616
CQUADX4,5521,1,5616,5675,5676,5617
CQUADX4,5522,1,5617,5676,5677,5618
CQUADX4,5523,1,5618,5677,5678,5619
CQUADX4,5524,1,5619,5678,5679,5620
CQUADX4,5525,1,5620,5679,5680,5621
CQUADX4,5526,1,5621,5680,5681,5622
CQUADX4,5527,1,5622,5681,5682,5623
CQUADX4,5528,1,5623,5682,5683,5624
CQUADX4,5529,1,5624,5683,5684,5625
CQUADX4,5530,1,5625,5684,5685,5626
CQUADX4,5531,1,5626,5685,5686,5627
CQUADX4,5532,1,5627,5686,5687,5628
CQUADX4,5533,1,5628,5687,5688,5629
CQUADX4,5534,1,5629,5688,5689,5630
CQUADX4,5535,1,5630,5689,5690,5631
CQUADX4,5536,1,5631,5690,5691,5632
CQUADX4,5537,1,5632,5691,5692,5633
CQUADX4,5538,1,5633,5692,5693,5634
CQUADX4,5539,1,5634,5693,5694,5635
CQUADX4,5540,1,5635,5694,5695,5636
CQUADX4,5541,1,5636,5695,5696,5637
CQUADX4,5542,1,5637,5696,5697,5638
CQUADX4,5543,1,5638,5697,5698,5639
CQUADX4,5544,1,5639,5698,5699,5640
CQUADX4,5545,1,5640,5699,5700,5641
CQUADX4,5546,1,5641,5700,5701,5642
CQUADX4,5547,1,5642,5701,5702,5643
CQUADX4,5548,1,5643,5702,5703,5644
CQUADX4,5549,1,5644,5703,5704,5645
CQUADX4,5550,1,5645,5704,5705,5646
CQUADX4,5551,1,5646,5705,5706,5647
CQUADX4,5552,1,5647,5706,5707,5648
CQUADX4,5553,1,5648,5707,5708,5649
CQUADX4,5554,1,5649,5708,5709,5650
CQUADX4,5555,1,5650,5709,5710,5651
CQUADX4,5556,1,5651,5710,5711,5652
CQUADX4,5557,1,5652,5711,5712,5653
CQUADX4,5558,1,5653,5712,5713,5654
CQUADX4,5559,1,5654,5713,5714,5655
CQUADX4,5560,1,5655,5714,5715,5656
CQUADX4,5561,1,5656,5715,5716,5657
CQUADX4,5562,1,5657,5716,5717,5658
CQUADX4,5563,1,5658,5717,5718,5659
CQUADX4,5564,1,5659,5718,5719,5660
CQUADX4,5565,1,5660,5719,5720,5661
CQUADX4,5566,1,5661,5720,5721,5662
CQUADX4,5567,1,5662,5721,5722,5663
CQUADX4,5568,1,5663,5722,5723,5664
CQUADX4,5569,1,5665,5724,5725,5666
CQUADX4,5570,1,5666,5725,5726,5667
CQUADX4,5571,1,5667,5726,5727,5668
CQUADX4,5572,1,5668,5727,5728,5669
CQUADX4,5573,1,5669,5728,5729,5670
CQUADX4,5574,1,5670,5729,5730,5671
CQUADX4,5575,1,5671,5730,5731,5672
CQUADX4,5576,1,5672,5731,5732,5673
CQUADX4,5577,1,5673,5732,5733,5674
CQUADX4,5578,1,5674,5733,5734,5675
CQUADX4,5579,1,5675,5734,5735,5676
CQUADX4,5580,1,5676,5735,5736,5677
CQUADX4,5581,1,5677,5736,5737,5678
CQUADX4,5582,1,5678,5737,5738,5679
CQUADX4,5583,1,5679,5738,5739,5680
CQUADX4,5584,1,5680,5739,5740,5681
CQUADX4,5585,1,5681,5740,5741,5682
CQUADX4,5586,1,5682,5741,5742,5683
CQUADX4,5587,1,5683,5742,5743,5684
CQUADX4,5588,1,5684,5743,5744,5685
CQUADX4,5589,1,5685,5744,5745,5686
CQUADX4,5590,1,5686,5745,5746,5687
CQUADX4,5591,1,5687,5746,5747,5688
CQUADX4,5592,1,5688,5747,5748,5689
CQUADX4,5593,1,5689,5748,5749,5690
CQUADX4,5594,1,5690,5749,5750,5691
CQUADX4,5595,1,5691,5750,5751,5692
CQUADX4,5596,1,5692,5751,5752,5693
CQUADX4,5597,1,5693,5752,5753,5694
CQUADX4,5598,1,5694,5753,5754,5695
CQUADX4,5599,1,5695,5754,5755,5696
CQUADX4,5600,1,5696,5755,5756,5697
CQUADX4,5601,1,5697,5756,5757,5698
CQUADX4,5602,1,5698,5757,5758,5699
CQUADX4,5603,1,5699,5758,5759,5700
CQUADX4,5604,1,5700,5759,5760,5701
CQUADX4,5605,1,5701,5760,5761,5702
CQUADX4,5606,1,5702,5761,5762,5703
CQUADX4,5607,1,5703,5762,5763,5704
CQUADX4,5608,1,5704,5763,5764,5705
CQUADX4,5609,1,5705,5764,5765,5706
CQUADX4,5610,1,5706,5765,5766,5707
CQUADX4,5611,1,5707,5766,5767,5708
CQUADX4,5612,1,5708,5767,5768,5709
CQUADX4,5613,1,5709,5768,5769,5710
CQUADX4,5614,1,5710,5769,5770,5711
CQUADX4,5615,1,5711,5770,5771,5712
CQUADX4,5616,1,5712,5771,5772,5713
CQUADX4,5617,1,5713,5772,5773,5714
CQUADX4,5618,1,5714,5773,5774,5715
CQUADX4,5619,1,5715,5774,5775,5716
CQUADX4,5620,1,5716,5775,5776,5717
CQUADX4,5621,1,5717,5776,5777,5718
CQUADX4,5622,1,5718,5777,5778,5719
CQUADX4,5623,1,5719,5778,5779,5720
CQUADX4,5624,1,5720,5779,5780,5721
CQUADX4,5625,1,5721,5780,5781,5722
CQUADX4,5626,1,5722,5781,5782,5723
CQUADX4,5627,1,5724,5783,5784,5725
CQUADX4,5628,1,5725,5784,5785,5726
CQUADX4,5629,1,5726,5785,5786,5727
CQUADX4,5630,1,5727,5786,5787,5728
CQUADX4,5631,1,5728,5787,5788,5729
CQUADX4,5632,1,5729,5788,5789,5730
CQUADX4,5633,1,5730,5789,5790,5731
CQUADX4,5634,1,5731,5790,5791,5732
CQUADX4,5635,1,5732,5791,5792,5733
CQUADX4,5636,1,5733,5792,5793,5734
CQUADX4,5637,1,5734,5793,5794,5735
CQUADX4,5638,1,5735,5794,5795,5736
CQUADX4,5639,1,5736,5795,5796,5737
CQUADX4,5640,1,5737,5796,5797,5738
CQUADX4,5641,1,5738,5797,5798,5739
CQUADX4,5642,1,5739,5798,5799,5740
CQUADX4,5643,1,5740,5799,5800,5741
CQUADX4,5644,1,5741,5800,5801,5742
CQUADX4,5645,1,5742,5801,5802,5743
CQUADX4,5646,1,5743,5802,5803,5744
CQUADX4,5647,1,5744,5803,5804,5745
CQUADX4,5648,1,5745,5804,5805,5746
CQUADX4,5649,1,5746,5805,5806,5747
CQUADX4,5650,1,5747,5806,5807,5748
CQUADX4,5651,1,5748,5807,5808,5749
CQUADX4,5652,1,5749,5808,5809,5750
CQUADX4,5653,1,5750,5809,5810,5751
CQUADX4,5654,1,5751,5810,5811,5752
CQUADX4,5655,1,5752,5811,5812,5753
CQUADX4,5656,1,5753,5812,5813,5754
CQUADX4,5657,1,5754,5813,5814,5755
CQUADX4,5658,1,5755,5814,5815,5756
CQUADX4,5659,1,5756,5815,5816,5757
CQUADX4,5660,1,5757,5816,5817,5758
CQUADX4,5661,1,5758,5817,5818,5759
CQUADX4,5662,1,5759,5818,5819,5760
CQUADX4,5663,1,5760,5819,5820,5761
CQUADX4,5664,1,5761,5820,5821,5762
CQUADX4,5665,1,5762,5821,5822,5763
CQUADX4,5666,1,5763,5822,5823,5764
CQUADX4,5667,1,5764,5823,5824,5765
CQUADX4,5668,1,5765,5824,5825,5766
CQUADX4,5669,1,5766,5825,5826,5767
CQUADX4,5670,1,5767,5826,5827,5768
CQUADX4,5671,1,5768,5827,5828,5769
CQUADX4,5672,1,5769,5828,5829,5770
CQUADX4,5673,1,5770,5829,5830,5771
CQUADX4,5674,1,5771,5830,5831,5772
CQUADX4,5675,1,5772,5831,5832,5773
CQUADX4,5676,1,5773,5832,5833,5774
CQUADX4,5677,1,5774,5833,5834,5775
CQUADX4,5678,1,5775,5834,5835,5776
CQUADX4,5679,1,5776,5835,5836,5777
CQUADX4,5680,1,5777,5836,5837,5778
CQUADX4,5681,1,5778,5837,5838,5779
CQUADX4,5682,1,5779,5838,5839,5780
CQUADX4,5683,1,5780,5839,5840,5781
CQUADX4,5684,1,5781,5840,5841,5782
CQUADX4,5685,1,5783,5842,5843,5784
CQUADX4,5686,1,5784,5843,5844,5785
CQUADX4,5687,1,5785,5844,5845,5786
CQUADX4,5688,1,5786,5845,5846,5787
CQUADX4,5689,1,5787,5846,5847,5788
CQUADX4,5690,1,5788,5847,5848,5789
CQUADX4,5691,1,5789,5848,5849,5790
CQUADX4,5692,1,5790,5849,5850,5791
CQUADX4,5693,1,5791,5850,5851,5792
CQUADX4,5694,1,5792,5851,5852,5793
CQUADX4,5695,1,5793,5852,5853,5794
CQUADX4,5696,1,5794,5853,5854,5795
CQUADX4,5697,1,5795,5854,5855,5796
CQUADX4,5698,1,5796,5855,5856,5797
CQUADX4,5699,1,5797,5856,5857,5798
CQUADX4,5700,1,5798,5857,5858,5799
CQUADX4,5701,1,5799,5858,5859,5800
CQUADX4,5702,1,5800,5859,5860,5801
CQUADX4,5703,1,5801,5860,5861,5802
CQUADX4,5704,1,5802,5861,5862,5803
CQUADX4,5705,1,5803,5862,5863,5804
CQUADX4,5706,1,5804,5863,5864,5805
CQUADX4,5707,1,5805,5864,5865,5806
CQUADX4,5708,1,5806,5865,5866,5807
CQUADX4,5709,1,5807,5866,5867,5808
CQUADX4,5710,1,5808,5867,5868,5809
CQUADX4,5711,1,5809,5868,5869,5810
CQUADX4,5712,1,5810,5869,5870,5811
CQUADX4,5713,1,5811,5870,5871,5812
CQUADX4,5714,1,5812,5871,5872,5813
CQUADX4,5715,1,5813,5872,5873,5814
CQUADX4,5716,1,5814,5873,5874,5815
CQUADX4,5717,1,5815,5874,5875,5816
CQUADX4,5718,1,5816,5875,5876,5817
CQUADX4,5719,1,5817,5876,5877,5818
CQUADX4,5720,1,5818,5877,5878,5819
CQUADX4,5721,1,5819,5878,5879,5820
CQUADX4,5722,1,5820,5879,5880,5821
CQUADX4,5723,1,5821,5880,5881,5822
CQUADX4,5724,1,5822,5881,5882,5823
CQUADX4,5725,1,5823,5882,5883,5824
CQUADX4,5726,1,5824,5883,5884,5825
CQUADX4,5727,1,5825,5884,5885,5826
CQUADX4,5728,1,5826,5885,5886,5827
CQUADX4,5729,1,5827,5886,5887,5828
CQUADX4,5730,1,5828,5887,5888,5829
CQUADX4,5731,1,5829,5888,5889,5830
CQUADX4,5732,1,5830,5889,5890,5831
CQUADX4,5733,1,5831,5890,5891,5832
CQUADX4,5734,1,5832,5891,5892,5833
CQUADX4,5735,1,5833,5892,5893,5834
CQUADX4,5736,1,5834,5893,5894,5835
CQUADX4,5737,1,5835,5894,5895,5836
CQUADX4,5738,1,5836,5895,5896,5837
CQUADX4,5739,1,5837,5896,5897,5838
CQUADX4,5740,1,5838,5897,5898,5839
CQUADX4,5741,1,5839,5898,5899,5840
CQUADX4,5742,1,5840,5899,5900,5841
CQUADX4,5743,1,5842,5901,5902,5843
CQUADX4,5744,1,5843,5902,5903,5844
CQUADX4,5745,1,5844,5903,5904,5845
CQUADX4,5746,1,5845,5904,5905,5846
CQUADX4,5747,1,5846,5905,5906,5847
CQUADX4,5748,1,5847,5906,5907,5848
CQUADX4,5749,1,5848,5907,5908,5849
CQUADX4,5750,1,5849,5908,5909,5850
CQUADX4,5751,1,5850,5909,5910,5851
CQUADX4,5752,1,5851,5910,5911,5852
CQUADX4,5753,1,5852,5911,5912,5853
CQUADX4,5754,1,5853,5912,5913,5854
CQUADX4,5755,1,5854,5913,5914,5855
CQUADX4,5756,1,5855,5914,5915,5856
CQUADX4,5757,1,5856,5915,5916,5857
CQUADX4,5758,1,5857,5916,5917,5858
CQUADX4,5759,1,5858,5917,5918,5859
CQUADX4,5760,1,5859,5918,5919,5860
CQUADX4,5761,1,5860,5919,5920,5861
CQUADX4,5762,1,5861,5920,5921,5862
CQUADX4,5763,1,5862,5921,5922,5863
CQUADX4,5764,1,5863,5922,5923,5864
CQUADX4,5765,1,5864,5923,5924,5865
CQUADX4,5766,1,5865,5924,5925,5866
CQUADX4,5767,1,5866,5925,5926,5867
CQUADX4,5768,1,5867,5926,5927,5868
CQUADX4,5769,1,5868,5927,5928,5869
CQUADX4,5770,1,5869,5928,5929,5870
CQUADX4,5771,1,5870,5929,5930,5871
CQUADX4,5772,1,5871,5930,5931,5872
CQUADX4,5773,1,5872,5931,5932,5873
CQUADX4,5774,1,5873,5932,5933,5874
CQUADX4,5775,1,5874,5933,5934,5875
CQUADX4,5776,1,5875,5934,5935,5876
CQUADX4,5777,1,5876,5935,5936,5877
CQUADX4,5778,1,5877,5936,5937,5878
CQUADX4,5779,1,5878,5937,5938,5879
CQUADX4,5780,1,5879,5938,5939,5880
CQUADX4,5781,1,5880,5939,5940,5881
CQUADX4,5782,1,5881,5940,5941,5882
CQUADX4,5783,1,5882,5941,5942,5883
CQUADX4,5784,1,5883,5942,5943,5884
CQUADX4,5785,1,5884,5943,5944,5885
CQUADX4,5786,1,5885,5944,5945,5886
CQUADX4,5787,1,5886,5945,5946,5887
CQUADX4,5788,1,5887,5946,5947,5888
CQUADX4,5789,1,5888,5947,5948,5889
CQUADX4,5790,1,5889,5948,5949,5890
CQUADX4,5791,1,5890,5949,5950,5891
CQUADX4,5792,1,5891,5950,5951,5892
CQUADX4,5793,1,5892,5951,5952,5893
CQUADX4,5794,1,5893,5952,5953,5894
CQUADX4,5795,1,5894,5953,5954,5895
CQUADX4,5796,1,5895,5954,5955,5896
CQUADX4,5797,1,5896,5955,5956,5897
CQUADX4,5798,1,5897,5956,5957,5898
CQUADX4,5799,1,5898,5957,5958,5899
CQUADX4,5800,1,5899,5958,5959,5900
CQUADX4,5801,1,5901,5960,5961,5902
CQUADX4,5802,1,5902,5961,5962,5903
CQUADX4,5803,1,5903,5962,5963,5904
CQUADX4,5804,1,5904,5963,5964,5905
CQUADX4,5805,1,5905,5964,5965,5906
CQUADX4,5806,1,5906,5965,5966,5907
CQUADX4,5807,1,5907,5966,5967,5908
CQUADX4,5808,1,5908,5967,5968,5909
CQUADX4,5809,1,5909,5968,5969,5910
CQUADX4,5810,1,5910,5969,5970,5911
CQUADX4,5811,1,5911,5970,5971,5912
CQUADX4,5812,1,5912,5971,5972,5913
CQUADX4,5813,1,5913,5972,5973,5914
CQUADX4,5814,1,5914,5973,5974,5915
CQUADX4,5815,1,5915,5974,5975,5916
CQUADX4,5816,1,5916,5975,5976,5917
CQUADX4,5817,1,5917,5976,5977,5918
CQUADX4,5818,1,5918,5977,5978,5919
CQUADX4,5819,1,5919,5978,5979,5920
CQUADX4,5820,1,5920,5979,5980,5921
CQUADX4,5821,1,5921,5980,5981,5922
CQUADX4,5822,1,5922,5981,5982,5923
CQUADX4,5823,1,5923,5982,5983,5924
CQUADX4,5824,1,5924,5983,5984,5925
CQUADX4,5825,1,5925,5984,5985,5926
CQUADX4,5826,1,5926,5985,5986,5927
CQUADX4,5827,1,5927,5986,5987,5928
CQUADX4,5828,1,5928,5987,5988,5929
CQUADX4,5829,1,5929,5988,5989,5930
CQUADX4,5830,1,5930,5989,5990,5931
CQUADX4,5831,1,5931,5990,5991,5932
CQUADX4,5832,1,5932,5991,5992,5933
CQUADX4,5833,1,5933,5992,5993,5934
CQUADX4,5834,1,5934,5993,5994,5935
CQUADX4,5835,1,5935,5994,5995,5936
CQUADX4,5836,1,5936,5995,5996,5937
CQUADX4,5837,1,5937,5996,5997,5938
CQUADX4,5838,1,5938,5997,5998,5939
CQUADX4,5839,1,5939,5998,5999,5940
CQUADX4,5840,1,5940,5999,6000,5941
CQUADX4,5841,1,5941,6000,6001,5942
CQUADX4,5842,1,5942,6001,6002,5943
CQUADX4,5843,1,5943,6002,6003,5944
CQUADX4,5844,1,5944,6003,6004,5945
CQUADX4,5845,1,5945,6004,6005,5946
CQUADX4,5846,1,5946,6005,6006,5947
CQUADX4,5847,1,5947,6006,6007,5948
CQUADX4,5848,1,5948,6007,6008,5949
CQUADX4,5849,1,5949,6008,6009,5950
CQUADX4,5850,1,5950,6009,6010,5951
CQUADX4,5851,1,5951,6010,6011,5952
CQUADX4,5852,1,5952,6011,6012,5953
CQUADX4,5853,1,5953,6012,6013,5954
CQUADX4,5854,1,5954,6013,6014,5955
CQUADX4,5855,1,5955,6014,6015,5956
CQUADX4,5856,1,5956,6015,6016,5957
CQUADX4,5857,1,5957,6016,6017,5958
CQUADX4,5858,1,5958,6017,6018,5959
CQUADX4,5859,1,5960,6019,6020,5961
CQUADX4,5860,1,5961,6020,6021,5962
CQUADX4,5861,1,5962,6021,6022,5963
CQUADX4,5862,1,5963,6022,6023,5964
CQUADX4,5863,1,5964,6023,6024,5965
CQUADX4,5864,1,5965,6024,6025,5966
CQUADX4,5865,1,5966,6025,6026,5967
CQUADX4,5866,1,5967,6026,6027,5968
CQUADX4,5867,1,5968,6027,6028,5969
CQUADX4,5868,1,5969,6028,6029,5970
CQUADX4,5869,1,5970,6029,6030,5971
CQUADX4,5870,1,5971,6030,6031,5972
CQUADX4,5871,1,5972,6031,6032,5973
CQUADX4,5872,1,5973,6032,6033,5974
CQUADX4,5873,1,5974,6033,6034,5975
CQUADX4,5874,1,5975,6034,6035,5976
CQUADX4,5875,1,5976,6035,6036,5977
CQUADX4,5876,1,5977,6036,6037,5978
CQUADX4,5877,1,5978,6037,6038,5979
CQUADX4,5878,1,5979,6038,6039,5980
CQUADX4,5879,1,5980,6039,6040,5981
CQUADX4,5880,1,5981,6040,6041,5982
CQUADX4,5881,1,5982,6041,6042,5983
CQUADX4,5882,1,5983,6042,6043,5984
CQUADX4,5883,1,5984,6043,6044,5985
CQUADX4,5884,1,5985,6044,6045,5986
CQUADX4,5885,1,5986,6045,6046,5987
CQUADX4,5886,1,5987,6046,6047,5988
CQUADX4,5887,1,5988,6047,6048,5989
CQUADX4,5888,1,5989,6048,6049,5990
CQUADX4,5889,1,5990,6049,6050,5991
CQUADX4,5890,1,5991,6050,6051,5992
CQUADX4,5891,1,5992,6051,6052,5993
CQUADX4,5892,1,5993,6052,6053,5994
CQUADX4,5893,1,5994,6053,6054,5995
CQUADX4,5894,1,5995,6054,6055,5996
CQUADX4,5895,1,5996,6055,6056,5997
CQUADX4,5896,1,5997,6056,6057,5998
CQUADX4,5897,1,5998,6057,6058,5999
CQUADX4,5898,1,5999,6058,6059,6000
CQUADX4,5899,1,6000,6059,6060,6001
CQUADX4,5900,1,6001,6060,6061,6002
CQUADX4,5901,1,6002,6061,6062,6003
CQUADX4,5902,1,6003,6062,6063,6004
CQUADX4,5903,1,6004,6063,6064,6005
CQUADX4,5904,1,6005,6064,6065,6006
CQUADX4,5905,1,6006,6065,6066,6007
CQUADX4,5906,1,6007,6066,6067,6008
CQUADX4,5907,1,6008,6067,6068,6009
CQUADX4,5908,1,6009,6068,6069,6010
CQUADX4,5909,1,6010,6069,6070,6011
CQUADX4,5910,1,6011,6070,6071,6012
CQUADX4,5911,1,6012,6071,6072,6013
CQUADX4,5912,1,6013,6072,6073,6014
CQUADX4,5913,1,6014,6073,6074,6015
CQUADX4,5914,1,6015,6074,6075,6016
CQUADX4,5915,1,6016,6075,6076,6017
CQUADX4,5916,1,6017,6076,6077,6018
CQUADX4,5917,1,6019,6078,6079,6020
CQUADX4,5918,1,6020,6079,6080,6021
CQUADX4,5919,1,6021,6080,6081,6022
CQUADX4,5920,1,6022,6081,6082,6023
CQUADX4,5921,1,6023,6082,6083,6024
CQUADX4,5922,1,6024,6083,6084,6025
CQUADX4,5923,1,6025,6084,6085,6026
CQUADX4,5924,1,6026,6085,6086,6027
CQUADX4,5925,1,6027,6086,6087,6028
CQUADX4,5926,1,6028,6087,6088,6029
CQUADX4,5927,1,6029,6088,6089,6030
CQUADX4,5928,1,6030,6089,6090,6031
CQUADX4,5929,1,6031,6090,6091,6032
CQUADX4,5930,1,6032,6091,6092,6033
CQUADX4,5931,1,6033,6092,6093,6034
CQUADX4,5932,1,6034,6093,6094,6035
CQUADX4,5933,1,6035,6094,6095,6036
CQUADX4,5934,1,6036,6095,6096,6037
CQUADX4,5935,1,6037,6096,6097,6038
CQUADX4,5936,1,6038,6097,6098,6039
CQUADX4,5937,1,6039,6098,6099,6040
CQUADX4,5938,1,6040,6099,6100,6041
CQUADX4,5939,1,6041,6100,6101,6042
CQUADX4,5940,1,6042,6101,6102,6043
CQUADX4,5941,1,6043,6102,6103,6044
CQUADX4,5942,1,6044,6103,6104,6045
CQUADX4,5943,1,6045,6104,6105,6046
CQUADX4,5944,1,6046,6105,6106,6047
CQUADX4,5945,1,6047,6106,6107,6048
CQUADX4,5946,1,6048,6107,6108,6049
CQUADX4,5947,1,6049,6108,6109,6050
CQUADX4,5948,1,6050,6109,6110,6051
CQUADX4,5949,1,6051,6110,6111,6052
CQUADX4,5950,1,6052,6111,6112,6053
CQUADX4,5951,1,6053,6112,6113,6054
CQUADX4,5952,1,6054,6113,6114,6055
CQUADX4,5953,1,6055,6114,6115,6056
CQUADX4,5954,1,6056,6115,6116,6057
CQUADX4,5955,1,6057,6116,6117,6058
CQUADX4,5956,1,6058,6117,6118,6059
CQUADX4,5957,1,6059,6118,6119,6060
CQUADX4,5958,1,6060,6119,6120,6061
CQUADX4,5959,1,6061,6120,6121,6062
CQUADX4,5960,1,6062,6121,6122,6063
CQUADX4,5961,1,6063,6122,6123,6064
CQUADX4,5962,1,6064,6123,6124,6065
CQUADX4,5963,1,6065,6124,6125,6066
CQUADX4,5964,1,6066,6125,6126,6067
CQUADX4,5965,1,6067,6126,6127,6068
CQUADX4,5966,1,6068,6127,6128,6069
CQUADX4,5967,1,6069,6128,6129,6070
CQUADX4,5968,1,6070,6129,6130,6071
CQUADX4,5969,1,6071,6130,6131,6072
CQUADX4,5970,1,6072,6131,6132,6073
CQUADX4,5971,1,6073,6132,6133,6074
CQUADX4,5972,1,6074,6133,6134,6075
CQUADX4,5973,1,6075,6134,6135,6076
CQUADX4,5974,1,6076,6135,6136,6077
CQUADX4,5975,1,6078,6137,6138,6079
CQUADX4,5976,1,6079,6138,6139,6080
CQUADX4,5977,1,6080,6139,6140,6081
CQUADX4,5978,1,6081,6140,6141,6082
CQUADX4,5979,1,6082,6141,6142,6083
CQUADX4,5980,1,6083,6142,6143,6084
CQUADX4,5981,1,6084,6143,6144,6085
CQUADX4,5982,1,6085,6144,6145,6086
CQUADX4,5983,1,6086,6145,6146,6087
CQUADX4,5984,1,6087,6146,6147,6088
CQUADX4,5985,1,6088,6147,6148,6089
CQUADX4,5986,1,6089,6148,6149,6090
CQUADX4,5987,1,6090,6149,6150,6091
CQUADX4,5988,1,6091,6150,6151,6092
CQUADX4,5989,1,6092,6151,6152,6093
CQUADX4,5990,1,6093,6152,6153,6094
CQUADX4,5991,1,6094,6153,6154,6095
CQUADX4,5992,1,6095,6154,6155,6096
CQUADX4,5993,1,6096,6155,6156,6097
CQUADX4,5994,1,6097,6156,6157,6098
CQUADX4,5995,1,6098,6157,6158,6099
CQUADX4,5996,1,6099,6158,6159,6100
CQUADX4,5997,1,6100,6159,6160,6101
CQUADX4,5998,1,6101,6160,6161,6102
CQUADX4,5999,1,6102,6161,6162,6103
CQUADX4,6000,1,6103,6162,6163,6104
CQUADX4,6001,1,6104,6163,6164,6105
CQUADX4,6002,1,6105,6164,6165,6106
CQUADX4,6003,1,6106,6165,6166,6107
CQUADX4,6004,1,6107,6166,6167,6108
CQUADX4,6005,1,6108,6167,6168,6109
CQUADX4,6006,1,6109,6168,6169,6110
CQUADX4,6007,1,6110,6169,6170,6111
CQUADX4,6008,1,6111,6170,6171,6112
CQUADX4,6009,1,6112,6171,6172,6113
CQUADX4,6010,1,6113,6172,6173,6114
CQUADX4,6011,1,6114,6173,6174,6115
CQUADX4,6012,1,6115,6174,6175,6116
CQUADX4,6013,1,6116,6175,6176,6117
CQUADX4,6014,1,6117,6176,6177,6118
CQUADX4,6015,1,6118,6177,6178,6119
CQUADX4,6016,1,6119,6178,6179,6120
CQUADX4,6017,1,6120,6179,6180,6121
CQUADX4,6018,1,6121,6180,6181,6122
CQUADX4,6019,1,6122,6181,6182,6123
CQUADX4,6020,1,6123,6182,6183,6124
CQUADX4,6021,1,6124,6183,6184,6125
CQUADX4,6022,1,6125,6184,6185,6126
CQUADX4,6023,1,6126,6185,6186,6127
CQUADX4,6024,1,6127,6186,6187,6128
CQUADX4,6025,1,6128,6187,6188,6129
CQUADX4,6026,1,6129,6188,6189,6130
CQUADX4,6027,1,6130,6189,6190,6131
CQUADX4,6028,1,6131,6190,6191,6132
CQUADX4,6029,1,6132,6191,6192,6133
CQUADX4,6030,1,6133,6192,6193,6134
CQUADX4,6031,1,6134,6193,6194,6135
CQUADX4,6032,1,6135,6194,6195,6136
CQUADX4,6033,1,6137,6196,6197,6138
CQUADX4,6034,1,6138,6197,6198,6139
CQUADX4,6035,1,6139,6198,6199,6140
CQUADX4,6036,1,6140,6199,6200,6141
CQUADX4,6037,1,6141,6200,6201,6142
CQUADX4,6038,1,6142,6201,6202,6143
CQUADX4,6039,1,6143,6202,6203,6144
CQUADX4,6040,1,6144,6203,6204,6145
CQUADX4,6041,1,6145,6204,6205,6146
CQUADX4,6042,1,6146,6205,6206,6147
CQUADX4,6043,1,6147,6206,6207,6148
CQUADX4,6044,1,6148,6207,6208,6149
CQUADX4,6045,1,6149,6208,6209,6150
CQUADX4,6046,1,6150,6209,6210,6151
CQUADX4,6047,1,6151,6210,6211,6152
CQUADX4,6048,1,6152,6211,6212,6153
CQUADX4,6049,1,6153,6212,6213,6154
CQUADX4,6050,1,6154,6213,6214,6155
CQUADX4,6051,1,6155,6214,6215,6156
CQUADX4,6052,1,6156,6215,6216,6157
CQUADX4,6053,1,6157,6216,6217,6158
CQUADX4,6054,1,6158,6217,6218,6159
CQUADX4,6055,1,6159,6218,6219,6160
CQUADX4,6056,1,6160,6219,6220,6161
CQUADX4,6057,1,6161,6220,6221,6162
CQUADX4,6058,1,6162,6221,6222,6163
CQUADX4,6059,1,6163,6222,6223,6164
CQUADX4,6060,1,6164,6223,6224,6165
CQUADX4,6061,1,6165,6224,6225,6166
CQUADX4,6062,1,6166,6225,6226,6167
CQUADX4,6063,1,6167,6226,6227,6168
CQUADX4,6064,1,6168,6227,6228,6169
CQUADX4,6065,1,6169,6228,6229,6170
CQUADX4,6066,1,6170,6229,6230,6171
CQUADX4,6067,1,6171,6230,6231,6172
CQUADX4,6068,1,6172,6231,6232,6173
CQUADX4,6069,1,6173,6232,6233,6174
CQUADX4,6070,1,6174,6233,6234,6175
CQUADX4,6071,1,6175,6234,6235,6176
CQUADX4,6072,1,6176,6235,6236,6177
CQUADX4,6073,1,6177,6236,6237,6178
CQUADX4,6074,1,6178,6237,6238,6179
CQUADX4,6075,1,6179,6238,6239,6180
CQUADX4,6076,1,6180,6239,6240,6181
CQUADX4,6077,1,6181,6240,6241,6182
CQUADX4,6078,1,6182,6241,6242,6183
CQUADX4,6079,1,6183,6242,6243,6184
CQUADX4,6080,1,6184,6243,6244,6185
CQUADX4,6081,1,6185,6244,6245,6186
CQUADX4,6082,1,6186,6245,6246,6187
CQUADX4,6083,1,6187,6246,6247,6188
CQUADX4,6084,1,6188,6247,6248,6189
CQUADX4,6085,1,6189,6248,6249,6190
CQUADX4,6086,1,6190,6249,6250,6191
CQUADX4,6087,1,6191,6250,6251,6192
CQUADX4,6088,1,6192,6251,6252,6193
CQUADX4,6089,1,6193,6252,6253,6194
CQUADX4,6090,1,6194,6253,6254,6195
CQUADX4,6091,1,6196,6255,6256,6197
CQUADX4,6092,1,6197,6256,6257,6198
CQUADX4,6093,1,6198,6257,6258,6199
CQUADX4,6094,1,6199,6258,6259,6200
CQUADX4,6095,1,6200,6259,6260,6201
CQUADX4,6096,1,6201,6260,6261,6202
CQUADX4,6097,1,6202,6261,6262,6203
CQUADX4,6098,1,6203,6262,6263,6204
CQUADX4,6099,1,6204,6263,6264,6205
CQUADX4,6100,1,6205,6264,6265,6206
CQUADX4,6101,1,6206,6265,6266,6207
CQUADX4,6102,1,6207,6266,6267,6208
CQUADX4,6103,1,6208,6267,6268,6209
CQUADX4,6104,1,6209,6268,6269,6210
CQUADX4,6105,1,6210,6269,6270,6211
CQUADX4,6106,1,6211,6270,6271,6212
CQUADX4,6107,1,6212,6271,6272,6213
CQUADX4,6108,1,6213,6272,6273,6214
CQUADX4,6109,1,6214,6273,6274,6215
CQUADX4,6110,1,6215,6274,6275,6216
CQUADX4,6111,1,6216,6275,6276,6217
CQUADX4,6112,1,6217,6276,6277,6218
CQUADX4,6113,1,6218,6277,6278,6219
CQUADX4,6114,1,6219,6278,6279,6220
CQUADX4,6115,1,6220,6279,6280,6221
CQUADX4,6116,1,6221,6280,6281,6222
CQUADX4,6117,1,6222,6281,6282,6223
CQUADX4,6118,1,6223,6282,6283,6224
CQUADX4,6119,1,6224,6283,6284,6225
CQUADX4,6120,1,6225,6284,6285,6226
CQUADX4,6121,1,6226,6285,6286,6227
CQUADX4,6122,1,6227,6286,6287,6228
CQUADX4,6123,1,6228,6287,6288,6229
CQUADX4,6124,1,6229,6288,6289,6230
CQUADX4,6125,1,6230,6289,6290,6231
CQUADX4,6126,1,6231,6290,6291,6232
CQUADX4,6127,1,6232,6291,6292,6233
CQUADX4,6128,1,6233,6292,6293,6234
CQUADX4,6129,1,6234,6293,6294,6235
CQUADX4,6130,1,6235,6294,6295,6236
CQUADX4,6131,1,6236,6295,6296,6237
CQUADX4,6132,1,6237,6296,6297,6238
CQUADX4,6133,1,6238,6297,6298,6239
CQUADX4,6134,1,6239,6298,6299,6240
CQUADX4,6135,1,6240,6299,6300,6241
CQUADX4,6136,1,6241,6300,6301,6242
CQUADX4,6137,1,6242,6301,6302,6243
CQUADX4,6138,1,6243,6302,6303,6244
CQUADX4,6139,1,6244,6303,6304,6245
CQUADX4,6140,1,6245,6304,6305,6246
CQUADX4,6141,1,6246,6305,6306,6247
CQUADX4,6142,1,6247,6306,6307,6248
CQUADX4,6143,1,6248,6307,6308,6249
CQUADX4,6144,1,6249,6308,6309,6250
CQUADX4,6145,1,6250,6309,6310,6251
CQUADX4,6146,1,6251,6310,6311,6252
CQUADX4,6147,1,6252,6311,6312,6253
CQUADX4,6148,1,6253,6312,6313,6254
CQUADX4,6149,1,6255,6314,6315,6256
CQUADX4,6150,1,6256,6315,6316,6257
CQUADX4,6151,1,6257,6316,6317,6258
CQUADX4,6152,1,6258,6317,6318,6259
CQUADX4,6153,1,6259,6318,6319,6260
CQUADX4,6154,1,6260,6319,6320,6261
CQUADX4,6155,1,6261,6320,6321,6262
CQUADX4,6156,1,6262,6321,6322,6263
CQUADX4,6157,1,6263,6322,6323,6264
CQUADX4,6158,1,6264,6323,6324,6265
CQUADX4,6159,1,6265,6324,6325,6266
CQUADX4,6160,1,6266,6325,6326,6267
CQUADX4,6161,1,6267,6326,6327,6268
CQUADX4,6162,1,6268,6327,6328,6269
CQUADX4,6163,1,6269,6328,6329,6270
CQUADX4,6164,1,6270,6329,6330,6271
CQUADX4,6165,1,6271,6330,6331,6272
CQUADX4,6166,1,6272,6331,6332,6273
CQUADX4,6167,1,6273,6332,6333,6274
CQUADX4,6168,1,6274,6333,6334,6275
CQUADX4,6169,1,6275,6334,6335,6276
CQUADX4,6170,1,6276,6335,6336,6277
CQUADX4,6171,1,6277,6336,6337,6278
CQUADX4,6172,1,6278,6337,6338,6279
CQUADX4,6173,1,6279,6338,6339,6280
CQUADX4,6174,1,6280,6339,6340,6281
CQUADX4,6175,1,6281,6340,6341,6282
CQUADX4,6176,1,6282,6341,6342,6283
CQUADX4,6177,1,6283,6342,6343,6284
CQUADX4,6178,1,6284,6343,6344,6285
CQUADX4,6179,1,6285,6344,6345,6286
CQUADX4,6180,1,6286,6345,6346,6287
CQUADX4,6181,1,6287,6346,6347,6288
CQUADX4,6182,1,6288,6347,6348,6289
CQUADX4,6183,1,6289,6348,6349,6290
CQUADX4,6184,1,6290,6349,6350,6291
CQUADX4,6185,1,6291,6350,6351,6292
CQUADX4,6186,1,6292,6351,6352,6293
CQUADX4,6187,1,6293,6352,6353,6294
CQUADX4,6188,1,6294,6353,6354,6295
CQUADX4,6189,1,6295,6354,6355,6296
CQUADX4,6190,1,6296,6355,6356,6297
CQUADX4,6191,1,6297,6356,6357,6298
CQUADX4,6192,1,6298,6357,6358,6299
CQUADX4,6193,1,6299,6358,6359,6300
CQUADX4,6194,1,6300,6359,6360,6301
CQUADX4,6195,1,6301,6360,6361,6302
CQUADX4,6196,1,6302,6361,6362,6303
CQUADX4,6197,1,6303,6362,6363,6304
CQUADX4,6198,1,6304,6363,6364,6305
CQUADX4,6199,1,6305,6364,6365,6306
CQUADX4,6200,1,6306,6365,6366,6307
CQUADX4,6201,1,6307,6366,6367,6308
CQUADX4,6202,1,6308,6367,6368,6309
CQUADX4,6203,1,6309,6368,6369,6310
CQUADX4,6204,1,6310,6369,6370,6311
CQUADX4,6205,1,6311,6370,6371,6312
CQUADX4,6206,1,6312,6371,6372,6313
CQUADX4,6207,1,6314,6373,6374,6315
CQUADX4,6208,1,6315,6374,6375,6316
CQUADX4,6209,1,6316,6375,6376,6317
CQUADX4,6210,1,6317,6376,6377,6318
CQUADX4,6211,1,6318,6377,6378,6319
CQUADX4,6212,1,6319,6378,6379,6320
CQUADX4,6213,1,6320,6379,6380,6321
CQUADX4,6214,1,6321,6380,6381,6322
CQUADX4,6215,1,6322,6381,6382,6323
CQUADX4,6216,1,6323,6382,6383,6324
CQUADX4,6217,1,6324,6383,6384,6325
CQUADX4,6218,1,6325,6384,6385,6326
CQUADX4,6219,1,6326,6385,6386,6327
CQUADX4,6220,1,6327,6386,6387,6328
CQUADX4,6221,1,6328,6387,6388,6329
CQUADX4,6222,1,6329,6388,6389,6330
CQUADX4,6223,1,6330,6389,6390,6331
CQUADX4,6224,1,6331,6390,6391,6332
CQUADX4,6225,1,6332,6391,6392,6333
CQUADX4,6226,1,6333,6392,6393,6334
CQUADX4,6227,1,6334,6393,6394,6335
CQUADX4,6228,1,6335,6394,6395,6336
CQUADX4,6229,1,6336,6395,6396,6337
CQUADX4,6230,1,6337,6396,6397,6338
CQUADX4,6231,1,6338,6397,6398,6339
CQUADX4,6232,1,6339,6398,6399,6340
CQUADX4,6233,1,6340,6399,6400,6341
CQUADX4,6234,1,6341,6400,6401,6342
CQUADX4,6235,1,6342,6401,6402,6343
CQUADX4,6236,1,6343,6402,6403,6344
CQUADX4,6237,1,6344,6403,6404,6345
CQUADX4,6238,1,6345,6404,6405,6346
CQUADX4,6239,1,6346,6405,6406,6347
CQUADX4,6240,1,6347,6406,6407,6348
CQUADX4,6241,1,6348,6407,6408,6349
CQUADX4,6242,1,6349,6408,6409,6350
CQUADX4,6243,1,6350,6409,6410,6351
CQUADX4,6244,1,6351,6410,6411,6352
CQUADX4,6245,1,6352,6411,6412,6353
CQUADX4,6246,1,6353,6412,6413,6354
CQUADX4,6247,1,6354,6413,6414,6355
CQUADX4,6248,1,6355,6414,6415,6356
CQUADX4,6249,1,6356,6415,6416,6357
CQUADX4,6250,1,6357,6416,6417,6358
CQUADX4,6251,1,6358,6417,6418,6359
CQUADX4,6252,1,6359,6418,6419,6360
CQUADX4,6253,1,6360,6419,6420,6361
CQUADX4,6254,1,6361,6420,6421,6362
CQUADX4,6255,1,6362,6421,6422,6363
CQUADX4,6256,1,6363,6422,6423,6364
CQUADX4,6257,1,6364,6423,6424,6365
CQUADX4,6258,1,6365,6424,6425,6366
CQUADX4,6259,1,6366,6425,6426,6367
CQUADX4,6260,1,6367,6426,6427,6368
CQUADX4,6261,1,6368,6427,6428,6369
CQUADX4,6262,1,6369,6428,6429,6370
CQUADX4,6263,1,6370,6429,6430,6371
CQUADX4,6264,1,6371,6430,6431,6372
CQUADX4,6265,1,6373,6432,6433,6374
CQUADX4,6266,1,6374,6433,6434,6375
CQUADX4,6267,1,6375,6434,6435,6376
CQUADX4,6268,1,6376,6435,6436,6377
CQUADX4,6269,1,6377,6436,6437,6378
CQUADX4,6270,1,6378,6437,6438,6379
CQUADX4,6271,1,6379,6438,6439,6380
CQUADX4,6272,1,6380,6439,6440,6381
CQUADX4,6273,1,6381,6440,6441,6382
CQUADX4,6274,1,6382,6441,6442,6383
CQUADX4,6275,1,6383,6442,6443,6384
CQUADX4,6276,1,6384,6443,6444,6385
CQUADX4,6277,1,6385,6444,6445,6386
CQUADX4,6278,1,6386,6445,6446,6387
CQUADX4,6279,1,6387,6446,6447,6388
CQUADX4,6280,1,6388,6447,6448,6389
CQUADX4,6281,1,6389,6448,6449,6390
CQUADX4,6282,1,6390,6449,6450,6391
CQUADX4,6283,1,6391,6450,6451,6392
CQUADX4,6284,1,6392,6451,6452,6393
CQUADX4,6285,1,6393,6452,6453,6394
CQUADX4,6286,1,6394,6453,6454,6395
CQUADX4,6287,1,6395,6454,6455,6396
CQUADX4,6288,1,6396,6455,6456,6397
CQUADX4,6289,1,6397,6456,6457,6398
CQUADX4,6290,1,6398,6457,6458,6399
CQUADX4,6291,1,6399,6458,6459,6400
CQUADX4,6292,1,6400,6459,6460,6401
CQUADX4,6293,1,6401,6460,6461,6402
CQUADX4,6294,1,6402,6461,6462,6403
CQUADX4,6295,1,6403,6462,6463,6404
CQUADX4,6296,1,6404,6463,6464,6405
CQUADX4,6297,1,6405,6464,6465,6406
CQUADX4,6298,1,6406,6465,6466,6407
CQUADX4,6299,1,6407,6466,6467,6408
CQUADX4,6300,1,6408,6467,6468,6409
CQUADX4,6301,1,6409,6468,6469,6410
CQUADX4,6302,1,6410,6469,6470,6411
CQUADX4,6303,1,6411,6470,6471,6412
CQUADX4,6304,1,6412,6471,6472,6413
CQUADX4,6305,1,6413,6472,6473,6414
CQUADX4,6306,1,6414,6473,6474,6415
CQUADX4,6307,1,6415,6474,6475,6416
CQUADX4,6308,1,6416,6475,6476,6417
CQUADX4,6309,1,6417,6476,6477,6418
CQUADX4,6310,1,6418,6477,6478,6419
CQUADX4,6311,1,6419,6478,6479,6420
CQUADX4,6312,1,6420,6479,6480,6421
CQUADX4,6313,1,6421,6480,6481,6422
CQUADX4,6314,1,6422,6481,6482,6423
CQUADX4,6315,1,6423,6482,6483,6424
CQUADX4,6316,1,6424,6483,6484,6425
CQUADX4,6317,1,6425,6484,6485,6426
CQUADX4,6318,1,6426,6485,6486,6427
CQUADX4,6319,1,6427,6486,6487,6428
CQUADX4,6320,1,6428,6487,6488,6429
CQUADX4,6321,1,6429,6488,6489,6430
CQUADX4,6322,1,6430,6489,6490,6431
CQUADX4,6323,1,6432,6491,6492,6433
CQUADX4,6324,1,6433,6492,6493,6434
CQUADX4,6325,1,6434,6493,6494,6435
CQUADX4,6326,1,6435,6494,6495,6436
CQUADX4,6327,1,6436,6495,6496,6437
CQUADX4,6328,1,6437,6496,6497,6438
CQUADX4,6329,1,6438,6497,6498,6439
CQUADX4,6330,1,6439,6498,6499,6440
CQUADX4,6331,1,6440,6499,6500,6441
CQUADX4,6332,1,6441,6500,6501,6442
CQUADX4,6333,1,6442,6501,6502,6443
CQUADX4,6334,1,6443,6502,6503,6444
CQUADX4,6335,1,6444,6503,6504,6445
CQUADX4,6336,1,6445,6504,6505,6446
CQUADX4,6337,1,6446,6505,6506,6447
CQUADX4,6338,1,6447,6506,6507,6448
CQUADX4,6339,1,6448,6507,6508,6449
CQUADX4,6340,1,6449,6508,6509,6450
CQUADX4,6341,1,6450,6509,6510,6451
CQUADX4,6342,1,6451,6510,6511,6452
CQUADX4,6343,1,6452,6511,6512,6453
CQUADX4,6344,1,6453,6512,6513,6454
CQUADX4,6345,1,6454,6513,6514,6455
CQUADX4,6346,1,6455,6514,6515,6456
CQUADX4,6347,1,6456,6515,6516,6457
CQUADX4,6348,1,6457,6516,6517,6458
CQUADX4,6349,1,6458,6517,6518,6459
CQUADX4,6350,1,6459,6518,6519,6460
CQUADX4,6351,1,6460,6519,6520,6461
CQUADX4,6352,1,6461,6520,6521,6462
CQUADX4,6353,1,6462,6521,6522,6463
CQUADX4,6354,1,6463,6522,6523,6464
CQUADX4,6355,1,6464,6523,6524,6465
CQUADX4,6356,1,6465,6524,6525,6466
CQUADX4,6357,1,6466,6525,6526,6467
CQUADX4,6358,1,6467,6526,6527,6468
CQUADX4,6359,1,6468,6527,6528,6469
CQUADX4,6360,1,6469,6528,6529,6470
CQUADX4,6361,1,6470,6529,6530,6471
CQUADX4,6362,1,6471,6530,6531,6472
CQUADX4,6363,1,6472,6531,6532,6473
CQUADX4,6364,1,6473,6532,6533,6474
CQUADX4,6365,1,6474,6533,6534,6475
CQUADX4,6366,1,6475,6534,6535,6476
CQUADX4,6367,1,6476,6535,6536,6477
CQUADX4,6368,1,6477,6536,6537,6478
CQUADX4,6369,1,6478,6537,6538,6479
CQUADX4,6370,1,6479,6538,6539,6480
CQUADX4,6371,1,6480,6539,6540,6481
CQUADX4,6372,1,6481,6540,6541,6482
CQUADX4,6373,1,6482,6541,6542,6483
CQUADX4,6374,1,6483,6542,6543,6484
CQUADX4,6375,1,6484,6543,6544,6485
CQUADX4,6376,1,6485,6544,6545,6486
CQUADX4,6377,1,6486,6545,6546,6487
CQUADX4,6378,1,6487,6546,6547,6488
CQUADX4,6379,1,6488,6547,6548,6489
CQUADX4,6380,1,6489,6548,6549,6490
CQUADX4,6381,1,6491,6550,6551,6492
CQUADX4,6382,1,6492,6551,6552,6493
CQUADX4,6383,1,6493,6552,6553,6494
CQUADX4,6384,1,6494,6553,6554,6495
CQUADX4,6385,1,6495,6554,6555,6496
CQUADX4,6386,1,6496,6555,6556,6497
CQUADX4,6387,1,6497,6556,6557,6498
CQUADX4,6388,1,6498,6557,6558,6499
CQUADX4,6389,1,6499,6558,6559,6500
CQUADX4,6390,1,6500,6559,6560,6501
CQUADX4,6391,1,6501,6560,6561,6502
CQUADX4,6392,1,6502,6561,6562,6503
CQUADX4,6393,1,6503,6562,6563,6504
CQUADX4,6394,1,6504,6563,6564,6505
CQUADX4,6395,1,6505,6564,6565,6506
CQUADX4,6396,1,6506,6565,6566,6507
CQUADX4,6397,1,6507,6566,6567,6508
CQUADX4,6398,1,6508,6567,6568,6509
CQUADX4,6399,1,6509,6568,6569,6510
CQUADX4,6400,1,6510,6569,6570,6511
CQUADX4,6401,1,6511,6570,6571,6512
CQUADX4,6402,1,6512,6571,6572,6513
CQUADX4,6403,1,6513,6572,6573,6514
CQUADX4,6404,1,6514,6573,6574,6515
CQUADX4,6405,1,6515,6574,6575,6516
CQUADX4,6406,1,6516,6575,6576,6517
CQUADX4,6407,1,6517,6576,6577,6518
CQUADX4,6408,1,6518,6577,6578,6519
CQUADX4,6409,1,6519,6578,6579,6520
CQUADX4,6410,1,6520,6579,6580,6521
CQUADX4,6411,1,6521,6580,6581,6522
CQUADX4,6412,1,6522,6581,6582,6523
CQUADX4,6413,1,6523,6582,6583,6524
CQUADX4,6414,1,6524,6583,6584,6525
CQUADX4,6415,1,6525,6584,6585,6526
CQUADX4,6416,1,6526,6585,6586,6527
CQUADX4,6417,1,6527,6586,6587,6528
CQUADX4,6418,1,6528,6587,6588,6529
CQUADX4,6419,1,6529,6588,6589,6530
CQUADX4,6420,1,6530,6589,6590,6531
CQUADX4,6421,1,6531,6590,6591,6532
CQUADX4,6422,1,6532,6591,6592,6533
CQUADX4,6423,1,6533,6592,6593,6534
CQUADX4,6424,1,6534,6593,6594,6535
CQUADX4,6425,1,6535,6594,6595,6536
CQUADX4,6426,1,6536,6595,6596,6537
CQUADX4,6427,1,6537,6596,6597,6538
CQUADX4,6428,1,6538,6597,6598,6539
CQUADX4,6429,1,6539,6598,6599,6540
CQUADX4,6430,1,6540,6599,6600,6541
CQUADX4,6431,1,6541,6600,6601,6542
CQUADX4,6432,1,6542,6601,6602,6543
CQUADX4,6433,1,6543,6602,6603,6544
CQUADX4,6434,1,6544,6603,6604,6545
CQUADX4,6435,1,6545,6604,6605,6546
CQUADX4,6436,1,6546,6605,6606,6547
CQUADX4,6437,1,6547,6606,6607,6548
CQUADX4,6438,1,6548,6607,6608,6549
CQUADX4,6439,1,6550,6609,6610,6551
CQUADX4,6440,1,6551,6610,6611,6552
CQUADX4,6441,1,6552,6611,6612,6553
CQUADX4,6442,1,6553,6612,6613,6554
CQUADX4,6443,1,6554,6613,6614,6555
CQUADX4,6444,1,6555,6614,6615,6556
CQUADX4,6445,1,6556,6615,6616,6557
CQUADX4,6446,1,6557,6616,6617,6558
CQUADX4,6447,1,6558,6617,6618,6559
CQUADX4,6448,1,6559,6618,6619,6560
CQUADX4,6449,1,6560,6619,6620,6561
CQUADX4,6450,1,6561,6620,6621,6562
CQUADX4,6451,1,6562,6621,6622,6563
CQUADX4,6452,1,6563,6622,6623,6564
CQUADX4,6453,1,6564,6623,6624,6565
CQUADX4,6454,1,6565,6624,6625,6566
CQUADX4,6455,1,6566,6625,6626,6567
CQUADX4,6456,1,6567,6626,6627,6568
CQUADX4,6457,1,6568,6627,6628,6569
CQUADX4,6458,1,6569,6628,6629,6570
CQUADX4,6459,1,6570,6629,6630,6571
CQUADX4,6460,1,6571,6630,6631,6572
CQUADX4,6461,1,6572,6631,6632,6573
CQUADX4,6462,1,6573,6632,6633,6574
CQUADX4,6463,1,6574,6633,6634,6575
CQUADX4,6464,1,6575,6634,6635,6576
CQUADX4,6465,1,6576,6635,6636,6577
CQUADX4,6466,1,6577,6636,6637,6578
CQUADX4,6467,1,6578,6637,6638,6579
CQUADX4,6468,1,6579,6638,6639,6580
CQUADX4,6469,1,6580,6639,6640,6581
CQUADX4,6470,1,6581,6640,6641,6582
CQUADX4,6471,1,6582,6641,6642,6583
CQUADX4,6472,1,6583,6642,6643,6584
CQUADX4,6473,1,6584,6643,6644,6585
CQUADX4,6474,1,6585,6644,6645,6586
CQUADX4,6475,1,6586,6645,6646,6587
CQUADX4,6476,1,6587,6646,6647,6588
CQUADX4,6477,1,6588,6647,6648,6589
CQUADX4,6478,1,6589,6648,6649,6590
CQUADX4,6479,1,6590,6649,6650,6591
CQUADX4,6480,1,6591,6650,6651,6592
CQUADX4,6481,1,6592,6651,6652,6593
CQUADX4,6482,1,6593,6652,6653,6594
CQUADX4,6483,1,6594,6653,6654,6595
CQUADX4,6484,1,6595,6654,6655,6596
CQUADX4,6485,1,6596,6655,6656,6597
CQUADX4,6486,1,6597,6656,6657,6598
CQUADX4,6487,1,6598,6657,6658,6599
CQUADX4,6488,1,6599,6658,6659,6600
CQUADX4,6489,1,6600,6659,6660,6601
CQUADX4,6490,1,6601,6660,6661,6602
CQUADX4,6491,1,6602,6661,6662,6603
CQUADX4,6492,1,6603,6662,6663,6604
CQUADX4,6493,1,6604,6663,6664,6605
CQUADX4,6494,1,6605,6664,6665,6606
CQUADX4,6495,1,6606,6665,6666,6607
CQUADX4,6496,1,6607,6666,6667,6608
CQUADX4,6497,1,6609,6668,6669,6610
CQUADX4,6498,1,6610,6669,6670,6611
CQUADX4,6499,1,6611,6670,6671,6612
CQUADX4,6500,1,6612,6671,6672,6613
CQUADX4,6501,1,6613,6672,6673,6614
CQUADX4,6502,1,6614,6673,6674,6615
CQUADX4,6503,1,6615,6674,6675,6616
CQUADX4,6504,1,6616,6675,6676,6617
CQUADX4,6505,1,6617,6676,6677,6618
CQUADX4,6506,1,6618,6677,6678,6619
CQUADX4,6507,1,6619,6678,6679,6620
CQUADX4,6508,1,6620,6679,6680,6621
CQUADX4,6509,1,6621,6680,6681,6622
CQUADX4,6510,1,6622,6681,6682,6623
CQUADX4,6511,1,6623,6682,6683,6624
CQUADX4,6512,1,6624,6683,6684,6625
CQUADX4,6513,1,6625,6684,6685,6626
CQUADX4,6514,1,6626,6685,6686,6627
CQUADX4,6515,1,6627,6686,6687,6628
CQUADX4,6516,1,6628,6687,6688,6629
CQUADX4,6517,1,6629,6688,6689,6630
CQUADX4,6518,1,6630,6689,6690,6631
CQUADX4,6519,1,6631,6690,6691,6632
CQUADX4,6520,1,6632,6691,6692,6633
CQUADX4,6521,1,6633,6692,6693,6634
CQUADX4,6522,1,6634,6693,6694,6635
CQUADX4,6523,1,6635,6694,6695,6636
CQUADX4,6524,1,6636,6695,6696,6637
CQUADX4,6525,1,6637,6696,6697,6638
CQUADX4,6526,1,6638,6697,6698,6639
CQUADX4,6527,1,6639,6698,6699,6640
CQUADX4,6528,1,6640,6699,6700,6641
CQUADX4,6529,1,6641,6700,6701,6642
CQUADX4,6530,1,6642,6701,6702,6643
CQUADX4,6531,1,6643,6702,6703,6644
CQUADX4,6532,1,6644,6703,6704,6645
CQUADX4,6533,1,6645,6704,6705,6646
CQUADX4,6534,1,6646,6705,6706,6647
CQUADX4,6535,1,6647,6706,6707,6648
CQUADX4,6536,1,6648,6707,6708,6649
CQUADX4,6537,1,6649,6708,6709,6650
CQUADX4,6538,1,6650,6709,6710,6651
CQUADX4,6539,1,6651,6710,6711,6652
CQUADX4,6540,1,6652,6711,6712,6653
CQUADX4,6541,1,6653,6712,6713,6654
CQUADX4,6542,1,6654,6713,6714,6655
CQUADX4,6543,1,6655,6714,6715,6656
CQUADX4,6544,1,6656,6715,6716,6657
CQUADX4,6545,1,6657,6716,6717,6658
CQUADX4,6546,1,6658,6717,6718,6659
CQUADX4,6547,1,6659,6718,6719,6660
CQUADX4,6548,1,6660,6719,6720,6661
CQUADX4,6549,1,6661,6720,6721,6662
CQUADX4,6550,1,6662,6721,6722,6663
CQUADX4,6551,1,6663,6722,6723,6664
CQUADX4,6552,1,6664,6723,6724,6665
CQUADX4,6553,1,6665,6724,6725,6666
CQUADX4,6554,1,6666,6725,6726,6667
CQUADX4,6555,1,6668,6727,6728,6669
CQUADX4,6556,1,6669,6728,6729,6670
CQUADX4,6557,1,6670,6729,6730,6671
CQUADX4,6558,1,6671,6730,6731,6672
CQUADX4,6559,1,6672,6731,6732,6673
CQUADX4,6560,1,6673,6732,6733,6674
CQUADX4,6561,1,6674,6733,6734,6675
CQUADX4,6562,1,6675,6734,6735,6676
CQUADX4,6563,1,6676,6735,6736,6677
CQUADX4,6564,1,6677,6736,6737,6678
CQUADX4,6565,1,6678,6737,6738,6679
CQUADX4,6566,1,6679,6738,6739,6680
CQUADX4,6567,1,6680,6739,6740,6681
CQUADX4,6568,1,6681,6740,6741,6682
CQUADX4,6569,1,6682,6741,6742,6683
CQUADX4,6570,1,6683,6742,6743,6684
CQUADX4,6571,1,6684,6743,6744,6685
CQUADX4,6572,1,6685,6744,6745,6686
CQUADX4,6573,1,6686,6745,6746,6687
CQUADX4,6574,1,6687,6746,6747,6688
CQUADX4,6575,1,6688,6747,6748,6689
CQUADX4,6576,1,6689,6748,6749,6690
CQUADX4,6577,1,6690,6749,6750,6691
CQUADX4,6578,1,6691,6750,6751,6692
CQUADX4,6579,1,6692,6751,6752,6693
CQUADX4,6580,1,6693,6752,6753,6694
CQUADX4,6581,1,6694,6753,6754,6695
CQUADX4,6582,1,6695,6754,6755,6696
CQUADX4,6583,1,6696,6755,6756,6697
CQUADX4,6584,1,6697,6756,6757,6698
CQUADX4,6585,1,6698,6757,6758,6699
CQUADX4,6586,1,6699,6758,6759,6700
CQUADX4,6587,1,6700,6759,6760,6701
CQUADX4,6588,1,6701,6760,6761,6702
CQUADX4,6589,1,6702,6761,6762,6703
CQUADX4,6590,1,6703,6762,6763,6704
CQUADX4,6591,1,6704,6763,6764,6705
CQUADX4,6592,1,6705,6764,6765,6706
CQUADX4,6593,1,6706,6765,6766,6707
CQUADX4,6594,1,6707,6766,6767,6708
CQUADX4,6595,1,6708,6767,6768,6709
CQUADX4,6596,1,6709,6768,6769,6710
CQUADX4,6597,1,6710,6769,6770,6711
CQUADX4,6598,1,6711,6770,6771,6712
CQUADX4,6599,1,6712,6771,6772,6713
CQUADX4,6600,1,6713,6772,6773,6714
CQUADX4,6601,1,6714,6773,6774,6715
CQUADX4,6602,1,6715,6774,6775,6716
CQUADX4,6603,1,6716,6775,6776,6717
CQUADX4,6604,1,6717,6776,6777,6718
CQUADX4,6605,1,6718,6777,6778,6719
CQUADX4,6606,1,6719,6778,6779,6720
CQUADX4,6607,1,6720,6779,6780,6721
CQUADX4,6608,1,6721,6780,6781,6722
CQUADX4,6609,1,6722,6781,6782,6723
CQUADX4,6610,1,6723,6782,6783,6724
CQUADX4,6611,1,6724,6783,6784,6725
CQUADX4,6612,1,6725,6784,6785,6726
CQUADX4,6613,1,6727,6786,6787,6728
CQUADX4,6614,1,6728,6787,6788,6729
CQUADX4,6615,1,6729,6788,6789,6730
CQUADX4,6616,1,6730,6789,6790,6731
CQUADX4,6617,1,6731,6790,6791,6732
CQUADX4,6618,1,6732,6791,6792,6733
CQUADX4,6619,1,6733,6792,6793,6734
CQUADX4,6620,1,6734,6793,6794,6735
CQUADX4,6621,1,6735,6794,6795,6736
CQUADX4,6622,1,6736,6795,6796,6737
CQUADX4,6623,1,6737,6796,6797,6738
CQUADX4,6624,1,6738,6797,6798,6739
CQUADX4,6625,1,6739,6798,6799,6740
CQUADX4,6626,1,6740,6799,6800,6741
CQUADX4,6627,1,6741,6800,6801,6742
CQUADX4,6628,1,6742,6801,6802,6743
CQUADX4,6629,1,6743,6802,6803,6744
CQUADX4,6630,1,6744,6803,6804,6745
CQUADX4,6631,1,6745,6804,6805,6746
CQUADX4,6632,1,6746,6805,6806,6747
CQUADX4,6633,1,6747,6806,6807,6748
CQUADX4,6634,1,6748,6807,6808,6749
CQUADX4,6635,1,6749,6808,6809,6750
CQUADX4,6636,1,6750,6809,6810,6751
CQUADX4,6637,1,6751,6810,6811,6752
CQUADX4,6638,1,6752,6811,6812,6753
CQUADX4,6639,1,6753,6812,6813,6754
CQUADX4,6640,1,6754,6813,6814,6755
CQUADX4,6641,1,6755,6814,6815,6756
CQUADX4,6642,1,6756,6815,6816,6757
CQUADX4,6643,1,6757,6816,6817,6758
CQUADX4,6644,1,6758,6817,6818,6759
CQUADX4,6645,1,6759,6818,6819,6760
CQUADX4,6646,1,6760,6819,6820,6761
CQUADX4,6647,1,6761,6820,6821,6762
CQUADX4,6648,1,6762,6821,6822,6763
CQUADX4,6649,1,6763,6822,6823,6764
CQUADX4,6650,1,6764,6823,6824,6765
CQUADX4,6651,1,6765,6824,6825,6766
CQUADX4,6652,1,6766,6825,6826,6767
CQUADX4,6653,1,6767,6826,6827,6768
CQUADX4,6654,1,6768,6827,6828,6769
CQUADX4,6655,1,6769,6828,6829,6770
CQUADX4,6656,1,6770,6829,6830,6771
CQUADX4,6657,1,6771,6830,6831,6772
CQUADX4,6658,1,6772,6831,6832,6773
CQUADX4,6659,1,6773,6832,6833,6774
CQUADX4,6660,1,6774,6833,6834,6775
CQUADX4,6661,1,6775,6834,6835,6776
CQUADX4,6662,1,6776,6835,6836,6777
CQUADX4,6663,1,6777,6836,6837,6778
CQUADX4,6664,1,6778,6837,6838,6779
CQUADX4,6665,1,6779,6838,6839,6780
CQUADX4,6666,1,6780,6839,6840,6781
CQUADX4,6667,1,6781,6840,6841,6782
CQUADX4,6668,1,6782,6841,6842,6783
CQUADX4,6669,1,6783,6842,6843,6784
CQUADX4,6670,1,6784,6843,6844,6785
CQUADX4,6671,1,6786,6845,6846,6787
CQUADX4,6672,1,6787,6846,6847,6788
CQUADX4,6673,1,6788,6847,6848,6789
CQUADX4,6674,1,6789,6848,6849,6790
CQUADX4,6675,1,6790,6849,6850,6791
CQUADX4,6676,1,6791,6850,6851,6792
CQUADX4,6677,1,6792,6851,6852,6793
CQUADX4,6678,1,6793,6852,6853,6794
CQUADX4,6679,1,6794,6853,6854,6795
CQUADX4,6680,1,6795,6854,6855,6796
CQUADX4,6681,1,6796,6855,6856,6797
CQUADX4,6682,1,6797,6856,6857,6798
CQUADX4,6683,1,6798,6857,6858,6799
CQUADX4,6684,1,6799,6858,6859,6800
CQUADX4,6685,1,6800,6859,6860,6801
CQUADX4,6686,1,6801,6860,6861,6802
CQUADX4,6687,1,6802,6861,6862,6803
CQUADX4,6688,1,6803,6862,6863,6804
CQUADX4,6689,1,6804,6863,6864,6805
CQUADX4,6690,1,6805,6864,6865,6806
CQUADX4,6691,1,6806,6865,6866,6807
CQUADX4,6692,1,6807,6866,6867,6808
CQUADX4,6693,1,6808,6867,6868,6809
CQUADX4,6694,1,6809,6868,6869,6810
CQUADX4,6695,1,6810,6869,6870,6811
CQUADX4,6696,1,6811,6870,6871,6812
CQUADX4,6697,1,6812,6871,6872,6813
CQUADX4,6698,1,6813,6872,6873,6814
CQUADX4,6699,1,6814,6873,6874,6815
CQUADX4,6700,1,6815,6874,6875,6816
CQUADX4,6701,1,6816,6875,6876,6817
CQUADX4,6702,1,6817,6876,6877,6818
CQUADX4,6703,1,6818,6877,6878,6819
CQUADX4,6704,1,6819,6878,6879,6820
CQUADX4,6705,1,6820,6879,6880,6821
CQUADX4,6706,1,6821,6880,6881,6822
CQUADX4,6707,1,6822,6881,6882,6823
CQUADX4,6708,1,6823,6882,6883,6824
CQUADX4,6709,1,6824,6883,6884,6825
CQUADX4,6710,1,6825,6884,6885,6826
CQUADX4,6711,1,6826,6885,6886,6827
CQUADX4,6712,1,6827,6886,6887,6828
CQUADX4,6713,1,6828,6887,6888,6829
CQUADX4,6714,1,6829,6888,6889,6830
CQUADX4,6715,1,6830,6889,6890,6831
CQUADX4,6716,1,6831,6890,6891,6832
CQUADX4,6717,1,6832,6891,6892,6833
CQUADX4,6718,1,6833,6892,6893,6834
CQUADX4,6719,1,6834,6893,6894,6835
CQUADX4,6720,1,6835,6894,6895,6836
CQUADX4,6721,1,6836,6895,6896,6837
CQUADX4,6722,1,6837,6896,6897,6838
CQUADX4,6723,1,6838,6897,6898,6839
CQUADX4,6724,1,6839,6898,6899,6840
CQUADX4,6725,1,6840,6899,6900,6841
CQUADX4,6726,1,6841,6900,6901,6842
CQUADX4,6727,1,6842,6901,6902,6843
CQUADX4,6728,1,6843,6902,6903,6844
CQUADX4,6729,1,6845,6904,6905,6846
CQUADX4,6730,1,6846,6905,6906,6847
CQUADX4,6731,1,6847,6906,6907,6848
CQUADX4,6732,1,6848,6907,6908,6849
CQUADX4,6733,1,6849,6908,6909,6850
CQUADX4,6734,1,6850,6909,6910,6851
CQUADX4,6735,1,6851,6910,6911,6852
CQUADX4,6736,1,6852,6911,6912,6853
CQUADX4,6737,1,6853,6912,6913,6854
CQUADX4,6738,1,6854,6913,6914,6855
CQUADX4,6739,1,6855,6914,6915,6856
CQUADX4,6740,1,6856,6915,6916,6857
CQUADX4,6741,1,6857,6916,6917,6858
CQUADX4,6742,1,6858,6917,6918,6859
CQUADX4,6743,1,6859,6918,6919,6860
CQUADX4,6744,1,6860,6919,6920,6861
CQUADX4,6745,1,6861,6920,6921,6862
CQUADX4,6746,1,6862,6921,6922,6863
CQUADX4,6747,1,6863,6922,6923,6864
CQUADX4,6748,1,6864,6923,6924,6865
CQUADX4,6749,1,6865,6924,6925,6866
CQUADX4,6750,1,6866,6925,6926,6867
CQUADX4,6751,1,6867,6926,6927,6868
CQUADX4,6752,1,6868,6927,6928,6869
CQUADX4,6753,1,6869,6928,6929,6870
CQUADX4,6754,1,6870,6929,6930,6871
CQUADX4,6755,1,6871,6930,6931,6872
CQUADX4,6756,1,6872,6931,6932,6873
CQUADX4,6757,1,6873,6932,6933,6874
CQUADX4,6758,1,6874,6933,6934,6875
CQUADX4,6759,1,6875,6934,6935,6876
CQUADX4,6760,1,6876,6935,6936,6877
CQUADX4,6761,1,6877,6936,6937,6878
CQUADX4,6762,1,6878,6937,6938,6879
CQUADX4,6763,1,6879,6938,6939,6880
CQUADX4,6764,1,6880,6939,6940,6881
CQUADX4,6765,1,6881,6940,6941,6882
CQUADX4,6766,1,6882,6941,6942,6883
CQUADX4,6767,1,6883,6942,6943,6884
CQUADX4,6768,1,6884,6943,6944,6885
CQUADX4,6769,1,6885,6944,6945,6886
CQUADX4,6770,1,6886,6945,6946,6887
CQUADX4,6771,1,6887,6946,6947,6888
CQUADX4,6772,1,6888,6947,6948,6889
CQUADX4,6773,1,6889,6948,6949,6890
CQUADX4,6774,1,6890,6949,6950,6891
CQUADX4,6775,1,6891,6950,6951,6892
CQUADX4,6776,1,6892,6951,6952,6893
CQUADX4,6777,1,6893,6952,6953,6894
CQUADX4,6778,1,6894,6953,6954,6895
CQUADX4,6779,1,6895,6954,6955,6896
CQUADX4,6780,1,6896,6955,6956,6897
CQUADX4,6781,1,6897,6956,6957,6898
CQUADX4,6782,1,6898,6957,6958,6899
CQUADX4,6783,1,6899,6958,6959,6900
CQUADX4,6784,1,6900,6959,6960,6901
CQUADX4,6785,1,6901,6960,6961,6902
CQUADX4,6786,1,6902,6961,6962,6903
CQUADX4,6787,1,6904,6963,6964,6905
CQUADX4,6788,1,6905,6964,6965,6906
CQUADX4,6789,1,6906,6965,6966,6907
CQUADX4,6790,1,6907,6966,6967,6908
CQUADX4,6791,1,6908,6967,6968,6909
CQUADX4,6792,1,6909,6968,6969,6910
CQUADX4,6793,1,6910,6969,6970,6911
CQUADX4,6794,1,6911,6970,6971,6912
CQUADX4,6795,1,6912,6971,6972,6913
CQUADX4,6796,1,6913,6972,6973,6914
CQUADX4,6797,1,6914,6973,6974,6915
CQUADX4,6798,1,6915,6974,6975,6916
CQUADX4,6799,1,6916,6975,6976,6917
CQUADX4,6800,1,6917,6976,6977,6918
CQUADX4,6801,1,6918,6977,6978,6919
CQUADX4,6802,1,6919,6978,6979,6920
CQUADX4,6803,1,6920,6979,6980,6921
CQUADX4,6804,1,6921,6980,6981,6922
CQUADX4,6805,1,6922,6981,6982,6923
CQUADX4,6806,1,6923,6982,6983,6924
CQUADX4,6807,1,6924,6983,6984,6925
CQUADX4,6808,1,6925,6984,6985,6926
CQUADX4,6809,1,6926,6985,6986,6927
CQUADX4,6810,1,6927,6986,6987,6928
CQUADX4,6811,1,6928,6987,6988,6929
CQUADX4,6812,1,6929,6988,6989,6930
CQUADX4,6813,1,6930,6989,6990,6931
CQUADX4,6814,1,6931,6990,6991,6932
CQUADX4,6815,1,6932,6991,6992,6933
CQUADX4,6816,1,6933,6992,6993,6934
CQUADX4,6817,1,6934,6993,6994,6935
CQUADX4,6818,1,6935,6994,6995,6936
CQUADX4,6819,1,6936,6995,6996,6937
CQUADX4,6820,1,6937,6996,6997,6938
CQUADX4,6821,1,6938,6997,6998,6939
CQUADX4,6822,1,6939,6998,6999,6940
CQUADX4,6823,1,6940,6999,7000,6941
CQUADX4,6824,1,6941,7000,7001,6942
CQUADX4,6825,1,6942,7001,7002,6943
CQUADX4,6826,1,6943,7002,7003,6944
CQUADX4,6827,1,6944,7003,7004,6945
CQUADX4,6828,1,6945,7004,7005,6946
CQUADX4,6829,1,6946,7005,7006,6947
CQUADX4,6830,1,6947,7006,7007,6948
CQUADX4,6831,1,6948,7007,7008,6949
CQUADX4,6832,1,6949,7008,7009,6950
CQUADX4,6833,1,6950,7009,7010,6951
CQUADX4,6834,1,6951,7010,7011,6952
CQUADX4,6835,1,6952,7011,7012,6953
CQUADX4,6836,1,6953,7012,7013,6954
CQUADX4,6837,1,6954,7013,7014,6955
CQUADX4,6838,1,6955,7014,7015,6956
CQUADX4,6839,1,6956,7015,7016,6957
CQUADX4,6840,1,6957,7016,7017,6958
CQUADX4,6841,1,6958,7017,7018,6959
CQUADX4,6842,1,6959,7018,7019,6960
CQUADX4,6843,1,6960,7019,7020,6961
CQUADX4,6844,1,6961,7020,7021,6962
CQUADX4,6845,1,6963,7022,7023,6964
CQUADX4,6846,1,6964,7023,7024,6965
CQUADX4,6847,1,6965,7024,7025,6966
CQUADX4,6848,1,6966,7025,7026,6967
CQUADX4,6849,1,6967,7026,7027,6968
CQUADX4,6850,1,6968,7027,7028,6969
CQUADX4,6851,1,6969,7028,7029,6970
CQUADX4,6852,1,6970,7029,7030,6971
CQUADX4,6853,1,6971,7030,7031,6972
CQUADX4,6854,1,6972,7031,7032,6973
CQUADX4,6855,1,6973,7032,7033,6974
CQUADX4,6856,1,6974,7033,7034,6975
CQUADX4,6857,1,6975,7034,7035,6976
CQUADX4,6858,1,6976,7035,7036,6977
CQUADX4,6859,1,6977,7036,7037,6978
CQUADX4,6860,1,6978,7037,7038,6979
CQUADX4,6861,1,6979,7038,7039,6980
CQUADX4,6862,1,6980,7039,7040,6981
CQUADX4,6863,1,6981,7040,7041,6982
CQUADX4,6864,1,6982,7041,7042,6983
CQUADX4,6865,1,6983,7042,7043,6984
CQUADX4,6866,1,6984,7043,7044,6985
CQUADX4,6867,1,6985,7044,7045,6986
CQUADX4,6868,1,6986,7045,7046,6987
CQUADX4,6869,1,6987,7046,7047,6988
CQUADX4,6870,1,6988,7047,7048,6989
CQUADX4,6871,1,6989,7048,7049,6990
CQUADX4,6872,1,6990,7049,7050,6991
CQUADX4,6873,1,6991,7050,7051,6992
CQUADX4,6874,1,6992,7051,7052,6993
CQUADX4,6875,1,6993,7052,7053,6994
CQUADX4,6876,1,6994,7053,7054,6995
CQUADX4,6877,1,6995,7054,7055,6996
CQUADX4,6878,1,6996,7055,7056,6997
CQUADX4,6879,1,6997,7056,7057,6998
CQUADX4,6880,1,6998,7057,7058,6999
CQUADX4,6881,1,6999,7058,7059,7000
CQUADX4,6882,1,7000,7059,7060,7001
CQUADX4,6883,1,7001,7060,7061,7002
CQUADX4,6884,1,7002,7061,7062,7003
CQUADX4,6885,1,7003,7062,7063,7004
CQUADX4,6886,1,7004,7063,7064,7005
CQUADX4,6887,1,7005,7064,7065,7006
CQUADX4,6888,1,7006,7065,7066,7007
CQUADX4,6889,1,7007,7066,7067,7008
CQUADX4,6890,1,7008,7067,7068,7009
CQUADX4,6891,1,7009,7068,7069,7010
CQUADX4,6892,1,7010,7069,7070,7011
CQUADX4,6893,1,7011,7070,7071,7012
CQUADX4,6894,1,7012,7071,7072,7013
CQUADX4,6895,1,7013,7072,7073,7014
CQUADX4,6896,1,7014,7073,7074,7015
CQUADX4,6897,1,7015,7074,7075,7016
CQUADX4,6898,1,7016,7075,7076,7017
CQUADX4,6899,1,7017,7076,7077,7018
CQUADX4,6900,1,7018,7077,7078,7019
CQUADX4,6901,1,7019,7078,7079,7020
CQUADX4,6902,1,7020,7079,7080,7021
CQUADX4,6903,1,7022,7081,7082,7023
CQUADX4,6904,1,7023,7082,7083,7024
CQUADX4,6905,1,7024,7083,7084,7025
CQUADX4,6906,1,7025,7084,7085,7026
CQUADX4,6907,1,7026,7085,7086,7027
CQUADX4,6908,1,7027,7086,7087,7028
CQUADX4,6909,1,7028,7087,7088,7029
CQUADX4,6910,1,7029,7088,7089,7030
CQUADX4,6911,1,7030,7089,7090,7031
CQUADX4,6912,1,7031,7090,7091,7032
CQUADX4,6913,1,7032,7091,7092,7033
CQUADX4,6914,1,7033,7092,7093,7034
CQUADX4,6915,1,7034,7093,7094,7035
CQUADX4,6916,1,7035,7094,7095,7036
CQUADX4,6917,1,7036,7095,7096,7037
CQUADX4,6918,1,7037,7096,7097,7038
CQUADX4,6919,1,7038,7097,7098,7039
CQUADX4,6920,1,7039,7098,7099,7040
CQUADX4,6921,1,7040,7099,7100,7041
CQUADX4,6922,1,7041,7100,7101,7042
CQUADX4,6923,1,7042,7101,7102,7043
CQUADX4,6924,1,7043,7102,7103,7044
CQUADX4,6925,1,7044,7103,7104,7045
CQUADX4,6926,1,7045,7104,7105,7046
CQUADX4,6927,1,7046,7105,7106,7047
CQUADX4,6928,1,7047,7106,7107,7048
CQUADX4,6929,1,7048,7107,7108,7049
CQUADX4,6930,1,7049,7108,7109,7050
CQUADX4,6931,1,7050,7109,7110,7051
CQUADX4,6932,1,7051,7110,7111,7052
CQUADX4,6933,1,7052,7111,7112,7053
CQUADX4,6934,1,7053,7112,7113,7054
CQUADX4,6935,1,7054,7113,7114,7055
CQUADX4,6936,1,7055,7114,7115,7056
CQUADX4,6937,1,7056,7115,7116,7057
CQUADX4,6938,1,7057,7116,7117,7058
CQUADX4,6939,1,7058,7117,7118,7059
CQUADX4,6940,1,7059,7118,7119,7060
CQUADX4,6941,1,7060,7119,7120,7061
CQUADX4,6942,1,7061,7120,7121,7062
CQUADX4,6943,1,7062,7121,7122,7063
CQUADX4,6944,1,7063,7122,7123,7064
CQUADX4,6945,1,7064,7123,7124,7065
CQUADX4,6946,1,7065,7124,7125,7066
CQUADX4,6947,1,7066,7125,7126,7067
CQUADX4,6948,1,7067,7126,7127,7068
CQUADX4,6949,1,7068,7127,7128,7069
CQUADX4,6950,1,7069,7128,7129,7070
CQUADX4,6951,1,7070,7129,7130,7071
CQUADX4,6952,1,7071,7130,7131,7072
CQUADX4,6953,1,7072,7131,7132,7073
CQUADX4,6954,1,7073,7132,7133,7074
CQUADX4,6955,1,7074,7133,7134,7075
CQUADX4,6956,1,7075,7134,7135,7076
CQUADX4,6957,1,7076,7135,7136,7077
CQUADX4,6958,1,7077,7136,7137,7078
CQUADX4,6959,1,7078,7137,7138,7079
CQUADX4,6960,1,7079,7138,7139,7080
CQUADX4,6961,1,7081,7140,7141,7082
CQUADX4,6962,1,7082,7141,7142,7083
CQUADX4,6963,1,7083,7142,7143,7084
CQUADX4,6964,1,7084,7143,7144,7085
CQUADX4,6965,1,7085,7144,7145,7086
CQUADX4,6966,1,7086,7145,7146,7087
CQUADX4,6967,1,7087,7146,7147,7088
CQUADX4,6968,1,7088,7147,7148,7089
CQUADX4,6969,1,7089,7148,7149,7090
CQUADX4,6970,1,7090,7149,7150,7091
CQUADX4,6971,1,7091,7150,7151,7092
CQUADX4,6972,1,7092,7151,7152,7093
CQUADX4,6973,1,7093,7152,7153,7094
CQUADX4,6974,1,7094,7153,7154,7095
CQUADX4,6975,1,7095,7154,7155,7096
CQUADX4,6976,1,7096,7155,7156,7097
CQUADX4,6977,1,7097,7156,7157,7098
CQUADX4,6978,1,7098,7157,7158,7099
CQUADX4,6979,1,7099,7158,7159,7100
CQUADX4,6980,1,7100,7159,7160,7101
CQUADX4,6981,1,7101,7160,7161,7102
CQUADX4,6982,1,7102,7161,7162,7103
CQUADX4,6983,1,7103,7162,7163,7104
CQUADX4,6984,1,7104,7163,7164,7105
CQUADX4,6985,1,7105,7164,7165,7106
CQUADX4,6986,1,7106,7165,7166,7107
CQUADX4,6987,1,7107,7166,7167,7108
CQUADX4,6988,1,7108,7167,7168,7109
CQUADX4,6989,1,7109,7168,7169,7110
CQUADX4,6990,1,7110,7169,7170,7111
CQUADX4,6991,1,7111,7170,7171,7112
CQUADX4,6992,1,7112,7171,7172,7113
CQUADX4,6993,1,7113,7172,7173,7114
CQUADX4,6994,1,7114,7173,7174,7115
CQUADX4,6995,1,7115,7174,7175,7116
CQUADX4,6996,1,7116,7175,7176,7117
CQUADX4,6997,1,7117,7176,7177,7118
CQUADX4,6998,1,7118,7177,7178,7119
CQUADX4,6999,1,7119,7178,7179,7120
CQUADX4,7000,1,7120,7179,7180,7121
CQUADX4,7001,1,7121,7180,7181,7122
CQUADX4,7002,1,7122,7181,7182,7123
CQUADX4,7003,1,7123,7182,7183,7124
CQUADX4,7004,1,7124,7183,7184,7125
CQUADX4,7005,1,7125,7184,7185,7126
CQUADX4,7006,1,7126,7185,7186,7127
CQUADX4,7007,1,7127,7186,7187,7128
CQUADX4,7008,1,7128,7187,7188,7129
CQUADX4,7009,1,7129,7188,7189,7130
CQUADX4,7010,1,7130,7189,7190,7131
CQUADX4,7011,1,7131,7190,7191,7132
CQUADX4,7012,1,7132,7191,7192,7133
CQUADX4,7013,1,7133,7192,7193,7134
CQUADX4,7014,1,7134,7193,7194,7135
CQUADX4,7015,1,7135,7194,7195,7136
CQUADX4,7016,1,7136,7195,7196,7137
CQUADX4,7017,1,7137,7196,7197,7138
CQUADX4,7018,1,7138,7197,7198,7139
CQUADX4,7019,1,7140,7199,7200,7141
CQUADX4,7020,1,7141,7200,7201,7142
CQUADX4,7021,1,7142,7201,7202,7143
CQUADX4,7022,1,7143,7202,7203,7144
CQUADX4,7023,1,7144,7203,7204,7145
CQUADX4,7024,1,7145,7204,7205,7146
CQUADX4,7025,1,7146,7205,7206,7147
CQUADX4,7026,1,7147,7206,7207,7148
CQUADX4,7027,1,7148,7207,7208,7149
CQUADX4,7028,1,7149,7208,7209,7150
CQUADX4,7029,1,7150,7209,7210,7151
CQUADX4,7030,1,7151,7210,7211,7152
CQUADX4,7031,1,7152,7211,7212,7153
CQUADX4,7032,1,7153,7212,7213,7154
CQUADX4,7033,1,7154,7213,7214,7155
CQUADX4,7034,1,7155,7214,7215,7156
CQUADX4,7035,1,7156,7215,7216,7157
CQUADX4,7036,1,7157,7216,7217,7158
CQUADX4,7037,1,7158,7217,7218,7159
CQUADX4,7038,1,7159,7218,7219,7160
CQUADX4,7039,1,7160,7219,7220,7161
CQUADX4,7040,1,7161,7220,7221,7162
CQUADX4,7041,1,7162,7221,7222,7163
CQUADX4,7042,1,7163,7222,7223,7164
CQUADX4,7043,1,7164,7223,7224,7165
CQUADX4,7044,1,7165,7224,7225,7166
CQUADX4,7045,1,7166,7225,7226,7167
CQUADX4,7046,1,7167,7226,7227,7168
CQUADX4,7047,1,7168,7227,7228,7169
CQUADX4,7048,1,7169,7228,7229,7170
CQUADX4,7049,1,7170,7229,7230,7171
CQUADX4,7050,1,7171,7230,7231,7172
CQUADX4,7051,1,7172,7231,7232,7173
CQUADX4,7052,1,7173,7232,7233,7174
CQUADX4,7053,1,7174,7233,7234,7175
CQUADX4,7054,1,7175,7234,7235,7176
CQUADX4,7055,1,7176,7235,7236,7177
CQUADX4,7056,1,7177,7236,7237,7178
CQUADX4,7057,1,7178,7237,7238,7179
CQUADX4,7058,1,7179,7238,7239,7180
CQUADX4,7059,1,7180,7239,7240,7181
CQUADX4,7060,1,7181,7240,7241,7182
CQUADX4,7061,1,7182,7241,7242,7183
CQUADX4,7062,1,7183,7242,7243,7184
CQUADX4,7063,1,7184,7243,7244,7185
CQUADX4,7064,1,7185,7244,7245,7186
CQUADX4,7065,1,7186,7245,7246,7187
CQUADX4,7066,1,7187,7246,7247,7188
CQUADX4,7067,1,7188,7247,7248,7189
CQUADX4,7068,1,7189,7248,7249,7190
CQUADX4,7069,1,7190,7249,7250,7191
CQUADX4,7070,1,7191,7250,7251,7192
CQUADX4,7071,1,7192,7251,7252,7193
CQUADX4,7072,1,7193,7252,7253,7194
CQUADX4,7073,1,7194,7253,7254,7195
CQUADX4,7074,1,7195,7254,7255,7196
CQUADX4,7075,1,7196,7255,7256,7197
CQUADX4,7076,1,7197,7256,7257,7198
CQUADX4,7077,1,7199,7258,7259,7200
CQUADX4,7078,1,7200,7259,7260,7201
CQUADX4,7079,1,7201,7260,7261,7202
CQUADX4,7080,1,7202,7261,7262,7203
CQUADX4,7081,1,7203,7262,7263,7204
CQUADX4,7082,1,7204,7263,7264,7205
CQUADX4,7083,1,7205,7264,7265,7206
CQUADX4,7084,1,7206,7265,7266,7207
CQUADX4,7085,1,7207,7266,7267,7208
CQUADX4,7086,1,7208,7267,7268,7209
CQUADX4,7087,1,7209,7268,7269,7210
CQUADX4,7088,1,7210,7269,7270,7211
CQUADX4,7089,1,7211,7270,7271,7212
CQUADX4,7090,1,7212,7271,7272,7213
CQUADX4,7091,1,7213,7272,7273,7214
CQUADX4,7092,1,7214,7273,7274,7215
CQUADX4,7093,1,7215,7274,7275,7216
CQUADX4,7094,1,7216,7275,7276,7217
CQUADX4,7095,1,7217,7276,7277,7218
CQUADX4,7096,1,7218,7277,7278,7219
CQUADX4,7097,1,7219,7278,7279,7220
CQUADX4,7098,1,7220,7279,7280,7221
CQUADX4,7099,1,7221,7280,7281,7222
CQUADX4,7100,1,7222,7281,7282,7223
CQUADX4,7101,1,7223,7282,7283,7224
CQUADX4,7102,1,7224,7283,7284,7225
CQUADX4,7103,1,7225,7284,7285,7226
CQUADX4,7104,1,7226,7285,7286,7227
CQUADX4,7105,1,7227,7286,7287,7228
CQUADX4,7106,1,7228,7287,7288,7229
CQUADX4,7107,1,7229,7288,7289,7230
CQUADX4,7108,1,7230,7289,7290,7231
CQUADX4,7109,1,7231,7290,7291,7232
CQUADX4,7110,1,7232,7291,7292,7233
CQUADX4,7111,1,7233,7292,7293,7234
CQUADX4,7112,1,7234,7293,7294,7235
CQUADX4,7113,1,7235,7294,7295,7236
CQUADX4,7114,1,7236,7295,7296,7237
CQUADX4,7115,1,7237,7296,7297,7238
CQUADX4,7116,1,7238,7297,7298,7239
CQUADX4,7117,1,7239,7298,7299,7240
CQUADX4,7118,1,7240,7299,7300,7241
CQUADX4,7119,1,7241,7300,7301,7242
CQUADX4,7120,1,7242,7301,7302,7243
CQUADX4,7121,1,7243,7302,7303,7244
CQUADX4,7122,1,7244,7303,7304,7245
CQUADX4,7123,1,7245,7304,7305,7246
CQUADX4,7124,1,7246,7305,7306,7247
CQUADX4,7125,1,7247,7306,7307,7248
CQUADX4,7126,1,7248,7307,7308,7249
CQUADX4,7127,1,7249,7308,7309,7250
CQUADX4,7128,1,7250,7309,7310,7251
CQUADX4,7129,1,7251,7310,7311,7252
CQUADX4,7130,1,7252,7311,7312,7253
CQUADX4,7131,1,7253,7312,7313,7254
CQUADX4,7132,1,7254,7313,7314,7255
CQUADX4,7133,1,7255,7314,7315,7256
CQUADX4,7134,1,7256,7315,7316,7257
CQUADX4,7135,1,7258,7317,7318,7259
CQUADX4,7136,1,7259,7318,7319,7260
CQUADX4,7137,1,7260,7319,7320,7261
CQUADX4,7138,1,7261,7320,7321,7262
CQUADX4,7139,1,7262,7321,7322,7263
CQUADX4,7140,1,7263,7322,7323,7264
CQUADX4,7141,1,7264,7323,7324,7265
CQUADX4,7142,1,7265,7324,7325,7266
CQUADX4,7143,1,7266,7325,7326,7267
CQUADX4,7144,1,7267,7326,7327,7268
CQUADX4,7145,1,7268,7327,7328,7269
CQUADX4,7146,1,7269,7328,7329,7270
CQUADX4,7147,1,7270,7329,7330,7271
CQUADX4,7148,1,7271,7330,7331,7272
CQUADX4,7149,1,7272,7331,7332,7273
CQUADX4,7150,1,7273,7332,7333,7274
CQUADX4,7151,1,7274,7333,7334,7275
CQUADX4,7152,1,7275,7334,7335,7276
CQUADX4,7153,1,7276,7335,7336,7277
CQUADX4,7154,1,7277,7336,7337,7278
CQUADX4,7155,1,7278,7337,7338,7279
CQUADX4,7156,1,7279,7338,7339,7280
CQUADX4,7157,1,7280,7339,7340,7281
CQUADX4,7158,1,7281,7340,7341,7282
CQUADX4,7159,1,7282,7341,7342,7283
CQUADX4,7160,1,7283,7342,7343,7284
CQUADX4,7161,1,7284,7343,7344,7285
CQUADX4,7162,1,7285,7344,7345,7286
CQUADX4,7163,1,7286,7345,7346,7287
CQUADX4,7164,1,7287,7346,7347,7288
CQUADX4,7165,1,7288,7347,7348,7289
CQUADX4,7166,1,7289,7348,7349,7290
CQUADX4,7167,1,7290,7349,7350,7291
CQUADX4,7168,1,7291,7350,7351,7292
CQUADX4,7169,1,7292,7351,7352,7293
CQUADX4,7170,1,7293,7352,7353,7294
CQUADX4,7171,1,7294,7353,7354,7295
CQUADX4,7172,1,7295,7354,7355,7296
CQUADX4,7173,1,7296,7355,7356,7297
CQUADX4,7174,1,7297,7356,7357,7298
CQUADX4,7175,1,7298,7357,7358,7299
CQUADX4,7176,1,7299,7358,7359,7300
CQUADX4,7177,1,7300,7359,7360,7301
CQUADX4,7178,1,7301,7360,7361,7302
CQUADX4,7179,1,7302,7361,7362,7303
CQUADX4,7180,1,7303,7362,7363,7304
CQUADX4,7181,1,7304,7363,7364,7305
CQUADX4,7182,1,7305,7364,7365,7306
CQUADX4,7183,1,7306,7365,7366,7307
CQUADX4,7184,1,7307,7366,7367,7308
CQUADX4,7185,1,7308,7367,7368,7309
CQUADX4,7186,1,7309,7368,7369,7310
CQUADX4,7187,1,7310,7369,7370,7311
CQUADX4,7188,1,7311,7370,7371,7312
CQUADX4,7189,1,7312,7371,7372,7313
CQUADX4,7190,1,7313,7372,7373,7314
CQUADX4,7191,1,7314,7373,7374,7315
CQUADX4,7192,1,7315,7374,7375,7316
CQUADX4,7193,1,7317,7376,7377,7318
CQUADX4,7194,1,7318,7377,7378,7319
CQUADX4,7195,1,7319,7378,7379,7320
CQUADX4,7196,1,7320,7379,7380,7321
CQUADX4,7197,1,7321,7380,7381,7322
CQUADX4,7198,1,7322,7381,7382,7323
CQUADX4,7199,1,7323,7382,7383,7324
CQUADX4,7200,1,7324,7383,7384,7325
CQUADX4,7201,1,7325,7384,7385,7326
CQUADX4,7202,1,7326,7385,7386,7327
CQUADX4,7203,1,7327,7386,7387,7328
CQUADX4,7204,1,7328,7387,7388,7329
CQUADX4,7205,1,7329,7388,7389,7330
CQUADX4,7206,1,7330,7389,7390,7331
CQUADX4,7207,1,7331,7390,7391,7332
CQUADX4,7208,1,7332,7391,7392,7333
CQUADX4,7209,1,7333,7392,7393,7334
CQUADX4,7210,1,7334,7393,7394,7335
CQUADX4,7211,1,7335,7394,7395,7336
CQUADX4,7212,1,7336,7395,7396,7337
CQUADX4,7213,1,7337,7396,7397,7338
CQUADX4,7214,1,7338,7397,7398,7339
CQUADX4,7215,1,7339,7398,7399,7340
CQUADX4,7216,1,7340,7399,7400,7341
CQUADX4,7217,1,7341,7400,7401,7342
CQUADX4,7218,1,7342,7401,7402,7343
CQUADX4,7219,1,7343,7402,7403,7344
CQUADX4,7220,1,7344,7403,7404,7345
CQUADX4,7221,1,7345,7404,7405,7346
CQUADX4,7222,1,7346,7405,7406,7347
CQUADX4,7223,1,7347,7406,7407,7348
CQUADX4,7224,1,7348,7407,7408,7349
CQUADX4,7225,1,7349,7408,7409,7350
CQUADX4,7226,1,7350,7409,7410,7351
CQUADX4,7227,1,7351,7410,7411,7352
CQUADX4,7228,1,7352,7411,7412,7353
CQUADX4,7229,1,7353,7412,7413,7354
CQUADX4,7230,1,7354,7413,7414,7355
CQUADX4,7231,1,7355,7414,7415,7356
CQUADX4,7232,1,7356,7415,7416,7357
CQUADX4,7233,1,7357,7416,7417,7358
CQUADX4,7234,1,7358,7417,7418,7359
CQUADX4,7235,1,7359,7418,7419,7360
CQUADX4,7236,1,7360,7419,7420,7361
CQUADX4,7237,1,7361,7420,7421,7362
CQUADX4,7238,1,7362,7421,7422,7363
CQUADX4,7239,1,7363,7422,7423,7364
CQUADX4,7240,1,7364,7423,7424,7365
CQUADX4,7241,1,7365,7424,7425,7366
CQUADX4,7242,1,7366,7425,7426,7367
CQUADX4,7243,1,7367,7426,7427,7368
CQUADX4,7244,1,7368,7427,7428,7369
CQUADX4,7245,1,7369,7428,7429,7370
CQUADX4,7246,1,7370,7429,7430,7371
CQUADX4,7247,1,7371,7430,7431,7372
CQUADX4,7248,1,7372,7431,7432,7373
CQUADX4,7249,1,7373,7432,7433,7374
CQUADX4,7250,1,7374,7433,7434,7375
CQUADX4,7251,1,7376,7435,7436,7377
CQUADX4,7252,1,7377,7436,7437,7378
CQUADX4,7253,1,7378,7437,7438,7379
CQUADX4,7254,1,7379,7438,7439,7380
CQUADX4,7255,1,7380,7439,7440,7381
CQUADX4,7256,1,7381,7440,7441,7382
CQUADX4,7257,1,7382,7441,7442,7383
CQUADX4,7258,1,7383,7442,7443,7384
CQUADX4,7259,1,7384,7443,7444,7385
CQUADX4,7260,1,7385,7444,7445,7386
CQUADX4,7261,1,7386,7445,7446,7387
CQUADX4,7262,1,7387,7446,7447,7388
CQUADX4,7263,1,7388,7447,7448,7389
CQUADX4,7264,1,7389,7448,7449,7390
CQUADX4,7265,1,7390,7449,7450,7391
CQUADX4,7266,1,7391,7450,7451,7392
CQUADX4,7267,1,7392,7451,7452,7393
CQUADX4,7268,1,7393,7452,7453,7394
CQUADX4,7269,1,7394,7453,7454,7395
CQUADX4,7270,1,7395,7454,7455,7396
CQUADX4,7271,1,7396,7455,7456,7397
CQUADX4,7272,1,7397,7456,7457,7398
CQUADX4,7273,1,7398,7457,7458,7399
CQUADX4,7274,1,7399,7458,7459,7400
CQUADX4,7275,1,7400,7459,7460,7401
CQUADX4,7276,1,7401,7460,7461,7402
CQUADX4,7277,1,7402,7461,7462,7403
CQUADX4,7278,1,7403,7462,7463,7404
CQUADX4,7279,1,7404,7463,7464,7405
CQUADX4,7280,1,7405,7464,7465,7406
CQUADX4,7281,1,7406,7465,7466,7407
CQUADX4,7282,1,7407,7466,7467,7408
CQUADX4,7283,1,7408,7467,7468,7409
CQUADX4,7284,1,7409,7468,7469,7410
CQUADX4,7285,1,7410,7469,7470,7411
CQUADX4,7286,1,7411,7470,7471,7412
CQUADX4,7287,1,7412,7471,7472,7413
CQUADX4,7288,1,7413,7472,7473,7414
CQUADX4,7289,1,7414,7473,7474,7415
CQUADX4,7290,1,7415,7474,7475,7416
CQUADX4,7291,1,7416,7475,7476,7417
CQUADX4,7292,1,7417,7476,7477,7418
CQUADX4,7293,1,7418,7477,7478,7419
CQUADX4,7294,1,7419,7478,7479,7420
CQUADX4,7295,1,7420,7479,7480,7421
CQUADX4,7296,1,7421,7480,7481,7422
CQUADX4,7297,1,7422,7481,7482,7423
CQUADX4,7298,1,7423,7482,7483,7424
CQUADX4,7299,1,7424,7483,7484,7425
CQUADX4,7300,1,7425,7484,7485,7426
CQUADX4,7301,1,7426,7485,7486,7427
CQUADX4,7302,1,7427,7486,7487,7428
CQUADX4,7303,1,7428,7487,7488,7429
CQUADX4,7304,1,7429,7488,7489,7430
CQUADX4,7305,1,7430,7489,7490,7431
CQUADX4,7306,1,7431,7490,7491,7432
CQUADX4,7307,1,7432,7491,7492,7433
CQUADX4,7308,1,7433,7492,7493,7434
CQUADX4,7309,1,7435,7494,7495,7436
CQUADX4,7310,1,7436,7495,7496,7437
CQUADX4,7311,1,7437,7496,7497,7438
CQUADX4,7312,1,7438,7497,7498,7439
CQUADX4,7313,1,7439,7498,7499,7440
CQUADX4,7314,1,7440,7499,7500,7441
CQUADX4,7315,1,7441,7500,7501,7442
CQUADX4,7316,1,7442,7501,7502,7443
CQUADX4,7317,1,7443,7502,7503,7444
CQUADX4,7318,1,7444,7503,7504,7445
CQUADX4,7319,1,7445,7504,7505,7446
CQUADX4,7320,1,7446,7505,7506,7447
CQUADX4,7321,1,7447,7506,7507,7448
CQUADX4,7322,1,7448,7507,7508,7449
CQUADX4,7323,1,7449,7508,7509,7450
CQUADX4,7324,1,7450,7509,7510,7451
CQUADX4,7325,1,7451,7510,7511,7452
CQUADX4,7326,1,7452,7511,7512,7453
CQUADX4,7327,1,7453,7512,7513,7454
CQUADX4,7328,1,7454,7513,7514,7455
CQUADX4,7329,1,7455,7514,7515,7456
CQUADX4,7330,1,7456,7515,7516,7457
CQUADX4,7331,1,7457,7516,7517,7458
CQUADX4,7332,1,7458,7517,7518,7459
CQUADX4,7333,1,7459,7518,7519,7460
CQUADX4,7334,1,7460,7519,7520,7461
CQUADX4,7335,1,7461,7520,7521,7462
CQUADX4,7336,1,7462,7521,7522,7463
CQUADX4,7337,1,7463,7522,7523,7464
CQUADX4,7338,1,7464,7523,7524,7465
CQUADX4,7339,1,7465,7524,7525,7466
CQUADX4,7340,1,7466,7525,7526,7467
CQUADX4,7341,1,7467,7526,7527,7468
CQUADX4,7342,1,7468,7527,7528,7469
CQUADX4,7343,1,7469,7528,7529,7470
CQUADX4,7344,1,7470,7529,7530,7471
CQUADX4,7345,1,7471,7530,7531,7472
CQUADX4,7346,1,7472,7531,7532,7473
CQUADX4,7347,1,7473,7532,7533,7474
CQUADX4,7348,1,7474,7533,7534,7475
CQUADX4,7349,1,7475,7534,7535,7476
CQUADX4,7350,1,7476,7535,7536,7477
CQUADX4,7351,1,7477,7536,7537,7478
CQUADX4,7352,1,7478,7537,7538,7479
CQUADX4,7353,1,7479,7538,7539,7480
CQUADX4,7354,1,7480,7539,7540,7481
CQUADX4,7355,1,7481,7540,7541,7482
CQUADX4,7356,1,7482,7541,7542,7483
CQUADX4,7357,1,7483,7542,7543,7484
CQUADX4,7358,1,7484,7543,7544,7485
CQUADX4,7359,1,7485,7544,7545,7486
CQUADX4,7360,1,7486,7545,7546,7487
CQUADX4,7361,1,7487,7546,7547,7488
CQUADX4,7362,1,7488,7547,7548,7489
CQUADX4,7363,1,7489,7548,7549,7490
CQUADX4,7364,1,7490,7549,7550,7491
CQUADX4,7365,1,7491,7550,7551,7492
CQUADX4,7366,1,7492,7551,7552,7493
CQUADX4,7367,1,7494,7553,7554,7495
CQUADX4,7368,1,7495,7554,7555,7496
CQUADX4,7369,1,7496,7555,7556,7497
CQUADX4,7370,1,7497,7556,7557,7498
CQUADX4,7371,1,7498,7557,7558,7499
CQUADX4,7372,1,7499,7558,7559,7500
CQUADX4,7373,1,7500,7559,7560,7501
CQUADX4,7374,1,7501,7560,7561,7502
CQUADX4,7375,1,7502,7561,7562,7503
CQUADX4,7376,1,7503,7562,7563,7504
CQUADX4,7377,1,7504,7563,7564,7505
CQUADX4,7378,1,7505,7564,7565,7506
CQUADX4,7379,1,7506,7565,7566,7507
CQUADX4,7380,1,7507,7566,7567,7508
CQUADX4,7381,1,7508,7567,7568,7509
CQUADX4,7382,1,7509,7568,7569,7510
CQUADX4,7383,1,7510,7569,7570,7511
CQUADX4,7384,1,7511,7570,7571,7512
CQUADX4,7385,1,7512,7571,7572,7513
CQUADX4,7386,1,7513,7572,7573,7514
CQUADX4,7387,1,7514,7573,7574,7515
CQUADX4,7388,1,7515,7574,7575,7516
CQUADX4,7389,1,7516,7575,7576,7517
CQUADX4,7390,1,7517,7576,7577,7518
CQUADX4,7391,1,7518,7577,7578,7519
CQUADX4,7392,1,7519,7578,7579,7520
CQUADX4,7393,1,7520,7579,7580,7521
CQUADX4,7394,1,7521,7580,7581,7522
CQUADX4,7395,1,7522,7581,7582,7523
CQUADX4,7396,1,7523,7582,7583,7524
CQUADX4,7397,1,7524,7583,7584,7525
CQUADX4,7398,1,7525,7584,7585,7526
CQUADX4,7399,1,7526,7585,7586,7527
CQUADX4,7400,1,7527,7586,7587,7528
CQUADX4,7401,1,7528,7587,7588,7529
CQUADX4,7402,1,7529,7588,7589,7530
CQUADX4,7403,1,7530,7589,7590,7531
CQUADX4,7404,1,7531,7590,7591,7532
CQUADX4,7405,1,7532,7591,7592,7533
CQUADX4,7406,1,7533,7592,7593,7534
CQUADX4,7407,1,7534,7593,7594,7535
CQUADX4,7408,1,7535,7594,7595,7536
CQUADX4,7409,1,7536,7595,7596,7537
CQUADX4,7410,1,7537,7596,7597,7538
CQUADX4,7411,1,7538,7597,7598,7539
CQUADX4,7412,1,7539,7598,7599,7540
CQUADX4,7413,1,7540,7599,7600,7541
CQUADX4,7414,1,7541,7600,7601,7542
CQUADX4,7415,1,7542,7601,7602,7543
CQUADX4,7416,1,7543,7602,7603,7544
CQUADX4,7417,1,7544,7603,7604,7545
CQUADX4,7418,1,7545,7604,7605,7546
CQUADX4,7419,1,7546,7605,7606,7547
CQUADX4,7420,1,7547,7606,7607,7548
CQUADX4,7421,1,7548,7607,7608,7549
CQUADX4,7422,1,7549,7608,7609,7550
CQUADX4,7423,1,7550,7609,7610,7551
CQUADX4,7424,1,7551,7610,7611,7552
CQUADX4,7425,1,7553,7612,7613,7554
CQUADX4,7426,1,7554,7613,7614,7555
CQUADX4,7427,1,7555,7614,7615,7556
CQUADX4,7428,1,7556,7615,7616,7557
CQUADX4,7429,1,7557,7616,7617,7558
CQUADX4,7430,1,7558,7617,7618,7559
CQUADX4,7431,1,7559,7618,7619,7560
CQUADX4,7432,1,7560,7619,7620,7561
CQUADX4,7433,1,7561,7620,7621,7562
CQUADX4,7434,1,7562,7621,7622,7563
CQUADX4,7435,1,7563,7622,7623,7564
CQUADX4,7436,1,7564,7623,7624,7565
CQUADX4,7437,1,7565,7624,7625,7566
CQUADX4,7438,1,7566,7625,7626,7567
CQUADX4,7439,1,7567,7626,7627,7568
CQUADX4,7440,1,7568,7627,7628,7569
CQUADX4,7441,1,7569,7628,7629,7570
CQUADX4,7442,1,7570,7629,7630,7571
CQUADX4,7443,1,7571,7630,7631,7572
CQUADX4,7444,1,7572,7631,7632,7573
CQUADX4,7445,1,7573,7632,7633,7574
CQUADX4,7446,1,7574,7633,7634,7575
CQUADX4,7447,1,7575,7634,7635,7576
CQUADX4,7448,1,7576,7635,7636,7577
CQUADX4,7449,1,7577,7636,7637,7578
CQUADX4,7450,1,7578,7637,7638,7579
CQUADX4,7451,1,7579,7638,7639,7580
CQUADX4,7452,1,7580,7639,7640,7581
CQUADX4,7453,1,7581,7640,7641,7582
CQUADX4,7454,1,7582,7641,7642,7583
CQUADX4,7455,1,7583,7642,7643,7584
CQUADX4,7456,1,7584,7643,7644,7585
CQUADX4,7457,1,7585,7644,7645,7586
CQUADX4,7458,1,7586,7645,7646,7587
CQUADX4,7459,1,7587,7646,7647,7588
CQUADX4,7460,1,7588,7647,7648,7589
CQUADX4,7461,1,7589,7648,7649,7590
CQUADX4,7462,1,7590,7649,7650,7591
CQUADX4,7463,1,7591,7650,7651,7592
CQUADX4,7464,1,7592,7651,7652,7593
CQUADX4,7465,1,7593,7652,7653,7594
CQUADX4,7466,1,7594,7653,7654,7595
CQUADX4,7467,1,7595,7654,7655,7596
CQUADX4,7468,1,7596,7655,7656,7597
CQUADX4,7469,1,7597,7656,7657,7598
CQUADX4,7470,1,7598,7657,7658,7599
CQUADX4,7471,1,7599,7658,7659,7600
CQUADX4,7472,1,7600,7659,7660,7601
CQUADX4,7473,1,7601,7660,7661,7602
CQUADX4,7474,1,7602,7661,7662,7603
CQUADX4,7475,1,7603,7662,7663,7604
CQUADX4,7476,1,7604,7663,7664,7605
CQUADX4,7477,1,7605,7664,7665,7606
CQUADX4,7478,1,7606,7665,7666,7607
CQUADX4,7479,1,7607,7666,7667,7608
CQUADX4,7480,1,7608,7667,7668,7609
CQUADX4,7481,1,7609,7668,7669,7610
CQUADX4,7482,1,7610,7669,7670,7611
CQUADX4,7483,1,7612,7671,7672,7613
CQUADX4,7484,1,7613,7672,7673,7614
CQUADX4,7485,1,7614,7673,7674,7615
CQUADX4,7486,1,7615,7674,7675,7616
CQUADX4,7487,1,7616,7675,7676,7617
CQUADX4,7488,1,7617,7676,7677,7618
CQUADX4,7489,1,7618,7677,7678,7619
CQUADX4,7490,1,7619,7678,7679,7620
CQUADX4,7491,1,7620,7679,7680,7621
CQUADX4,7492,1,7621,7680,7681,7622
CQUADX4,7493,1,7622,7681,7682,7623
CQUADX4,7494,1,7623,7682,7683,7624
CQUADX4,7495,1,7624,7683,7684,7625
CQUADX4,7496,1,7625,7684,7685,7626
CQUADX4,7497,1,7626,7685,7686,7627
CQUADX4,7498,1,7627,7686,7687,7628
CQUADX4,7499,1,7628,7687,7688,7629
CQUADX4,7500,1,7629,7688,7689,7630
CQUADX4,7501,1,7630,7689,7690,7631
CQUADX4,7502,1,7631,7690,7691,7632
CQUADX4,7503,1,7632,7691,7692,7633
CQUADX4,7504,1,7633,7692,7693,7634
CQUADX4,7505,1,7634,7693,7694,7635
CQUADX4,7506,1,7635,7694,7695,7636
CQUADX4,7507,1,7636,7695,7696,7637
CQUADX4,7508,1,7637,7696,7697,7638
CQUADX4,7509,1,7638,7697,7698,7639
CQUADX4,7510,1,7639,7698,7699,7640
CQUADX4,7511,1,7640,7699,7700,7641
CQUADX4,7512,1,7641,7700,7701,7642
CQUADX4,7513,1,7642,7701,7702,7643
CQUADX4,7514,1,7643,7702,7703,7644
CQUADX4,7515,1,7644,7703,7704,7645
CQUADX4,7516,1,7645,7704,7705,7646
CQUADX4,7517,1,7646,7705,7706,7647
CQUADX4,7518,1,7647,7706,7707,7648
CQUADX4,7519,1,7648,7707,7708,7649
CQUADX4,7520,1,7649,7708,7709,7650
CQUADX4,7521,1,7650,7709,7710,7651
CQUADX4,7522,1,7651,7710,7711,7652
CQUADX4,7523,1,7652,7711,7712,7653
CQUADX4,7524,1,7653,7712,7713,7654
CQUADX4,7525,1,7654,7713,7714,7655
CQUADX4,7526,1,7655,7714,7715,7656
CQUADX4,7527,1,7656,7715,7716,7657
CQUADX4,7528,1,7657,7716,7717,7658
CQUADX4,7529,1,7658,7717,7718,7659
CQUADX4,7530,1,7659,7718,7719,7660
CQUADX4,7531,1,7660,7719,7720,7661
CQUADX4,7532,1,7661,7720,7721,7662
CQUADX4,7533,1,7662,7721,7722,7663
CQUADX4,7534,1,7663,7722,7723,7664
CQUADX4,7535,1,7664,7723,7724,7665
CQUADX4,7536,1,7665,7724,7725,7666
CQUADX4,7537,1,7666,7725,7726,7667
CQUADX4,7538,1,7667,7726,7727,7668
CQUADX4,7539,1,7668,7727,7728,7669
CQUADX4,7540,1,7669,7728,7729,7670
CQUADX4,7541,1,7671,7730,7731,7672
CQUADX4,7542,1,7672,7731,7732,7673
CQUADX4,7543,1,7673,7732,7733,7674
CQUADX4,7544,1,7674,7733,7734,7675
CQUADX4,7545,1,7675,7734,7735,7676
CQUADX4,7546,1,7676,7735,7736,7677
CQUADX4,7547,1,7677,7736,7737,7678
CQUADX4,7548,1,7678,7737,7738,7679
CQUADX4,7549,1,7679,7738,7739,7680
CQUADX4,7550,1,7680,7739,7740,7681
CQUADX4,7551,1,7681,7740,7741,7682
CQUADX4,7552,1,7682,7741,7742,7683
CQUADX4,7553,1,7683,7742,7743,7684
CQUADX4,7554,1,7684,7743,7744,7685
CQUADX4,7555,1,7685,7744,7745,7686
CQUADX4,7556,1,7686,7745,7746,7687
CQUADX4,7557,1,7687,7746,7747,7688
CQUADX4,7558,1,7688,7747,7748,7689
CQUADX4,7559,1,7689,7748,7749,7690
CQUADX4,7560,1,7690,7749,7750,7691
CQUADX4,7561,1,7691,7750,7751,7692
CQUADX4,7562,1,7692,7751,7752,7693
CQUADX4,7563,1,7693,7752,7753,7694
CQUADX4,7564,1,7694,7753,7754,7695
CQUADX4,7565,1,7695,7754,7755,7696
CQUADX4,7566,1,7696,7755,7756,7697
CQUADX4,7567,1,7697,7756,7757,7698
CQUADX4,7568,1,7698,7757,7758,7699
CQUADX4,7569,1,7699,7758,7759,7700
CQUADX4,7570,1,7700,7759,7760,7701
CQUADX4,7571,1,7701,7760,7761,7702
CQUADX4,7572,1,7702,7761,7762,7703
CQUADX4,7573,1,7703,7762,7763,7704
CQUADX4,7574,1,7704,7763,7764,7705
CQUADX4,7575,1,7705,7764,7765,7706
CQUADX4,7576,1,7706,7765,7766,7707
CQUADX4,7577,1,7707,7766,7767,7708
CQUADX4,7578,1,7708,7767,7768,7709
CQUADX4,7579,1,7709,7768,7769,7710
CQUADX4,7580,1,7710,7769,7770,7711
CQUADX4,7581,1,7711,7770,7771,7712
CQUADX4,7582,1,7712,7771,7772,7713
CQUADX4,7583,1,7713,7772,7773,7714
CQUADX4,7584,1,7714,7773,7774,7715
CQUADX4,7585,1,7715,7774,7775,7716
CQUADX4,7586,1,7716,7775,7776,7717
CQUADX4,7587,1,7717,7776,7777,7718
CQUADX4,7588,1,7718,7777,7778,7719
CQUADX4,7589,1,7719,7778,7779,7720
CQUADX4,7590,1,7720,7779,7780,7721
CQUADX4,7591,1,7721,7780,7781,7722
CQUADX4,7592,1,7722,7781,7782,7723
CQUADX4,7593,1,7723,7782,7783,7724
CQUADX4,7594,1,7724,7783,7784,7725
CQUADX4,7595,1,7725,7784,7785,7726
CQUADX4,7596,1,7726,7785,7786,7727
CQUADX4,7597,1,7727,7786,7787,7728
CQUADX4,7598,1,7728,7787,7788,7729
CQUADX4,7599,1,7730,7789,7790,7731
CQUADX4,7600,1,7731,7790,7791,7732
CQUADX4,7601,1,7732,7791,7792,7733
CQUADX4,7602,1,7733,7792,7793,7734
CQUADX4,7603,1,7734,7793,7794,7735
CQUADX4,7604,1,7735,7794,7795,7736
CQUADX4,7605,1,7736,7795,7796,7737
CQUADX4,7606,1,7737,7796,7797,7738
CQUADX4,7607,1,7738,7797,7798,7739
CQUADX4,7608,1,7739,7798,7799,7740
CQUADX4,7609,1,7740,7799,7800,7741
CQUADX4,7610,1,7741,7800,7801,7742
CQUADX4,7611,1,7742,7801,7802,7743
CQUADX4,7612,1,7743,7802,7803,7744
CQUADX4,7613,1,7744,7803,7804,7745
CQUADX4,7614,1,7745,7804,7805,7746
CQUADX4,7615,1,7746,7805,7806,7747
CQUADX4,7616,1,7747,7806,7807,7748
CQUADX4,7617,1,7748,7807,7808,7749
CQUADX4,7618,1,7749,7808,7809,7750
CQUADX4,7619,1,7750,7809,7810,7751
CQUADX4,7620,1,7751,7810,7811,7752
CQUADX4,7621,1,7752,7811,7812,7753
CQUADX4,7622,1,7753,7812,7813,7754
CQUADX4,7623,1,7754,7813,7814,7755
CQUADX4,7624,1,7755,7814,7815,7756
CQUADX4,7625,1,7756,7815,7816,7757
CQUADX4,7626,1,7757,7816,7817,7758
CQUADX4,7627,1,7758,7817,7818,7759
CQUADX4,7628,1,7759,7818,7819,7760
CQUADX4,7629,1,7760,7819,7820,7761
CQUADX4,7630,1,7761,7820,7821,7762
CQUADX4,7631,1,7762,7821,7822,7763
CQUADX4,7632,1,7763,7822,7823,7764
CQUADX4,7633,1,7764,7823,7824,7765
CQUADX4,7634,1,7765,7824,7825,7766
CQUADX4,7635,1,7766,7825,7826,7767
CQUADX4,7636,1,7767,7826,7827,7768
CQUADX4,7637,1,7768,7827,7828,7769
CQUADX4,7638,1,7769,7828,7829,7770
CQUADX4,7639,1,7770,7829,7830,7771
CQUADX4,7640,1,7771,7830,7831,7772
CQUADX4,7641,1,7772,7831,7832,7773
CQUADX4,7642,1,7773,7832,7833,7774
CQUADX4,7643,1,7774,7833,7834,7775
CQUADX4,7644,1,7775,7834,7835,7776
CQUADX4,7645,1,7776,7835,7836,7777
CQUADX4,7646,1,7777,7836,7837,7778
CQUADX4,7647,1,7778,7837,7838,7779
CQUADX4,7648,1,7779,7838,7839,7780
CQUADX4,7649,1,7780,7839,7840,7781
CQUADX4,7650,1,7781,7840,7841,7782
CQUADX4,7651,1,7782,7841,7842,7783
CQUADX4,7652,1,7783,7842,7843,7784
CQUADX4,7653,1,7784,7843,7844,7785
CQUADX4,7654,1,7785,7844,7845,7786
CQUADX4,7655,1,7786,7845,7846,7787
CQUADX4,7656,1,7787,7846,7847,7788
CQUADX4,7657,1,7789,7848,7849,7790
CQUADX4,7658,1,7790,7849,7850,7791
CQUADX4,7659,1,7791,7850,7851,7792
CQUADX4,7660,1,7792,7851,7852,7793
CQUADX4,7661,1,7793,7852,7853,7794
CQUADX4,7662,1,7794,7853,7854,7795
CQUADX4,7663,1,7795,7854,7855,7796
CQUADX4,7664,1,7796,7855,7856,7797
CQUADX4,7665,1,7797,7856,7857,7798
CQUADX4,7666,1,7798,7857,7858,7799
CQUADX4,7667,1,7799,7858,7859,7800
CQUADX4,7668,1,7800,7859,7860,7801
CQUADX4,7669,1,7801,7860,7861,7802
CQUADX4,7670,1,7802,7861,7862,7803
CQUADX4,7671,1,7803,7862,7863,7804
CQUADX4,7672,1,7804,7863,7864,7805
CQUADX4,7673,1,7805,7864,7865,7806
CQUADX4,7674,1,7806,7865,7866,7807
CQUADX4,7675,1,7807,7866,7867,7808
CQUADX4,7676,1,7808,7867,7868,7809
CQUADX4,7677,1,7809,7868,7869,7810
CQUADX4,7678,1,7810,7869,7870,7811
CQUADX4,7679,1,7811,7870,7871,7812
CQUADX4,7680,1,7812,7871,7872,7813
CQUADX4,7681,1,7813,7872,7873,7814
CQUADX4,7682,1,7814,7873,7874,7815
CQUADX4,7683,1,7815,7874,7875,7816
CQUADX4,7684,1,7816,7875,7876,7817
CQUADX4,7685,1,7817,7876,7877,7818
CQUADX4,7686,1,7818,7877,7878,7819
CQUADX4,7687,1,7819,7878,7879,7820
CQUADX4,7688,1,7820,7879,7880,7821
CQUADX4,7689,1,7821,7880,7881,7822
CQUADX4,7690,1,7822,7881,7882,7823
CQUADX4,7691,1,7823,7882,7883,7824
CQUADX4,7692,1,7824,7883,7884,7825
CQUADX4,7693,1,7825,7884,7885,7826
CQUADX4,7694,1,7826,7885,7886,7827
CQUADX4,7695,1,7827,7886,7887,7828
CQUADX4,7696,1,7828,7887,7888,7829
CQUADX4,7697,1,7829,7888,7889,7830
CQUADX4,7698,1,7830,7889,7890,7831
CQUADX4,7699,1,7831,7890,7891,7832
CQUADX4,7700,1,7832,7891,7892,7833
CQUADX4,7701,1,7833,7892,7893,7834
CQUADX4,7702,1,7834,7893,7894,7835
CQUADX4,7703,1,7835,7894,7895,7836
CQUADX4,7704,1,7836,7895,7896,7837
CQUADX4,7705,1,7837,7896,7897,7838
CQUADX4,7706,1,7838,7897,7898,7839
CQUADX4,7707,1,7839,7898,7899,7840
CQUADX4,7708,1,7840,7899,7900,7841
CQUADX4,7709,1,7841,7900,7901,7842
CQUADX4,7710,1,7842,7901,7902,7843
CQUADX4,7711,1,7843,7902,7903,7844
CQUADX4,7712,1,7844,7903,7904,7845
CQUADX4,7713,1,7845,7904,7905,7846
CQUADX4,7714,1,7846,7905,7906,7847
CQUADX4,7715,1,7848,7907,7908,7849
CQUADX4,7716,1,7849,7908,7909,7850
CQUADX4,7717,1,7850,7909,7910,7851
CQUADX4,7718,1,7851,7910,7911,7852
CQUADX4,7719,1,7852,7911,7912,7853
CQUADX4,7720,1,7853,7912,7913,7854
CQUADX4,7721,1,7854,7913,7914,7855
CQUADX4,7722,1,7855,7914,7915,7856
CQUADX4,7723,1,7856,7915,7916,7857
CQUADX4,7724,1,7857,7916,7917,7858
CQUADX4,7725,1,7858,7917,7918,7859
CQUADX4,7726,1,7859,7918,7919,7860
CQUADX4,7727,1,7860,7919,7920,7861
CQUADX4,7728,1,7861,7920,7921,7862
CQUADX4,7729,1,7862,7921,7922,7863
CQUADX4,7730,1,7863,7922,7923,7864
CQUADX4,7731,1,7864,7923,7924,7865
CQUADX4,7732,1,7865,7924,7925,7866
CQUADX4,7733,1,7866,7925,7926,7867
CQUADX4,7734,1,7867,7926,7927,7868
CQUADX4,7735,1,7868,7927,7928,7869
CQUADX4,7736,1,7869,7928,7929,7870
CQUADX4,7737,1,7870,7929,7930,7871
CQUADX4,7738,1,7871,7930,7931,7872
CQUADX4,7739,1,7872,7931,7932,7873
CQUADX4,7740,1,7873,7932,7933,7874
CQUADX4,7741,1,7874,7933,7934,7875
CQUADX4,7742,1,7875,7934,7935,7876
CQUADX4,7743,1,7876,7935,7936,7877
CQUADX4,7744,1,7877,7936,7937,7878
CQUADX4,7745,1,7878,7937,7938,7879
CQUADX4,7746,1,7879,7938,7939,7880
CQUADX4,7747,1,7880,7939,7940,7881
CQUADX4,7748,1,7881,7940,7941,7882
CQUADX4,7749,1,7882,7941,7942,7883
CQUADX4,7750,1,7883,7942,7943,7884
CQUADX4,7751,1,7884,7943,7944,7885
CQUADX4,7752,1,7885,7944,7945,7886
CQUADX4,7753,1,7886,7945,7946,7887
CQUADX4,7754,1,7887,7946,7947,7888
CQUADX4,7755,1,7888,7947,7948,7889
CQUADX4,7756,1,7889,7948,7949,7890
CQUADX4,7757,1,7890,7949,7950,7891
CQUADX4,7758,1,7891,7950,7951,7892
CQUADX4,7759,1,7892,7951,7952,7893
CQUADX4,7760,1,7893,7952,7953,7894
CQUADX4,7761,1,7894,7953,7954,7895
CQUADX4,7762,1,7895,7954,7955,7896
CQUADX4,7763,1,7896,7955,7956,7897
CQUADX4,7764,1,7897,7956,7957,7898
CQUADX4,7765,1,7898,7957,7958,7899
CQUADX4,7766,1,7899,7958,7959,7900
CQUADX4,7767,1,7900,7959,7960,7901
CQUADX4,7768,1,7901,7960,7961,7902
CQUADX4,7769,1,7902,7961,7962,7903
CQUADX4,7770,1,7903,7962,7963,7904
CQUADX4,7771,1,7904,7963,7964,7905
CQUADX4,7772,1,7905,7964,7965,7906
CQUADX4,7773,1,7907,7966,7967,7908
CQUADX4,7774,1,7908,7967,7968,7909
CQUADX4,7775,1,7909,7968,7969,7910
CQUADX4,7776,1,7910,7969,7970,7911
CQUADX4,7777,1,7911,7970,7971,7912
CQUADX4,7778,1,7912,7971,7972,7913
CQUADX4,7779,1,7913,7972,7973,7914
CQUADX4,7780,1,7914,7973,7974,7915
CQUADX4,7781,1,7915,7974,7975,7916
CQUADX4,7782,1,7916,7975,7976,7917
CQUADX4,7783,1,7917,7976,7977,7918
CQUADX4,7784,1,7918,7977,7978,7919
CQUADX4,7785,1,7919,7978,7979,7920
CQUADX4,7786,1,7920,7979,7980,7921
CQUADX4,7787,1,7921,7980,7981,7922
CQUADX4,7788,1,7922,7981,7982,7923
CQUADX4,7789,1,7923,7982,7983,7924
CQUADX4,7790,1,7924,7983,7984,7925
CQUADX4,7791,1,7925,7984,7985,7926
CQUADX4,7792,1,7926,7985,7986,7927
CQUADX4,7793,1,7927,7986,7987,7928
CQUADX4,7794,1,7928,7987,7988,7929
CQUADX4,7795,1,7929,7988,7989,7930
CQUADX4,7796,1,7930,7989,7990,7931
CQUADX4,7797,1,7931,7990,7991,7932
CQUADX4,7798,1,7932,7991,7992,7933
CQUADX4,7799,1,7933,7992,7993,7934
CQUADX4,7800,1,7934,7993,7994,7935
CQUADX4,7801,1,7935,7994,7995,7936
CQUADX4,7802,1,7936,7995,7996,7937
CQUADX4,7803,1,7937,7996,7997,7938
CQUADX4,7804,1,7938,7997,7998,7939
CQUADX4,7805,1,7939,7998,7999,7940
CQUADX4,7806,1,7940,7999,8000,7941
CQUADX4,7807,1,7941,8000,8001,7942
CQUADX4,7808,1,7942,8001,8002,7943
CQUADX4,7809,1,7943,8002,8003,7944
CQUADX4,7810,1,7944,8003,8004,7945
CQUADX4,7811,1,7945,8004,8005,7946
CQUADX4,7812,1,7946,8005,8006,7947
CQUADX4,7813,1,7947,8006,8007,7948
CQUADX4,7814,1,7948,8007,8008,7949
CQUADX4,7815,1,7949,8008,8009,7950
CQUADX4,7816,1,7950,8009,8010,7951
CQUADX4,7817,1,7951,8010,8011,7952
CQUADX4,7818,1,7952,8011,8012,7953
CQUADX4,7819,1,7953,8012,8013,7954
CQUADX4,7820,1,7954,8013,8014,7955
CQUADX4,7821,1,7955,8014,8015,7956
CQUADX4,7822,1,7956,8015,8016,7957
CQUADX4,7823,1,7957,8016,8017,7958
CQUADX4,7824,1,7958,8017,8018,7959
CQUADX4,7825,1,7959,8018,8019,7960
CQUADX4,7826,1,7960,8019,8020,7961
CQUADX4,7827,1,7961,8020,8021,7962
CQUADX4,7828,1,7962,8021,8022,7963
CQUADX4,7829,1,7963,8022,8023,7964
CQUADX4,7830,1,7964,8023,8024,7965
CQUADX4,7831,1,7966,8025,8026,7967
CQUADX4,7832,1,7967,8026,8027,7968
CQUADX4,7833,1,7968,8027,8028,7969
CQUADX4,7834,1,7969,8028,8029,7970
CQUADX4,7835,1,7970,8029,8030,7971
CQUADX4,7836,1,7971,8030,8031,7972
CQUADX4,7837,1,7972,8031,8032,7973
CQUADX4,7838,1,7973,8032,8033,7974
CQUADX4,7839,1,7974,8033,8034,7975
CQUADX4,7840,1,7975,8034,8035,7976
CQUADX4,7841,1,7976,8035,8036,7977
CQUADX4,7842,1,7977,8036,8037,7978
CQUADX4,7843,1,7978,8037,8038,7979
CQUADX4,7844,1,7979,8038,8039,7980
CQUADX4,7845,1,7980,8039,8040,7981
CQUADX4,7846,1,7981,8040,8041,7982
CQUADX4,7847,1,7982,8041,8042,7983
CQUADX4,7848,1,7983,8042,8043,7984
CQUADX4,7849,1,7984,8043,8044,7985
CQUADX4,7850,1,7985,8044,8045,7986
CQUADX4,7851,1,7986,8045,8046,7987
CQUADX4,7852,1,7987,8046,8047,7988
CQUADX4,7853,1,7988,8047,8048,7989
CQUADX4,7854,1,7989,8048,8049,7990
CQUADX4,7855,1,7990,8049,8050,7991
CQUADX4,7856,1,7991,8050,8051,7992
CQUADX4,7857,1,7992,8051,8052,7993
CQUADX4,7858,1,7993,8052,8053,7994
CQUADX4,7859,1,7994,8053,8054,7995
CQUADX4,7860,1,7995,8054,8055,7996
CQUADX4,7861,1,7996,8055,8056,7997
CQUADX4,7862,1,7997,8056,8057,7998
CQUADX4,7863,1,7998,8057,8058,7999
CQUADX4,7864,1,7999,8058,8059,8000
CQUADX4,7865,1,8000,8059,8060,8001
CQUADX4,7866,1,8001,8060,8061,8002
CQUADX4,7867,1,8002,8061,8062,8003
CQUADX4,7868,1,8003,8062,8063,8004
CQUADX4,7869,1,8004,8063,8064,8005
CQUADX4,7870,1,8005,8064,8065,8006
CQUADX4,7871,1,8006,8065,8066,8007
CQUADX4,7872,1,8007,8066,8067,8008
CQUADX4,7873,1,8008,8067,8068,8009
CQUADX4,7874,1,8009,8068,8069,8010
CQUADX4,7875,1,8010,8069,8070,8011
CQUADX4,7876,1,8011,8070,8071,8012
CQUADX4,7877,1,8012,8071,8072,8013
CQUADX4,7878,1,8013,8072,8073,8014
CQUADX4,7879,1,8014,8073,8074,8015
CQUADX4,7880,1,8015,8074,8075,8016
CQUADX4,7881,1,8016,8075,8076,8017
CQUADX4,7882,1,8017,8076,8077,8018
CQUADX4,7883,1,8018,8077,8078,8019
CQUADX4,7884,1,8019,8078,8079,8020
CQUADX4,7885,1,8020,8079,8080,8021
CQUADX4,7886,1,8021,8080,8081,8022
CQUADX4,7887,1,8022,8081,8082,8023
CQUADX4,7888,1,8023,8082,8083,8024
CQUADX4,7889,1,8025,8084,8085,8026
CQUADX4,7890,1,8026,8085,8086,8027
CQUADX4,7891,1,8027,8086,8087,8028
CQUADX4,7892,1,8028,8087,8088,8029
CQUADX4,7893,1,8029,8088,8089,8030
CQUADX4,7894,1,8030,8089,8090,8031
CQUADX4,7895,1,8031,8090,8091,8032
CQUADX4,7896,1,8032,8091,8092,8033
CQUADX4,7897,1,8033,8092,8093,8034
CQUADX4,7898,1,8034,8093,8094,8035
CQUADX4,7899,1,8035,8094,8095,8036
CQUADX4,7900,1,8036,8095,8096,8037
CQUADX4,7901,1,8037,8096,8097,8038
CQUADX4,7902,1,8038,8097,8098,8039
CQUADX4,7903,1,8039,8098,8099,8040
CQUADX4,7904,1,8040,8099,8100,8041
CQUADX4,7905,1,8041,8100,8101,8042
CQUADX4,7906,1,8042,8101,8102,8043
CQUADX4,7907,1,8043,8102,8103,8044
CQUADX4,7908,1,8044,8103,8104,8045
CQUADX4,7909,1,8045,8104,8105,8046
CQUADX4,7910,1,8046,8105,8106,8047
CQUADX4,7911,1,8047,8106,8107,8048
CQUADX4,7912,1,8048,8107,8108,8049
CQUADX4,7913,1,8049,8108,8109,8050
CQUADX4,7914,1,8050,8109,8110,8051
CQUADX4,7915,1,8051,8110,8111,8052
CQUADX4,7916,1,8052,8111,8112,8053
CQUADX4,7917,1,8053,8112,8113,8054
CQUADX4,7918,1,8054,8113,8114,8055
CQUADX4,7919,1,8055,8114,8115,8056
CQUADX4,7920,1,8056,8115,8116,8057
CQUADX4,7921,1,8057,8116,8117,8058
CQUADX4,7922,1,8058,8117,8118,8059
CQUADX4,7923,1,8059,8118,8119,8060
CQUADX4,7924,1,8060,8119,8120,8061
CQUADX4,7925,1,8061,8120,8121,8062
CQUADX4,7926,1,8062,8121,8122,8063
CQUADX4,7927,1,8063,8122,8123,8064
CQUADX4,7928,1,8064,8123,8124,8065
CQUADX4,7929,1,8065,8124,8125,8066
CQUADX4,7930,1,8066,8125,8126,8067
CQUADX4,7931,1,8067,8126,8127,8068
CQUADX4,7932,1,8068,8127,8128,8069
CQUADX4,7933,1,8069,8128,8129,8070
CQUADX4,7934,1,8070,8129,8130,8071
CQUADX4,7935,1,8071,8130,8131,8072
CQUADX4,7936,1,8072,8131,8132,8073
CQUADX4,7937,1,8073,8132,8133,8074
CQUADX4,7938,1,8074,8133,8134,8075
CQUADX4,7939,1,8075,8134,8135,8076
CQUADX4,7940,1,8076,8135,8136,8077
CQUADX4,7941,1,8077,8136,8137,8078
CQUADX4,7942,1,8078,8137,8138,8079
CQUADX4,7943,1,8079,8138,8139,8080
CQUADX4,7944,1,8080,8139,8140,8081
CQUADX4,7945,1,8081,8140,8141,8082
CQUADX4,7946,1,8082,8141,8142,8083
CQUADX4,7947,1,8084,8143,8144,8085
CQUADX4,7948,1,8085,8144,8145,8086
CQUADX4,7949,1,8086,8145,8146,8087
CQUADX4,7950,1,8087,8146,8147,8088
CQUADX4,7951,1,8088,8147,8148,8089
CQUADX4,7952,1,8089,8148,8149,8090
CQUADX4,7953,1,8090,8149,8150,8091
CQUADX4,7954,1,8091,8150,8151,8092
CQUADX4,7955,1,8092,8151,8152,8093
CQUADX4,7956,1,8093,8152,8153,8094
CQUADX4,7957,1,8094,8153,8154,8095
CQUADX4,7958,1,8095,8154,8155,8096
CQUADX4,7959,1,8096,8155,8156,8097
CQUADX4,7960,1,8097,8156,8157,8098
CQUADX4,7961,1,8098,8157,8158,8099
CQUADX4,7962,1,8099,8158,8159,8100
CQUADX4,7963,1,8100,8159,8160,8101
CQUADX4,7964,1,8101,8160,8161,8102
CQUADX4,7965,1,8102,8161,8162,8103
CQUADX4,7966,1,8103,8162,8163,8104
CQUADX4,7967,1,8104,8163,8164,8105
CQUADX4,7968,1,8105,8164,8165,8106
CQUADX4,7969,1,8106,8165,8166,8107
CQUADX4,7970,1,8107,8166,8167,8108
CQUADX4,7971,1,8108,8167,8168,8109
CQUADX4,7972,1,8109,8168,8169,8110
CQUADX4,7973,1,8110,8169,8170,8111
CQUADX4,7974,1,8111,8170,8171,8112
CQUADX4,7975,1,8112,8171,8172,8113
CQUADX4,7976,1,8113,8172,8173,8114
CQUADX4,7977,1,8114,8173,8174,8115
CQUADX4,7978,1,8115,8174,8175,8116
CQUADX4,7979,1,8116,8175,8176,8117
CQUADX4,7980,1,8117,8176,8177,8118
CQUADX4,7981,1,8118,8177,8178,8119
CQUADX4,7982,1,8119,8178,8179,8120
CQUADX4,7983,1,8120,8179,8180,8121
CQUADX4,7984,1,8121,8180,8181,8122
CQUADX4,7985,1,8122,8181,8182,8123
CQUADX4,7986,1,8123,8182,8183,8124
CQUADX4,7987,1,8124,8183,8184,8125
CQUADX4,7988,1,8125,8184,8185,8126
CQUADX4,7989,1,8126,8185,8186,8127
CQUADX4,7990,1,8127,8186,8187,8128
CQUADX4,7991,1,8128,8187,8188,8129
CQUADX4,7992,1,8129,8188,8189,8130
CQUADX4,7993,1,8130,8189,8190,8131
CQUADX4,7994,1,8131,8190,8191,8132
CQUADX4,7995,1,8132,8191,8192,8133
CQUADX4,7996,1,8133,8192,8193,8134
CQUADX4,7997,1,8134,8193,8194,8135
CQUADX4,7998,1,8135,8194,8195,8136
CQUADX4,7999,1,8136,8195,8196,8137
CQUADX4,8000,1,8137,8196,8197,8138
CQUADX4,8001,1,8138,8197,8198,8139
CQUADX4,8002,1,8139,8198,8199,8140
CQUADX4,8003,1,8140,8199,8200,8141
CQUADX4,8004,1,8141,8200,8201,8142
CQUADX4,8005,1,8143,8202,8203,8144
CQUADX4,8006,1,8144,8203,8204,8145
CQUADX4,8007,1,8145,8204,8205,8146
CQUADX4,8008,1,8146,8205,8206,8147
CQUADX4,8009,1,8147,8206,8207,8148
CQUADX4,8010,1,8148,8207,8208,8149
CQUADX4,8011,1,8149,8208,8209,8150
CQUADX4,8012,1,8150,8209,8210,8151
CQUADX4,8013,1,8151,8210,8211,8152
CQUADX4,8014,1,8152,8211,8212,8153
CQUADX4,8015,1,8153,8212,8213,8154
CQUADX4,8016,1,8154,8213,8214,8155
CQUADX4,8017,1,8155,8214,8215,8156
CQUADX4,8018,1,8156,8215,8216,8157
CQUADX4,8019,1,8157,8216,8217,8158
CQUADX4,8020,1,8158,8217,8218,8159
CQUADX4,8021,1,8159,8218,8219,8160
CQUADX4,8022,1,8160,8219,8220,8161
CQUADX4,8023,1,8161,8220,8221,8162
CQUADX4,8024,1,8162,8221,8222,8163
CQUADX4,8025,1,8163,8222,8223,8164
CQUADX4,8026,1,8164,8223,8224,8165
CQUADX4,8027,1,8165,8224,8225,8166
CQUADX4,8028,1,8166,8225,8226,8167
CQUADX4,8029,1,8167,8226,8227,8168
CQUADX4,8030,1,8168,8227,8228,8169
CQUADX4,8031,1,8169,8228,8229,8170
CQUADX4,8032,1,8170,8229,8230,8171
CQUADX4,8033,1,8171,8230,8231,8172
CQUADX4,8034,1,8172,8231,8232,8173
CQUADX4,8035,1,8173,8232,8233,8174
CQUADX4,8036,1,8174,8233,8234,8175
CQUADX4,8037,1,8175,8234,8235,8176
CQUADX4,8038,1,8176,8235,8236,8177
CQUADX4,8039,1,8177,8236,8237,8178
CQUADX4,8040,1,8178,8237,8238,8179
CQUADX4,8041,1,8179,8238,8239,8180
CQUADX4,8042,1,8180,8239,8240,8181
CQUADX4,8043,1,8181,8240,8241,8182
CQUADX4,8044,1,8182,8241,8242,8183
CQUADX4,8045,1,8183,8242,8243,8184
CQUADX4,8046,1,8184,8243,8244,8185
CQUADX4,8047,1,8185,8244,8245,8186
CQUADX4,8048,1,8186,8245,8246,8187
CQUADX4,8049,1,8187,8246,8247,8188
CQUADX4,8050,1,8188,8247,8248,8189
CQUADX4,8051,1,8189,8248,8249,8190
CQUADX4,8052,1,8190,8249,8250,8191
CQUADX4,8053,1,8191,8250,8251,8192
CQUADX4,8054,1,8192,8251,8252,8193
CQUADX4,8055,1,8193,8252,8253,8194
CQUADX4,8056,1,8194,8253,8254,8195
CQUADX4,8057,1,8195,8254,8255,8196
CQUADX4,8058,1,8196,8255,8256,8197
CQUADX4,8059,1,8197,8256,8257,8198
CQUADX4,8060,1,8198,8257,8258,8199
CQUADX4,8061,1,8199,8258,8259,8200
CQUADX4,8062,1,8200,8259,8260,8201
CQUADX4,8063,1,8202,8261,8262,8203
CQUADX4,8064,1,8203,8262,8263,8204
CQUADX4,8065,1,8204,8263,8264,8205
CQUADX4,8066,1,8205,8264,8265,8206
CQUADX4,8067,1,8206,8265,8266,8207
CQUADX4,8068,1,8207,8266,8267,8208
CQUADX4,8069,1,8208,8267,8268,8209
CQUADX4,8070,1,8209,8268,8269,8210
CQUADX4,8071,1,8210,8269,8270,8211
CQUADX4,8072,1,8211,8270,8271,8212
CQUADX4,8073,1,8212,8271,8272,8213
CQUADX4,8074,1,8213,8272,8273,8214
CQUADX4,8075,1,8214,8273,8274,8215
CQUADX4,8076,1,8215,8274,8275,8216
CQUADX4,8077,1,8216,8275,8276,8217
CQUADX4,8078,1,8217,8276,8277,8218
CQUADX4,8079,1,8218,8277,8278,8219
CQUADX4,8080,1,8219,8278,8279,8220
CQUADX4,8081,1,8220,8279,8280,8221
CQUADX4,8082,1,8221,8280,8281,8222
CQUADX4,8083,1,8222,8281,8282,8223
CQUADX4,8084,1,8223,8282,8283,8224
CQUADX4,8085,1,8224,8283,8284,8225
CQUADX4,8086,1,8225,8284,8285,8226
CQUADX4,8087,1,8226,8285,8286,8227
CQUADX4,8088,1,8227,8286,8287,8228
CQUADX4,8089,1,8228,8287,8288,8229
CQUADX4,8090,1,8229,8288,8289,8230
CQUADX4,8091,1,8230,8289,8290,8231
CQUADX4,8092,1,8231,8290,8291,8232
CQUADX4,8093,1,8232,8291,8292,8233
CQUADX4,8094,1,8233,8292,8293,8234
CQUADX4,8095,1,8234,8293,8294,8235
CQUADX4,8096,1,8235,8294,8295,8236
CQUADX4,8097,1,8236,8295,8296,8237
CQUADX4,8098,1,8237,8296,8297,8238
CQUADX4,8099,1,8238,8297,8298,8239
CQUADX4,8100,1,8239,8298,8299,8240
CQUADX4,8101,1,8240,8299,8300,8241
CQUADX4,8102,1,8241,8300,8301,8242
CQUADX4,8103,1,8242,8301,8302,8243
CQUADX4,8104,1,8243,8302,8303,8244
CQUADX4,8105,1,8244,8303,8304,8245
CQUADX4,8106,1,8245,8304,8305,8246
CQUADX4,8107,1,8246,8305,8306,8247
CQUADX4,8108,1,8247,8306,8307,8248
CQUADX4,8109,1,8248,8307,8308,8249
CQUADX4,8110,1,8249,8308,8309,8250
CQUADX4,8111,1,8250,8309,8310,8251
CQUADX4,8112,1,8251,8310,8311,8252
CQUADX4,8113,1,8252,8311,8312,8253
CQUADX4,8114,1,8253,8312,8313,8254
CQUADX4,8115,1,8254,8313,8314,8255
CQUADX4,8116,1,8255,8314,8315,8256
CQUADX4,8117,1,8256,8315,8316,8257
CQUADX4,8118,1,8257,8316,8317,8258
CQUADX4,8119,1,8258,8317,8318,8259
CQUADX4,8120,1,8259,8318,8319,8260
CQUADX4,8121,1,8261,8320,8321,8262
CQUADX4,8122,1,8262,8321,8322,8263
CQUADX4,8123,1,8263,8322,8323,8264
CQUADX4,8124,1,8264,8323,8324,8265
CQUADX4,8125,1,8265,8324,8325,8266
CQUADX4,8126,1,8266,8325,8326,8267
CQUADX4,8127,1,8267,8326,8327,8268
CQUADX4,8128,1,8268,8327,8328,8269
CQUADX4,8129,1,8269,8328,8329,8270
CQUADX4,8130,1,8270,8329,8330,8271
CQUADX4,8131,1,8271,8330,8331,8272
CQUADX4,8132,1,8272,8331,8332,8273
CQUADX4,8133,1,8273,8332,8333,8274
CQUADX4,8134,1,8274,8333,8334,8275
CQUADX4,8135,1,8275,8334,8335,8276
CQUADX4,8136,1,8276,8335,8336,8277
CQUADX4,8137,1,8277,8336,8337,8278
CQUADX4,8138,1,8278,8337,8338,8279
CQUADX4,8139,1,8279,8338,8339,8280
CQUADX4,8140,1,8280,8339,8340,8281
CQUADX4,8141,1,8281,8340,8341,8282
CQUADX4,8142,1,8282,8341,8342,8283
CQUADX4,8143,1,8283,8342,8343,8284
CQUADX4,8144,1,8284,8343,8344,8285
CQUADX4,8145,1,8285,8344,8345,8286
CQUADX4,8146,1,8286,8345,8346,8287
CQUADX4,8147,1,8287,8346,8347,8288
CQUADX4,8148,1,8288,8347,8348,8289
CQUADX4,8149,1,8289,8348,8349,8290
CQUADX4,8150,1,8290,8349,8350,8291
CQUADX4,8151,1,8291,8350,8351,8292
CQUADX4,8152,1,8292,8351,8352,8293
CQUADX4,8153,1,8293,8352,8353,8294
CQUADX4,8154,1,8294,8353,8354,8295
CQUADX4,8155,1,8295,8354,8355,8296
CQUADX4,8156,1,8296,8355,8356,8297
CQUADX4,8157,1,8297,8356,8357,8298
CQUADX4,8158,1,8298,8357,8358,8299
CQUADX4,8159,1,8299,8358,8359,8300
CQUADX4,8160,1,8300,8359,8360,8301
CQUADX4,8161,1,8301,8360,8361,8302
CQUADX4,8162,1,8302,8361,8362,8303
CQUADX4,8163,1,8303,8362,8363,8304
CQUADX4,8164,1,8304,8363,8364,8305
CQUADX4,8165,1,8305,8364,8365,8306
CQUADX4,8166,1,8306,8365,8366,8307
CQUADX4,8167,1,8307,8366,8367,8308
CQUADX4,8168,1,8308,8367,8368,8309
CQUADX4,8169,1,8309,8368,8369,8310
CQUADX4,8170,1,8310,8369,8370,8311
CQUADX4,8171,1,8311,8370,8371,8312
CQUADX4,8172,1,8312,8371,8372,8313
CQUADX4,8173,1,8313,8372,8373,8314
CQUADX4,8174,1,8314,8373,8374,8315
CQUADX4,8175,1,8315,8374,8375,8316
CQUADX4,8176,1,8316,8375,8376,8317
CQUADX4,8177,1,8317,8376,8377,8318
CQUADX4,8178,1,8318,8377,8378,8319
CQUADX4,8179,1,8320,8379,8380,8321
CQUADX4,8180,1,8321,8380,8381,8322
CQUADX4,8181,1,8322,8381,8382,8323
CQUADX4,8182,1,8323,8382,8383,8324
CQUADX4,8183,1,8324,8383,8384,8325
CQUADX4,8184,1,8325,8384,8385,8326
CQUADX4,8185,1,8326,8385,8386,8327
CQUADX4,8186,1,8327,8386,8387,8328
CQUADX4,8187,1,8328,8387,8388,8329
CQUADX4,8188,1,8329,8388,8389,8330
CQUADX4,8189,1,8330,8389,8390,8331
CQUADX4,8190,1,8331,8390,8391,8332
CQUADX4,8191,1,8332,8391,8392,8333
CQUADX4,8192,1,8333,8392,8393,8334
CQUADX4,8193,1,8334,8393,8394,8335
CQUADX4,8194,1,8335,8394,8395,8336
CQUADX4,8195,1,8336,8395,8396,8337
CQUADX4,8196,1,8337,8396,8397,8338
CQUADX4,8197,1,8338,8397,8398,8339
CQUADX4,8198,1,8339,8398,8399,8340
CQUADX4,8199,1,8340,8399,8400,8341
CQUADX4,8200,1,8341,8400,8401,8342
CQUADX4,8201,1,8342,8401,8402,8343
CQUADX4,8202,1,8343,8402,8403,8344
CQUADX4,8203,1,8344,8403,8404,8345
CQUADX4,8204,1,8345,8404,8405,8346
CQUADX4,8205,1,8346,8405,8406,8347
CQUADX4,8206,1,8347,8406,8407,8348
CQUADX4,8207,1,8348,8407,8408,8349
CQUADX4,8208,1,8349,8408,8409,8350
CQUADX4,8209,1,8350,8409,8410,8351
CQUADX4,8210,1,8351,8410,8411,8352
CQUADX4,8211,1,8352,8411,8412,8353
CQUADX4,8212,1,8353,8412,8413,8354
CQUADX4,8213,1,8354,8413,8414,8355
CQUADX4,8214,1,8355,8414,8415,8356
CQUADX4,8215,1,8356,8415,8416,8357
CQUADX4,8216,1,8357,8416,8417,8358
CQUADX4,8217,1,8358,8417,8418,8359
CQUADX4,8218,1,8359,8418,8419,8360
CQUADX4,8219,1,8360,8419,8420,8361
CQUADX4,8220,1,8361,8420,8421,8362
CQUADX4,8221,1,8362,8421,8422,8363
CQUADX4,8222,1,8363,8422,8423,8364
CQUADX4,8223,1,8364,8423,8424,8365
CQUADX4,8224,1,8365,8424,8425,8366
CQUADX4,8225,1,8366,8425,8426,8367
CQUADX4,8226,1,8367,8426,8427,8368
CQUADX4,8227,1,8368,8427,8428,8369
CQUADX4,8228,1,8369,8428,8429,8370
CQUADX4,8229,1,8370,8429,8430,8371
CQUADX4,8230,1,8371,8430,8431,8372
CQUADX4,8231,1,8372,8431,8432,8373
CQUADX4,8232,1,8373,8432,8433,8374
CQUADX4,8233,1,8374,8433,8434,8375
CQUADX4,8234,1,8375,8434,8435,8376
CQUADX4,8235,1,8376,8435,8436,8377
CQUADX4,8236,1,8377,8436,8437,8378
CQUADX4,8237,1,8379,8438,8439,8380
CQUADX4,8238,1,8380,8439,8440,8381
CQUADX4,8239,1,8381,8440,8441,8382
CQUADX4,8240,1,8382,8441,8442,8383
CQUADX4,8241,1,8383,8442,8443,8384
CQUADX4,8242,1,8384,8443,8444,8385
CQUADX4,8243,1,8385,8444,8445,8386
CQUADX4,8244,1,8386,8445,8446,8387
CQUADX4,8245,1,8387,8446,8447,8388
CQUADX4,8246,1,8388,8447,8448,8389
CQUADX4,8247,1,8389,8448,8449,8390
CQUADX4,8248,1,8390,8449,8450,8391
CQUADX4,8249,1,8391,8450,8451,8392
CQUADX4,8250,1,8392,8451,8452,8393
CQUADX4,8251,1,8393,8452,8453,8394
CQUADX4,8252,1,8394,8453,8454,8395
CQUADX4,8253,1,8395,8454,8455,8396
CQUADX4,8254,1,8396,8455,8456,8397
CQUADX4,8255,1,8397,8456,8457,8398
CQUADX4,8256,1,8398,8457,8458,8399
CQUADX4,8257,1,8399,8458,8459,8400
CQUADX4,8258,1,8400,8459,8460,8401
CQUADX4,8259,1,8401,8460,8461,8402
CQUADX4,8260,1,8402,8461,8462,8403
CQUADX4,8261,1,8403,8462,8463,8404
CQUADX4,8262,1,8404,8463,8464,8405
CQUADX4,8263,1,8405,8464,8465,8406
CQUADX4,8264,1,8406,8465,8466,8407
CQUADX4,8265,1,8407,8466,8467,8408
CQUADX4,8266,1,8408,8467,8468,8409
CQUADX4,8267,1,8409,8468,8469,8410
CQUADX4,8268,1,8410,8469,8470,8411
CQUADX4,8269,1,8411,8470,8471,8412
CQUADX4,8270,1,8412,8471,8472,8413
CQUADX4,8271,1,8413,8472,8473,8414
CQUADX4,8272,1,8414,8473,8474,8415
CQUADX4,8273,1,8415,8474,8475,8416
CQUADX4,8274,1,8416,8475,8476,8417
CQUADX4,8275,1,8417,8476,8477,8418
CQUADX4,8276,1,8418,8477,8478,8419
CQUADX4,8277,1,8419,8478,8479,8420
CQUADX4,8278,1,8420,8479,8480,8421
CQUADX4,8279,1,8421,8480,8481,8422
CQUADX4,8280,1,8422,8481,8482,8423
CQUADX4,8281,1,8423,8482,8483,8424
CQUADX4,8282,1,8424,8483,8484,8425
CQUADX4,8283,1,8425,8484,8485,8426
CQUADX4,8284,1,8426,8485,8486,8427
CQUADX4,8285,1,8427,8486,8487,8428
CQUADX4,8286,1,8428,8487,8488,8429
CQUADX4,8287,1,8429,8488,8489,8430
CQUADX4,8288,1,8430,8489,8490,8431
CQUADX4,8289,1,8431,8490,8491,8432
CQUADX4,8290,1,8432,8491,8492,8433
CQUADX4,8291,1,8433,8492,8493,8434
CQUADX4,8292,1,8434,8493,8494,8435
CQUADX4,8293,1,8435,8494,8495,8436
CQUADX4,8294,1,8436,8495,8496,8437
CQUADX4,8295,1,8438,8497,8498,8439
CQUADX4,8296,1,8439,8498,8499,8440
CQUADX4,8297,1,8440,8499,8500,8441
CQUADX4,8298,1,8441,8500,8501,8442
CQUADX4,8299,1,8442,8501,8502,8443
CQUADX4,8300,1,8443,8502,8503,8444
CQUADX4,8301,1,8444,8503,8504,8445
CQUADX4,8302,1,8445,8504,8505,8446
CQUADX4,8303,1,8446,8505,8506,8447
CQUADX4,8304,1,8447,8506,8507,8448
CQUADX4,8305,1,8448,8507,8508,8449
CQUADX4,8306,1,8449,8508,8509,8450
CQUADX4,8307,1,8450,8509,8510,8451
CQUADX4,8308,1,8451,8510,8511,8452
CQUADX4,8309,1,8452,8511,8512,8453
CQUADX4,8310,1,8453,8512,8513,8454
CQUADX4,8311,1,8454,8513,8514,8455
CQUADX4,8312,1,8455,8514,8515,8456
CQUADX4,8313,1,8456,8515,8516,8457
CQUADX4,8314,1,8457,8516,8517,8458
CQUADX4,8315,1,8458,8517,8518,8459
CQUADX4,8316,1,8459,8518,8519,8460
CQUADX4,8317,1,8460,8519,8520,8461
CQUADX4,8318,1,8461,8520,8521,8462
CQUADX4,8319,1,8462,8521,8522,8463
CQUADX4,8320,1,8463,8522,8523,8464
CQUADX4,8321,1,8464,8523,8524,8465
CQUADX4,8322,1,8465,8524,8525,8466
CQUADX4,8323,1,8466,8525,8526,8467
CQUADX4,8324,1,8467,8526,8527,8468
CQUADX4,8325,1,8468,8527,8528,8469
CQUADX4,8326,1,8469,8528,8529,8470
CQUADX4,8327,1,8470,8529,8530,8471
CQUADX4,8328,1,8471,8530,8531,8472
CQUADX4,8329,1,8472,8531,8532,8473
CQUADX4,8330,1,8473,8532,8533,8474
CQUADX4,8331,1,8474,8533,8534,8475
CQUADX4,8332,1,8475,8534,8535,8476
CQUADX4,8333,1,8476,8535,8536,8477
CQUADX4,8334,1,8477,8536,8537,8478
CQUADX4,8335,1,8478,8537,8538,8479
CQUADX4,8336,1,8479,8538,8539,8480
CQUADX4,8337,1,8480,8539,8540,8481
CQUADX4,8338,1,8481,8540,8541,8482
CQUADX4,8339,1,8482,8541,8542,8483
CQUADX4,8340,1,8483,8542,8543,8484
CQUADX4,8341,1,8484,8543,8544,8485
CQUADX4,8342,1,8485,8544,8545,8486
CQUADX4,8343,1,8486,8545,8546,8487
CQUADX4,8344,1,8487,8546,8547,8488
CQUADX4,8345,1,8488,8547,8548,8489
CQUADX4,8346,1,8489,8548,8549,8490
CQUADX4,8347,1,8490,8549,8550,8491
CQUADX4,8348,1,8491,8550,8551,8492
CQUADX4,8349,1,8492,8551,8552,8493
CQUADX4,8350,1,8493,8552,8553,8494
CQUADX4,8351,1,8494,8553,8554,8495
CQUADX4,8352,1,8495,8554,8555,8496
CQUADX4,8353,1,8497,8556,8557,8498
CQUADX4,8354,1,8498,8557,8558,8499
CQUADX4,8355,1,8499,8558,8559,8500
CQUADX4,8356,1,8500,8559,8560,8501
CQUADX4,8357,1,8501,8560,8561,8502
CQUADX4,8358,1,8502,8561,8562,8503
CQUADX4,8359,1,8503,8562,8563,8504
CQUADX4,8360,1,8504,8563,8564,8505
CQUADX4,8361,1,8505,8564,8565,8506
CQUADX4,8362,1,8506,8565,8566,8507
CQUADX4,8363,1,8507,8566,8567,8508
CQUADX4,8364,1,8508,8567,8568,8509
CQUADX4,8365,1,8509,8568,8569,8510
CQUADX4,8366,1,8510,8569,8570,8511
CQUADX4,8367,1,8511,8570,8571,8512
CQUADX4,8368,1,8512,8571,8572,8513
CQUADX4,8369,1,8513,8572,8573,8514
CQUADX4,8370,1,8514,8573,8574,8515
CQUADX4,8371,1,8515,8574,8575,8516
CQUADX4,8372,1,8516,8575,8576,8517
CQUADX4,8373,1,8517,8576,8577,8518
CQUADX4,8374,1,8518,8577,8578,8519
CQUADX4,8375,1,8519,8578,8579,8520
CQUADX4,8376,1,8520,8579,8580,8521
CQUADX4,8377,1,8521,8580,8581,8522
CQUADX4,8378,1,8522,8581,8582,8523
CQUADX4,8379,1,8523,8582,8583,8524
CQUADX4,8380,1,8524,8583,8584,8525
CQUADX4,8381,1,8525,8584,8585,8526
CQUADX4,8382,1,8526,8585,8586,8527
CQUADX4,8383,1,8527,8586,8587,8528
CQUADX4,8384,1,8528,8587,8588,8529
CQUADX4,8385,1,8529,8588,8589,8530
CQUADX4,8386,1,8530,8589,8590,8531
CQUADX4,8387,1,8531,8590,8591,8532
CQUADX4,8388,1,8532,8591,8592,8533
CQUADX4,8389,1,8533,8592,8593,8534
CQUADX4,8390,1,8534,8593,8594,8535
CQUADX4,8391,1,8535,8594,8595,8536
CQUADX4,8392,1,8536,8595,8596,8537
CQUADX4,8393,1,8537,8596,8597,8538
CQUADX4,8394,1,8538,8597,8598,8539
CQUADX4,8395,1,8539,8598,8599,8540
CQUADX4,8396,1,8540,8599,8600,8541
CQUADX4,8397,1,8541,8600,8601,8542
CQUADX4,8398,1,8542,8601,8602,8543
CQUADX4,8399,1,8543,8602,8603,8544
CQUADX4,8400,1,8544,8603,8604,8545
CQUADX4,8401,1,8545,8604,8605,8546
CQUADX4,8402,1,8546,8605,8606,8547
CQUADX4,8403,1,8547,8606,8607,8548
CQUADX4,8404,1,8548,8607,8608,8549
CQUADX4,8405,1,8549,8608,8609,8550
CQUADX4,8406,1,8550,8609,8610,8551
CQUADX4,8407,1,8551,8610,8611,8552
CQUADX4,8408,1,8552,8611,8612,8553
CQUADX4,8409,1,8553,8612,8613,8554
CQUADX4,8410,1,8554,8613,8614,8555
CQUADX4,8411,1,8556,8615,8616,8557
CQUADX4,8412,1,8557,8616,8617,8558
CQUADX4,8413,1,8558,8617,8618,8559
CQUADX4,8414,1,8559,8618,8619,8560
CQUADX4,8415,1,8560,8619,8620,8561
CQUADX4,8416,1,8561,8620,8621,8562
CQUADX4,8417,1,8562,8621,8622,8563
CQUADX4,8418,1,8563,8622,8623,8564
CQUADX4,8419,1,8564,8623,8624,8565
CQUADX4,8420,1,8565,8624,8625,8566
CQUADX4,8421,1,8566,8625,8626,8567
CQUADX4,8422,1,8567,8626,8627,8568
CQUADX4,8423,1,8568,8627,8628,8569
CQUADX4,8424,1,8569,8628,8629,8570
CQUADX4,8425,1,8570,8629,8630,8571
CQUADX4,8426,1,8571,8630,8631,8572
CQUADX4,8427,1,8572,8631,8632,8573
CQUADX4,8428,1,8573,8632,8633,8574
CQUADX4,8429,1,8574,8633,8634,8575
CQUADX4,8430,1,8575,8634,8635,8576
CQUADX4,8431,1,8576,8635,8636,8577
CQUADX4,8432,1,8577,8636,8637,8578
CQUADX4,8433,1,8578,8637,8638,8579
CQUADX4,8434,1,8579,8638,8639,8580
CQUADX4,8435,1,8580,8639,8640,8581
CQUADX4,8436,1,8581,8640,8641,8582
CQUADX4,8437,1,8582,8641,8642,8583
CQUADX4,8438,1,8583,8642,8643,8584
CQUADX4,8439,1,8584,8643,8644,8585
CQUADX4,8440,1,8585,8644,8645,8586
CQUADX4,8441,1,8586,8645,8646,8587
CQUADX4,8442,1,8587,8646,8647,8588
CQUADX4,8443,1,8588,8647,8648,8589
CQUADX4,8444,1,8589,8648,8649,8590
CQUADX4,8445,1,8590,8649,8650,8591
CQUADX4,8446,1,8591,8650,8651,8592
CQUADX4,8447,1,8592,8651,8652,8593
CQUADX4,8448,1,8593,8652,8653,8594
CQUADX4,8449,1,8594,8653,8654,8595
CQUADX4,8450,1,8595,8654,8655,8596
CQUADX4,8451,1,8596,8655,8656,8597
CQUADX4,8452,1,8597,8656,8657,8598
CQUADX4,8453,1,8598,8657,8658,8599
CQUADX4,8454,1,8599,8658,8659,8600
CQUADX4,8455,1,8600,8659,8660,8601
CQUADX4,8456,1,8601,8660,8661,8602
CQUADX4,8457,1,8602,8661,8662,8603
CQUADX4,8458,1,8603,8662,8663,8604
CQUADX4,8459,1,8604,8663,8664,8605
CQUADX4,8460,1,8605,8664,8665,8606
CQUADX4,8461,1,8606,8665,8666,8607
CQUADX4,8462,1,8607,8666,8667,8608
CQUADX4,8463,1,8608,8667,8668,8609
CQUADX4,8464,1,8609,8668,8669,8610
CQUADX4,8465,1,8610,8669,8670,8611
CQUADX4,8466,1,8611,8670,8671,8612
CQUADX4,8467,1,8612,8671,8672,8613
CQUADX4,8468,1,8613,8672,8673,8614
CQUADX4,8469,1,8615,8674,8675,8616
CQUADX4,8470,1,8616,8675,8676,8617
CQUADX4,8471,1,8617,8676,8677,8618
CQUADX4,8472,1,8618,8677,8678,8619
CQUADX4,8473,1,8619,8678,8679,8620
CQUADX4,8474,1,8620,8679,8680,8621
CQUADX4,8475,1,8621,8680,8681,8622
CQUADX4,8476,1,8622,8681,8682,8623
CQUADX4,8477,1,8623,8682,8683,8624
CQUADX4,8478,1,8624,8683,8684,8625
CQUADX4,8479,1,8625,8684,8685,8626
CQUADX4,8480,1,8626,8685,8686,8627
CQUADX4,8481,1,8627,8686,8687,8628
CQUADX4,8482,1,8628,8687,8688,8629
CQUADX4,8483,1,8629,8688,8689,8630
CQUADX4,8484,1,8630,8689,8690,8631
CQUADX4,8485,1,8631,8690,8691,8632
CQUADX4,8486,1,8632,8691,8692,8633
CQUADX4,8487,1,8633,8692,8693,8634
CQUADX4,8488,1,8634,8693,8694,8635
CQUADX4,8489,1,8635,8694,8695,8636
CQUADX4,8490,1,8636,8695,8696,8637
CQUADX4,8491,1,8637,8696,8697,8638
CQUADX4,8492,1,8638,8697,8698,8639
CQUADX4,8493,1,8639,8698,8699,8640
CQUADX4,8494,1,8640,8699,8700,8641
CQUADX4,8495,1,8641,8700,8701,8642
CQUADX4,8496,1,8642,8701,8702,8643
CQUADX4,8497,1,8643,8702,8703,8644
CQUADX4,8498,1,8644,8703,8704,8645
CQUADX4,8499,1,8645,8704,8705,8646
CQUADX4,8500,1,8646,8705,8706,8647
CQUADX4,8501,1,8647,8706,8707,8648
CQUADX4,8502,1,8648,8707,8708,8649
CQUADX4,8503,1,8649,8708,8709,8650
CQUADX4,8504,1,8650,8709,8710,8651
CQUADX4,8505,1,8651,8710,8711,8652
CQUADX4,8506,1,8652,8711,8712,8653
CQUADX4,8507,1,8653,8712,8713,8654
CQUADX4,8508,1,8654,8713,8714,8655
CQUADX4,8509,1,8655,8714,8715,8656
CQUADX4,8510,1,8656,8715,8716,8657
CQUADX4,8511,1,8657,8716,8717,8658
CQUADX4,8512,1,8658,8717,8718,8659
CQUADX4,8513,1,8659,8718,8719,8660
CQUADX4,8514,1,8660,8719,8720,8661
CQUADX4,8515,1,8661,8720,8721,8662
CQUADX4,8516,1,8662,8721,8722,8663
CQUADX4,8517,1,8663,8722,8723,8664
CQUADX4,8518,1,8664,8723,8724,8665
CQUADX4,8519,1,8665,8724,8725,8666
CQUADX4,8520,1,8666,8725,8726,8667
CQUADX4,8521,1,8667,8726,8727,8668
CQUADX4,8522,1,8668,8727,8728,8669
CQUADX4,8523,1,8669,8728,8729,8670
CQUADX4,8524,1,8670,8729,8730,8671
CQUADX4,8525,1,8671,8730,8731,8672
CQUADX4,8526,1,8672,8731,8732,8673
CQUADX4,8527,1,8674,8733,8734,8675
CQUADX4,8528,1,8675,8734,8735,8676
CQUADX4,8529,1,8676,8735,8736,8677
CQUADX4,8530,1,8677,8736,8737,8678
CQUADX4,8531,1,8678,8737,8738,8679
CQUADX4,8532,1,8679,8738,8739,8680
CQUADX4,8533,1,8680,8739,8740,8681
CQUADX4,8534,1,8681,8740,8741,8682
CQUADX4,8535,1,8682,8741,8742,8683
CQUADX4,8536,1,8683,8742,8743,8684
CQUADX4,8537,1,8684,8743,8744,8685
CQUADX4,8538,1,8685,8744,8745,8686
CQUADX4,8539,1,8686,8745,8746,8687
CQUADX4,8540,1,8687,8746,8747,8688
CQUADX4,8541,1,8688,8747,8748,8689
CQUADX4,8542,1,8689,8748,8749,8690
CQUADX4,8543,1,8690,8749,8750,8691
CQUADX4,8544,1,8691,8750,8751,8692
CQUADX4,8545,1,8692,8751,8752,8693
CQUADX4,8546,1,8693,8752,8753,8694
CQUADX4,8547,1,8694,8753,8754,8695
CQUADX4,8548,1,8695,8754,8755,8696
CQUADX4,8549,1,8696,8755,8756,8697
CQUADX4,8550,1,8697,8756,8757,8698
CQUADX4,8551,1,8698,8757,8758,8699
CQUADX4,8552,1,8699,8758,8759,8700
CQUADX4,8553,1,8700,8759,8760,8701
CQUADX4,8554,1,8701,8760,8761,8702
CQUADX4,8555,1,8702,8761,8762,8703
CQUADX4,8556,1,8703,8762,8763,8704
CQUADX4,8557,1,8704,8763,8764,8705
CQUADX4,8558,1,8705,8764,8765,8706
CQUADX4,8559,1,8706,8765,8766,8707
CQUADX4,8560,1,8707,8766,8767,8708
CQUADX4,8561,1,8708,8767,8768,8709
CQUADX4,8562,1,8709,8768,8769,8710
CQUADX4,8563,1,8710,8769,8770,8711
CQUADX4,8564,1,8711,8770,8771,8712
CQUADX4,8565,1,8712,8771,8772,8713
CQUADX4,8566,1,8713,8772,8773,8714
CQUADX4,8567,1,8714,8773,8774,8715
CQUADX4,8568,1,8715,8774,8775,8716
CQUADX4,8569,1,8716,8775,8776,8717
CQUADX4,8570,1,8717,8776,8777,8718
CQUADX4,8571,1,8718,8777,8778,8719
CQUADX4,8572,1,8719,8778,8779,8720
CQUADX4,8573,1,8720,8779,8780,8721
CQUADX4,8574,1,8721,8780,8781,8722
CQUADX4,8575,1,8722,8781,8782,8723
CQUADX4,8576,1,8723,8782,8783,8724
CQUADX4,8577,1,8724,8783,8784,8725
CQUADX4,8578,1,8725,8784,8785,8726
CQUADX4,8579,1,8726,8785,8786,8727
CQUADX4,8580,1,8727,8786,8787,8728
CQUADX4,8581,1,8728,8787,8788,8729
CQUADX4,8582,1,8729,8788,8789,8730
CQUADX4,8583,1,8730,8789,8790,8731
CQUADX4,8584,1,8731,8790,8791,8732
CQUADX4,8585,1,8733,8792,8793,8734
CQUADX4,8586,1,8734,8793,8794,8735
CQUADX4,8587,1,8735,8794,8795,8736
CQUADX4,8588,1,8736,8795,8796,8737
CQUADX4,8589,1,8737,8796,8797,8738
CQUADX4,8590,1,8738,8797,8798,8739
CQUADX4,8591,1,8739,8798,8799,8740
CQUADX4,8592,1,8740,8799,8800,8741
CQUADX4,8593,1,8741,8800,8801,8742
CQUADX4,8594,1,8742,8801,8802,8743
CQUADX4,8595,1,8743,8802,8803,8744
CQUADX4,8596,1,8744,8803,8804,8745
CQUADX4,8597,1,8745,8804,8805,8746
CQUADX4,8598,1,8746,8805,8806,8747
CQUADX4,8599,1,8747,8806,8807,8748
CQUADX4,8600,1,8748,8807,8808,8749
CQUADX4,8601,1,8749,8808,8809,8750
CQUADX4,8602,1,8750,8809,8810,8751
CQUADX4,8603,1,8751,8810,8811,8752
CQUADX4,8604,1,8752,8811,8812,8753
CQUADX4,8605,1,8753,8812,8813,8754
CQUADX4,8606,1,8754,8813,8814,8755
CQUADX4,8607,1,8755,8814,8815,8756
CQUADX4,8608,1,8756,8815,8816,8757
CQUADX4,8609,1,8757,8816,8817,8758
CQUADX4,8610,1,8758,8817,8818,8759
CQUADX4,8611,1,8759,8818,8819,8760
CQUADX4,8612,1,8760,8819,8820,8761
CQUADX4,8613,1,8761,8820,8821,8762
CQUADX4,8614,1,8762,8821,8822,8763
CQUADX4,8615,1,8763,8822,8823,8764
CQUADX4,8616,1,8764,8823,8824,8765
CQUADX4,8617,1,8765,8824,8825,8766
CQUADX4,8618,1,8766,8825,8826,8767
CQUADX4,8619,1,8767,8826,8827,8768
CQUADX4,8620,1,8768,8827,8828,8769
CQUADX4,8621,1,8769,8828,8829,8770
CQUADX4,8622,1,8770,8829,8830,8771
CQUADX4,8623,1,8771,8830,8831,8772
CQUADX4,8624,1,8772,8831,8832,8773
CQUADX4,8625,1,8773,8832,8833,8774
CQUADX4,8626,1,8774,8833,8834,8775
CQUADX4,8627,1,8775,8834,8835,8776
CQUADX4,8628,1,8776,8835,8836,8777
CQUADX4,8629,1,8777,8836,8837,8778
CQUADX4,8630,1,8778,8837,8838,8779
CQUADX4,8631,1,8779,8838,8839,8780
CQUADX4,8632,1,8780,8839,8840,8781
CQUADX4,8633,1,8781,8840,8841,8782
CQUADX4,8634,1,8782,8841,8842,8783
CQUADX4,8635,1,8783,8842,8843,8784
CQUADX4,8636,1,8784,8843,8844,8785
CQUADX4,8637,1,8785,8844,8845,8786
CQUADX4,8638,1,8786,8845,8846,8787
CQUADX4,8639,1,8787,8846,8847,8788
CQUADX4,8640,1,8788,8847,8848,8789
CQUADX4,8641,1,8789,8848,8849,8790
CQUADX4,8642,1,8790,8849,8850,8791
CQUADX4,8643,1,8792,8851,8852,8793
CQUADX4,8644,1,8793,8852,8853,8794
CQUADX4,8645,1,8794,8853,8854,8795
CQUADX4,8646,1,8795,8854,8855,8796
CQUADX4,8647,1,8796,8855,8856,8797
CQUADX4,8648,1,8797,8856,8857,8798
CQUADX4,8649,1,8798,8857,8858,8799
CQUADX4,8650,1,8799,8858,8859,8800
CQUADX4,8651,1,8800,8859,8860,8801
CQUADX4,8652,1,8801,8860,8861,8802
CQUADX4,8653,1,8802,8861,8862,8803
CQUADX4,8654,1,8803,8862,8863,8804
CQUADX4,8655,1,8804,8863,8864,8805
CQUADX4,8656,1,8805,8864,8865,8806
CQUADX4,8657,1,8806,8865,8866,8807
CQUADX4,8658,1,8807,8866,8867,8808
CQUADX4,8659,1,8808,8867,8868,8809
CQUADX4,8660,1,8809,8868,8869,8810
CQUADX4,8661,1,8810,8869,8870,8811
CQUADX4,8662,1,8811,8870,8871,8812
CQUADX4,8663,1,8812,8871,8872,8813
CQUADX4,8664,1,8813,8872,8873,8814
CQUADX4,8665,1,8814,8873,8874,8815
CQUADX4,8666,1,8815,8874,8875,8816
CQUADX4,8667,1,8816,8875,8876,8817
CQUADX4,8668,1,8817,8876,8877,8818
CQUADX4,8669,1,8818,8877,8878,8819
CQUADX4,8670,1,8819,8878,8879,8820
CQUADX4,8671,1,8820,8879,8880,8821
CQUADX4,8672,1,8821,8880,8881,8822
CQUADX4,8673,1,8822,8881,8882,8823
CQUADX4,8674,1,8823,8882,8883,8824
CQUADX4,8675,1,8824,8883,8884,8825
CQUADX4,8676,1,8825,8884,8885,8826
CQUADX4,8677,1,8826,8885,8886,8827
CQUADX4,8678,1,8827,8886,8887,8828
CQUADX4,8679,1,8828,8887,8888,8829
CQUADX4,8680,1,8829,8888,8889,8830
CQUADX4,8681,1,8830,8889,8890,8831
CQUADX4,8682,1,8831,8890,8891,8832
CQUADX4,8683,1,8832,8891,8892,8833
CQUADX4,8684,1,8833,8892,8893,8834
CQUADX4,8685,1,8834,8893,8894,8835
CQUADX4,8686,1,8835,8894,8895,8836
CQUADX4,8687,1,8836,8895,8896,8837
CQUADX4,8688,1,8837,8896,8897,8838
CQUADX4,8689,1,8838,8897,8898,8839
CQUADX4,8690,1,8839,8898,8899,8840
CQUADX4,8691,1,8840,8899,8900,8841
CQUADX4,8692,1,8841,8900,8901,8842
CQUADX4,8693,1,8842,8901,8902,8843
CQUADX4,8694,1,8843,8902,8903,8844
CQUADX4,8695,1,8844,8903,8904,8845
CQUADX4,8696,1,8845,8904,8905,8846
CQUADX4,8697,1,8846,8905,8906,8847
CQUADX4,8698,1,8847,8906,8907,8848
CQUADX4,8699,1,8848,8907,8908,8849
CQUADX4,8700,1,8849,8908,8909,8850
CQUADX4,8701,1,8851,8910,8911,8852
CQUADX4,8702,1,8852,8911,8912,8853
CQUADX4,8703,1,8853,8912,8913,8854
CQUADX4,8704,1,8854,8913,8914,8855
CQUADX4,8705,1,8855,8914,8915,8856
CQUADX4,8706,1,8856,8915,8916,8857
CQUADX4,8707,1,8857,8916,8917,8858
CQUADX4,8708,1,8858,8917,8918,8859
CQUADX4,8709,1,8859,8918,8919,8860
CQUADX4,8710,1,8860,8919,8920,8861
CQUADX4,8711,1,8861,8920,8921,8862
CQUADX4,8712,1,8862,8921,8922,8863
CQUADX4,8713,1,8863,8922,8923,8864
CQUADX4,8714,1,8864,8923,8924,8865
CQUADX4,8715,1,8865,8924,8925,8866
CQUADX4,8716,1,8866,8925,8926,8867
CQUADX4,8717,1,8867,8926,8927,8868
CQUADX4,8718,1,8868,8927,8928,8869
CQUADX4,8719,1,8869,8928,8929,8870
CQUADX4,8720,1,8870,8929,8930,8871
CQUADX4,8721,1,8871,8930,8931,8872
CQUADX4,8722,1,8872,8931,8932,8873
CQUADX4,8723,1,8873,8932,8933,8874
CQUADX4,8724,1,8874,8933,8934,8875
CQUADX4,8725,1,8875,8934,8935,8876
CQUADX4,8726,1,8876,8935,8936,8877
CQUADX4,8727,1,8877,8936,8937,8878
CQUADX4,8728,1,8878,8937,8938,8879
CQUADX4,8729,1,8879,8938,8939,8880
CQUADX4,8730,1,8880,8939,8940,8881
CQUADX4,8731,1,8881,8940,8941,8882
CQUADX4,8732,1,8882,8941,8942,8883
CQUADX4,8733,1,8883,8942,8943,8884
CQUADX4,8734,1,8884,8943,8944,8885
CQUADX4,8735,1,8885,8944,8945,8886
CQUADX4,8736,1,8886,8945,8946,8887
CQUADX4,8737,1,8887,8946,8947,8888
CQUADX4,8738,1,8888,8947,8948,8889
CQUADX4,8739,1,8889,8948,8949,8890
CQUADX4,8740,1,8890,8949,8950,8891
CQUADX4,8741,1,8891,8950,8951,8892
CQUADX4,8742,1,8892,8951,8952,8893
CQUADX4,8743,1,8893,8952,8953,8894
CQUADX4,8744,1,8894,8953,8954,8895
CQUADX4,8745,1,8895,8954,8955,8896
CQUADX4,8746,1,8896,8955,8956,8897
CQUADX4,8747,1,8897,8956,8957,8898
CQUADX4,8748,1,8898,8957,8958,8899
CQUADX4,8749,1,8899,8958,8959,8900
CQUADX4,8750,1,8900,8959,8960,8901
CQUADX4,8751,1,8901,8960,8961,8902
CQUADX4,8752,1,8902,8961,8962,8903
CQUADX4,8753,1,8903,8962,8963,8904
CQUADX4,8754,1,8904,8963,8964,8905
CQUADX4,8755,1,8905,8964,8965,8906
CQUADX4,8756,1,8906,8965,8966,8907
CQUADX4,8757,1,8907,8966,8967,8908
CQUADX4,8758,1,8908,8967,8968,8909
CQUADX4,8759,1,8910,8969,8970,8911
CQUADX4,8760,1,8911,8970,8971,8912
CQUADX4,8761,1,8912,8971,8972,8913
CQUADX4,8762,1,8913,8972,8973,8914
CQUADX4,8763,1,8914,8973,8974,8915
CQUADX4,8764,1,8915,8974,8975,8916
CQUADX4,8765,1,8916,8975,8976,8917
CQUADX4,8766,1,8917,8976,8977,8918
CQUADX4,8767,1,8918,8977,8978,8919
CQUADX4,8768,1,8919,8978,8979,8920
CQUADX4,8769,1,8920,8979,8980,8921
CQUADX4,8770,1,8921,8980,8981,8922
CQUADX4,8771,1,8922,8981,8982,8923
CQUADX4,8772,1,8923,8982,8983,8924
CQUADX4,8773,1,8924,8983,8984,8925
CQUADX4,8774,1,8925,8984,8985,8926
CQUADX4,8775,1,8926,8985,8986,8927
CQUADX4,8776,1,8927,8986,8987,8928
CQUADX4,8777,1,8928,8987,8988,8929
CQUADX4,8778,1,8929,8988,8989,8930
CQUADX4,8779,1,8930,8989,8990,8931
CQUADX4,8780,1,8931,8990,8991,8932
CQUADX4,8781,1,8932,8991,8992,8933
CQUADX4,8782,1,8933,8992,8993,8934
CQUADX4,8783,1,8934,8993,8994,8935
CQUADX4,8784,1,8935,8994,8995,8936
CQUADX4,8785,1,8936,8995,8996,8937
CQUADX4,8786,1,8937,8996,8997,8938
CQUADX4,8787,1,8938,8997,8998,8939
CQUADX4,8788,1,8939,8998,8999,8940
CQUADX4,8789,1,8940,8999,9000,8941
CQUADX4,8790,1,8941,9000,9001,8942
CQUADX4,8791,1,8942,9001,9002,8943
CQUADX4,8792,1,8943,9002,9003,8944
CQUADX4,8793,1,8944,9003,9004,8945
CQUADX4,8794,1,8945,9004,9005,8946
CQUADX4,8795,1,8946,9005,9006,8947
CQUADX4,8796,1,8947,9006,9007,8948
CQUADX4,8797,1,8948,9007,9008,8949
CQUADX4,8798,1,8949,9008,9009,8950
CQUADX4,8799,1,8950,9009,9010,8951
CQUADX4,8800,1,8951,9010,9011,8952
CQUADX4,8801,1,8952,9011,9012,8953
CQUADX4,8802,1,8953,9012,9013,8954
CQUADX4,8803,1,8954,9013,9014,8955
CQUADX4,8804,1,8955,9014,9015,8956
CQUADX4,8805,1,8956,9015,9016,8957
CQUADX4,8806,1,8957,9016,9017,8958
CQUADX4,8807,1,8958,9017,9018,8959
CQUADX4,8808,1,8959,9018,9019,8960
CQUADX4,8809,1,8960,9019,9020,8961
CQUADX4,8810,1,8961,9020,9021,8962
CQUADX4,8811,1,8962,9021,9022,8963
CQUADX4,8812,1,8963,9022,9023,8964
CQUADX4,8813,1,8964,9023,9024,8965
CQUADX4,8814,1,8965,9024,9025,8966
CQUADX4,8815,1,8966,9025,9026,8967
CQUADX4,8816,1,8967,9026,9027,8968
CQUADX4,8817,1,8969,9028,9029,8970
CQUADX4,8818,1,8970,9029,9030,8971
CQUADX4,8819,1,8971,9030,9031,8972
CQUADX4,8820,1,8972,9031,9032,8973
CQUADX4,8821,1,8973,9032,9033,8974
CQUADX4,8822,1,8974,9033,9034,8975
CQUADX4,8823,1,8975,9034,9035,8976
CQUADX4,8824,1,8976,9035,9036,8977
CQUADX4,8825,1,8977,9036,9037,8978
CQUADX4,8826,1,8978,9037,9038,8979
CQUADX4,8827,1,8979,9038,9039,8980
CQUADX4,8828,1,8980,9039,9040,8981
CQUADX4,8829,1,8981,9040,9041,8982
CQUADX4,8830,1,8982,9041,9042,8983
CQUADX4,8831,1,8983,9042,9043,8984
CQUADX4,8832,1,8984,9043,9044,8985
CQUADX4,8833,1,8985,9044,9045,8986
CQUADX4,8834,1,8986,9045,9046,8987
CQUADX4,8835,1,8987,9046,9047,8988
CQUADX4,8836,1,8988,9047,9048,8989
CQUADX4,8837,1,8989,9048,9049,8990
CQUADX4,8838,1,8990,9049,9050,8991
CQUADX4,8839,1,8991,9050,9051,8992
CQUADX4,8840,1,8992,9051,9052,8993
CQUADX4,8841,1,8993,9052,9053,8994
CQUADX4,8842,1,8994,9053,9054,8995
CQUADX4,8843,1,8995,9054,9055,8996
CQUADX4,8844,1,8996,9055,9056,8997
CQUADX4,8845,1,8997,9056,9057,8998
CQUADX4,8846,1,8998,9057,9058,8999
CQUADX4,8847,1,8999,9058,9059,9000
CQUADX4,8848,1,9000,9059,9060,9001
CQUADX4,8849,1,9001,9060,9061,9002
CQUADX4,8850,1,9002,9061,9062,9003
CQUADX4,8851,1,9003,9062,9063,9004
CQUADX4,8852,1,9004,9063,9064,9005
CQUADX4,8853,1,9005,9064,9065,9006
CQUADX4,8854,1,9006,9065,9066,9007
CQUADX4,8855,1,9007,9066,9067,9008
CQUADX4,8856,1,9008,9067,9068,9009
CQUADX4,8857,1,9009,9068,9069,9010
CQUADX4,8858,1,9010,9069,9070,9011
CQUADX4,8859,1,9011,9070,9071,9012
CQUADX4,8860,1,9012,9071,9072,9013
CQUADX4,8861,1,9013,9072,9073,9014
CQUADX4,8862,1,9014,9073,9074,9015
CQUADX4,8863,1,9015,9074,9075,9016
CQUADX4,8864,1,9016,9075,9076,9017
CQUADX4,8865,1,9017,9076,9077,9018
CQUADX4,8866,1,9018,9077,9078,9019
CQUADX4,8867,1,9019,9078,9079,9020
CQUADX4,8868,1,9020,9079,9080,9021
CQUADX4,8869,1,9021,9080,9081,9022
CQUADX4,8870,1,9022,9081,9082,9023
CQUADX4,8871,1,9023,9082,9083,9024
CQUADX4,8872,1,9024,9083,9084,9025
CQUADX4,8873,1,9025,9084,9085,9026
CQUADX4,8874,1,9026,9085,9086,9027
CQUADX4,8875,1,9028,9087,9088,9029
CQUADX4,8876,1,9029,9088,9089,9030
CQUADX4,8877,1,9030,9089,9090,9031
CQUADX4,8878,1,9031,9090,9091,9032
CQUADX4,8879,1,9032,9091,9092,9033
CQUADX4,8880,1,9033,9092,9093,9034
CQUADX4,8881,1,9034,9093,9094,9035
CQUADX4,8882,1,9035,9094,9095,9036
CQUADX4,8883,1,9036,9095,9096,9037
CQUADX4,8884,1,9037,9096,9097,9038
CQUADX4,8885,1,9038,9097,9098,9039
CQUADX4,8886,1,9039,9098,9099,9040
CQUADX4,8887,1,9040,9099,9100,9041
CQUADX4,8888,1,9041,9100,9101,9042
CQUADX4,8889,1,9042,9101,9102,9043
CQUADX4,8890,1,9043,9102,9103,9044
CQUADX4,8891,1,9044,9103,9104,9045
CQUADX4,8892,1,9045,9104,9105,9046
CQUADX4,8893,1,9046,9105,9106,9047
CQUADX4,8894,1,9047,9106,9107,9048
CQUADX4,8895,1,9048,9107,9108,9049
CQUADX4,8896,1,9049,9108,9109,9050
CQUADX4,8897,1,9050,9109,9110,9051
CQUADX4,8898,1,9051,9110,9111,9052
CQUADX4,8899,1,9052,9111,9112,9053
CQUADX4,8900,1,9053,9112,9113,9054
CQUADX4,8901,1,9054,9113,9114,9055
CQUADX4,8902,1,9055,9114,9115,9056
CQUADX4,8903,1,9056,9115,9116,9057
CQUADX4,8904,1,9057,9116,9117,9058
CQUADX4,8905,1,9058,9117,9118,9059
CQUADX4,8906,1,9059,9118,9119,9060
CQUADX4,8907,1,9060,9119,9120,9061
CQUADX4,8908,1,9061,9120,9121,9062
CQUADX4,8909,1,9062,9121,9122,9063
CQUADX4,8910,1,9063,9122,9123,9064
CQUADX4,8911,1,9064,9123,9124,9065
CQUADX4,8912,1,9065,9124,9125,9066
CQUADX4,8913,1,9066,9125,9126,9067
CQUADX4,8914,1,9067,9126,9127,9068
CQUADX4,8915,1,9068,9127,9128,9069
CQUADX4,8916,1,9069,9128,9129,9070
CQUADX4,8917,1,9070,9129,9130,9071
CQUADX4,8918,1,9071,9130,9131,9072
CQUADX4,8919,1,9072,9131,9132,9073
CQUADX4,8920,1,9073,9132,9133,9074
CQUADX4,8921,1,9074,9133,9134,9075
CQUADX4,8922,1,9075,9134,9135,9076
CQUADX4,8923,1,9076,9135,9136,9077
CQUADX4,8924,1,9077,9136,9137,9078
CQUADX4,8925,1,9078,9137,9138,9079
CQUADX4,8926,1,9079,9138,9139,9080
CQUADX4,8927,1,9080,9139,9140,9081
CQUADX4,8928,1,9081,9140,9141,9082
CQUADX4,8929,1,9082,9141,9142,9083
CQUADX4,8930,1,9083,9142,9143,9084
CQUADX4,8931,1,9084,9143,9144,9085
CQUADX4,8932,1,9085,9144,9145,9086
CQUADX4,8933,1,9087,9146,9147,9088
CQUADX4,8934,1,9088,9147,9148,9089
CQUADX4,8935,1,9089,9148,9149,9090
CQUADX4,8936,1,9090,9149,9150,9091
CQUADX4,8937,1,9091,9150,9151,9092
CQUADX4,8938,1,9092,9151,9152,9093
CQUADX4,8939,1,9093,9152,9153,9094
CQUADX4,8940,1,9094,9153,9154,9095
CQUADX4,8941,1,9095,9154,9155,9096
CQUADX4,8942,1,9096,9155,9156,9097
CQUADX4,8943,1,9097,9156,9157,9098
CQUADX4,8944,1,9098,9157,9158,9099
CQUADX4,8945,1,9099,9158,9159,9100
CQUADX4,8946,1,9100,9159,9160,9101
CQUADX4,8947,1,9101,9160,9161,9102
CQUADX4,8948,1,9102,9161,9162,9103
CQUADX4,8949,1,9103,9162,9163,9104
CQUADX4,8950,1,9104,9163,9164,9105
CQUADX4,8951,1,9105,9164,9165,9106
CQUADX4,8952,1,9106,9165,9166,9107
CQUADX4,8953,1,9107,9166,9167,9108
CQUADX4,8954,1,9108,9167,9168,9109
CQUADX4,8955,1,9109,9168,9169,9110
CQUADX4,8956,1,9110,9169,9170,9111
CQUADX4,8957,1,9111,9170,9171,9112
CQUADX4,8958,1,9112,9171,9172,9113
CQUADX4,8959,1,9113,9172,9173,9114
CQUADX4,8960,1,9114,9173,9174,9115
CQUADX4,8961,1,9115,9174,9175,9116
CQUADX4,8962,1,9116,9175,9176,9117
CQUADX4,8963,1,9117,9176,9177,9118
CQUADX4,8964,1,9118,9177,9178,9119
CQUADX4,8965,1,9119,9178,9179,9120
CQUADX4,8966,1,9120,9179,9180,9121
CQUADX4,8967,1,9121,9180,9181,9122
CQUADX4,8968,1,9122,9181,9182,9123
CQUADX4,8969,1,9123,9182,9183,9124
CQUADX4,8970,1,9124,9183,9184,9125
CQUADX4,8971,1,9125,9184,9185,9126
CQUADX4,8972,1,9126,9185,9186,9127
CQUADX4,8973,1,9127,9186,9187,9128
CQUADX4,8974,1,9128,9187,9188,9129
CQUADX4,8975,1,9129,9188,9189,9130
CQUADX4,8976,1,9130,9189,9190,9131
CQUADX4,8977,1,9131,9190,9191,9132
CQUADX4,8978,1,9132,9191,9192,9133
CQUADX4,8979,1,9133,9192,9193,9134
CQUADX4,8980,1,9134,9193,9194,9135
CQUADX4,8981,1,9135,9194,9195,9136
CQUADX4,8982,1,9136,9195,9196,9137
CQUADX4,8983,1,9137,9196,9197,9138
CQUADX4,8984,1,9138,9197,9198,9139
CQUADX4,8985,1,9139,9198,9199,9140
CQUADX4,8986,1,9140,9199,9200,9141
CQUADX4,8987,1,9141,9200,9201,9142
CQUADX4,8988,1,9142,9201,9202,9143
CQUADX4,8989,1,9143,9202,9203,9144
CQUADX4,8990,1,9144,9203,9204,9145
CQUADX4,8991,1,9146,9205,9206,9147
CQUADX4,8992,1,9147,9206,9207,9148
CQUADX4,8993,1,9148,9207,9208,9149
CQUADX4,8994,1,9149,9208,9209,9150
CQUADX4,8995,1,9150,9209,9210,9151
CQUADX4,8996,1,9151,9210,9211,9152
CQUADX4,8997,1,9152,9211,9212,9153
CQUADX4,8998,1,9153,9212,9213,9154
CQUADX4,8999,1,9154,9213,9214,9155
CQUADX4,9000,1,9155,9214,9215,9156
CQUADX4,9001,1,9156,9215,9216,9157
CQUADX4,9002,1,9157,9216,9217,9158
CQUADX4,9003,1,9158,9217,9218,9159
CQUADX4,9004,1,9159,9218,9219,9160
CQUADX4,9005,1,9160,9219,9220,9161
CQUADX4,9006,1,9161,9220,9221,9162
CQUADX4,9007,1,9162,9221,9222,9163
CQUADX4,9008,1,9163,9222,9223,9164
CQUADX4,9009,1,9164,9223,9224,9165
CQUADX4,9010,1,9165,9224,9225,9166
CQUADX4,9011,1,9166,9225,9226,9167
CQUADX4,9012,1,9167,9226,9227,9168
CQUADX4,9013,1,9168,9227,9228,9169
CQUADX4,9014,1,9169,9228,9229,9170
CQUADX4,9015,1,9170,9229,9230,9171
CQUADX4,9016,1,9171,9230,9231,9172
CQUADX4,9017,1,9172,9231,9232,9173
CQUADX4,9018,1,9173,9232,9233,9174
CQUADX4,9019,1,9174,9233,9234,9175
CQUADX4,9020,1,9175,9234,9235,9176
CQUADX4,9021,1,9176,9235,9236,9177
CQUADX4,9022,1,9177,9236,9237,9178
CQUADX4,9023,1,9178,9237,9238,9179
CQUADX4,9024,1,9179,9238,9239,9180
CQUADX4,9025,1,9180,9239,9240,9181
CQUADX4,9026,1,9181,9240,9241,9182
CQUADX4,9027,1,9182,9241,9242,9183
CQUADX4,9028,1,9183,9242,9243,9184
CQUADX4,9029,1,9184,9243,9244,9185
CQUADX4,9030,1,9185,9244,9245,9186
CQUADX4,9031,1,9186,9245,9246,9187
CQUADX4,9032,1,9187,9246,9247,9188
CQUADX4,9033,1,9188,9247,9248,9189
CQUADX4,9034,1,9189,9248,9249,9190
CQUADX4,9035,1,9190,9249,9250,9191
CQUADX4,9036,1,9191,9250,9251,9192
CQUADX4,9037,1,9192,9251,9252,9193
CQUADX4,9038,1,9193,9252,9253,9194
CQUADX4,9039,1,9194,9253,9254,9195
CQUADX4,9040,1,9195,9254,9255,9196
CQUADX4,9041,1,9196,9255,9256,9197
CQUADX4,9042,1,9197,9256,9257,9198
CQUADX4,9043,1,9198,9257,9258,9199
CQUADX4,9044,1,9199,9258,9259,9200
CQUADX4,9045,1,9200,9259,9260,9201
CQUADX4,9046,1,9201,9260,9261,9202
CQUADX4,9047,1,9202,9261,9262,9203
CQUADX4,9048,1,9203,9262,9263,9204
CQUADX4,9049,1,9205,9264,9265,9206
CQUADX4,9050,1,9206,9265,9266,9207
CQUADX4,9051,1,9207,9266,9267,9208
CQUADX4,9052,1,9208,9267,9268,9209
CQUADX4,9053,1,9209,9268,9269,9210
CQUADX4,9054,1,9210,9269,9270,9211
CQUADX4,9055,1,9211,9270,9271,9212
CQUADX4,9056,1,9212,9271,9272,9213
CQUADX4,9057,1,9213,9272,9273,9214
CQUADX4,9058,1,9214,9273,9274,9215
CQUADX4,9059,1,9215,9274,9275,9216
CQUADX4,9060,1,9216,9275,9276,9217
CQUADX4,9061,1,9217,9276,9277,9218
CQUADX4,9062,1,9218,9277,9278,9219
CQUADX4,9063,1,9219,9278,9279,9220
CQUADX4,9064,1,9220,9279,9280,9221
CQUADX4,9065,1,9221,9280,9281,9222
CQUADX4,9066,1,9222,9281,9282,9223
CQUADX4,9067,1,9223,9282,9283,9224
CQUADX4,9068,1,9224,9283,9284,9225
CQUADX4,9069,1,9225,9284,9285,9226
CQUADX4,9070,1,9226,9285,9286,9227
CQUADX4,9071,1,9227,9286,9287,9228
CQUADX4,9072,1,9228,9287,9288,9229
CQUADX4,9073,1,9229,9288,9289,9230
CQUADX4,9074,1,9230,9289,9290,9231
CQUADX4,9075,1,9231,9290,9291,9232
CQUADX4,9076,1,9232,9291,9292,9233
CQUADX4,9077,1,9233,9292,9293,9234
CQUADX4,9078,1,9234,9293,9294,9235
CQUADX4,9079,1,9235,9294,9295,9236
CQUADX4,9080,1,9236,9295,9296,9237
CQUADX4,9081,1,9237,9296,9297,9238
CQUADX4,9082,1,9238,9297,9298,9239
CQUADX4,9083,1,9239,9298,9299,9240
CQUADX4,9084,1,9240,9299,9300,9241
CQUADX4,9085,1,9241,9300,9301,9242
CQUADX4,9086,1,9242,9301,9302,9243
CQUADX4,9087,1,9243,9302,9303,9244
CQUADX4,9088,1,9244,9303,9304,9245
CQUADX4,9089,1,9245,9304,9305,9246
CQUADX4,9090,1,9246,9305,9306,9247
CQUADX4,9091,1,9247,9306,9307,9248
CQUADX4,9092,1,9248,9307,9308,9249
CQUADX4,9093,1,9249,9308,9309,9250
CQUADX4,9094,1,9250,9309,9310,9251
CQUADX4,9095,1,9251,9310,9311,9252
CQUADX4,9096,1,9252,9311,9312,9253
CQUADX4,9097,1,9253,9312,9313,9254
CQUADX4,9098,1,9254,9313,9314,9255
CQUADX4,9099,1,9255,9314,9315,9256
CQUADX4,9100,1,9256,9315,9316,9257
CQUADX4,9101,1,9257,9316,9317,9258
CQUADX4,9102,1,9258,9317,9318,9259
CQUADX4,9103,1,9259,9318,9319,9260
CQUADX4,9104,1,9260,9319,9320,9261
CQUADX4,9105,1,9261,9320,9321,9262
CQUADX4,9106,1,9262,9321,9322,9263
CQUADX4,9107,1,9264,9323,9324,9265
CQUADX4,9108,1,9265,9324,9325,9266
CQUADX4,9109,1,9266,9325,9326,9267
CQUADX4,9110,1,9267,9326,9327,9268
CQUADX4,9111,1,9268,9327,9328,9269
CQUADX4,9112,1,9269,9328,9329,9270
CQUADX4,9113,1,9270,9329,9330,9271
CQUADX4,9114,1,9271,9330,9331,9272
CQUADX4,9115,1,9272,9331,9332,9273
CQUADX4,9116,1,9273,9332,9333,9274
CQUADX4,9117,1,9274,9333,9334,9275
CQUADX4,9118,1,9275,9334,9335,9276
CQUADX4,9119,1,9276,9335,9336,9277
CQUADX4,9120,1,9277,9336,9337,9278
CQUADX4,9121,1,9278,9337,9338,9279
CQUADX4,9122,1,9279,9338,9339,9280
CQUADX4,9123,1,9280,9339,9340,9281
CQUADX4,9124,1,9281,9340,9341,9282
CQUADX4,9125,1,9282,9341,9342,9283
CQUADX4,9126,1,9283,9342,9343,9284
CQUADX4,9127,1,9284,9343,9344,9285
CQUADX4,9128,1,9285,9344,9345,9286
CQUADX4,9129,1,9286,9345,9346,9287
CQUADX4,9130,1,9287,9346,9347,9288
CQUADX4,9131,1,9288,9347,9348,9289
CQUADX4,9132,1,9289,9348,9349,9290
CQUADX4,9133,1,9290,9349,9350,9291
CQUADX4,9134,1,9291,9350,9351,9292
CQUADX4,9135,1,9292,9351,9352,9293
CQUADX4,9136,1,9293,9352,9353,9294
CQUADX4,9137,1,9294,9353,9354,9295
CQUADX4,9138,1,9295,9354,9355,9296
CQUADX4,9139,1,9296,9355,9356,9297
CQUADX4,9140,1,9297,9356,9357,9298
CQUADX4,9141,1,9298,9357,9358,9299
CQUADX4,9142,1,9299,9358,9359,9300
CQUADX4,9143,1,9300,9359,9360,9301
CQUADX4,9144,1,9301,9360,9361,9302
CQUADX4,9145,1,9302,9361,9362,9303
CQUADX4,9146,1,9303,9362,9363,9304
CQUADX4,9147,1,9304,9363,9364,9305
CQUADX4,9148,1,9305,9364,9365,9306
CQUADX4,9149,1,9306,9365,9366,9307
CQUADX4,9150,1,9307,9366,9367,9308
CQUADX4,9151,1,9308,9367,9368,9309
CQUADX4,9152,1,9309,9368,9369,9310
CQUADX4,9153,1,9310,9369,9370,9311
CQUADX4,9154,1,9311,9370,9371,9312
CQUADX4,9155,1,9312,9371,9372,9313
CQUADX4,9156,1,9313,9372,9373,9314
CQUADX4,9157,1,9314,9373,9374,9315
CQUADX4,9158,1,9315,9374,9375,9316
CQUADX4,9159,1,9316,9375,9376,9317
CQUADX4,9160,1,9317,9376,9377,9318
CQUADX4,9161,1,9318,9377,9378,9319
CQUADX4,9162,1,9319,9378,9379,9320
CQUADX4,9163,1,9320,9379,9380,9321
CQUADX4,9164,1,9321,9380,9381,9322
CQUADX4,9165,1,9323,9382,9383,9324
CQUADX4,9166,1,9324,9383,9384,9325
CQUADX4,9167,1,9325,9384,9385,9326
CQUADX4,9168,1,9326,9385,9386,9327
CQUADX4,9169,1,9327,9386,9387,9328
CQUADX4,9170,1,9328,9387,9388,9329
CQUADX4,9171,1,9329,9388,9389,9330
CQUADX4,9172,1,9330,9389,9390,9331
CQUADX4,9173,1,9331,9390,9391,9332
CQUADX4,9174,1,9332,9391,9392,9333
CQUADX4,9175,1,9333,9392,9393,9334
CQUADX4,9176,1,9334,9393,9394,9335
CQUADX4,9177,1,9335,9394,9395,9336
CQUADX4,9178,1,9336,9395,9396,9337
CQUADX4,9179,1,9337,9396,9397,9338
CQUADX4,9180,1,9338,9397,9398,9339
CQUADX4,9181,1,9339,9398,9399,9340
CQUADX4,9182,1,9340,9399,9400,9341
CQUADX4,9183,1,9341,9400,9401,9342
CQUADX4,9184,1,9342,9401,9402,9343
CQUADX4,9185,1,9343,9402,9403,9344
CQUADX4,9186,1,9344,9403,9404,9345
CQUADX4,9187,1,9345,9404,9405,9346
CQUADX4,9188,1,9346,9405,9406,9347
CQUADX4,9189,1,9347,9406,9407,9348
CQUADX4,9190,1,9348,9407,9408,9349
CQUADX4,9191,1,9349,9408,9409,9350
CQUADX4,9192,1,9350,9409,9410,9351
CQUADX4,9193,1,9351,9410,9411,9352
CQUADX4,9194,1,9352,9411,9412,9353
CQUADX4,9195,1,9353,9412,9413,9354
CQUADX4,9196,1,9354,9413,9414,9355
CQUADX4,9197,1,9355,9414,9415,9356
CQUADX4,9198,1,9356,9415,9416,9357
CQUADX4,9199,1,9357,9416,9417,9358
CQUADX4,9200,1,9358,9417,9418,9359
CQUADX4,9201,1,9359,9418,9419,9360
CQUADX4,9202,1,9360,9419,9420,9361
CQUADX4,9203,1,9361,9420,9421,9362
CQUADX4,9204,1,9362,9421,9422,9363
CQUADX4,9205,1,9363,9422,9423,9364
CQUADX4,9206,1,9364,9423,9424,9365
CQUADX4,9207,1,9365,9424,9425,9366
CQUADX4,9208,1,9366,9425,9426,9367
CQUADX4,9209,1,9367,9426,9427,9368
CQUADX4,9210,1,9368,9427,9428,9369
CQUADX4,9211,1,9369,9428,9429,9370
CQUADX4,9212,1,9370,9429,9430,9371
CQUADX4,9213,1,9371,9430,9431,9372
CQUADX4,9214,1,9372,9431,9432,9373
CQUADX4,9215,1,9373,9432,9433,9374
CQUADX4,9216,1,9374,9433,9434,9375
CQUADX4,9217,1,9375,9434,9435,9376
CQUADX4,9218,1,9376,9435,9436,9377
CQUADX4,9219,1,9377,9436,9437,9378
CQUADX4,9220,1,9378,9437,9438,9379
CQUADX4,9221,1,9379,9438,9439,9380
CQUADX4,9222,1,9380,9439,9440,9381
CQUADX4,9223,1,9382,9441,9442,9383
CQUADX4,9224,1,9383,9442,9443,9384
CQUADX4,9225,1,9384,9443,9444,9385
CQUADX4,9226,1,9385,9444,9445,9386
CQUADX4,9227,1,9386,9445,9446,9387
CQUADX4,9228,1,9387,9446,9447,9388
CQUADX4,9229,1,9388,9447,9448,9389
CQUADX4,9230,1,9389,9448,9449,9390
CQUADX4,9231,1,9390,9449,9450,9391
CQUADX4,9232,1,9391,9450,9451,9392
CQUADX4,9233,1,9392,9451,9452,9393
CQUADX4,9234,1,9393,9452,9453,9394
CQUADX4,9235,1,9394,9453,9454,9395
CQUADX4,9236,1,9395,9454,9455,9396
CQUADX4,9237,1,9396,9455,9456,9397
CQUADX4,9238,1,9397,9456,9457,9398
CQUADX4,9239,1,9398,9457,9458,9399
CQUADX4,9240,1,9399,9458,9459,9400
CQUADX4,9241,1,9400,9459,9460,9401
CQUADX4,9242,1,9401,9460,9461,9402
CQUADX4,9243,1,9402,9461,9462,9403
CQUADX4,9244,1,9403,9462,9463,9404
CQUADX4,9245,1,9404,9463,9464,9405
CQUADX4,9246,1,9405,9464,9465,9406
CQUADX4,9247,1,9406,9465,9466,9407
CQUADX4,9248,1,9407,9466,9467,9408
CQUADX4,9249,1,9408,9467,9468,9409
CQUADX4,9250,1,9409,9468,9469,9410
CQUADX4,9251,1,9410,9469,9470,9411
CQUADX4,9252,1,9411,9470,9471,9412
CQUADX4,9253,1,9412,9471,9472,9413
CQUADX4,9254,1,9413,9472,9473,9414
CQUADX4,9255,1,9414,9473,9474,9415
CQUADX4,9256,1,9415,9474,9475,9416
CQUADX4,9257,1,9416,9475,9476,9417
CQUADX4,9258,1,9417,9476,9477,9418
CQUADX4,9259,1,9418,9477,9478,9419
CQUADX4,9260,1,9419,9478,9479,9420
CQUADX4,9261,1,9420,9479,9480,9421
CQUADX4,9262,1,9421,9480,9481,9422
CQUADX4,9263,1,9422,9481,9482,9423
CQUADX4,9264,1,9423,9482,9483,9424
CQUADX4,9265,1,9424,9483,9484,9425
CQUADX4,9266,1,9425,9484,9485,9426
CQUADX4,9267,1,9426,9485,9486,9427
CQUADX4,9268,1,9427,9486,9487,9428
CQUADX4,9269,1,9428,9487,9488,9429
CQUADX4,9270,1,9429,9488,9489,9430
CQUADX4,9271,1,9430,9489,9490,9431
CQUADX4,9272,1,9431,9490,9491,9432
CQUADX4,9273,1,9432,9491,9492,9433
CQUADX4,9274,1,9433,9492,9493,9434
CQUADX4,9275,1,9434,9493,9494,9435
CQUADX4,9276,1,9435,9494,9495,9436
CQUADX4,9277,1,9436,9495,9496,9437
CQUADX4,9278,1,9437,9496,9497,9438
CQUADX4,9279,1,9438,9497,9498,9439
CQUADX4,9280,1,9439,9498,9499,9440
CQUADX4,9281,1,9441,9500,9501,9442
CQUADX4,9282,1,9442,9501,9502,9443
CQUADX4,9283,1,9443,9502,9503,9444
CQUADX4,9284,1,9444,9503,9504,9445
CQUADX4,9285,1,9445,9504,9505,9446
CQUADX4,9286,1,9446,9505,9506,9447
CQUADX4,9287,1,9447,9506,9507,9448
CQUADX4,9288,1,9448,9507,9508,9449
CQUADX4,9289,1,9449,9508,9509,9450
CQUADX4,9290,1,9450,9509,9510,9451
CQUADX4,9291,1,9451,9510,9511,9452
CQUADX4,9292,1,9452,9511,9512,9453
CQUADX4,9293,1,9453,9512,9513,9454
CQUADX4,9294,1,9454,9513,9514,9455
CQUADX4,9295,1,9455,9514,9515,9456
CQUADX4,9296,1,9456,9515,9516,9457
CQUADX4,9297,1,9457,9516,9517,9458
CQUADX4,9298,1,9458,9517,9518,9459
CQUADX4,9299,1,9459,9518,9519,9460
CQUADX4,9300,1,9460,9519,9520,9461
CQUADX4,9301,1,9461,9520,9521,9462
CQUADX4,9302,1,9462,9521,9522,9463
CQUADX4,9303,1,9463,9522,9523,9464
CQUADX4,9304,1,9464,9523,9524,9465
CQUADX4,9305,1,9465,9524,9525,9466
CQUADX4,9306,1,9466,9525,9526,9467
CQUADX4,9307,1,9467,9526,9527,9468
CQUADX4,9308,1,9468,9527,9528,9469
CQUADX4,9309,1,9469,9528,9529,9470
CQUADX4,9310,1,9470,9529,9530,9471
CQUADX4,9311,1,9471,9530,9531,9472
CQUADX4,9312,1,9472,9531,9532,9473
CQUADX4,9313,1,9473,9532,9533,9474
CQUADX4,9314,1,9474,9533,9534,9475
CQUADX4,9315,1,9475,9534,9535,9476
CQUADX4,9316,1,9476,9535,9536,9477
CQUADX4,9317,1,9477,9536,9537,9478
CQUADX4,9318,1,9478,9537,9538,9479
CQUADX4,9319,1,9479,9538,9539,9480
CQUADX4,9320,1,9480,9539,9540,9481
CQUADX4,9321,1,9481,9540,9541,9482
CQUADX4,9322,1,9482,9541,9542,9483
CQUADX4,9323,1,9483,9542,9543,9484
CQUADX4,9324,1,9484,9543,9544,9485
CQUADX4,9325,1,9485,9544,9545,9486
CQUADX4,9326,1,9486,9545,9546,9487
CQUADX4,9327,1,9487,9546,9547,9488
CQUADX4,9328,1,9488,9547,9548,9489
CQUADX4,9329,1,9489,9548,9549,9490
CQUADX4,9330,1,9490,9549,9550,9491
CQUADX4,9331,1,9491,9550,9551,9492
CQUADX4,9332,1,9492,9551,9552,9493
CQUADX4,9333,1,9493,9552,9553,9494
CQUADX4,9334,1,9494,9553,9554,9495
CQUADX4,9335,1,9495,9554,9555,9496
CQUADX4,9336,1,9496,9555,9556,9497
CQUADX4,9337,1,9497,9556,9557,9498
CQUADX4,9338,1,9498,9557,9558,9499
CQUADX4,9339,1,9500,9559,9560,9501
CQUADX4,9340,1,9501,9560,9561,9502
CQUADX4,9341,1,9502,9561,9562,9503
CQUADX4,9342,1,9503,9562,9563,9504
CQUADX4,9343,1,9504,9563,9564,9505
CQUADX4,9344,1,9505,9564,9565,9506
CQUADX4,9345,1,9506,9565,9566,9507
CQUADX4,9346,1,9507,9566,9567,9508
CQUADX4,9347,1,9508,9567,9568,9509
CQUADX4,9348,1,9509,9568,9569,9510
CQUADX4,9349,1,9510,9569,9570,9511
CQUADX4,9350,1,9511,9570,9571,9512
CQUADX4,9351,1,9512,9571,9572,9513
CQUADX4,9352,1,9513,9572,9573,9514
CQUADX4,9353,1,9514,9573,9574,9515
CQUADX4,9354,1,9515,9574,9575,9516
CQUADX4,9355,1,9516,9575,9576,9517
CQUADX4,9356,1,9517,9576,9577,9518
CQUADX4,9357,1,9518,9577,9578,9519
CQUADX4,9358,1,9519,9578,9579,9520
CQUADX4,9359,1,9520,9579,9580,9521
CQUADX4,9360,1,9521,9580,9581,9522
CQUADX4,9361,1,9522,9581,9582,9523
CQUADX4,9362,1,9523,9582,9583,9524
CQUADX4,9363,1,9524,9583,9584,9525
CQUADX4,9364,1,9525,9584,9585,9526
CQUADX4,9365,1,9526,9585,9586,9527
CQUADX4,9366,1,9527,9586,9587,9528
CQUADX4,9367,1,9528,9587,9588,9529
CQUADX4,9368,1,9529,9588,9589,9530
CQUADX4,9369,1,9530,9589,9590,9531
CQUADX4,9370,1,9531,9590,9591,9532
CQUADX4,9371,1,9532,9591,9592,9533
CQUADX4,9372,1,9533,9592,9593,9534
CQUADX4,9373,1,9534,9593,9594,9535
CQUADX4,9374,1,9535,9594,9595,9536
CQUADX4,9375,1,9536,9595,9596,9537
CQUADX4,9376,1,9537,9596,9597,9538
CQUADX4,9377,1,9538,9597,9598,9539
CQUADX4,9378,1,9539,9598,9599,9540
CQUADX4,9379,1,9540,9599,9600,9541
CQUADX4,9380,1,9541,9600,9601,9542
CQUADX4,9381,1,9542,9601,9602,9543
CQUADX4,9382,1,9543,9602,9603,9544
CQUADX4,9383,1,9544,9603,9604,9545
CQUADX4,9384,1,9545,9604,9605,9546
CQUADX4,9385,1,9546,9605,9606,9547
CQUADX4,9386,1,9547,9606,9607,9548
CQUADX4,9387,1,9548,9607,9608,9549
CQUADX4,9388,1,9549,9608,9609,9550
CQUADX4,9389,1,9550,9609,9610,9551
CQUADX4,9390,1,9551,9610,9611,9552
CQUADX4,9391,1,9552,9611,9612,9553
CQUADX4,9392,1,9553,9612,9613,9554
CQUADX4,9393,1,9554,9613,9614,9555
CQUADX4,9394,1,9555,9614,9615,9556
CQUADX4,9395,1,9556,9615,9616,9557
CQUADX4,9396,1,9557,9616,9617,9558
CQUADX4,9397,1,9559,9618,9619,9560
CQUADX4,9398,1,9560,9619,9620,9561
CQUADX4,9399,1,9561,9620,9621,9562
CQUADX4,9400,1,9562,9621,9622,9563
CQUADX4,9401,1,9563,9622,9623,9564
CQUADX4,9402,1,9564,9623,9624,9565
CQUADX4,9403,1,9565,9624,9625,9566
CQUADX4,9404,1,9566,9625,9626,9567
CQUADX4,9405,1,9567,9626,9627,9568
CQUADX4,9406,1,9568,9627,9628,9569
CQUADX4,9407,1,9569,9628,9629,9570
CQUADX4,9408,1,9570,9629,9630,9571
CQUADX4,9409,1,9571,9630,9631,9572
CQUADX4,9410,1,9572,9631,9632,9573
CQUADX4,9411,1,9573,9632,9633,9574
CQUADX4,9412,1,9574,9633,9634,9575
CQUADX4,9413,1,9575,9634,9635,9576
CQUADX4,9414,1,9576,9635,9636,9577
CQUADX4,9415,1,9577,9636,9637,9578
CQUADX4,9416,1,9578,9637,9638,9579
CQUADX4,9417,1,9579,9638,9639,9580
CQUADX4,9418,1,9580,9639,9640,9581
CQUADX4,9419,1,9581,9640,9641,9582
CQUADX4,9420,1,9582,9641,9642,9583
CQUADX4,9421,1,9583,9642,9643,9584
CQUADX4,9422,1,9584,9643,9644,9585
CQUADX4,9423,1,9585,9644,9645,9586
CQUADX4,9424,1,9586,9645,9646,9587
CQUADX4,9425,1,9587,9646,9647,9588
CQUADX4,9426,1,9588,9647,9648,9589
CQUADX4,9427,1,9589,9648,9649,9590
CQUADX4,9428,1,9590,9649,9650,9591
CQUADX4,9429,1,9591,9650,9651,9592
CQUADX4,9430,1,9592,9651,9652,9593
CQUADX4,9431,1,9593,9652,9653,9594
CQUADX4,9432,1,9594,9653,9654,9595
CQUADX4,9433,1,9595,9654,9655,9596
CQUADX4,9434,1,9596,9655,9656,9597
CQUADX4,9435,1,9597,9656,9657,9598
CQUADX4,9436,1,9598,9657,9658,9599
CQUADX4,9437,1,9599,9658,9659,9600
CQUADX4,9438,1,9600,9659,9660,9601
CQUADX4,9439,1,9601,9660,9661,9602
CQUADX4,9440,1,9602,9661,9662,9603
CQUADX4,9441,1,9603,9662,9663,9604
CQUADX4,9442,1,9604,9663,9664,9605
CQUADX4,9443,1,9605,9664,9665,9606
CQUADX4,9444,1,9606,9665,9666,9607
CQUADX4,9445,1,9607,9666,9667,9608
CQUADX4,9446,1,9608,9667,9668,9609
CQUADX4,9447,1,9609,9668,9669,9610
CQUADX4,9448,1,9610,9669,9670,9611
CQUADX4,9449,1,9611,9670,9671,9612
CQUADX4,9450,1,9612,9671,9672,9613
CQUADX4,9451,1,9613,9672,9673,9614
CQUADX4,9452,1,9614,9673,9674,9615
CQUADX4,9453,1,9615,9674,9675,9616
CQUADX4,9454,1,9616,9675,9676,9617
CQUADX4,9455,1,9618,9677,9678,9619
CQUADX4,9456,1,9619,9678,9679,9620
CQUADX4,9457,1,9620,9679,9680,9621
CQUADX4,9458,1,9621,9680,9681,9622
CQUADX4,9459,1,9622,9681,9682,9623
CQUADX4,9460,1,9623,9682,9683,9624
CQUADX4,9461,1,9624,9683,9684,9625
CQUADX4,9462,1,9625,9684,9685,9626
CQUADX4,9463,1,9626,9685,9686,9627
CQUADX4,9464,1,9627,9686,9687,9628
CQUADX4,9465,1,9628,9687,9688,9629
CQUADX4,9466,1,9629,9688,9689,9630
CQUADX4,9467,1,9630,9689,9690,9631
CQUADX4,9468,1,9631,9690,9691,9632
CQUADX4,9469,1,9632,9691,9692,9633
CQUADX4,9470,1,9633,9692,9693,9634
CQUADX4,9471,1,9634,9693,9694,9635
CQUADX4,9472,1,9635,9694,9695,9636
CQUADX4,9473,1,9636,9695,9696,9637
CQUADX4,9474,1,9637,9696,9697,9638
CQUADX4,9475,1,9638,9697,9698,9639
CQUADX4,9476,1,9639,9698,9699,9640
CQUADX4,9477,1,9640,9699,9700,9641
CQUADX4,9478,1,9641,9700,9701,9642
CQUADX4,9479,1,9642,9701,9702,9643
CQUADX4,9480,1,9643,9702,9703,9644
CQUADX4,9481,1,9644,9703,9704,9645
CQUADX4,9482,1,9645,9704,9705,9646
CQUADX4,9483,1,9646,9705,9706,9647
CQUADX4,9484,1,9647,9706,9707,9648
CQUADX4,9485,1,9648,9707,9708,9649
CQUADX4,9486,1,9649,9708,9709,9650
CQUADX4,9487,1,9650,9709,9710,9651
CQUADX4,9488,1,9651,9710,9711,9652
CQUADX4,9489,1,9652,9711,9712,9653
CQUADX4,9490,1,9653,9712,9713,9654
CQUADX4,9491,1,9654,9713,9714,9655
CQUADX4,9492,1,9655,9714,9715,9656
CQUADX4,9493,1,9656,9715,9716,9657
CQUADX4,9494,1,9657,9716,9717,9658
CQUADX4,9495,1,9658,9717,9718,9659
CQUADX4,9496,1,9659,9718,9719,9660
CQUADX4,9497,1,9660,9719,9720,9661
CQUADX4,9498,1,9661,9720,9721,9662
CQUADX4,9499,1,9662,9721,9722,9663
CQUADX4,9500,1,9663,9722,9723,9664
CQUADX4,9501,1,9664,9723,9724,9665
CQUADX4,9502,1,9665,9724,9725,9666
CQUADX4,9503,1,9666,9725,9726,9667
CQUADX4,9504,1,9667,9726,9727,9668
CQUADX4,9505,1,9668,9727,9728,9669
CQUADX4,9506,1,9669,9728,9729,9670
CQUADX4,9507,1,9670,9729,9730,9671
CQUADX4,9508,1,9671,9730,9731,9672
CQUADX4,9509,1,9672,9731,9732,9673
CQUADX4,9510,1,9673,9732,9733,9674
CQUADX4,9511,1,9674,9733,9734,9675
CQUADX4,9512,1,9675,9734,9735,9676
CQUADX4,9513,1,9677,9736,9737,9678
CQUADX4,9514,1,9678,9737,9738,9679
CQUADX4,9515,1,9679,9738,9739,9680
CQUADX4,9516,1,9680,9739,9740,9681
CQUADX4,9517,1,9681,9740,9741,9682
CQUADX4,9518,1,9682,9741,9742,9683
CQUADX4,9519,1,9683,9742,9743,9684
CQUADX4,9520,1,9684,9743,9744,9685
CQUADX4,9521,1,9685,9744,9745,9686
CQUADX4,9522,1,9686,9745,9746,9687
CQUADX4,9523,1,9687,9746,9747,9688
CQUADX4,9524,1,9688,9747,9748,9689
CQUADX4,9525,1,9689,9748,9749,9690
CQUADX4,9526,1,9690,9749,9750,9691
CQUADX4,9527,1,9691,9750,9751,9692
CQUADX4,9528,1,9692,9751,9752,9693
CQUADX4,9529,1,9693,9752,9753,9694
CQUADX4,9530,1,9694,9753,9754,9695
CQUADX4,9531,1,9695,9754,9755,9696
CQUADX4,9532,1,9696,9755,9756,9697
CQUADX4,9533,1,9697,9756,9757,9698
CQUADX4,9534,1,9698,9757,9758,9699
CQUADX4,9535,1,9699,9758,9759,9700
CQUADX4,9536,1,9700,9759,9760,9701
CQUADX4,9537,1,9701,9760,9761,9702
CQUADX4,9538,1,9702,9761,9762,9703
CQUADX4,9539,1,9703,9762,9763,9704
CQUADX4,9540,1,9704,9763,9764,9705
CQUADX4,9541,1,9705,9764,9765,9706
CQUADX4,9542,1,9706,9765,9766,9707
CQUADX4,9543,1,9707,9766,9767,9708
CQUADX4,9544,1,9708,9767,9768,9709
CQUADX4,9545,1,9709,9768,9769,9710
CQUADX4,9546,1,9710,9769,9770,9711
CQUADX4,9547,1,9711,9770,9771,9712
CQUADX4,9548,1,9712,9771,9772,9713
CQUADX4,9549,1,9713,9772,9773,9714
CQUADX4,9550,1,9714,9773,9774,9715
CQUADX4,9551,1,9715,9774,9775,9716
CQUADX4,9552,1,9716,9775,9776,9717
CQUADX4,9553,1,9717,9776,9777,9718
CQUADX4,9554,1,9718,9777,9778,9719
CQUADX4,9555,1,9719,9778,9779,9720
CQUADX4,9556,1,9720,9779,9780,9721
CQUADX4,9557,1,9721,9780,9781,9722
CQUADX4,9558,1,9722,9781,9782,9723
CQUADX4,9559,1,9723,9782,9783,9724
CQUADX4,9560,1,9724,9783,9784,9725
CQUADX4,9561,1,9725,9784,9785,9726
CQUADX4,9562,1,9726,9785,9786,9727
CQUADX4,9563,1,9727,9786,9787,9728
CQUADX4,9564,1,9728,9787,9788,9729
CQUADX4,9565,1,9729,9788,9789,9730
CQUADX4,9566,1,9730,9789,9790,9731
CQUADX4,9567,1,9731,9790,9791,9732
CQUADX4,9568,1,9732,9791,9792,9733
CQUADX4,9569,1,9733,9792,9793,9734
CQUADX4,9570,1,9734,9793,9794,9735
CQUADX4,9571,1,9736,9795,9796,9737
CQUADX4,9572,1,9737,9796,9797,9738
CQUADX4,9573,1,9738,9797,9798,9739
CQUADX4,9574,1,9739,9798,9799,9740
CQUADX4,9575,1,9740,9799,9800,9741
CQUADX4,9576,1,9741,9800,9801,9742
CQUADX4,9577,1,9742,9801,9802,9743
CQUADX4,9578,1,9743,9802,9803,9744
CQUADX4,9579,1,9744,9803,9804,9745
CQUADX4,9580,1,9745,9804,9805,9746
CQUADX4,9581,1,9746,9805,9806,9747
CQUADX4,9582,1,9747,9806,9807,9748
CQUADX4,9583,1,9748,9807,9808,9749
CQUADX4,9584,1,9749,9808,9809,9750
CQUADX4,9585,1,9750,9809,9810,9751
CQUADX4,9586,1,9751,9810,9811,9752
CQUADX4,9587,1,9752,9811,9812,9753
CQUADX4,9588,1,9753,9812,9813,9754
CQUADX4,9589,1,9754,9813,9814,9755
CQUADX4,9590,1,9755,9814,9815,9756
CQUADX4,9591,1,9756,9815,9816,9757
CQUADX4,9592,1,9757,9816,9817,9758
CQUADX4,9593,1,9758,9817,9818,9759
CQUADX4,9594,1,9759,9818,9819,9760
CQUADX4,9595,1,9760,9819,9820,9761
CQUADX4,9596,1,9761,9820,9821,9762
CQUADX4,9597,1,9762,9821,9822,9763
CQUADX4,9598,1,9763,9822,9823,9764
CQUADX4,9599,1,9764,9823,9824,9765
CQUADX4,9600,1,9765,9824,9825,9766
CQUADX4,9601,1,9766,9825,9826,9767
CQUADX4,9602,1,9767,9826,9827,9768
CQUADX4,9603,1,9768,9827,9828,9769
CQUADX4,9604,1,9769,9828,9829,9770
CQUADX4,9605,1,9770,9829,9830,9771
CQUADX4,9606,1,9771,9830,9831,9772
CQUADX4,9607,1,9772,9831,9832,9773
CQUADX4,9608,1,9773,9832,9833,9774
CQUADX4,9609,1,9774,9833,9834,9775
CQUADX4,9610,1,9775,9834,9835,9776
CQUADX4,9611,1,9776,9835,9836,9777
CQUADX4,9612,1,9777,9836,9837,9778
CQUADX4,9613,1,9778,9837,9838,9779
CQUADX4,9614,1,9779,9838,9839,9780
CQUADX4,9615,1,9780,9839,9840,9781
CQUADX4,9616,1,9781,9840,9841,9782
CQUADX4,9617,1,9782,9841,9842,9783
CQUADX4,9618,1,9783,9842,9843,9784
CQUADX4,9619,1,9784,9843,9844,9785
CQUADX4,9620,1,9785,9844,9845,9786
CQUADX4,9621,1,9786,9845,9846,9787
CQUADX4,9622,1,9787,9846,9847,9788
CQUADX4,9623,1,9788,9847,9848,9789
CQUADX4,9624,1,9789,9848,9849,9790
CQUADX4,9625,1,9790,9849,9850,9791
CQUADX4,9626,1,9791,9850,9851,9792
CQUADX4,9627,1,9792,9851,9852,9793
CQUADX4,9628,1,9793,9852,9853,9794
CQUADX4,9629,1,9795,9854,9855,9796
CQUADX4,9630,1,9796,9855,9856,9797
CQUADX4,9631,1,9797,9856,9857,9798
CQUADX4,9632,1,9798,9857,9858,9799
CQUADX4,9633,1,9799,9858,9859,9800
CQUADX4,9634,1,9800,9859,9860,9801
CQUADX4,9635,1,9801,9860,9861,9802
CQUADX4,9636,1,9802,9861,9862,9803
CQUADX4,9637,1,9803,9862,9863,9804
CQUADX4,9638,1,9804,9863,9864,9805
CQUADX4,9639,1,9805,9864,9865,9806
CQUADX4,9640,1,9806,9865,9866,9807
CQUADX4,9641,1,9807,9866,9867,9808
CQUADX4,9642,1,9808,9867,9868,9809
CQUADX4,9643,1,9809,9868,9869,9810
CQUADX4,9644,1,9810,9869,9870,9811
CQUADX4,9645,1,9811,9870,9871,9812
CQUADX4,9646,1,9812,9871,9872,9813
CQUADX4,9647,1,9813,9872,9873,9814
CQUADX4,9648,1,9814,9873,9874,9815
CQUADX4,9649,1,9815,9874,9875,9816
CQUADX4,9650,1,9816,9875,9876,9817
CQUADX4,9651,1,9817,9876,9877,9818
CQUADX4,9652,1,9818,9877,9878,9819
CQUADX4,9653,1,9819,9878,9879,9820
CQUADX4,9654,1,9820,9879,9880,9821
CQUADX4,9655,1,9821,9880,9881,9822
CQUADX4,9656,1,9822,9881,9882,9823
CQUADX4,9657,1,9823,9882,9883,9824
CQUADX4,9658,1,9824,9883,9884,9825
CQUADX4,9659,1,9825,9884,9885,9826
CQUADX4,9660,1,9826,9885,9886,9827
CQUADX4,9661,1,9827,9886,9887,9828
CQUADX4,9662,1,9828,9887,9888,9829
CQUADX4,9663,1,9829,9888,9889,9830
CQUADX4,9664,1,9830,9889,9890,9831
CQUADX4,9665,1,9831,9890,9891,9832
CQUADX4,9666,1,9832,9891,9892,9833
CQUADX4,9667,1,9833,9892,9893,9834
CQUADX4,9668,1,9834,9893,9894,9835
CQUADX4,9669,1,9835,9894,9895,9836
CQUADX4,9670,1,9836,9895,9896,9837
CQUADX4,9671,1,9837,9896,9897,9838
CQUADX4,9672,1,9838,9897,9898,9839
CQUADX4,9673,1,9839,9898,9899,9840
CQUADX4,9674,1,9840,9899,9900,9841
CQUADX4,9675,1,9841,9900,9901,9842
CQUADX4,9676,1,9842,9901,9902,9843
CQUADX4,9677,1,9843,9902,9903,9844
CQUADX4,9678,1,9844,9903,9904,9845
CQUADX4,9679,1,9845,9904,9905,9846
CQUADX4,9680,1,9846,9905,9906,9847
CQUADX4,9681,1,9847,9906,9907,9848
CQUADX4,9682,1,9848,9907,9908,9849
CQUADX4,9683,1,9849,9908,9909,9850
CQUADX4,9684,1,9850,9909,9910,9851
CQUADX4,9685,1,9851,9910,9911,9852
CQUADX4,9686,1,9852,9911,9912,9853
CQUADX4,9687,1,9854,9913,9914,9855
CQUADX4,9688,1,9855,9914,9915,9856
CQUADX4,9689,1,9856,9915,9916,9857
CQUADX4,9690,1,9857,9916,9917,9858
CQUADX4,9691,1,9858,9917,9918,9859
CQUADX4,9692,1,9859,9918,9919,9860
CQUADX4,9693,1,9860,9919,9920,9861
CQUADX4,9694,1,9861,9920,9921,9862
CQUADX4,9695,1,9862,9921,9922,9863
CQUADX4,9696,1,9863,9922,9923,9864
CQUADX4,9697,1,9864,9923,9924,9865
CQUADX4,9698,1,9865,9924,9925,9866
CQUADX4,9699,1,9866,9925,9926,9867
CQUADX4,9700,1,9867,9926,9927,9868
CQUADX4,9701,1,9868,9927,9928,9869
CQUADX4,9702,1,9869,9928,9929,9870
CQUADX4,9703,1,9870,9929,9930,9871
CQUADX4,9704,1,9871,9930,9931,9872
CQUADX4,9705,1,9872,9931,9932,9873
CQUADX4,9706,1,9873,9932,9933,9874
CQUADX4,9707,1,9874,9933,9934,9875
CQUADX4,9708,1,9875,9934,9935,9876
CQUADX4,9709,1,9876,9935,9936,9877
CQUADX4,9710,1,9877,9936,9937,9878
CQUADX4,9711,1,9878,9937,9938,9879
CQUADX4,9712,1,9879,9938,9939,9880
CQUADX4,9713,1,9880,9939,9940,9881
CQUADX4,9714,1,9881,9940,9941,9882
CQUADX4,9715,1,9882,9941,9942,9883
CQUADX4,9716,1,9883,9942,9943,9884
CQUADX4,9717,1,9884,9943,9944,9885
CQUADX4,9718,1,9885,9944,9945,9886
CQUADX4,9719,1,9886,9945,9946,9887
CQUADX4,9720,1,9887,9946,9947,9888
CQUADX4,9721,1,9888,9947,9948,9889
CQUADX4,9722,1,9889,9948,9949,9890
CQUADX4,9723,1,9890,9949,9950,9891
CQUADX4,9724,1,9891,9950,9951,9892
CQUADX4,9725,1,9892,9951,9952,9893
CQUADX4,9726,1,9893,9952,9953,9894
CQUADX4,9727,1,9894,9953,9954,9895
CQUADX4,9728,1,9895,9954,9955,9896
CQUADX4,9729,1,9896,9955,9956,9897
CQUADX4,9730,1,9897,9956,9957,9898
CQUADX4,9731,1,9898,9957,9958,9899
CQUADX4,9732,1,9899,9958,9959,9900
CQUADX4,9733,1,9900,9959,9960,9901
CQUADX4,9734,1,9901,9960,9961,9902
CQUADX4,9735,1,9902,9961,9962,9903
CQUADX4,9736,1,9903,9962,9963,9904
CQUADX4,9737,1,9904,9963,9964,9905
CQUADX4,9738,1,9905,9964,9965,9906
CQUADX4,9739,1,9906,9965,9966,9907
CQUADX4,9740,1,9907,9966,9967,9908
CQUADX4,9741,1,9908,9967,9968,9909
CQUADX4,9742,1,9909,9968,9969,9910
CQUADX4,9743,1,9910,9969,9970,9911
CQUADX4,9744,1,9911,9970,9971,9912
CQUADX4,9745,1,9913,9972,9973,9914
CQUADX4,9746,1,9914,9973,9974,9915
CQUADX4,9747,1,9915,9974,9975,9916
CQUADX4,9748,1,9916,9975,9976,9917
CQUADX4,9749,1,9917,9976,9977,9918
CQUADX4,9750,1,9918,9977,9978,9919
CQUADX4,9751,1,9919,9978,9979,9920
CQUADX4,9752,1,9920,9979,9980,9921
CQUADX4,9753,1,9921,9980,9981,9922
CQUADX4,9754,1,9922,9981,9982,9923
CQUADX4,9755,1,9923,9982,9983,9924
CQUADX4,9756,1,9924,9983,9984,9925
CQUADX4,9757,1,9925,9984,9985,9926
CQUADX4,9758,1,9926,9985,9986,9927
CQUADX4,9759,1,9927,9986,9987,9928
CQUADX4,9760,1,9928,9987,9988,9929
CQUADX4,9761,1,9929,9988,9989,9930
CQUADX4,9762,1,9930,9989,9990,9931
CQUADX4,9763,1,9931,9990,9991,9932
CQUADX4,9764,1,9932,9991,9992,9933
CQUADX4,9765,1,9933,9992,9993,9934
CQUADX4,9766,1,9934,9993,9994,9935
CQUADX4,9767,1,9935,9994,9995,9936
CQUADX4,9768,1,9936,9995,9996,9937
CQUADX4,9769,1,9937,9996,9997,9938
CQUADX4,9770,1,9938,9997,9998,9939
CQUADX4,9771,1,9939,9998,9999,9940
CQUADX4,9772,1,9940,9999,10000,9941
CQUADX4,9773,1,9941,10000,10001,9942
CQUADX4,9774,1,9942,10001,10002,9943
CQUADX4,9775,1,9943,10002,10003,9944
CQUADX4,9776,1,9944,10003,10004,9945
CQUADX4,9777,1,9945,10004,10005,9946
CQUADX4,9778,1,9946,10005,10006,9947
CQUADX4,9779,1,9947,10006,10007,9948
CQUADX4,9780,1,9948,10007,10008,9949
CQUADX4,9781,1,9949,10008,10009,9950
CQUADX4,9782,1,9950,10009,10010,9951
CQUADX4,9783,1,9951,10010,10011,9952
CQUADX4,9784,1,9952,10011,10012,9953
CQUADX4,9785,1,9953,10012,10013,9954
CQUADX4,9786,1,9954,10013,10014,9955
CQUADX4,9787,1,9955,10014,10015,9956
CQUADX4,9788,1,9956,10015,10016,9957
CQUADX4,9789,1,9957,10016,10017,9958
CQUADX4,9790,1,9958,10017,10018,9959
CQUADX4,9791,1,9959,10018,10019,9960
CQUADX4,9792,1,9960,10019,10020,9961
CQUADX4,9793,1,9961,10020,10021,9962
CQUADX4,9794,1,9962,10021,10022,9963
CQUADX4,9795,1,9963,10022,10023,9964
CQUADX4,9796,1,9964,10023,10024,9965
CQUADX4,9797,1,9965,10024,10025,9966
CQUADX4,9798,1,9966,10025,10026,9967
CQUADX4,9799,1,9967,10026,10027,9968
CQUADX4,9800,1,9968,10027,10028,9969
CQUADX4,9801,1,9969,10028,10029,9970
CQUADX4,9802,1,9970,10029,10030,9971
CQUADX4,9803,1,9972,10031,10032,9973
CQUADX4,9804,1,9973,10032,10033,9974
CQUADX4,9805,1,9974,10033,10034,9975
CQUADX4,9806,1,9975,10034,10035,9976
CQUADX4,9807,1,9976,10035,10036,9977
CQUADX4,9808,1,9977,10036,10037,9978
CQUADX4,9809,1,9978,10037,10038,9979
CQUADX4,9810,1,9979,10038,10039,9980
CQUADX4,9811,1,9980,10039,10040,9981
CQUADX4,9812,1,9981,10040,10041,9982
CQUADX4,9813,1,9982,10041,10042,9983
CQUADX4,9814,1,9983,10042,10043,9984
CQUADX4,9815,1,9984,10043,10044,9985
CQUADX4,9816,1,9985,10044,10045,9986
CQUADX4,9817,1,9986,10045,10046,9987
CQUADX4,9818,1,9987,10046,10047,9988
CQUADX4,9819,1,9988,10047,10048,9989
CQUADX4,9820,1,9989,10048,10049,9990
CQUADX4,9821,1,9990,10049,10050,9991
CQUADX4,9822,1,9991,10050,10051,9992
CQUADX4,9823,1,9992,10051,10052,9993
CQUADX4,9824,1,9993,10052,10053,9994
CQUADX4,9825,1,9994,10053,10054,9995
CQUADX4,9826,1,9995,10054,10055,9996
CQUADX4,9827,1,9996,10055,10056,9997
CQUADX4,9828,1,9997,10056,10057,9998
CQUADX4,9829,1,9998,10057,10058,9999
CQUADX4,9830,1,9999,10058,10059,10000
CQUADX4,9831,1,10000,10059,10060,10001
CQUADX4,9832,1,10001,10060,10061,10002
CQUADX4,9833,1,10002,10061,10062,10003
CQUADX4,9834,1,10003,10062,10063,10004
CQUADX4,9835,1,10004,10063,10064,10005
CQUADX4,9836,1,10005,10064,10065,10006
CQUADX4,9837,1,10006,10065,10066,10007
CQUADX4,9838,1,10007,10066,10067,10008
CQUADX4,9839,1,10008,10067,10068,10009
CQUADX4,9840,1,10009,10068,10069,10010
CQUADX4,9841,1,10010,10069,10070,10011
CQUADX4,9842,1,10011,10070,10071,10012
CQUADX4,9843,1,10012,10071,10072,10013
CQUADX4,9844,1,10013,10072,10073,10014
CQUADX4,9845,1,10014,10073,10074,10015
CQUADX4,9846,1,10015,10074,10075,10016
CQUADX4,9847,1,10016,10075,10076,10017
CQUADX4,9848,1,10017,10076,10077,10018
CQUADX4,9849,1,10018,10077,10078,10019
CQUADX4,9850,1,10019,10078,10079,10020
CQUADX4,9851,1,10020,10079,10080,10021
CQUADX4,9852,1,10021,10080,10081,10022
CQUADX4,9853,1,10022,10081,10082,10023
CQUADX4,9854,1,10023,10082,10083,10024
CQUADX4,9855,1,10024,10083,10084,10025
CQUADX4,9856,1,10025,10084,10085,10026
CQUADX4,9857,1,10026,10085,10086,10027
CQUADX4,9858,1,10027,10086,10087,10028
CQUADX4,9859,1,10028,10087,10088,10029
CQUADX4,9860,1,10029,10088,10089,10030
CQUADX4,9861,1,10031,10090,10091,10032
CQUADX4,9862,1,10032,10091,10092,10033
CQUADX4,9863,1,10033,10092,10093,10034
CQUADX4,9864,1,10034,10093,10094,10035
CQUADX4,9865,1,10035,10094,10095,10036
CQUADX4,9866,1,10036,10095,10096,10037
CQUADX4,9867,1,10037,10096,10097,10038
CQUADX4,9868,1,10038,10097,10098,10039
CQUADX4,9869,1,10039,10098,10099,10040
CQUADX4,9870,1,10040,10099,10100,10041
CQUADX4,9871,1,10041,10100,10101,10042
CQUADX4,9872,1,10042,10101,10102,10043
CQUADX4,9873,1,10043,10102,10103,10044
CQUADX4,9874,1,10044,10103,10104,10045
CQUADX4,9875,1,10045,10104,10105,10046
CQUADX4,9876,1,10046,10105,10106,10047
CQUADX4,9877,1,10047,10106,10107,10048
CQUADX4,9878,1,10048,10107,10108,10049
CQUADX4,9879,1,10049,10108,10109,10050
CQUADX4,9880,1,10050,10109,10110,10051
CQUADX4,9881,1,10051,10110,10111,10052
CQUADX4,9882,1,10052,10111,10112,10053
CQUADX4,9883,1,10053,10112,10113,10054
CQUADX4,9884,1,10054,10113,10114,10055
CQUADX4,9885,1,10055,10114,10115,10056
CQUADX4,9886,1,10056,10115,10116,10057
CQUADX4,9887,1,10057,10116,10117,10058
CQUADX4,9888,1,10058,10117,10118,10059
CQUADX4,9889,1,10059,10118,10119,10060
CQUADX4,9890,1,10060,10119,10120,10061
CQUADX4,9891,1,10061,10120,10121,10062
CQUADX4,9892,1,10062,10121,10122,10063
CQUADX4,9893,1,10063,10122,10123,10064
CQUADX4,9894,1,10064,10123,10124,10065
CQUADX4,9895,1,10065,10124,10125,10066
CQUADX4,9896,1,10066,10125,10126,10067
CQUADX4,9897,1,10067,10126,10127,10068
CQUADX4,9898,1,10068,10127,10128,10069
CQUADX4,9899,1,10069,10128,10129,10070
CQUADX4,9900,1,10070,10129,10130,10071
CQUADX4,9901,1,10071,10130,10131,10072
CQUADX4,9902,1,10072,10131,10132,10073
CQUADX4,9903,1,10073,10132,10133,10074
CQUADX4,9904,1,10074,10133,10134,10075
CQUADX4,9905,1,10075,10134,10135,10076
CQUADX4,9906,1,10076,10135,10136,10077
CQUADX4,9907,1,10077,10136,10137,10078
CQUADX4,9908,1,10078,10137,10138,10079
CQUADX4,9909,1,10079,10138,10139,10080
CQUADX4,9910,1,10080,10139,10140,10081
CQUADX4,9911,1,10081,10140,10141,10082
CQUADX4,9912,1,10082,10141,10142,10083
CQUADX4,9913,1,10083,10142,10143,10084
CQUADX4,9914,1,10084,10143,10144,10085
CQUADX4,9915,1,10085,10144,10145,10086
CQUADX4,9916,1,10086,10145,10146,10087
CQUADX4,9917,1,10087,10146,10147,10088
CQUADX4,9918,1,10088,10147,10148,10089
CQUADX4,9919,1,10090,10149,10150,10091
CQUADX4,9920,1,10091,10150,10151,10092
CQUADX4,9921,1,10092,10151,10152,10093
CQUADX4,9922,1,10093,10152,10153,10094
CQUADX4,9923,1,10094,10153,10154,10095
CQUADX4,9924,1,10095,10154,10155,10096
CQUADX4,9925,1,10096,10155,10156,10097
CQUADX4,9926,1,10097,10156,10157,10098
CQUADX4,9927,1,10098,10157,10158,10099
CQUADX4,9928,1,10099,10158,10159,10100
CQUADX4,9929,1,10100,10159,10160,10101
CQUADX4,9930,1,10101,10160,10161,10102
CQUADX4,9931,1,10102,10161,10162,10103
CQUADX4,9932,1,10103,10162,10163,10104
CQUADX4,9933,1,10104,10163,10164,10105
CQUADX4,9934,1,10105,10164,10165,10106
CQUADX4,9935,1,10106,10165,10166,10107
CQUADX4,9936,1,10107,10166,10167,10108
CQUADX4,9937,1,10108,10167,10168,10109
CQUADX4,9938,1,10109,10168,10169,10110
CQUADX4,9939,1,10110,10169,10170,10111
CQUADX4,9940,1,10111,10170,10171,10112
CQUADX4,9941,1,10112,10171,10172,10113
CQUADX4,9942,1,10113,10172,10173,10114
CQUADX4,9943,1,10114,10173,10174,10115
CQUADX4,9944,1,10115,10174,10175,10116
CQUADX4,9945,1,10116,10175,10176,10117
CQUADX4,9946,1,10117,10176,10177,10118
CQUADX4,9947,1,10118,10177,10178,10119
CQUADX4,9948,1,10119,10178,10179,10120
CQUADX4,9949,1,10120,10179,10180,10121
CQUADX4,9950,1,10121,10180,10181,10122
CQUADX4,9951,1,10122,10181,10182,10123
CQUADX4,9952,1,10123,10182,10183,10124
CQUADX4,9953,1,10124,10183,10184,10125
CQUADX4,9954,1,10125,10184,10185,10126
CQUADX4,9955,1,10126,10185,10186,10127
CQUADX4,9956,1,10127,10186,10187,10128
CQUADX4,9957,1,10128,10187,10188,10129
CQUADX4,9958,1,10129,10188,10189,10130
CQUADX4,9959,1,10130,10189,10190,10131
CQUADX4,9960,1,10131,10190,10191,10132
CQUADX4,9961,1,10132,10191,10192,10133
CQUADX4,9962,1,10133,10192,10193,10134
CQUADX4,9963,1,10134,10193,10194,10135
CQUADX4,9964,1,10135,10194,10195,10136
CQUADX4,9965,1,10136,10195,10196,10137
CQUADX4,9966,1,10137,10196,10197,10138
CQUADX4,9967,1,10138,10197,10198,10139
CQUADX4,9968,1,10139,10198,10199,10140
CQUADX4,9969,1,10140,10199,10200,10141
CQUADX4,9970,1,10141,10200,10201,10142
CQUADX4,9971,1,10142,10201,10202,10143
CQUADX4,9972,1,10143,10202,10203,10144
CQUADX4,9973,1,10144,10203,10204,10145
CQUADX4,9974,1,10145,10204,10205,10146
CQUADX4,9975,1,10146,10205,10206,10147
CQUADX4,9976,1,10147,10206,10207,10148
CQUADX4,9977,1,10149,10208,10209,10150
CQUADX4,9978,1,10150,10209,10210,10151
CQUADX4,9979,1,10151,10210,10211,10152
CQUADX4,9980,1,10152,10211,10212,10153
CQUADX4,9981,1,10153,10212,10213,10154
CQUADX4,9982,1,10154,10213,10214,10155
CQUADX4,9983,1,10155,10214,10215,10156
CQUADX4,9984,1,10156,10215,10216,10157
CQUADX4,9985,1,10157,10216,10217,10158
CQUADX4,9986,1,10158,10217,10218,10159
CQUADX4,9987,1,10159,10218,10219,10160
CQUADX4,9988,1,10160,10219,10220,10161
CQUADX4,9989,1,10161,10220,10221,10162
CQUADX4,9990,1,10162,10221,10222,10163
CQUADX4,9991,1,10163,10222,10223,10164
CQUADX4,9992,1,10164,10223,10224,10165
CQUADX4,9993,1,10165,10224,10225,10166
CQUADX4,9994,1,10166,10225,10226,10167
CQUADX4,9995,1,10167,10226,10227,10168
CQUADX4,9996,1,10168,10227,10228,10169
CQUADX4,9997,1,10169,10228,10229,10170
CQUADX4,9998,1,10170,10229,10230,10171
CQUADX4,9999,1,10171,10230,10231,10172
CQUADX4,10000,1,10172,10231,10232,10173
CQUADX4,10001,1,10173,10232,10233,10174
CQUADX4,10002,1,10174,10233,10234,10175
CQUADX4,10003,1,10175,10234,10235,10176
CQUADX4,10004,1,10176,10235,10236,10177
CQUADX4,10005,1,10177,10236,10237,10178
CQUADX4,10006,1,10178,10237,10238,10179
CQUADX4,10007,1,10179,10238,10239,10180
CQUADX4,10008,1,10180,10239,10240,10181
CQUADX4,10009,1,10181,10240,10241,10182
CQUADX4,10010,1,10182,10241,10242,10183
CQUADX4,10011,1,10183,10242,10243,10184
CQUADX4,10012,1,10184,10243,10244,10185
CQUADX4,10013,1,10185,10244,10245,10186
CQUADX4,10014,1,10186,10245,10246,10187
CQUADX4,10015,1,10187,10246,10247,10188
CQUADX4,10016,1,10188,10247,10248,10189
CQUADX4,10017,1,10189,10248,10249,10190
CQUADX4,10018,1,10190,10249,10250,10191
CQUADX4,10019,1,10191,10250,10251,10192
CQUADX4,10020,1,10192,10251,10252,10193
CQUADX4,10021,1,10193,10252,10253,10194
CQUADX4,10022,1,10194,10253,10254,10195
CQUADX4,10023,1,10195,10254,10255,10196
CQUADX4,10024,1,10196,10255,10256,10197
CQUADX4,10025,1,10197,10256,10257,10198
CQUADX4,10026,1,10198,10257,10258,10199
CQUADX4,10027,1,10199,10258,10259,10200
CQUADX4,10028,1,10200,10259,10260,10201
CQUADX4,10029,1,10201,10260,10261,10202
CQUADX4,10030,1,10202,10261,10262,10203
CQUADX4,10031,1,10203,10262,10263,10204
CQUADX4,10032,1,10204,10263,10264,10205
CQUADX4,10033,1,10205,10264,10265,10206
CQUADX4,10034,1,10206,10265,10266,10207
CQUADX4,10035,1,10208,10267,10268,10209
CQUADX4,10036,1,10209,10268,10269,10210
CQUADX4,10037,1,10210,10269,10270,10211
CQUADX4,10038,1,10211,10270,10271,10212
CQUADX4,10039,1,10212,10271,10272,10213
CQUADX4,10040,1,10213,10272,10273,10214
CQUADX4,10041,1,10214,10273,10274,10215
CQUADX4,10042,1,10215,10274,10275,10216
CQUADX4,10043,1,10216,10275,10276,10217
CQUADX4,10044,1,10217,10276,10277,10218
CQUADX4,10045,1,10218,10277,10278,10219
CQUADX4,10046,1,10219,10278,10279,10220
CQUADX4,10047,1,10220,10279,10280,10221
CQUADX4,10048,1,10221,10280,10281,10222
CQUADX4,10049,1,10222,10281,10282,10223
CQUADX4,10050,1,10223,10282,10283,10224
CQUADX4,10051,1,10224,10283,10284,10225
CQUADX4,10052,1,10225,10284,10285,10226
CQUADX4,10053,1,10226,10285,10286,10227
CQUADX4,10054,1,10227,10286,10287,10228
CQUADX4,10055,1,10228,10287,10288,10229
CQUADX4,10056,1,10229,10288,10289,10230
CQUADX4,10057,1,10230,10289,10290,10231
CQUADX4,10058,1,10231,10290,10291,10232
CQUADX4,10059,1,10232,10291,10292,10233
CQUADX4,10060,1,10233,10292,10293,10234
CQUADX4,10061,1,10234,10293,10294,10235
CQUADX4,10062,1,10235,10294,10295,10236
CQUADX4,10063,1,10236,10295,10296,10237
CQUADX4,10064,1,10237,10296,10297,10238
CQUADX4,10065,1,10238,10297,10298,10239
CQUADX4,10066,1,10239,10298,10299,10240
CQUADX4,10067,1,10240,10299,10300,10241
CQUADX4,10068,1,10241,10300,10301,10242
CQUADX4,10069,1,10242,10301,10302,10243
CQUADX4,10070,1,10243,10302,10303,10244
CQUADX4,10071,1,10244,10303,10304,10245
CQUADX4,10072,1,10245,10304,10305,10246
CQUADX4,10073,1,10246,10305,10306,10247
CQUADX4,10074,1,10247,10306,10307,10248
CQUADX4,10075,1,10248,10307,10308,10249
CQUADX4,10076,1,10249,10308,10309,10250
CQUADX4,10077,1,10250,10309,10310,10251
CQUADX4,10078,1,10251,10310,10311,10252
CQUADX4,10079,1,10252,10311,10312,10253
CQUADX4,10080,1,10253,10312,10313,10254
CQUADX4,10081,1,10254,10313,10314,10255
CQUADX4,10082,1,10255,10314,10315,10256
CQUADX4,10083,1,10256,10315,10316,10257
CQUADX4,10084,1,10257,10316,10317,10258
CQUADX4,10085,1,10258,10317,10318,10259
CQUADX4,10086,1,10259,10318,10319,10260
CQUADX4,10087,1,10260,10319,10320,10261
CQUADX4,10088,1,10261,10320,10321,10262
CQUADX4,10089,1,10262,10321,10322,10263
CQUADX4,10090,1,10263,10322,10323,10264
CQUADX4,10091,1,10264,10323,10324,10265
CQUADX4,10092,1,10265,10324,10325,10266
CQUADX4,10093,1,10267,10326,10327,10268
CQUADX4,10094,1,10268,10327,10328,10269
CQUADX4,10095,1,10269,10328,10329,10270
CQUADX4,10096,1,10270,10329,10330,10271
CQUADX4,10097,1,10271,10330,10331,10272
CQUADX4,10098,1,10272,10331,10332,10273
CQUADX4,10099,1,10273,10332,10333,10274
CQUADX4,10100,1,10274,10333,10334,10275
CQUADX4,10101,1,10275,10334,10335,10276
CQUADX4,10102,1,10276,10335,10336,10277
CQUADX4,10103,1,10277,10336,10337,10278
CQUADX4,10104,1,10278,10337,10338,10279
CQUADX4,10105,1,10279,10338,10339,10280
CQUADX4,10106,1,10280,10339,10340,10281
CQUADX4,10107,1,10281,10340,10341,10282
CQUADX4,10108,1,10282,10341,10342,10283
CQUADX4,10109,1,10283,10342,10343,10284
CQUADX4,10110,1,10284,10343,10344,10285
CQUADX4,10111,1,10285,10344,10345,10286
CQUADX4,10112,1,10286,10345,10346,10287
CQUADX4,10113,1,10287,10346,10347,10288
CQUADX4,10114,1,10288,10347,10348,10289
CQUADX4,10115,1,10289,10348,10349,10290
CQUADX4,10116,1,10290,10349,10350,10291
CQUADX4,10117,1,10291,10350,10351,10292
CQUADX4,10118,1,10292,10351,10352,10293
CQUADX4,10119,1,10293,10352,10353,10294
CQUADX4,10120,1,10294,10353,10354,10295
CQUADX4,10121,1,10295,10354,10355,10296
CQUADX4,10122,1,10296,10355,10356,10297
CQUADX4,10123,1,10297,10356,10357,10298
CQUADX4,10124,1,10298,10357,10358,10299
CQUADX4,10125,1,10299,10358,10359,10300
CQUADX4,10126,1,10300,10359,10360,10301
CQUADX4,10127,1,10301,10360,10361,10302
CQUADX4,10128,1,10302,10361,10362,10303
CQUADX4,10129,1,10303,10362,10363,10304
CQUADX4,10130,1,10304,10363,10364,10305
CQUADX4,10131,1,10305,10364,10365,10306
CQUADX4,10132,1,10306,10365,10366,10307
CQUADX4,10133,1,10307,10366,10367,10308
CQUADX4,10134,1,10308,10367,10368,10309
CQUADX4,10135,1,10309,10368,10369,10310
CQUADX4,10136,1,10310,10369,10370,10311
CQUADX4,10137,1,10311,10370,10371,10312
CQUADX4,10138,1,10312,10371,10372,10313
CQUADX4,10139,1,10313,10372,10373,10314
CQUADX4,10140,1,10314,10373,10374,10315
CQUADX4,10141,1,10315,10374,10375,10316
CQUADX4,10142,1,10316,10375,10376,10317
CQUADX4,10143,1,10317,10376,10377,10318
CQUADX4,10144,1,10318,10377,10378,10319
CQUADX4,10145,1,10319,10378,10379,10320
CQUADX4,10146,1,10320,10379,10380,10321
CQUADX4,10147,1,10321,10380,10381,10322
CQUADX4,10148,1,10322,10381,10382,10323
CQUADX4,10149,1,10323,10382,10383,10324
CQUADX4,10150,1,10324,10383,10384,10325
CQUADX4,10151,1,10326,10385,10386,10327
CQUADX4,10152,1,10327,10386,10387,10328
CQUADX4,10153,1,10328,10387,10388,10329
CQUADX4,10154,1,10329,10388,10389,10330
CQUADX4,10155,1,10330,10389,10390,10331
CQUADX4,10156,1,10331,10390,10391,10332
CQUADX4,10157,1,10332,10391,10392,10333
CQUADX4,10158,1,10333,10392,10393,10334
CQUADX4,10159,1,10334,10393,10394,10335
CQUADX4,10160,1,10335,10394,10395,10336
CQUADX4,10161,1,10336,10395,10396,10337
CQUADX4,10162,1,10337,10396,10397,10338
CQUADX4,10163,1,10338,10397,10398,10339
CQUADX4,10164,1,10339,10398,10399,10340
CQUADX4,10165,1,10340,10399,10400,10341
CQUADX4,10166,1,10341,10400,10401,10342
CQUADX4,10167,1,10342,10401,10402,10343
CQUADX4,10168,1,10343,10402,10403,10344
CQUADX4,10169,1,10344,10403,10404,10345
CQUADX4,10170,1,10345,10404,10405,10346
CQUADX4,10171,1,10346,10405,10406,10347
CQUADX4,10172,1,10347,10406,10407,10348
CQUADX4,10173,1,10348,10407,10408,10349
CQUADX4,10174,1,10349,10408,10409,10350
CQUADX4,10175,1,10350,10409,10410,10351
CQUADX4,10176,1,10351,10410,10411,10352
CQUADX4,10177,1,10352,10411,10412,10353
CQUADX4,10178,1,10353,10412,10413,10354
CQUADX4,10179,1,10354,10413,10414,10355
CQUADX4,10180,1,10355,10414,10415,10356
CQUADX4,10181,1,10356,10415,10416,10357
CQUADX4,10182,1,10357,10416,10417,10358
CQUADX4,10183,1,10358,10417,10418,10359
CQUADX4,10184,1,10359,10418,10419,10360
CQUADX4,10185,1,10360,10419,10420,10361
CQUADX4,10186,1,10361,10420,10421,10362
CQUADX4,10187,1,10362,10421,10422,10363
CQUADX4,10188,1,10363,10422,10423,10364
CQUADX4,10189,1,10364,10423,10424,10365
CQUADX4,10190,1,10365,10424,10425,10366
CQUADX4,10191,1,10366,10425,10426,10367
CQUADX4,10192,1,10367,10426,10427,10368
CQUADX4,10193,1,10368,10427,10428,10369
CQUADX4,10194,1,10369,10428,10429,10370
CQUADX4,10195,1,10370,10429,10430,10371
CQUADX4,10196,1,10371,10430,10431,10372
CQUADX4,10197,1,10372,10431,10432,10373
CQUADX4,10198,1,10373,10432,10433,10374
CQUADX4,10199,1,10374,10433,10434,10375
CQUADX4,10200,1,10375,10434,10435,10376
CQUADX4,10201,1,10376,10435,10436,10377
CQUADX4,10202,1,10377,10436,10437,10378
CQUADX4,10203,1,10378,10437,10438,10379
CQUADX4,10204,1,10379,10438,10439,10380
CQUADX4,10205,1,10380,10439,10440,10381
CQUADX4,10206,1,10381,10440,10441,10382
CQUADX4,10207,1,10382,10441,10442,10383
CQUADX4,10208,1,10383,10442,10443,10384
CQUADX4,10209,1,10385,10444,10445,10386
CQUADX4,10210,1,10386,10445,10446,10387
CQUADX4,10211,1,10387,10446,10447,10388
CQUADX4,10212,1,10388,10447,10448,10389
CQUADX4,10213,1,10389,10448,10449,10390
CQUADX4,10214,1,10390,10449,10450,10391
CQUADX4,10215,1,10391,10450,10451,10392
CQUADX4,10216,1,10392,10451,10452,10393
CQUADX4,10217,1,10393,10452,10453,10394
CQUADX4,10218,1,10394,10453,10454,10395
CQUADX4,10219,1,10395,10454,10455,10396
CQUADX4,10220,1,10396,10455,10456,10397
CQUADX4,10221,1,10397,10456,10457,10398
CQUADX4,10222,1,10398,10457,10458,10399
CQUADX4,10223,1,10399,10458,10459,10400
CQUADX4,10224,1,10400,10459,10460,10401
CQUADX4,10225,1,10401,10460,10461,10402
CQUADX4,10226,1,10402,10461,10462,10403
CQUADX4,10227,1,10403,10462,10463,10404
CQUADX4,10228,1,10404,10463,10464,10405
CQUADX4,10229,1,10405,10464,10465,10406
CQUADX4,10230,1,10406,10465,10466,10407
CQUADX4,10231,1,10407,10466,10467,10408
CQUADX4,10232,1,10408,10467,10468,10409
CQUADX4,10233,1,10409,10468,10469,10410
CQUADX4,10234,1,10410,10469,10470,10411
CQUADX4,10235,1,10411,10470,10471,10412
CQUADX4,10236,1,10412,10471,10472,10413
CQUADX4,10237,1,10413,10472,10473,10414
CQUADX4,10238,1,10414,10473,10474,10415
CQUADX4,10239,1,10415,10474,10475,10416
CQUADX4,10240,1,10416,10475,10476,10417
CQUADX4,10241,1,10417,10476,10477,10418
CQUADX4,10242,1,10418,10477,10478,10419
CQUADX4,10243,1,10419,10478,10479,10420
CQUADX4,10244,1,10420,10479,10480,10421
CQUADX4,10245,1,10421,10480,10481,10422
CQUADX4,10246,1,10422,10481,10482,10423
CQUADX4,10247,1,10423,10482,10483,10424
CQUADX4,10248,1,10424,10483,10484,10425
CQUADX4,10249,1,10425,10484,10485,10426
CQUADX4,10250,1,10426,10485,10486,10427
CQUADX4,10251,1,10427,10486,10487,10428
CQUADX4,10252,1,10428,10487,10488,10429
CQUADX4,10253,1,10429,10488,10489,10430
CQUADX4,10254,1,10430,10489,10490,10431
CQUADX4,10255,1,10431,10490,10491,10432
CQUADX4,10256,1,10432,10491,10492,10433
CQUADX4,10257,1,10433,10492,10493,10434
CQUADX4,10258,1,10434,10493,10494,10435
CQUADX4,10259,1,10435,10494,10495,10436
CQUADX4,10260,1,10436,10495,10496,10437
CQUADX4,10261,1,10437,10496,10497,10438
CQUADX4,10262,1,10438,10497,10498,10439
CQUADX4,10263,1,10439,10498,10499,10440
CQUADX4,10264,1,10440,10499,10500,10441
CQUADX4,10265,1,10441,10500,10501,10442
CQUADX4,10266,1,10442,10501,10502,10443
CQUADX4,10267,1,10444,10503,10504,10445
CQUADX4,10268,1,10445,10504,10505,10446
CQUADX4,10269,1,10446,10505,10506,10447
CQUADX4,10270,1,10447,10506,10507,10448
CQUADX4,10271,1,10448,10507,10508,10449
CQUADX4,10272,1,10449,10508,10509,10450
CQUADX4,10273,1,10450,10509,10510,10451
CQUADX4,10274,1,10451,10510,10511,10452
CQUADX4,10275,1,10452,10511,10512,10453
CQUADX4,10276,1,10453,10512,10513,10454
CQUADX4,10277,1,10454,10513,10514,10455
CQUADX4,10278,1,10455,10514,10515,10456
CQUADX4,10279,1,10456,10515,10516,10457
CQUADX4,10280,1,10457,10516,10517,10458
CQUADX4,10281,1,10458,10517,10518,10459
CQUADX4,10282,1,10459,10518,10519,10460
CQUADX4,10283,1,10460,10519,10520,10461
CQUADX4,10284,1,10461,10520,10521,10462
CQUADX4,10285,1,10462,10521,10522,10463
CQUADX4,10286,1,10463,10522,10523,10464
CQUADX4,10287,1,10464,10523,10524,10465
CQUADX4,10288,1,10465,10524,10525,10466
CQUADX4,10289,1,10466,10525,10526,10467
CQUADX4,10290,1,10467,10526,10527,10468
CQUADX4,10291,1,10468,10527,10528,10469
CQUADX4,10292,1,10469,10528,10529,10470
CQUADX4,10293,1,10470,10529,10530,10471
CQUADX4,10294,1,10471,10530,10531,10472
CQUADX4,10295,1,10472,10531,10532,10473
CQUADX4,10296,1,10473,10532,10533,10474
CQUADX4,10297,1,10474,10533,10534,10475
CQUADX4,10298,1,10475,10534,10535,10476
CQUADX4,10299,1,10476,10535,10536,10477
CQUADX4,10300,1,10477,10536,10537,10478
CQUADX4,10301,1,10478,10537,10538,10479
CQUADX4,10302,1,10479,10538,10539,10480
CQUADX4,10303,1,10480,10539,10540,10481
CQUADX4,10304,1,10481,10540,10541,10482
CQUADX4,10305,1,10482,10541,10542,10483
CQUADX4,10306,1,10483,10542,10543,10484
CQUADX4,10307,1,10484,10543,10544,10485
CQUADX4,10308,1,10485,10544,10545,10486
CQUADX4,10309,1,10486,10545,10546,10487
CQUADX4,10310,1,10487,10546,10547,10488
CQUADX4,10311,1,10488,10547,10548,10489
CQUADX4,10312,1,10489,10548,10549,10490
CQUADX4,10313,1,10490,10549,10550,10491
CQUADX4,10314,1,10491,10550,10551,10492
CQUADX4,10315,1,10492,10551,10552,10493
CQUADX4,10316,1,10493,10552,10553,10494
CQUADX4,10317,1,10494,10553,10554,10495
CQUADX4,10318,1,10495,10554,10555,10496
CQUADX4,10319,1,10496,10555,10556,10497
CQUADX4,10320,1,10497,10556,10557,10498
CQUADX4,10321,1,10498,10557,10558,10499
CQUADX4,10322,1,10499,10558,10559,10500
CQUADX4,10323,1,10500,10559,10560,10501
CQUADX4,10324,1,10501,10560,10561,10502
CQUADX4,10325,1,10503,10562,10563,10504
CQUADX4,10326,1,10504,10563,10564,10505
CQUADX4,10327,1,10505,10564,10565,10506
CQUADX4,10328,1,10506,10565,10566,10507
CQUADX4,10329,1,10507,10566,10567,10508
CQUADX4,10330,1,10508,10567,10568,10509
CQUADX4,10331,1,10509,10568,10569,10510
CQUADX4,10332,1,10510,10569,10570,10511
CQUADX4,10333,1,10511,10570,10571,10512
CQUADX4,10334,1,10512,10571,10572,10513
CQUADX4,10335,1,10513,10572,10573,10514
CQUADX4,10336,1,10514,10573,10574,10515
CQUADX4,10337,1,10515,10574,10575,10516
CQUADX4,10338,1,10516,10575,10576,10517
CQUADX4,10339,1,10517,10576,10577,10518
CQUADX4,10340,1,10518,10577,10578,10519
CQUADX4,10341,1,10519,10578,10579,10520
CQUADX4,10342,1,10520,10579,10580,10521
CQUADX4,10343,1,10521,10580,10581,10522
CQUADX4,10344,1,10522,10581,10582,10523
CQUADX4,10345,1,10523,10582,10583,10524
CQUADX4,10346,1,10524,10583,10584,10525
CQUADX4,10347,1,10525,10584,10585,10526
CQUADX4,10348,1,10526,10585,10586,10527
CQUADX4,10349,1,10527,10586,10587,10528
CQUADX4,10350,1,10528,10587,10588,10529
CQUADX4,10351,1,10529,10588,10589,10530
CQUADX4,10352,1,10530,10589,10590,10531
CQUADX4,10353,1,10531,10590,10591,10532
CQUADX4,10354,1,10532,10591,10592,10533
CQUADX4,10355,1,10533,10592,10593,10534
CQUADX4,10356,1,10534,10593,10594,10535
CQUADX4,10357,1,10535,10594,10595,10536
CQUADX4,10358,1,10536,10595,10596,10537
CQUADX4,10359,1,10537,10596,10597,10538
CQUADX4,10360,1,10538,10597,10598,10539
CQUADX4,10361,1,10539,10598,10599,10540
CQUADX4,10362,1,10540,10599,10600,10541
CQUADX4,10363,1,10541,10600,10601,10542
CQUADX4,10364,1,10542,10601,10602,10543
CQUADX4,10365,1,10543,10602,10603,10544
CQUADX4,10366,1,10544,10603,10604,10545
CQUADX4,10367,1,10545,10604,10605,10546
CQUADX4,10368,1,10546,10605,10606,10547
CQUADX4,10369,1,10547,10606,10607,10548
CQUADX4,10370,1,10548,10607,10608,10549
CQUADX4,10371,1,10549,10608,10609,10550
CQUADX4,10372,1,10550,10609,10610,10551
CQUADX4,10373,1,10551,10610,10611,10552
CQUADX4,10374,1,10552,10611,10612,10553
CQUADX4,10375,1,10553,10612,10613,10554
CQUADX4,10376,1,10554,10613,10614,10555
CQUADX4,10377,1,10555,10614,10615,10556
CQUADX4,10378,1,10556,10615,10616,10557
CQUADX4,10379,1,10557,10616,10617,10558
CQUADX4,10380,1,10558,10617,10618,10559
CQUADX4,10381,1,10559,10618,10619,10560
CQUADX4,10382,1,10560,10619,10620,10561
CQUADX4,10383,1,10562,10621,10622,10563
CQUADX4,10384,1,10563,10622,10623,10564
CQUADX4,10385,1,10564,10623,10624,10565
CQUADX4,10386,1,10565,10624,10625,10566
CQUADX4,10387,1,10566,10625,10626,10567
CQUADX4,10388,1,10567,10626,10627,10568
CQUADX4,10389,1,10568,10627,10628,10569
CQUADX4,10390,1,10569,10628,10629,10570
CQUADX4,10391,1,10570,10629,10630,10571
CQUADX4,10392,1,10571,10630,10631,10572
CQUADX4,10393,1,10572,10631,10632,10573
CQUADX4,10394,1,10573,10632,10633,10574
CQUADX4,10395,1,10574,10633,10634,10575
CQUADX4,10396,1,10575,10634,10635,10576
CQUADX4,10397,1,10576,10635,10636,10577
CQUADX4,10398,1,10577,10636,10637,10578
CQUADX4,10399,1,10578,10637,10638,10579
CQUADX4,10400,1,10579,10638,10639,10580
CQUADX4,10401,1,10580,10639,10640,10581
CQUADX4,10402,1,10581,10640,10641,10582
CQUADX4,10403,1,10582,10641,10642,10583
CQUADX4,10404,1,10583,10642,10643,10584
CQUADX4,10405,1,10584,10643,10644,10585
CQUADX4,10406,1,10585,10644,10645,10586
CQUADX4,10407,1,10586,10645,10646,10587
CQUADX4,10408,1,10587,10646,10647,10588
CQUADX4,10409,1,10588,10647,10648,10589
CQUADX4,10410,1,10589,10648,10649,10590
CQUADX4,10411,1,10590,10649,10650,10591
CQUADX4,10412,1,10591,10650,10651,10592
CQUADX4,10413,1,10592,10651,10652,10593
CQUADX4,10414,1,10593,10652,10653,10594
CQUADX4,10415,1,10594,10653,10654,10595
CQUADX4,10416,1,10595,10654,10655,10596
CQUADX4,10417,1,10596,10655,10656,10597
CQUADX4,10418,1,10597,10656,10657,10598
CQUADX4,10419,1,10598,10657,10658,10599
CQUADX4,10420,1,10599,10658,10659,10600
CQUADX4,10421,1,10600,10659,10660,10601
CQUADX4,10422,1,10601,10660,10661,10602
CQUADX4,10423,1,10602,10661,10662,10603
CQUADX4,10424,1,10603,10662,10663,10604
CQUADX4,10425,1,10604,10663,10664,10605
CQUADX4,10426,1,10605,10664,10665,10606
CQUADX4,10427,1,10606,10665,10666,10607
CQUADX4,10428,1,10607,10666,10667,10608
CQUADX4,10429,1,10608,10667,10668,10609
CQUADX4,10430,1,10609,10668,10669,10610
CQUADX4,10431,1,10610,10669,10670,10611
CQUADX4,10432,1,10611,10670,10671,10612
CQUADX4,10433,1,10612,10671,10672,10613
CQUADX4,10434,1,10613,10672,10673,10614
CQUADX4,10435,1,10614,10673,10674,10615
CQUADX4,10436,1,10615,10674,10675,10616
CQUADX4,10437,1,10616,10675,10676,10617
CQUADX4,10438,1,10617,10676,10677,10618
CQUADX4,10439,1,10618,10677,10678,10619
CQUADX4,10440,1,10619,10678,10679,10620
CQUADX4,10441,1,10621,10680,10681,10622
CQUADX4,10442,1,10622,10681,10682,10623
CQUADX4,10443,1,10623,10682,10683,10624
CQUADX4,10444,1,10624,10683,10684,10625
CQUADX4,10445,1,10625,10684,10685,10626
CQUADX4,10446,1,10626,10685,10686,10627
CQUADX4,10447,1,10627,10686,10687,10628
CQUADX4,10448,1,10628,10687,10688,10629
CQUADX4,10449,1,10629,10688,10689,10630
CQUADX4,10450,1,10630,10689,10690,10631
CQUADX4,10451,1,10631,10690,10691,10632
CQUADX4,10452,1,10632,10691,10692,10633
CQUADX4,10453,1,10633,10692,10693,10634
CQUADX4,10454,1,10634,10693,10694,10635
CQUADX4,10455,1,10635,10694,10695,10636
CQUADX4,10456,1,10636,10695,10696,10637
CQUADX4,10457,1,10637,10696,10697,10638
CQUADX4,10458,1,10638,10697,10698,10639
CQUADX4,10459,1,10639,10698,10699,10640
CQUADX4,10460,1,10640,10699,10700,10641
CQUADX4,10461,1,10641,10700,10701,10642
CQUADX4,10462,1,10642,10701,10702,10643
CQUADX4,10463,1,10643,10702,10703,10644
CQUADX4,10464,1,10644,10703,10704,10645
CQUADX4,10465,1,10645,10704,10705,10646
CQUADX4,10466,1,10646,10705,10706,10647
CQUADX4,10467,1,10647,10706,10707,10648
CQUADX4,10468,1,10648,10707,10708,10649
CQUADX4,10469,1,10649,10708,10709,10650
CQUADX4,10470,1,10650,10709,10710,10651
CQUADX4,10471,1,10651,10710,10711,10652
CQUADX4,10472,1,10652,10711,10712,10653
CQUADX4,10473,1,10653,10712,10713,10654
CQUADX4,10474,1,10654,10713,10714,10655
CQUADX4,10475,1,10655,10714,10715,10656
CQUADX4,10476,1,10656,10715,10716,10657
CQUADX4,10477,1,10657,10716,10717,10658
CQUADX4,10478,1,10658,10717,10718,10659
CQUADX4,10479,1,10659,10718,10719,10660
CQUADX4,10480,1,10660,10719,10720,10661
CQUADX4,10481,1,10661,10720,10721,10662
CQUADX4,10482,1,10662,10721,10722,10663
CQUADX4,10483,1,10663,10722,10723,10664
CQUADX4,10484,1,10664,10723,10724,10665
CQUADX4,10485,1,10665,10724,10725,10666
CQUADX4,10486,1,10666,10725,10726,10667
CQUADX4,10487,1,10667,10726,10727,10668
CQUADX4,10488,1,10668,10727,10728,10669
CQUADX4,10489,1,10669,10728,10729,10670
CQUADX4,10490,1,10670,10729,10730,10671
CQUADX4,10491,1,10671,10730,10731,10672
CQUADX4,10492,1,10672,10731,10732,10673
CQUADX4,10493,1,10673,10732,10733,10674
CQUADX4,10494,1,10674,10733,10734,10675
CQUADX4,10495,1,10675,10734,10735,10676
CQUADX4,10496,1,10676,10735,10736,10677
CQUADX4,10497,1,10677,10736,10737,10678
CQUADX4,10498,1,10678,10737,10738,10679
CQUADX4,10499,1,10680,10739,10740,10681
CQUADX4,10500,1,10681,10740,10741,10682
CQUADX4,10501,1,10682,10741,10742,10683
CQUADX4,10502,1,10683,10742,10743,10684
CQUADX4,10503,1,10684,10743,10744,10685
CQUADX4,10504,1,10685,10744,10745,10686
CQUADX4,10505,1,10686,10745,10746,10687
CQUADX4,10506,1,10687,10746,10747,10688
CQUADX4,10507,1,10688,10747,10748,10689
CQUADX4,10508,1,10689,10748,10749,10690
CQUADX4,10509,1,10690,10749,10750,10691
CQUADX4,10510,1,10691,10750,10751,10692
CQUADX4,10511,1,10692,10751,10752,10693
CQUADX4,10512,1,10693,10752,10753,10694
CQUADX4,10513,1,10694,10753,10754,10695
CQUADX4,10514,1,10695,10754,10755,10696
CQUADX4,10515,1,10696,10755,10756,10697
CQUADX4,10516,1,10697,10756,10757,10698
CQUADX4,10517,1,10698,10757,10758,10699
CQUADX4,10518,1,10699,10758,10759,10700
CQUADX4,10519,1,10700,10759,10760,10701
CQUADX4,10520,1,10701,10760,10761,10702
CQUADX4,10521,1,10702,10761,10762,10703
CQUADX4,10522,1,10703,10762,10763,10704
CQUADX4,10523,1,10704,10763,10764,10705
CQUADX4,10524,1,10705,10764,10765,10706
CQUADX4,10525,1,10706,10765,10766,10707
CQUADX4,10526,1,10707,10766,10767,10708
CQUADX4,10527,1,10708,10767,10768,10709
CQUADX4,10528,1,10709,10768,10769,10710
CQUADX4,10529,1,10710,10769,10770,10711
CQUADX4,10530,1,10711,10770,10771,10712
CQUADX4,10531,1,10712,10771,10772,10713
CQUADX4,10532,1,10713,10772,10773,10714
CQUADX4,10533,1,10714,10773,10774,10715
CQUADX4,10534,1,10715,10774,10775,10716
CQUADX4,10535,1,10716,10775,10776,10717
CQUADX4,10536,1,10717,10776,10777,10718
CQUADX4,10537,1,10718,10777,10778,10719
CQUADX4,10538,1,10719,10778,10779,10720
CQUADX4,10539,1,10720,10779,10780,10721
CQUADX4,10540,1,10721,10780,10781,10722
CQUADX4,10541,1,10722,10781,10782,10723
CQUADX4,10542,1,10723,10782,10783,10724
CQUADX4,10543,1,10724,10783,10784,10725
CQUADX4,10544,1,10725,10784,10785,10726
CQUADX4,10545,1,10726,10785,10786,10727
CQUADX4,10546,1,10727,10786,10787,10728
CQUADX4,10547,1,10728,10787,10788,10729
CQUADX4,10548,1,10729,10788,10789,10730
CQUADX4,10549,1,10730,10789,10790,10731
CQUADX4,10550,1,10731,10790,10791,10732
CQUADX4,10551,1,10732,10791,10792,10733
CQUADX4,10552,1,10733,10792,10793,10734
CQUADX4,10553,1,10734,10793,10794,10735
CQUADX4,10554,1,10735,10794,10795,10736
CQUADX4,10555,1,10736,10795,10796,10737
CQUADX4,10556,1,10737,10796,10797,10738
CQUADX4,10557,1,10739,10798,10799,10740
CQUADX4,10558,1,10740,10799,10800,10741
CQUADX4,10559,1,10741,10800,10801,10742
CQUADX4,10560,1,10742,10801,10802,10743
CQUADX4,10561,1,10743,10802,10803,10744
CQUADX4,10562,1,10744,10803,10804,10745
CQUADX4,10563,1,10745,10804,10805,10746
CQUADX4,10564,1,10746,10805,10806,10747
CQUADX4,10565,1,10747,10806,10807,10748
CQUADX4,10566,1,10748,10807,10808,10749
CQUADX4,10567,1,10749,10808,10809,10750
CQUADX4,10568,1,10750,10809,10810,10751
CQUADX4,10569,1,10751,10810,10811,10752
CQUADX4,10570,1,10752,10811,10812,10753
CQUADX4,10571,1,10753,10812,10813,10754
CQUADX4,10572,1,10754,10813,10814,10755
CQUADX4,10573,1,10755,10814,10815,10756
CQUADX4,10574,1,10756,10815,10816,10757
CQUADX4,10575,1,10757,10816,10817,10758
CQUADX4,10576,1,10758,10817,10818,10759
CQUADX4,10577,1,10759,10818,10819,10760
CQUADX4,10578,1,10760,10819,10820,10761
CQUADX4,10579,1,10761,10820,10821,10762
CQUADX4,10580,1,10762,10821,10822,10763
CQUADX4,10581,1,10763,10822,10823,10764
CQUADX4,10582,1,10764,10823,10824,10765
CQUADX4,10583,1,10765,10824,10825,10766
CQUADX4,10584,1,10766,10825,10826,10767
CQUADX4,10585,1,10767,10826,10827,10768
CQUADX4,10586,1,10768,10827,10828,10769
CQUADX4,10587,1,10769,10828,10829,10770
CQUADX4,10588,1,10770,10829,10830,10771
CQUADX4,10589,1,10771,10830,10831,10772
CQUADX4,10590,1,10772,10831,10832,10773
CQUADX4,10591,1,10773,10832,10833,10774
CQUADX4,10592,1,10774,10833,10834,10775
CQUADX4,10593,1,10775,10834,10835,10776
CQUADX4,10594,1,10776,10835,10836,10777
CQUADX4,10595,1,10777,10836,10837,10778
CQUADX4,10596,1,10778,10837,10838,10779
CQUADX4,10597,1,10779,10838,10839,10780
CQUADX4,10598,1,10780,10839,10840,10781
CQUADX4,10599,1,10781,10840,10841,10782
CQUADX4,10600,1,10782,10841,10842,10783
CQUADX4,10601,1,10783,10842,10843,10784
CQUADX4,10602,1,10784,10843,10844,10785
CQUADX4,10603,1,10785,10844,10845,10786
CQUADX4,10604,1,10786,10845,10846,10787
CQUADX4,10605,1,10787,10846,10847,10788
CQUADX4,10606,1,10788,10847,10848,10789
CQUADX4,10607,1,10789,10848,10849,10790
CQUADX4,10608,1,10790,10849,10850,10791
CQUADX4,10609,1,10791,10850,10851,10792
CQUADX4,10610,1,10792,10851,10852,10793
CQUADX4,10611,1,10793,10852,10853,10794
CQUADX4,10612,1,10794,10853,10854,10795
CQUADX4,10613,1,10795,10854,10855,10796
CQUADX4,10614,1,10796,10855,10856,10797
CQUADX4,10615,1,10798,10857,10858,10799
CQUADX4,10616,1,10799,10858,10859,10800
CQUADX4,10617,1,10800,10859,10860,10801
CQUADX4,10618,1,10801,10860,10861,10802
CQUADX4,10619,1,10802,10861,10862,10803
CQUADX4,10620,1,10803,10862,10863,10804
CQUADX4,10621,1,10804,10863,10864,10805
CQUADX4,10622,1,10805,10864,10865,10806
CQUADX4,10623,1,10806,10865,10866,10807
CQUADX4,10624,1,10807,10866,10867,10808
CQUADX4,10625,1,10808,10867,10868,10809
CQUADX4,10626,1,10809,10868,10869,10810
CQUADX4,10627,1,10810,10869,10870,10811
CQUADX4,10628,1,10811,10870,10871,10812
CQUADX4,10629,1,10812,10871,10872,10813
CQUADX4,10630,1,10813,10872,10873,10814
CQUADX4,10631,1,10814,10873,10874,10815
CQUADX4,10632,1,10815,10874,10875,10816
CQUADX4,10633,1,10816,10875,10876,10817
CQUADX4,10634,1,10817,10876,10877,10818
CQUADX4,10635,1,10818,10877,10878,10819
CQUADX4,10636,1,10819,10878,10879,10820
CQUADX4,10637,1,10820,10879,10880,10821
CQUADX4,10638,1,10821,10880,10881,10822
CQUADX4,10639,1,10822,10881,10882,10823
CQUADX4,10640,1,10823,10882,10883,10824
CQUADX4,10641,1,10824,10883,10884,10825
CQUADX4,10642,1,10825,10884,10885,10826
CQUADX4,10643,1,10826,10885,10886,10827
CQUADX4,10644,1,10827,10886,10887,10828
CQUADX4,10645,1,10828,10887,10888,10829
CQUADX4,10646,1,10829,10888,10889,10830
CQUADX4,10647,1,10830,10889,10890,10831
CQUADX4,10648,1,10831,10890,10891,10832
CQUADX4,10649,1,10832,10891,10892,10833
CQUADX4,10650,1,10833,10892,10893,10834
CQUADX4,10651,1,10834,10893,10894,10835
CQUADX4,10652,1,10835,10894,10895,10836
CQUADX4,10653,1,10836,10895,10896,10837
CQUADX4,10654,1,10837,10896,10897,10838
CQUADX4,10655,1,10838,10897,10898,10839
CQUADX4,10656,1,10839,10898,10899,10840
CQUADX4,10657,1,10840,10899,10900,10841
CQUADX4,10658,1,10841,10900,10901,10842
CQUADX4,10659,1,10842,10901,10902,10843
CQUADX4,10660,1,10843,10902,10903,10844
CQUADX4,10661,1,10844,10903,10904,10845
CQUADX4,10662,1,10845,10904,10905,10846
CQUADX4,10663,1,10846,10905,10906,10847
CQUADX4,10664,1,10847,10906,10907,10848
CQUADX4,10665,1,10848,10907,10908,10849
CQUADX4,10666,1,10849,10908,10909,10850
CQUADX4,10667,1,10850,10909,10910,10851
CQUADX4,10668,1,10851,10910,10911,10852
CQUADX4,10669,1,10852,10911,10912,10853
CQUADX4,10670,1,10853,10912,10913,10854
CQUADX4,10671,1,10854,10913,10914,10855
CQUADX4,10672,1,10855,10914,10915,10856
CQUADX4,10673,1,10857,10916,10917,10858
CQUADX4,10674,1,10858,10917,10918,10859
CQUADX4,10675,1,10859,10918,10919,10860
CQUADX4,10676,1,10860,10919,10920,10861
CQUADX4,10677,1,10861,10920,10921,10862
CQUADX4,10678,1,10862,10921,10922,10863
CQUADX4,10679,1,10863,10922,10923,10864
CQUADX4,10680,1,10864,10923,10924,10865
CQUADX4,10681,1,10865,10924,10925,10866
CQUADX4,10682,1,10866,10925,10926,10867
CQUADX4,10683,1,10867,10926,10927,10868
CQUADX4,10684,1,10868,10927,10928,10869
CQUADX4,10685,1,10869,10928,10929,10870
CQUADX4,10686,1,10870,10929,10930,10871
CQUADX4,10687,1,10871,10930,10931,10872
CQUADX4,10688,1,10872,10931,10932,10873
CQUADX4,10689,1,10873,10932,10933,10874
CQUADX4,10690,1,10874,10933,10934,10875
CQUADX4,10691,1,10875,10934,10935,10876
CQUADX4,10692,1,10876,10935,10936,10877
CQUADX4,10693,1,10877,10936,10937,10878
CQUADX4,10694,1,10878,10937,10938,10879
CQUADX4,10695,1,10879,10938,10939,10880
CQUADX4,10696,1,10880,10939,10940,10881
CQUADX4,10697,1,10881,10940,10941,10882
CQUADX4,10698,1,10882,10941,10942,10883
CQUADX4,10699,1,10883,10942,10943,10884
CQUADX4,10700,1,10884,10943,10944,10885
CQUADX4,10701,1,10885,10944,10945,10886
CQUADX4,10702,1,10886,10945,10946,10887
CQUADX4,10703,1,10887,10946,10947,10888
CQUADX4,10704,1,10888,10947,10948,10889
CQUADX4,10705,1,10889,10948,10949,10890
CQUADX4,10706,1,10890,10949,10950,10891
CQUADX4,10707,1,10891,10950,10951,10892
CQUADX4,10708,1,10892,10951,10952,10893
CQUADX4,10709,1,10893,10952,10953,10894
CQUADX4,10710,1,10894,10953,10954,10895
CQUADX4,10711,1,10895,10954,10955,10896
CQUADX4,10712,1,10896,10955,10956,10897
CQUADX4,10713,1,10897,10956,10957,10898
CQUADX4,10714,1,10898,10957,10958,10899
CQUADX4,10715,1,10899,10958,10959,10900
CQUADX4,10716,1,10900,10959,10960,10901
CQUADX4,10717,1,10901,10960,10961,10902
CQUADX4,10718,1,10902,10961,10962,10903
CQUADX4,10719,1,10903,10962,10963,10904
CQUADX4,10720,1,10904,10963,10964,10905
CQUADX4,10721,1,10905,10964,10965,10906
CQUADX4,10722,1,10906,10965,10966,10907
CQUADX4,10723,1,10907,10966,10967,10908
CQUADX4,10724,1,10908,10967,10968,10909
CQUADX4,10725,1,10909,10968,10969,10910
CQUADX4,10726,1,10910,10969,10970,10911
CQUADX4,10727,1,10911,10970,10971,10912
CQUADX4,10728,1,10912,10971,10972,10913
CQUADX4,10729,1,10913,10972,10973,10914
CQUADX4,10730,1,10914,10973,10974,10915
CQUADX4,10731,1,10916,10975,10976,10917
CQUADX4,10732,1,10917,10976,10977,10918
CQUADX4,10733,1,10918,10977,10978,10919
CQUADX4,10734,1,10919,10978,10979,10920
CQUADX4,10735,1,10920,10979,10980,10921
CQUADX4,10736,1,10921,10980,10981,10922
CQUADX4,10737,1,10922,10981,10982,10923
CQUADX4,10738,1,10923,10982,10983,10924
CQUADX4,10739,1,10924,10983,10984,10925
CQUADX4,10740,1,10925,10984,10985,10926
CQUADX4,10741,1,10926,10985,10986,10927
CQUADX4,10742,1,10927,10986,10987,10928
CQUADX4,10743,1,10928,10987,10988,10929
CQUADX4,10744,1,10929,10988,10989,10930
CQUADX4,10745,1,10930,10989,10990,10931
CQUADX4,10746,1,10931,10990,10991,10932
CQUADX4,10747,1,10932,10991,10992,10933
CQUADX4,10748,1,10933,10992,10993,10934
CQUADX4,10749,1,10934,10993,10994,10935
CQUADX4,10750,1,10935,10994,10995,10936
CQUADX4,10751,1,10936,10995,10996,10937
CQUADX4,10752,1,10937,10996,10997,10938
CQUADX4,10753,1,10938,10997,10998,10939
CQUADX4,10754,1,10939,10998,10999,10940
CQUADX4,10755,1,10940,10999,11000,10941
CQUADX4,10756,1,10941,11000,11001,10942
CQUADX4,10757,1,10942,11001,11002,10943
CQUADX4,10758,1,10943,11002,11003,10944
CQUADX4,10759,1,10944,11003,11004,10945
CQUADX4,10760,1,10945,11004,11005,10946
CQUADX4,10761,1,10946,11005,11006,10947
CQUADX4,10762,1,10947,11006,11007,10948
CQUADX4,10763,1,10948,11007,11008,10949
CQUADX4,10764,1,10949,11008,11009,10950
CQUADX4,10765,1,10950,11009,11010,10951
CQUADX4,10766,1,10951,11010,11011,10952
CQUADX4,10767,1,10952,11011,11012,10953
CQUADX4,10768,1,10953,11012,11013,10954
CQUADX4,10769,1,10954,11013,11014,10955
CQUADX4,10770,1,10955,11014,11015,10956
CQUADX4,10771,1,10956,11015,11016,10957
CQUADX4,10772,1,10957,11016,11017,10958
CQUADX4,10773,1,10958,11017,11018,10959
CQUADX4,10774,1,10959,11018,11019,10960
CQUADX4,10775,1,10960,11019,11020,10961
CQUADX4,10776,1,10961,11020,11021,10962
CQUADX4,10777,1,10962,11021,11022,10963
CQUADX4,10778,1,10963,11022,11023,10964
CQUADX4,10779,1,10964,11023,11024,10965
CQUADX4,10780,1,10965,11024,11025,10966
CQUADX4,10781,1,10966,11025,11026,10967
CQUADX4,10782,1,10967,11026,11027,10968
CQUADX4,10783,1,10968,11027,11028,10969
CQUADX4,10784,1,10969,11028,11029,10970
CQUADX4,10785,1,10970,11029,11030,10971
CQUADX4,10786,1,10971,11030,11031,10972
CQUADX4,10787,1,10972,11031,11032,10973
CQUADX4,10788,1,10973,11032,11033,10974
CQUADX4,10789,1,10975,11034,11035,10976
CQUADX4,10790,1,10976,11035,11036,10977
CQUADX4,10791,1,10977,11036,11037,10978
CQUADX4,10792,1,10978,11037,11038,10979
CQUADX4,10793,1,10979,11038,11039,10980
CQUADX4,10794,1,10980,11039,11040,10981
CQUADX4,10795,1,10981,11040,11041,10982
CQUADX4,10796,1,10982,11041,11042,10983
CQUADX4,10797,1,10983,11042,11043,10984
CQUADX4,10798,1,10984,11043,11044,10985
CQUADX4,10799,1,10985,11044,11045,10986
CQUADX4,10800,1,10986,11045,11046,10987
CQUADX4,10801,1,10987,11046,11047,10988
CQUADX4,10802,1,10988,11047,11048,10989
CQUADX4,10803,1,10989,11048,11049,10990
CQUADX4,10804,1,10990,11049,11050,10991
CQUADX4,10805,1,10991,11050,11051,10992
CQUADX4,10806,1,10992,11051,11052,10993
CQUADX4,10807,1,10993,11052,11053,10994
CQUADX4,10808,1,10994,11053,11054,10995
CQUADX4,10809,1,10995,11054,11055,10996
CQUADX4,10810,1,10996,11055,11056,10997
CQUADX4,10811,1,10997,11056,11057,10998
CQUADX4,10812,1,10998,11057,11058,10999
CQUADX4,10813,1,10999,11058,11059,11000
CQUADX4,10814,1,11000,11059,11060,11001
CQUADX4,10815,1,11001,11060,11061,11002
CQUADX4,10816,1,11002,11061,11062,11003
CQUADX4,10817,1,11003,11062,11063,11004
CQUADX4,10818,1,11004,11063,11064,11005
CQUADX4,10819,1,11005,11064,11065,11006
CQUADX4,10820,1,11006,11065,11066,11007
CQUADX4,10821,1,11007,11066,11067,11008
CQUADX4,10822,1,11008,11067,11068,11009
CQUADX4,10823,1,11009,11068,11069,11010
CQUADX4,10824,1,11010,11069,11070,11011
CQUADX4,10825,1,11011,11070,11071,11012
CQUADX4,10826,1,11012,11071,11072,11013
CQUADX4,10827,1,11013,11072,11073,11014
CQUADX4,10828,1,11014,11073,11074,11015
CQUADX4,10829,1,11015,11074,11075,11016
CQUADX4,10830,1,11016,11075,11076,11017
CQUADX4,10831,1,11017,11076,11077,11018
CQUADX4,10832,1,11018,11077,11078,11019
CQUADX4,10833,1,11019,11078,11079,11020
CQUADX4,10834,1,11020,11079,11080,11021
CQUADX4,10835,1,11021,11080,11081,11022
CQUADX4,10836,1,11022,11081,11082,11023
CQUADX4,10837,1,11023,11082,11083,11024
CQUADX4,10838,1,11024,11083,11084,11025
CQUADX4,10839,1,11025,11084,11085,11026
CQUADX4,10840,1,11026,11085,11086,11027
CQUADX4,10841,1,11027,11086,11087,11028
CQUADX4,10842,1,11028,11087,11088,11029
CQUADX4,10843,1,11029,11088,11089,11030
CQUADX4,10844,1,11030,11089,11090,11031
CQUADX4,10845,1,11031,11090,11091,11032
CQUADX4,10846,1,11032,11091,11092,11033
CQUADX4,10847,1,11034,11093,11094,11035
CQUADX4,10848,1,11035,11094,11095,11036
CQUADX4,10849,1,11036,11095,11096,11037
CQUADX4,10850,1,11037,11096,11097,11038
CQUADX4,10851,1,11038,11097,11098,11039
CQUADX4,10852,1,11039,11098,11099,11040
CQUADX4,10853,1,11040,11099,11100,11041
CQUADX4,10854,1,11041,11100,11101,11042
CQUADX4,10855,1,11042,11101,11102,11043
CQUADX4,10856,1,11043,11102,11103,11044
CQUADX4,10857,1,11044,11103,11104,11045
CQUADX4,10858,1,11045,11104,11105,11046
CQUADX4,10859,1,11046,11105,11106,11047
CQUADX4,10860,1,11047,11106,11107,11048
CQUADX4,10861,1,11048,11107,11108,11049
CQUADX4,10862,1,11049,11108,11109,11050
CQUADX4,10863,1,11050,11109,11110,11051
CQUADX4,10864,1,11051,11110,11111,11052
CQUADX4,10865,1,11052,11111,11112,11053
CQUADX4,10866,1,11053,11112,11113,11054
CQUADX4,10867,1,11054,11113,11114,11055
CQUADX4,10868,1,11055,11114,11115,11056
CQUADX4,10869,1,11056,11115,11116,11057
CQUADX4,10870,1,11057,11116,11117,11058
CQUADX4,10871,1,11058,11117,11118,11059
CQUADX4,10872,1,11059,11118,11119,11060
CQUADX4,10873,1,11060,11119,11120,11061
CQUADX4,10874,1,11061,11120,11121,11062
CQUADX4,10875,1,11062,11121,11122,11063
CQUADX4,10876,1,11063,11122,11123,11064
CQUADX4,10877,1,11064,11123,11124,11065
CQUADX4,10878,1,11065,11124,11125,11066
CQUADX4,10879,1,11066,11125,11126,11067
CQUADX4,10880,1,11067,11126,11127,11068
CQUADX4,10881,1,11068,11127,11128,11069
CQUADX4,10882,1,11069,11128,11129,11070
CQUADX4,10883,1,11070,11129,11130,11071
CQUADX4,10884,1,11071,11130,11131,11072
CQUADX4,10885,1,11072,11131,11132,11073
CQUADX4,10886,1,11073,11132,11133,11074
CQUADX4,10887,1,11074,11133,11134,11075
CQUADX4,10888,1,11075,11134,11135,11076
CQUADX4,10889,1,11076,11135,11136,11077
CQUADX4,10890,1,11077,11136,11137,11078
CQUADX4,10891,1,11078,11137,11138,11079
CQUADX4,10892,1,11079,11138,11139,11080
CQUADX4,10893,1,11080,11139,11140,11081
CQUADX4,10894,1,11081,11140,11141,11082
CQUADX4,10895,1,11082,11141,11142,11083
CQUADX4,10896,1,11083,11142,11143,11084
CQUADX4,10897,1,11084,11143,11144,11085
CQUADX4,10898,1,11085,11144,11145,11086
CQUADX4,10899,1,11086,11145,11146,11087
CQUADX4,10900,1,11087,11146,11147,11088
CQUADX4,10901,1,11088,11147,11148,11089
CQUADX4,10902,1,11089,11148,11149,11090
CQUADX4,10903,1,11090,11149,11150,11091
CQUADX4,10904,1,11091,11150,11151,11092
CQUADX4,10905,1,11093,11152,11153,11094
CQUADX4,10906,1,11094,11153,11154,11095
CQUADX4,10907,1,11095,11154,11155,11096
CQUADX4,10908,1,11096,11155,11156,11097
CQUADX4,10909,1,11097,11156,11157,11098
CQUADX4,10910,1,11098,11157,11158,11099
CQUADX4,10911,1,11099,11158,11159,11100
CQUADX4,10912,1,11100,11159,11160,11101
CQUADX4,10913,1,11101,11160,11161,11102
CQUADX4,10914,1,11102,11161,11162,11103
CQUADX4,10915,1,11103,11162,11163,11104
CQUADX4,10916,1,11104,11163,11164,11105
CQUADX4,10917,1,11105,11164,11165,11106
CQUADX4,10918,1,11106,11165,11166,11107
CQUADX4,10919,1,11107,11166,11167,11108
CQUADX4,10920,1,11108,11167,11168,11109
CQUADX4,10921,1,11109,11168,11169,11110
CQUADX4,10922,1,11110,11169,11170,11111
CQUADX4,10923,1,11111,11170,11171,11112
CQUADX4,10924,1,11112,11171,11172,11113
CQUADX4,10925,1,11113,11172,11173,11114
CQUADX4,10926,1,11114,11173,11174,11115
CQUADX4,10927,1,11115,11174,11175,11116
CQUADX4,10928,1,11116,11175,11176,11117
CQUADX4,10929,1,11117,11176,11177,11118
CQUADX4,10930,1,11118,11177,11178,11119
CQUADX4,10931,1,11119,11178,11179,11120
CQUADX4,10932,1,11120,11179,11180,11121
CQUADX4,10933,1,11121,11180,11181,11122
CQUADX4,10934,1,11122,11181,11182,11123
CQUADX4,10935,1,11123,11182,11183,11124
CQUADX4,10936,1,11124,11183,11184,11125
CQUADX4,10937,1,11125,11184,11185,11126
CQUADX4,10938,1,11126,11185,11186,11127
CQUADX4,10939,1,11127,11186,11187,11128
CQUADX4,10940,1,11128,11187,11188,11129
CQUADX4,10941,1,11129,11188,11189,11130
CQUADX4,10942,1,11130,11189,11190,11131
CQUADX4,10943,1,11131,11190,11191,11132
CQUADX4,10944,1,11132,11191,11192,11133
CQUADX4,10945,1,11133,11192,11193,11134
CQUADX4,10946,1,11134,11193,11194,11135
CQUADX4,10947,1,11135,11194,11195,11136
CQUADX4,10948,1,11136,11195,11196,11137
CQUADX4,10949,1,11137,11196,11197,11138
CQUADX4,10950,1,11138,11197,11198,11139
CQUADX4,10951,1,11139,11198,11199,11140
CQUADX4,10952,1,11140,11199,11200,11141
CQUADX4,10953,1,11141,11200,11201,11142
CQUADX4,10954,1,11142,11201,11202,11143
CQUADX4,10955,1,11143,11202,11203,11144
CQUADX4,10956,1,11144,11203,11204,11145
CQUADX4,10957,1,11145,11204,11205,11146
CQUADX4,10958,1,11146,11205,11206,11147
CQUADX4,10959,1,11147,11206,11207,11148
CQUADX4,10960,1,11148,11207,11208,11149
CQUADX4,10961,1,11149,11208,11209,11150
CQUADX4,10962,1,11150,11209,11210,11151
CQUADX4,10963,1,11152,11211,11212,11153
CQUADX4,10964,1,11153,11212,11213,11154
CQUADX4,10965,1,11154,11213,11214,11155
CQUADX4,10966,1,11155,11214,11215,11156
CQUADX4,10967,1,11156,11215,11216,11157
CQUADX4,10968,1,11157,11216,11217,11158
CQUADX4,10969,1,11158,11217,11218,11159
CQUADX4,10970,1,11159,11218,11219,11160
CQUADX4,10971,1,11160,11219,11220,11161
CQUADX4,10972,1,11161,11220,11221,11162
CQUADX4,10973,1,11162,11221,11222,11163
CQUADX4,10974,1,11163,11222,11223,11164
CQUADX4,10975,1,11164,11223,11224,11165
CQUADX4,10976,1,11165,11224,11225,11166
CQUADX4,10977,1,11166,11225,11226,11167
CQUADX4,10978,1,11167,11226,11227,11168
CQUADX4,10979,1,11168,11227,11228,11169
CQUADX4,10980,1,11169,11228,11229,11170
CQUADX4,10981,1,11170,11229,11230,11171
CQUADX4,10982,1,11171,11230,11231,11172
CQUADX4,10983,1,11172,11231,11232,11173
CQUADX4,10984,1,11173,11232,11233,11174
CQUADX4,10985,1,11174,11233,11234,11175
CQUADX4,10986,1,11175,11234,11235,11176
CQUADX4,10987,1,11176,11235,11236,11177
CQUADX4,10988,1,11177,11236,11237,11178
CQUADX4,10989,1,11178,11237,11238,11179
CQUADX4,10990,1,11179,11238,11239,11180
CQUADX4,10991,1,11180,11239,11240,11181
CQUADX4,10992,1,11181,11240,11241,11182
CQUADX4,10993,1,11182,11241,11242,11183
CQUADX4,10994,1,11183,11242,11243,11184
CQUADX4,10995,1,11184,11243,11244,11185
CQUADX4,10996,1,11185,11244,11245,11186
CQUADX4,10997,1,11186,11245,11246,11187
CQUADX4,10998,1,11187,11246,11247,11188
CQUADX4,10999,1,11188,11247,11248,11189
CQUADX4,11000,1,11189,11248,11249,11190
CQUADX4,11001,1,11190,11249,11250,11191
CQUADX4,11002,1,11191,11250,11251,11192
CQUADX4,11003,1,11192,11251,11252,11193
CQUADX4,11004,1,11193,11252,11253,11194
CQUADX4,11005,1,11194,11253,11254,11195
CQUADX4,11006,1,11195,11254,11255,11196
CQUADX4,11007,1,11196,11255,11256,11197
CQUADX4,11008,1,11197,11256,11257,11198
CQUADX4,11009,1,11198,11257,11258,11199
CQUADX4,11010,1,11199,11258,11259,11200
CQUADX4,11011,1,11200,11259,11260,11201
CQUADX4,11012,1,11201,11260,11261,11202
CQUADX4,11013,1,11202,11261,11262,11203
CQUADX4,11014,1,11203,11262,11263,11204
CQUADX4,11015,1,11204,11263,11264,11205
CQUADX4,11016,1,11205,11264,11265,11206
CQUADX4,11017,1,11206,11265,11266,11207
CQUADX4,11018,1,11207,11266,11267,11208
CQUADX4,11019,1,11208,11267,11268,11209
CQUADX4,11020,1,11209,11268,11269,11210
CQUADX4,11021,1,11211,11270,11271,11212
CQUADX4,11022,1,11212,11271,11272,11213
CQUADX4,11023,1,11213,11272,11273,11214
CQUADX4,11024,1,11214,11273,11274,11215
CQUADX4,11025,1,11215,11274,11275,11216
CQUADX4,11026,1,11216,11275,11276,11217
CQUADX4,11027,1,11217,11276,11277,11218
CQUADX4,11028,1,11218,11277,11278,11219
CQUADX4,11029,1,11219,11278,11279,11220
CQUADX4,11030,1,11220,11279,11280,11221
CQUADX4,11031,1,11221,11280,11281,11222
CQUADX4,11032,1,11222,11281,11282,11223
CQUADX4,11033,1,11223,11282,11283,11224
CQUADX4,11034,1,11224,11283,11284,11225
CQUADX4,11035,1,11225,11284,11285,11226
CQUADX4,11036,1,11226,11285,11286,11227
CQUADX4,11037,1,11227,11286,11287,11228
CQUADX4,11038,1,11228,11287,11288,11229
CQUADX4,11039,1,11229,11288,11289,11230
CQUADX4,11040,1,11230,11289,11290,11231
CQUADX4,11041,1,11231,11290,11291,11232
CQUADX4,11042,1,11232,11291,11292,11233
CQUADX4,11043,1,11233,11292,11293,11234
CQUADX4,11044,1,11234,11293,11294,11235
CQUADX4,11045,1,11235,11294,11295,11236
CQUADX4,11046,1,11236,11295,11296,11237
CQUADX4,11047,1,11237,11296,11297,11238
CQUADX4,11048,1,11238,11297,11298,11239
CQUADX4,11049,1,11239,11298,11299,11240
CQUADX4,11050,1,11240,11299,11300,11241
CQUADX4,11051,1,11241,11300,11301,11242
CQUADX4,11052,1,11242,11301,11302,11243
CQUADX4,11053,1,11243,11302,11303,11244
CQUADX4,11054,1,11244,11303,11304,11245
CQUADX4,11055,1,11245,11304,11305,11246
CQUADX4,11056,1,11246,11305,11306,11247
CQUADX4,11057,1,11247,11306,11307,11248
CQUADX4,11058,1,11248,11307,11308,11249
CQUADX4,11059,1,11249,11308,11309,11250
CQUADX4,11060,1,11250,11309,11310,11251
CQUADX4,11061,1,11251,11310,11311,11252
CQUADX4,11062,1,11252,11311,11312,11253
CQUADX4,11063,1,11253,11312,11313,11254
CQUADX4,11064,1,11254,11313,11314,11255
CQUADX4,11065,1,11255,11314,11315,11256
CQUADX4,11066,1,11256,11315,11316,11257
CQUADX4,11067,1,11257,11316,11317,11258
CQUADX4,11068,1,11258,11317,11318,11259
CQUADX4,11069,1,11259,11318,11319,11260
CQUADX4,11070,1,11260,11319,11320,11261
CQUADX4,11071,1,11261,11320,11321,11262
CQUADX4,11072,1,11262,11321,11322,11263
CQUADX4,11073,1,11263,11322,11323,11264
CQUADX4,11074,1,11264,11323,11324,11265
CQUADX4,11075,1,11265,11324,11325,11266
CQUADX4,11076,1,11266,11325,11326,11267
CQUADX4,11077,1,11267,11326,11327,11268
CQUADX4,11078,1,11268,11327,11328,11269
CQUADX4,11079,1,11270,11329,11330,11271
CQUADX4,11080,1,11271,11330,11331,11272
CQUADX4,11081,1,11272,11331,11332,11273
CQUADX4,11082,1,11273,11332,11333,11274
CQUADX4,11083,1,11274,11333,11334,11275
CQUADX4,11084,1,11275,11334,11335,11276
CQUADX4,11085,1,11276,11335,11336,11277
CQUADX4,11086,1,11277,11336,11337,11278
CQUADX4,11087,1,11278,11337,11338,11279
CQUADX4,11088,1,11279,11338,11339,11280
CQUADX4,11089,1,11280,11339,11340,11281
CQUADX4,11090,1,11281,11340,11341,11282
CQUADX4,11091,1,11282,11341,11342,11283
CQUADX4,11092,1,11283,11342,11343,11284
CQUADX4,11093,1,11284,11343,11344,11285
CQUADX4,11094,1,11285,11344,11345,11286
CQUADX4,11095,1,11286,11345,11346,11287
CQUADX4,11096,1,11287,11346,11347,11288
CQUADX4,11097,1,11288,11347,11348,11289
CQUADX4,11098,1,11289,11348,11349,11290
CQUADX4,11099,1,11290,11349,11350,11291
CQUADX4,11100,1,11291,11350,11351,11292
CQUADX4,11101,1,11292,11351,11352,11293
CQUADX4,11102,1,11293,11352,11353,11294
CQUADX4,11103,1,11294,11353,11354,11295
CQUADX4,11104,1,11295,11354,11355,11296
CQUADX4,11105,1,11296,11355,11356,11297
CQUADX4,11106,1,11297,11356,11357,11298
CQUADX4,11107,1,11298,11357,11358,11299
CQUADX4,11108,1,11299,11358,11359,11300
CQUADX4,11109,1,11300,11359,11360,11301
CQUADX4,11110,1,11301,11360,11361,11302
CQUADX4,11111,1,11302,11361,11362,11303
CQUADX4,11112,1,11303,11362,11363,11304
CQUADX4,11113,1,11304,11363,11364,11305
CQUADX4,11114,1,11305,11364,11365,11306
CQUADX4,11115,1,11306,11365,11366,11307
CQUADX4,11116,1,11307,11366,11367,11308
CQUADX4,11117,1,11308,11367,11368,11309
CQUADX4,11118,1,11309,11368,11369,11310
CQUADX4,11119,1,11310,11369,11370,11311
CQUADX4,11120,1,11311,11370,11371,11312
CQUADX4,11121,1,11312,11371,11372,11313
CQUADX4,11122,1,11313,11372,11373,11314
CQUADX4,11123,1,11314,11373,11374,11315
CQUADX4,11124,1,11315,11374,11375,11316
CQUADX4,11125,1,11316,11375,11376,11317
CQUADX4,11126,1,11317,11376,11377,11318
CQUADX4,11127,1,11318,11377,11378,11319
CQUADX4,11128,1,11319,11378,11379,11320
CQUADX4,11129,1,11320,11379,11380,11321
CQUADX4,11130,1,11321,11380,11381,11322
CQUADX4,11131,1,11322,11381,11382,11323
CQUADX4,11132,1,11323,11382,11383,11324
CQUADX4,11133,1,11324,11383,11384,11325
CQUADX4,11134,1,11325,11384,11385,11326
CQUADX4,11135,1,11326,11385,11386,11327
CQUADX4,11136,1,11327,11386,11387,11328
CQUADX4,11137,1,11329,11388,11389,11330
CQUADX4,11138,1,11330,11389,11390,11331
CQUADX4,11139,1,11331,11390,11391,11332
CQUADX4,11140,1,11332,11391,11392,11333
CQUADX4,11141,1,11333,11392,11393,11334
CQUADX4,11142,1,11334,11393,11394,11335
CQUADX4,11143,1,11335,11394,11395,11336
CQUADX4,11144,1,11336,11395,11396,11337
CQUADX4,11145,1,11337,11396,11397,11338
CQUADX4,11146,1,11338,11397,11398,11339
CQUADX4,11147,1,11339,11398,11399,11340
CQUADX4,11148,1,11340,11399,11400,11341
CQUADX4,11149,1,11341,11400,11401,11342
CQUADX4,11150,1,11342,11401,11402,11343
CQUADX4,11151,1,11343,11402,11403,11344
CQUADX4,11152,1,11344,11403,11404,11345
CQUADX4,11153,1,11345,11404,11405,11346
CQUADX4,11154,1,11346,11405,11406,11347
CQUADX4,11155,1,11347,11406,11407,11348
CQUADX4,11156,1,11348,11407,11408,11349
CQUADX4,11157,1,11349,11408,11409,11350
CQUADX4,11158,1,11350,11409,11410,11351
CQUADX4,11159,1,11351,11410,11411,11352
CQUADX4,11160,1,11352,11411,11412,11353
CQUADX4,11161,1,11353,11412,11413,11354
CQUADX4,11162,1,11354,11413,11414,11355
CQUADX4,11163,1,11355,11414,11415,11356
CQUADX4,11164,1,11356,11415,11416,11357
CQUADX4,11165,1,11357,11416,11417,11358
CQUADX4,11166,1,11358,11417,11418,11359
CQUADX4,11167,1,11359,11418,11419,11360
CQUADX4,11168,1,11360,11419,11420,11361
CQUADX4,11169,1,11361,11420,11421,11362
CQUADX4,11170,1,11362,11421,11422,11363
CQUADX4,11171,1,11363,11422,11423,11364
CQUADX4,11172,1,11364,11423,11424,11365
CQUADX4,11173,1,11365,11424,11425,11366
CQUADX4,11174,1,11366,11425,11426,11367
CQUADX4,11175,1,11367,11426,11427,11368
CQUADX4,11176,1,11368,11427,11428,11369
CQUADX4,11177,1,11369,11428,11429,11370
CQUADX4,11178,1,11370,11429,11430,11371
CQUADX4,11179,1,11371,11430,11431,11372
CQUADX4,11180,1,11372,11431,11432,11373
CQUADX4,11181,1,11373,11432,11433,11374
CQUADX4,11182,1,11374,11433,11434,11375
CQUADX4,11183,1,11375,11434,11435,11376
CQUADX4,11184,1,11376,11435,11436,11377
CQUADX4,11185,1,11377,11436,11437,11378
CQUADX4,11186,1,11378,11437,11438,11379
CQUADX4,11187,1,11379,11438,11439,11380
CQUADX4,11188,1,11380,11439,11440,11381
CQUADX4,11189,1,11381,11440,11441,11382
CQUADX4,11190,1,11382,11441,11442,11383
CQUADX4,11191,1,11383,11442,11443,11384
CQUADX4,11192,1,11384,11443,11444,11385
CQUADX4,11193,1,11385,11444,11445,11386
CQUADX4,11194,1,11386,11445,11446,11387
CQUADX4,11195,1,11388,11447,11448,11389
CQUADX4,11196,1,11389,11448,11449,11390
CQUADX4,11197,1,11390,11449,11450,11391
CQUADX4,11198,1,11391,11450,11451,11392
CQUADX4,11199,1,11392,11451,11452,11393
CQUADX4,11200,1,11393,11452,11453,11394
CQUADX4,11201,1,11394,11453,11454,11395
CQUADX4,11202,1,11395,11454,11455,11396
CQUADX4,11203,1,11396,11455,11456,11397
CQUADX4,11204,1,11397,11456,11457,11398
CQUADX4,11205,1,11398,11457,11458,11399
CQUADX4,11206,1,11399,11458,11459,11400
CQUADX4,11207,1,11400,11459,11460,11401
CQUADX4,11208,1,11401,11460,11461,11402
CQUADX4,11209,1,11402,11461,11462,11403
CQUADX4,11210,1,11403,11462,11463,11404
CQUADX4,11211,1,11404,11463,11464,11405
CQUADX4,11212,1,11405,11464,11465,11406
CQUADX4,11213,1,11406,11465,11466,11407
CQUADX4,11214,1,11407,11466,11467,11408
CQUADX4,11215,1,11408,11467,11468,11409
CQUADX4,11216,1,11409,11468,11469,11410
CQUADX4,11217,1,11410,11469,11470,11411
CQUADX4,11218,1,11411,11470,11471,11412
CQUADX4,11219,1,11412,11471,11472,11413
CQUADX4,11220,1,11413,11472,11473,11414
CQUADX4,11221,1,11414,11473,11474,11415
CQUADX4,11222,1,11415,11474,11475,11416
CQUADX4,11223,1,11416,11475,11476,11417
CQUADX4,11224,1,11417,11476,11477,11418
CQUADX4,11225,1,11418,11477,11478,11419
CQUADX4,11226,1,11419,11478,11479,11420
CQUADX4,11227,1,11420,11479,11480,11421
CQUADX4,11228,1,11421,11480,11481,11422
CQUADX4,11229,1,11422,11481,11482,11423
CQUADX4,11230,1,11423,11482,11483,11424
CQUADX4,11231,1,11424,11483,11484,11425
CQUADX4,11232,1,11425,11484,11485,11426
CQUADX4,11233,1,11426,11485,11486,11427
CQUADX4,11234,1,11427,11486,11487,11428
CQUADX4,11235,1,11428,11487,11488,11429
CQUADX4,11236,1,11429,11488,11489,11430
CQUADX4,11237,1,11430,11489,11490,11431
CQUADX4,11238,1,11431,11490,11491,11432
CQUADX4,11239,1,11432,11491,11492,11433
CQUADX4,11240,1,11433,11492,11493,11434
CQUADX4,11241,1,11434,11493,11494,11435
CQUADX4,11242,1,11435,11494,11495,11436
CQUADX4,11243,1,11436,11495,11496,11437
CQUADX4,11244,1,11437,11496,11497,11438
CQUADX4,11245,1,11438,11497,11498,11439
CQUADX4,11246,1,11439,11498,11499,11440
CQUADX4,11247,1,11440,11499,11500,11441
CQUADX4,11248,1,11441,11500,11501,11442
CQUADX4,11249,1,11442,11501,11502,11443
CQUADX4,11250,1,11443,11502,11503,11444
CQUADX4,11251,1,11444,11503,11504,11445
CQUADX4,11252,1,11445,11504,11505,11446
CQUADX4,11253,1,11447,11506,11507,11448
CQUADX4,11254,1,11448,11507,11508,11449
CQUADX4,11255,1,11449,11508,11509,11450
CQUADX4,11256,1,11450,11509,11510,11451
CQUADX4,11257,1,11451,11510,11511,11452
CQUADX4,11258,1,11452,11511,11512,11453
CQUADX4,11259,1,11453,11512,11513,11454
CQUADX4,11260,1,11454,11513,11514,11455
CQUADX4,11261,1,11455,11514,11515,11456
CQUADX4,11262,1,11456,11515,11516,11457
CQUADX4,11263,1,11457,11516,11517,11458
CQUADX4,11264,1,11458,11517,11518,11459
CQUADX4,11265,1,11459,11518,11519,11460
CQUADX4,11266,1,11460,11519,11520,11461
CQUADX4,11267,1,11461,11520,11521,11462
CQUADX4,11268,1,11462,11521,11522,11463
CQUADX4,11269,1,11463,11522,11523,11464
CQUADX4,11270,1,11464,11523,11524,11465
CQUADX4,11271,1,11465,11524,11525,11466
CQUADX4,11272,1,11466,11525,11526,11467
CQUADX4,11273,1,11467,11526,11527,11468
CQUADX4,11274,1,11468,11527,11528,11469
CQUADX4,11275,1,11469,11528,11529,11470
CQUADX4,11276,1,11470,11529,11530,11471
CQUADX4,11277,1,11471,11530,11531,11472
CQUADX4,11278,1,11472,11531,11532,11473
CQUADX4,11279,1,11473,11532,11533,11474
CQUADX4,11280,1,11474,11533,11534,11475
CQUADX4,11281,1,11475,11534,11535,11476
CQUADX4,11282,1,11476,11535,11536,11477
CQUADX4,11283,1,11477,11536,11537,11478
CQUADX4,11284,1,11478,11537,11538,11479
CQUADX4,11285,1,11479,11538,11539,11480
CQUADX4,11286,1,11480,11539,11540,11481
CQUADX4,11287,1,11481,11540,11541,11482
CQUADX4,11288,1,11482,11541,11542,11483
CQUADX4,11289,1,11483,11542,11543,11484
CQUADX4,11290,1,11484,11543,11544,11485
CQUADX4,11291,1,11485,11544,11545,11486
CQUADX4,11292,1,11486,11545,11546,11487
CQUADX4,11293,1,11487,11546,11547,11488
CQUADX4,11294,1,11488,11547,11548,11489
CQUADX4,11295,1,11489,11548,11549,11490
CQUADX4,11296,1,11490,11549,11550,11491
CQUADX4,11297,1,11491,11550,11551,11492
CQUADX4,11298,1,11492,11551,11552,11493
CQUADX4,11299,1,11493,11552,11553,11494
CQUADX4,11300,1,11494,11553,11554,11495
CQUADX4,11301,1,11495,11554,11555,11496
CQUADX4,11302,1,11496,11555,11556,11497
CQUADX4,11303,1,11497,11556,11557,11498
CQUADX4,11304,1,11498,11557,11558,11499
CQUADX4,11305,1,11499,11558,11559,11500
CQUADX4,11306,1,11500,11559,11560,11501
CQUADX4,11307,1,11501,11560,11561,11502
CQUADX4,11308,1,11502,11561,11562,11503
CQUADX4,11309,1,11503,11562,11563,11504
CQUADX4,11310,1,11504,11563,11564,11505
CQUADX4,11311,1,11506,11565,11566,11507
CQUADX4,11312,1,11507,11566,11567,11508
CQUADX4,11313,1,11508,11567,11568,11509
CQUADX4,11314,1,11509,11568,11569,11510
CQUADX4,11315,1,11510,11569,11570,11511
CQUADX4,11316,1,11511,11570,11571,11512
CQUADX4,11317,1,11512,11571,11572,11513
CQUADX4,11318,1,11513,11572,11573,11514
CQUADX4,11319,1,11514,11573,11574,11515
CQUADX4,11320,1,11515,11574,11575,11516
CQUADX4,11321,1,11516,11575,11576,11517
CQUADX4,11322,1,11517,11576,11577,11518
CQUADX4,11323,1,11518,11577,11578,11519
CQUADX4,11324,1,11519,11578,11579,11520
CQUADX4,11325,1,11520,11579,11580,11521
CQUADX4,11326,1,11521,11580,11581,11522
CQUADX4,11327,1,11522,11581,11582,11523
CQUADX4,11328,1,11523,11582,11583,11524
CQUADX4,11329,1,11524,11583,11584,11525
CQUADX4,11330,1,11525,11584,11585,11526
CQUADX4,11331,1,11526,11585,11586,11527
CQUADX4,11332,1,11527,11586,11587,11528
CQUADX4,11333,1,11528,11587,11588,11529
CQUADX4,11334,1,11529,11588,11589,11530
CQUADX4,11335,1,11530,11589,11590,11531
CQUADX4,11336,1,11531,11590,11591,11532
CQUADX4,11337,1,11532,11591,11592,11533
CQUADX4,11338,1,11533,11592,11593,11534
CQUADX4,11339,1,11534,11593,11594,11535
CQUADX4,11340,1,11535,11594,11595,11536
CQUADX4,11341,1,11536,11595,11596,11537
CQUADX4,11342,1,11537,11596,11597,11538
CQUADX4,11343,1,11538,11597,11598,11539
CQUADX4,11344,1,11539,11598,11599,11540
CQUADX4,11345,1,11540,11599,11600,11541
CQUADX4,11346,1,11541,11600,11601,11542
CQUADX4,11347,1,11542,11601,11602,11543
CQUADX4,11348,1,11543,11602,11603,11544
CQUADX4,11349,1,11544,11603,11604,11545
CQUADX4,11350,1,11545,11604,11605,11546
CQUADX4,11351,1,11546,11605,11606,11547
CQUADX4,11352,1,11547,11606,11607,11548
CQUADX4,11353,1,11548,11607,11608,11549
CQUADX4,11354,1,11549,11608,11609,11550
CQUADX4,11355,1,11550,11609,11610,11551
CQUADX4,11356,1,11551,11610,11611,11552
CQUADX4,11357,1,11552,11611,11612,11553
CQUADX4,11358,1,11553,11612,11613,11554
CQUADX4,11359,1,11554,11613,11614,11555
CQUADX4,11360,1,11555,11614,11615,11556
CQUADX4,11361,1,11556,11615,11616,11557
CQUADX4,11362,1,11557,11616,11617,11558
CQUADX4,11363,1,11558,11617,11618,11559
CQUADX4,11364,1,11559,11618,11619,11560
CQUADX4,11365,1,11560,11619,11620,11561
CQUADX4,11366,1,11561,11620,11621,11562
CQUADX4,11367,1,11562,11621,11622,11563
CQUADX4,11368,1,11563,11622,11623,11564
CQUADX4,11369,1,11565,11624,11625,11566
CQUADX4,11370,1,11566,11625,11626,11567
CQUADX4,11371,1,11567,11626,11627,11568
CQUADX4,11372,1,11568,11627,11628,11569
CQUADX4,11373,1,11569,11628,11629,11570
CQUADX4,11374,1,11570,11629,11630,11571
CQUADX4,11375,1,11571,11630,11631,11572
CQUADX4,11376,1,11572,11631,11632,11573
CQUADX4,11377,1,11573,11632,11633,11574
CQUADX4,11378,1,11574,11633,11634,11575
CQUADX4,11379,1,11575,11634,11635,11576
CQUADX4,11380,1,11576,11635,11636,11577
CQUADX4,11381,1,11577,11636,11637,11578
CQUADX4,11382,1,11578,11637,11638,11579
CQUADX4,11383,1,11579,11638,11639,11580
CQUADX4,11384,1,11580,11639,11640,11581
CQUADX4,11385,1,11581,11640,11641,11582
CQUADX4,11386,1,11582,11641,11642,11583
CQUADX4,11387,1,11583,11642,11643,11584
CQUADX4,11388,1,11584,11643,11644,11585
CQUADX4,11389,1,11585,11644,11645,11586
CQUADX4,11390,1,11586,11645,11646,11587
CQUADX4,11391,1,11587,11646,11647,11588
CQUADX4,11392,1,11588,11647,11648,11589
CQUADX4,11393,1,11589,11648,11649,11590
CQUADX4,11394,1,11590,11649,11650,11591
CQUADX4,11395,1,11591,11650,11651,11592
CQUADX4,11396,1,11592,11651,11652,11593
CQUADX4,11397,1,11593,11652,11653,11594
CQUADX4,11398,1,11594,11653,11654,11595
CQUADX4,11399,1,11595,11654,11655,11596
CQUADX4,11400,1,11596,11655,11656,11597
CQUADX4,11401,1,11597,11656,11657,11598
CQUADX4,11402,1,11598,11657,11658,11599
CQUADX4,11403,1,11599,11658,11659,11600
CQUADX4,11404,1,11600,11659,11660,11601
CQUADX4,11405,1,11601,11660,11661,11602
CQUADX4,11406,1,11602,11661,11662,11603
CQUADX4,11407,1,11603,11662,11663,11604
CQUADX4,11408,1,11604,11663,11664,11605
CQUADX4,11409,1,11605,11664,11665,11606
CQUADX4,11410,1,11606,11665,11666,11607
CQUADX4,11411,1,11607,11666,11667,11608
CQUADX4,11412,1,11608,11667,11668,11609
CQUADX4,11413,1,11609,11668,11669,11610
CQUADX4,11414,1,11610,11669,11670,11611
CQUADX4,11415,1,11611,11670,11671,11612
CQUADX4,11416,1,11612,11671,11672,11613
CQUADX4,11417,1,11613,11672,11673,11614
CQUADX4,11418,1,11614,11673,11674,11615
CQUADX4,11419,1,11615,11674,11675,11616
CQUADX4,11420,1,11616,11675,11676,11617
CQUADX4,11421,1,11617,11676,11677,11618
CQUADX4,11422,1,11618,11677,11678,11619
CQUADX4,11423,1,11619,11678,11679,11620
CQUADX4,11424,1,11620,11679,11680,11621
CQUADX4,11425,1,11621,11680,11681,11622
CQUADX4,11426,1,11622,11681,11682,11623
CQUADX4,11427,1,11624,11683,11684,11625
CQUADX4,11428,1,11625,11684,11685,11626
CQUADX4,11429,1,11626,11685,11686,11627
CQUADX4,11430,1,11627,11686,11687,11628
CQUADX4,11431,1,11628,11687,11688,11629
CQUADX4,11432,1,11629,11688,11689,11630
CQUADX4,11433,1,11630,11689,11690,11631
CQUADX4,11434,1,11631,11690,11691,11632
CQUADX4,11435,1,11632,11691,11692,11633
CQUADX4,11436,1,11633,11692,11693,11634
CQUADX4,11437,1,11634,11693,11694,11635
CQUADX4,11438,1,11635,11694,11695,11636
CQUADX4,11439,1,11636,11695,11696,11637
CQUADX4,11440,1,11637,11696,11697,11638
CQUADX4,11441,1,11638,11697,11698,11639
CQUADX4,11442,1,11639,11698,11699,11640
CQUADX4,11443,1,11640,11699,11700,11641
CQUADX4,11444,1,11641,11700,11701,11642
CQUADX4,11445,1,11642,11701,11702,11643
CQUADX4,11446,1,11643,11702,11703,11644
CQUADX4,11447,1,11644,11703,11704,11645
CQUADX4,11448,1,11645,11704,11705,11646
CQUADX4,11449,1,11646,11705,11706,11647
CQUADX4,11450,1,11647,11706,11707,11648
CQUADX4,11451,1,11648,11707,11708,11649
CQUADX4,11452,1,11649,11708,11709,11650
CQUADX4,11453,1,11650,11709,11710,11651
CQUADX4,11454,1,11651,11710,11711,11652
CQUADX4,11455,1,11652,11711,11712,11653
CQUADX4,11456,1,11653,11712,11713,11654
CQUADX4,11457,1,11654,11713,11714,11655
CQUADX4,11458,1,11655,11714,11715,11656
CQUADX4,11459,1,11656,11715,11716,11657
CQUADX4,11460,1,11657,11716,11717,11658
CQUADX4,11461,1,11658,11717,11718,11659
CQUADX4,11462,1,11659,11718,11719,11660
CQUADX4,11463,1,11660,11719,11720,11661
CQUADX4,11464,1,11661,11720,11721,11662
CQUADX4,11465,1,11662,11721,11722,11663
CQUADX4,11466,1,11663,11722,11723,11664
CQUADX4,11467,1,11664,11723,11724,11665
CQUADX4,11468,1,11665,11724,11725,11666
CQUADX4,11469,1,11666,11725,11726,11667
CQUADX4,11470,1,11667,11726,11727,11668
CQUADX4,11471,1,11668,11727,11728,11669
CQUADX4,11472,1,11669,11728,11729,11670
CQUADX4,11473,1,11670,11729,11730,11671
CQUADX4,11474,1,11671,11730,11731,11672
CQUADX4,11475,1,11672,11731,11732,11673
CQUADX4,11476,1,11673,11732,11733,11674
CQUADX4,11477,1,11674,11733,11734,11675
CQUADX4,11478,1,11675,11734,11735,11676
CQUADX4,11479,1,11676,11735,11736,11677
CQUADX4,11480,1,11677,11736,11737,11678
CQUADX4,11481,1,11678,11737,11738,11679
CQUADX4,11482,1,11679,11738,11739,11680
CQUADX4,11483,1,11680,11739,11740,11681
CQUADX4,11484,1,11681,11740,11741,11682
CQUADX4,11485,1,11683,11742,11743,11684
CQUADX4,11486,1,11684,11743,11744,11685
CQUADX4,11487,1,11685,11744,11745,11686
CQUADX4,11488,1,11686,11745,11746,11687
CQUADX4,11489,1,11687,11746,11747,11688
CQUADX4,11490,1,11688,11747,11748,11689
CQUADX4,11491,1,11689,11748,11749,11690
CQUADX4,11492,1,11690,11749,11750,11691
CQUADX4,11493,1,11691,11750,11751,11692
CQUADX4,11494,1,11692,11751,11752,11693
CQUADX4,11495,1,11693,11752,11753,11694
CQUADX4,11496,1,11694,11753,11754,11695
CQUADX4,11497,1,11695,11754,11755,11696
CQUADX4,11498,1,11696,11755,11756,11697
CQUADX4,11499,1,11697,11756,11757,11698
CQUADX4,11500,1,11698,11757,11758,11699
CQUADX4,11501,1,11699,11758,11759,11700
CQUADX4,11502,1,11700,11759,11760,11701
CQUADX4,11503,1,11701,11760,11761,11702
CQUADX4,11504,1,11702,11761,11762,11703
CQUADX4,11505,1,11703,11762,11763,11704
CQUADX4,11506,1,11704,11763,11764,11705
CQUADX4,11507,1,11705,11764,11765,11706
CQUADX4,11508,1,11706,11765,11766,11707
CQUADX4,11509,1,11707,11766,11767,11708
CQUADX4,11510,1,11708,11767,11768,11709
CQUADX4,11511,1,11709,11768,11769,11710
CQUADX4,11512,1,11710,11769,11770,11711
CQUADX4,11513,1,11711,11770,11771,11712
CQUADX4,11514,1,11712,11771,11772,11713
CQUADX4,11515,1,11713,11772,11773,11714
CQUADX4,11516,1,11714,11773,11774,11715
CQUADX4,11517,1,11715,11774,11775,11716
CQUADX4,11518,1,11716,11775,11776,11717
CQUADX4,11519,1,11717,11776,11777,11718
CQUADX4,11520,1,11718,11777,11778,11719
CQUADX4,11521,1,11719,11778,11779,11720
CQUADX4,11522,1,11720,11779,11780,11721
CQUADX4,11523,1,11721,11780,11781,11722
CQUADX4,11524,1,11722,11781,11782,11723
CQUADX4,11525,1,11723,11782,11783,11724
CQUADX4,11526,1,11724,11783,11784,11725
CQUADX4,11527,1,11725,11784,11785,11726
CQUADX4,11528,1,11726,11785,11786,11727
CQUADX4,11529,1,11727,11786,11787,11728
CQUADX4,11530,1,11728,11787,11788,11729
CQUADX4,11531,1,11729,11788,11789,11730
CQUADX4,11532,1,11730,11789,11790,11731
CQUADX4,11533,1,11731,11790,11791,11732
CQUADX4,11534,1,11732,11791,11792,11733
CQUADX4,11535,1,11733,11792,11793,11734
CQUADX4,11536,1,11734,11793,11794,11735
CQUADX4,11537,1,11735,11794,11795,11736
CQUADX4,11538,1,11736,11795,11796,11737
CQUADX4,11539,1,11737,11796,11797,11738
CQUADX4,11540,1,11738,11797,11798,11739
CQUADX4,11541,1,11739,11798,11799,11740
CQUADX4,11542,1,11740,11799,11800,11741
CQUADX4,11543,1,11742,11801,11802,11743
CQUADX4,11544,1,11743,11802,11803,11744
CQUADX4,11545,1,11744,11803,11804,11745
CQUADX4,11546,1,11745,11804,11805,11746
CQUADX4,11547,1,11746,11805,11806,11747
CQUADX4,11548,1,11747,11806,11807,11748
CQUADX4,11549,1,11748,11807,11808,11749
CQUADX4,11550,1,11749,11808,11809,11750
CQUADX4,11551,1,11750,11809,11810,11751
CQUADX4,11552,1,11751,11810,11811,11752
CQUADX4,11553,1,11752,11811,11812,11753
CQUADX4,11554,1,11753,11812,11813,11754
CQUADX4,11555,1,11754,11813,11814,11755
CQUADX4,11556,1,11755,11814,11815,11756
CQUADX4,11557,1,11756,11815,11816,11757
CQUADX4,11558,1,11757,11816,11817,11758
CQUADX4,11559,1,11758,11817,11818,11759
CQUADX4,11560,1,11759,11818,11819,11760
CQUADX4,11561,1,11760,11819,11820,11761
CQUADX4,11562,1,11761,11820,11821,11762
CQUADX4,11563,1,11762,11821,11822,11763
CQUADX4,11564,1,11763,11822,11823,11764
CQUADX4,11565,1,11764,11823,11824,11765
CQUADX4,11566,1,11765,11824,11825,11766
CQUADX4,11567,1,11766,11825,11826,11767
CQUADX4,11568,1,11767,11826,11827,11768
CQUADX4,11569,1,11768,11827,11828,11769
CQUADX4,11570,1,11769,11828,11829,11770
CQUADX4,11571,1,11770,11829,11830,11771
CQUADX4,11572,1,11771,11830,11831,11772
CQUADX4,11573,1,11772,11831,11832,11773
CQUADX4,11574,1,11773,11832,11833,11774
CQUADX4,11575,1,11774,11833,11834,11775
CQUADX4,11576,1,11775,11834,11835,11776
CQUADX4,11577,1,11776,11835,11836,11777
CQUADX4,11578,1,11777,11836,11837,11778
CQUADX4,11579,1,11778,11837,11838,11779
CQUADX4,11580,1,11779,11838,11839,11780
CQUADX4,11581,1,11780,11839,11840,11781
CQUADX4,11582,1,11781,11840,11841,11782
CQUADX4,11583,1,11782,11841,11842,11783
CQUADX4,11584,1,11783,11842,11843,11784
CQUADX4,11585,1,11784,11843,11844,11785
CQUADX4,11586,1,11785,11844,11845,11786
CQUADX4,11587,1,11786,11845,11846,11787
CQUADX4,11588,1,11787,11846,11847,11788
CQUADX4,11589,1,11788,11847,11848,11789
CQUADX4,11590,1,11789,11848,11849,11790
CQUADX4,11591,1,11790,11849,11850,11791
CQUADX4,11592,1,11791,11850,11851,11792
CQUADX4,11593,1,11792,11851,11852,11793
CQUADX4,11594,1,11793,11852,11853,11794
CQUADX4,11595,1,11794,11853,11854,11795
CQUADX4,11596,1,11795,11854,11855,11796
CQUADX4,11597,1,11796,11855,11856,11797
CQUADX4,11598,1,11797,11856,11857,11798
CQUADX4,11599,1,11798,11857,11858,11799
CQUADX4,11600,1,11799,11858,11859,11800
CQUADX4,11601,1,11801,11860,11861,11802
CQUADX4,11602,1,11802,11861,11862,11803
CQUADX4,11603,1,11803,11862,11863,11804
CQUADX4,11604,1,11804,11863,11864,11805
CQUADX4,11605,1,11805,11864,11865,11806
CQUADX4,11606,1,11806,11865,11866,11807
CQUADX4,11607,1,11807,11866,11867,11808
CQUADX4,11608,1,11808,11867,11868,11809
CQUADX4,11609,1,11809,11868,11869,11810
CQUADX4,11610,1,11810,11869,11870,11811
CQUADX4,11611,1,11811,11870,11871,11812
CQUADX4,11612,1,11812,11871,11872,11813
CQUADX4,11613,1,11813,11872,11873,11814
CQUADX4,11614,1,11814,11873,11874,11815
CQUADX4,11615,1,11815,11874,11875,11816
CQUADX4,11616,1,11816,11875,11876,11817
CQUADX4,11617,1,11817,11876,11877,11818
CQUADX4,11618,1,11818,11877,11878,11819
CQUADX4,11619,1,11819,11878,11879,11820
CQUADX4,11620,1,11820,11879,11880,11821
CQUADX4,11621,1,11821,11880,11881,11822
CQUADX4,11622,1,11822,11881,11882,11823
CQUADX4,11623,1,11823,11882,11883,11824
CQUADX4,11624,1,11824,11883,11884,11825
CQUADX4,11625,1,11825,11884,11885,11826
CQUADX4,11626,1,11826,11885,11886,11827
CQUADX4,11627,1,11827,11886,11887,11828
CQUADX4,11628,1,11828,11887,11888,11829
CQUADX4,11629,1,11829,11888,11889,11830
CQUADX4,11630,1,11830,11889,11890,11831
CQUADX4,11631,1,11831,11890,11891,11832
CQUADX4,11632,1,11832,11891,11892,11833
CQUADX4,11633,1,11833,11892,11893,11834
CQUADX4,11634,1,11834,11893,11894,11835
CQUADX4,11635,1,11835,11894,11895,11836
CQUADX4,11636,1,11836,11895,11896,11837
CQUADX4,11637,1,11837,11896,11897,11838
CQUADX4,11638,1,11838,11897,11898,11839
CQUADX4,11639,1,11839,11898,11899,11840
CQUADX4,11640,1,11840,11899,11900,11841
CQUADX4,11641,1,11841,11900,11901,11842
CQUADX4,11642,1,11842,11901,11902,11843
CQUADX4,11643,1,11843,11902,11903,11844
CQUADX4,11644,1,11844,11903,11904,11845
CQUADX4,11645,1,11845,11904,11905,11846
CQUADX4,11646,1,11846,11905,11906,11847
CQUADX4,11647,1,11847,11906,11907,11848
CQUADX4,11648,1,11848,11907,11908,11849
CQUADX4,11649,1,11849,11908,11909,11850
CQUADX4,11650,1,11850,11909,11910,11851
CQUADX4,11651,1,11851,11910,11911,11852
CQUADX4,11652,1,11852,11911,11912,11853
CQUADX4,11653,1,11853,11912,11913,11854
CQUADX4,11654,1,11854,11913,11914,11855
CQUADX4,11655,1,11855,11914,11915,11856
CQUADX4,11656,1,11856,11915,11916,11857
CQUADX4,11657,1,11857,11916,11917,11858
CQUADX4,11658,1,11858,11917,11918,11859
CQUADX4,11659,1,11860,11919,11920,11861
CQUADX4,11660,1,11861,11920,11921,11862
CQUADX4,11661,1,11862,11921,11922,11863
CQUADX4,11662,1,11863,11922,11923,11864
CQUADX4,11663,1,11864,11923,11924,11865
CQUADX4,11664,1,11865,11924,11925,11866
CQUADX4,11665,1,11866,11925,11926,11867
CQUADX4,11666,1,11867,11926,11927,11868
CQUADX4,11667,1,11868,11927,11928,11869
CQUADX4,11668,1,11869,11928,11929,11870
CQUADX4,11669,1,11870,11929,11930,11871
CQUADX4,11670,1,11871,11930,11931,11872
CQUADX4,11671,1,11872,11931,11932,11873
CQUADX4,11672,1,11873,11932,11933,11874
CQUADX4,11673,1,11874,11933,11934,11875
CQUADX4,11674,1,11875,11934,11935,11876
CQUADX4,11675,1,11876,11935,11936,11877
CQUADX4,11676,1,11877,11936,11937,11878
CQUADX4,11677,1,11878,11937,11938,11879
CQUADX4,11678,1,11879,11938,11939,11880
CQUADX4,11679,1,11880,11939,11940,11881
CQUADX4,11680,1,11881,11940,11941,11882
CQUADX4,11681,1,11882,11941,11942,11883
CQUADX4,11682,1,11883,11942,11943,11884
CQUADX4,11683,1,11884,11943,11944,11885
CQUADX4,11684,1,11885,11944,11945,11886
CQUADX4,11685,1,11886,11945,11946,11887
CQUADX4,11686,1,11887,11946,11947,11888
CQUADX4,11687,1,11888,11947,11948,11889
CQUADX4,11688,1,11889,11948,11949,11890
CQUADX4,11689,1,11890,11949,11950,11891
CQUADX4,11690,1,11891,11950,11951,11892
CQUADX4,11691,1,11892,11951,11952,11893
CQUADX4,11692,1,11893,11952,11953,11894
CQUADX4,11693,1,11894,11953,11954,11895
CQUADX4,11694,1,11895,11954,11955,11896
CQUADX4,11695,1,11896,11955,11956,11897
CQUADX4,11696,1,11897,11956,11957,11898
CQUADX4,11697,1,11898,11957,11958,11899
CQUADX4,11698,1,11899,11958,11959,11900
CQUADX4,11699,1,11900,11959,11960,11901
CQUADX4,11700,1,11901,11960,11961,11902
CQUADX4,11701,1,11902,11961,11962,11903
CQUADX4,11702,1,11903,11962,11963,11904
CQUADX4,11703,1,11904,11963,11964,11905
CQUADX4,11704,1,11905,11964,11965,11906
CQUADX4,11705,1,11906,11965,11966,11907
CQUADX4,11706,1,11907,11966,11967,11908
CQUADX4,11707,1,11908,11967,11968,11909
CQUADX4,11708,1,11909,11968,11969,11910
CQUADX4,11709,1,11910,11969,11970,11911
CQUADX4,11710,1,11911,11970,11971,11912
CQUADX4,11711,1,11912,11971,11972,11913
CQUADX4,11712,1,11913,11972,11973,11914
CQUADX4,11713,1,11914,11973,11974,11915
CQUADX4,11714,1,11915,11974,11975,11916
CQUADX4,11715,1,11916,11975,11976,11917
CQUADX4,11716,1,11917,11976,11977,11918
CQUADX4,11717,1,11919,11978,11979,11920
CQUADX4,11718,1,11920,11979,11980,11921
CQUADX4,11719,1,11921,11980,11981,11922
CQUADX4,11720,1,11922,11981,11982,11923
CQUADX4,11721,1,11923,11982,11983,11924
CQUADX4,11722,1,11924,11983,11984,11925
CQUADX4,11723,1,11925,11984,11985,11926
CQUADX4,11724,1,11926,11985,11986,11927
CQUADX4,11725,1,11927,11986,11987,11928
CQUADX4,11726,1,11928,11987,11988,11929
CQUADX4,11727,1,11929,11988,11989,11930
CQUADX4,11728,1,11930,11989,11990,11931
CQUADX4,11729,1,11931,11990,11991,11932
CQUADX4,11730,1,11932,11991,11992,11933
CQUADX4,11731,1,11933,11992,11993,11934
CQUADX4,11732,1,11934,11993,11994,11935
CQUADX4,11733,1,11935,11994,11995,11936
CQUADX4,11734,1,11936,11995,11996,11937
CQUADX4,11735,1,11937,11996,11997,11938
CQUADX4,11736,1,11938,11997,11998,11939
CQUADX4,11737,1,11939,11998,11999,11940
CQUADX4,11738,1,11940,11999,12000,11941
CQUADX4,11739,1,11941,12000,12001,11942
CQUADX4,11740,1,11942,12001,12002,11943
CQUADX4,11741,1,11943,12002,12003,11944
CQUADX4,11742,1,11944,12003,12004,11945
CQUADX4,11743,1,11945,12004,12005,11946
CQUADX4,11744,1,11946,12005,12006,11947
CQUADX4,11745,1,11947,12006,12007,11948
CQUADX4,11746,1,11948,12007,12008,11949
CQUADX4,11747,1,11949,12008,12009,11950
CQUADX4,11748,1,11950,12009,12010,11951
CQUADX4,11749,1,11951,12010,12011,11952
CQUADX4,11750,1,11952,12011,12012,11953
CQUADX4,11751,1,11953,12012,12013,11954
CQUADX4,11752,1,11954,12013,12014,11955
CQUADX4,11753,1,11955,12014,12015,11956
CQUADX4,11754,1,11956,12015,12016,11957
CQUADX4,11755,1,11957,12016,12017,11958
CQUADX4,11756,1,11958,12017,12018,11959
CQUADX4,11757,1,11959,12018,12019,11960
CQUADX4,11758,1,11960,12019,12020,11961
CQUADX4,11759,1,11961,12020,12021,11962
CQUADX4,11760,1,11962,12021,12022,11963
CQUADX4,11761,1,11963,12022,12023,11964
CQUADX4,11762,1,11964,12023,12024,11965
CQUADX4,11763,1,11965,12024,12025,11966
CQUADX4,11764,1,11966,12025,12026,11967
CQUADX4,11765,1,11967,12026,12027,11968
CQUADX4,11766,1,11968,12027,12028,11969
CQUADX4,11767,1,11969,12028,12029,11970
CQUADX4,11768,1,11970,12029,12030,11971
CQUADX4,11769,1,11971,12030,12031,11972
CQUADX4,11770,1,11972,12031,12032,11973
CQUADX4,11771,1,11973,12032,12033,11974
CQUADX4,11772,1,11974,12033,12034,11975
CQUADX4,11773,1,11975,12034,12035,11976
CQUADX4,11774,1,11976,12035,12036,11977
CQUADX4,11775,1,11978,12037,12038,11979
CQUADX4,11776,1,11979,12038,12039,11980
CQUADX4,11777,1,11980,12039,12040,11981
CQUADX4,11778,1,11981,12040,12041,11982
CQUADX4,11779,1,11982,12041,12042,11983
CQUADX4,11780,1,11983,12042,12043,11984
CQUADX4,11781,1,11984,12043,12044,11985
CQUADX4,11782,1,11985,12044,12045,11986
CQUADX4,11783,1,11986,12045,12046,11987
CQUADX4,11784,1,11987,12046,12047,11988
CQUADX4,11785,1,11988,12047,12048,11989
CQUADX4,11786,1,11989,12048,12049,11990
CQUADX4,11787,1,11990,12049,12050,11991
CQUADX4,11788,1,11991,12050,12051,11992
CQUADX4,11789,1,11992,12051,12052,11993
CQUADX4,11790,1,11993,12052,12053,11994
CQUADX4,11791,1,11994,12053,12054,11995
CQUADX4,11792,1,11995,12054,12055,11996
CQUADX4,11793,1,11996,12055,12056,11997
CQUADX4,11794,1,11997,12056,12057,11998
CQUADX4,11795,1,11998,12057,12058,11999
CQUADX4,11796,1,11999,12058,12059,12000
CQUADX4,11797,1,12000,12059,12060,12001
CQUADX4,11798,1,12001,12060,12061,12002
CQUADX4,11799,1,12002,12061,12062,12003
CQUADX4,11800,1,12003,12062,12063,12004
CQUADX4,11801,1,12004,12063,12064,12005
CQUADX4,11802,1,12005,12064,12065,12006
CQUADX4,11803,1,12006,12065,12066,12007
CQUADX4,11804,1,12007,12066,12067,12008
CQUADX4,11805,1,12008,12067,12068,12009
CQUADX4,11806,1,12009,12068,12069,12010
CQUADX4,11807,1,12010,12069,12070,12011
CQUADX4,11808,1,12011,12070,12071,12012
CQUADX4,11809,1,12012,12071,12072,12013
CQUADX4,11810,1,12013,12072,12073,12014
CQUADX4,11811,1,12014,12073,12074,12015
CQUADX4,11812,1,12015,12074,12075,12016
CQUADX4,11813,1,12016,12075,12076,12017
CQUADX4,11814,1,12017,12076,12077,12018
CQUADX4,11815,1,12018,12077,12078,12019
CQUADX4,11816,1,12019,12078,12079,12020
CQUADX4,11817,1,12020,12079,12080,12021
CQUADX4,11818,1,12021,12080,12081,12022
CQUADX4,11819,1,12022,12081,12082,12023
CQUADX4,11820,1,12023,12082,12083,12024
CQUADX4,11821,1,12024,12083,12084,12025
CQUADX4,11822,1,12025,12084,12085,12026
CQUADX4,11823,1,12026,12085,12086,12027
CQUADX4,11824,1,12027,12086,12087,12028
CQUADX4,11825,1,12028,12087,12088,12029
CQUADX4,11826,1,12029,12088,12089,12030
CQUADX4,11827,1,12030,12089,12090,12031
CQUADX4,11828,1,12031,12090,12091,12032
CQUADX4,11829,1,12032,12091,12092,12033
CQUADX4,11830,1,12033,12092,12093,12034
CQUADX4,11831,1,12034,12093,12094,12035
CQUADX4,11832,1,12035,12094,12095,12036
CQUADX4,11833,1,12037,12096,12097,12038
CQUADX4,11834,1,12038,12097,12098,12039
CQUADX4,11835,1,12039,12098,12099,12040
CQUADX4,11836,1,12040,12099,12100,12041
CQUADX4,11837,1,12041,12100,12101,12042
CQUADX4,11838,1,12042,12101,12102,12043
CQUADX4,11839,1,12043,12102,12103,12044
CQUADX4,11840,1,12044,12103,12104,12045
CQUADX4,11841,1,12045,12104,12105,12046
CQUADX4,11842,1,12046,12105,12106,12047
CQUADX4,11843,1,12047,12106,12107,12048
CQUADX4,11844,1,12048,12107,12108,12049
CQUADX4,11845,1,12049,12108,12109,12050
CQUADX4,11846,1,12050,12109,12110,12051
CQUADX4,11847,1,12051,12110,12111,12052
CQUADX4,11848,1,12052,12111,12112,12053
CQUADX4,11849,1,12053,12112,12113,12054
CQUADX4,11850,1,12054,12113,12114,12055
CQUADX4,11851,1,12055,12114,12115,12056
CQUADX4,11852,1,12056,12115,12116,12057
CQUADX4,11853,1,12057,12116,12117,12058
CQUADX4,11854,1,12058,12117,12118,12059
CQUADX4,11855,1,12059,12118,12119,12060
CQUADX4,11856,1,12060,12119,12120,12061
CQUADX4,11857,1,12061,12120,12121,12062
CQUADX4,11858,1,12062,12121,12122,12063
CQUADX4,11859,1,12063,12122,12123,12064
CQUADX4,11860,1,12064,12123,12124,12065
CQUADX4,11861,1,12065,12124,12125,12066
CQUADX4,11862,1,12066,12125,12126,12067
CQUADX4,11863,1,12067,12126,12127,12068
CQUADX4,11864,1,12068,12127,12128,12069
CQUADX4,11865,1,12069,12128,12129,12070
CQUADX4,11866,1,12070,12129,12130,12071
CQUADX4,11867,1,12071,12130,12131,12072
CQUADX4,11868,1,12072,12131,12132,12073
CQUADX4,11869,1,12073,12132,12133,12074
CQUADX4,11870,1,12074,12133,12134,12075
CQUADX4,11871,1,12075,12134,12135,12076
CQUADX4,11872,1,12076,12135,12136,12077
CQUADX4,11873,1,12077,12136,12137,12078
CQUADX4,11874,1,12078,12137,12138,12079
CQUADX4,11875,1,12079,12138,12139,12080
CQUADX4,11876,1,12080,12139,12140,12081
CQUADX4,11877,1,12081,12140,12141,12082
CQUADX4,11878,1,12082,12141,12142,12083
CQUADX4,11879,1,12083,12142,12143,12084
CQUADX4,11880,1,12084,12143,12144,12085
CQUADX4,11881,1,12085,12144,12145,12086
CQUADX4,11882,1,12086,12145,12146,12087
CQUADX4,11883,1,12087,12146,12147,12088
CQUADX4,11884,1,12088,12147,12148,12089
CQUADX4,11885,1,12089,12148,12149,12090
CQUADX4,11886,1,12090,12149,12150,12091
CQUADX4,11887,1,12091,12150,12151,12092
CQUADX4,11888,1,12092,12151,12152,12093
CQUADX4,11889,1,12093,12152,12153,12094
CQUADX4,11890,1,12094,12153,12154,12095
CQUADX4,11891,1,12096,12155,12156,12097
CQUADX4,11892,1,12097,12156,12157,12098
CQUADX4,11893,1,12098,12157,12158,12099
CQUADX4,11894,1,12099,12158,12159,12100
CQUADX4,11895,1,12100,12159,12160,12101
CQUADX4,11896,1,12101,12160,12161,12102
CQUADX4,11897,1,12102,12161,12162,12103
CQUADX4,11898,1,12103,12162,12163,12104
CQUADX4,11899,1,12104,12163,12164,12105
CQUADX4,11900,1,12105,12164,12165,12106
CQUADX4,11901,1,12106,12165,12166,12107
CQUADX4,11902,1,12107,12166,12167,12108
CQUADX4,11903,1,12108,12167,12168,12109
CQUADX4,11904,1,12109,12168,12169,12110
CQUADX4,11905,1,12110,12169,12170,12111
CQUADX4,11906,1,12111,12170,12171,12112
CQUADX4,11907,1,12112,12171,12172,12113
CQUADX4,11908,1,12113,12172,12173,12114
CQUADX4,11909,1,12114,12173,12174,12115
CQUADX4,11910,1,12115,12174,12175,12116
CQUADX4,11911,1,12116,12175,12176,12117
CQUADX4,11912,1,12117,12176,12177,12118
CQUADX4,11913,1,12118,12177,12178,12119
CQUADX4,11914,1,12119,12178,12179,12120
CQUADX4,11915,1,12120,12179,12180,12121
CQUADX4,11916,1,12121,12180,12181,12122
CQUADX4,11917,1,12122,12181,12182,12123
CQUADX4,11918,1,12123,12182,12183,12124
CQUADX4,11919,1,12124,12183,12184,12125
CQUADX4,11920,1,12125,12184,12185,12126
CQUADX4,11921,1,12126,12185,12186,12127
CQUADX4,11922,1,12127,12186,12187,12128
CQUADX4,11923,1,12128,12187,12188,12129
CQUADX4,11924,1,12129,12188,12189,12130
CQUADX4,11925,1,12130,12189,12190,12131
CQUADX4,11926,1,12131,12190,12191,12132
CQUADX4,11927,1,12132,12191,12192,12133
CQUADX4,11928,1,12133,12192,12193,12134
CQUADX4,11929,1,12134,12193,12194,12135
CQUADX4,11930,1,12135,12194,12195,12136
CQUADX4,11931,1,12136,12195,12196,12137
CQUADX4,11932,1,12137,12196,12197,12138
CQUADX4,11933,1,12138,12197,12198,12139
CQUADX4,11934,1,12139,12198,12199,12140
CQUADX4,11935,1,12140,12199,12200,12141
CQUADX4,11936,1,12141,12200,12201,12142
CQUADX4,11937,1,12142,12201,12202,12143
CQUADX4,11938,1,12143,12202,12203,12144
CQUADX4,11939,1,12144,12203,12204,12145
CQUADX4,11940,1,12145,12204,12205,12146
CQUADX4,11941,1,12146,12205,12206,12147
CQUADX4,11942,1,12147,12206,12207,12148
CQUADX4,11943,1,12148,12207,12208,12149
CQUADX4,11944,1,12149,12208,12209,12150
CQUADX4,11945,1,12150,12209,12210,12151
CQUADX4,11946,1,12151,12210,12211,12152
CQUADX4,11947,1,12152,12211,12212,12153
CQUADX4,11948,1,12153,12212,12213,12154
CQUADX4,11949,1,12155,12214,12215,12156
CQUADX4,11950,1,12156,12215,12216,12157
CQUADX4,11951,1,12157,12216,12217,12158
CQUADX4,11952,1,12158,12217,12218,12159
CQUADX4,11953,1,12159,12218,12219,12160
CQUADX4,11954,1,12160,12219,12220,12161
CQUADX4,11955,1,12161,12220,12221,12162
CQUADX4,11956,1,12162,12221,12222,12163
CQUADX4,11957,1,12163,12222,12223,12164
CQUADX4,11958,1,12164,12223,12224,12165
CQUADX4,11959,1,12165,12224,12225,12166
CQUADX4,11960,1,12166,12225,12226,12167
CQUADX4,11961,1,12167,12226,12227,12168
CQUADX4,11962,1,12168,12227,12228,12169
CQUADX4,11963,1,12169,12228,12229,12170
CQUADX4,11964,1,12170,12229,12230,12171
CQUADX4,11965,1,12171,12230,12231,12172
CQUADX4,11966,1,12172,12231,12232,12173
CQUADX4,11967,1,12173,12232,12233,12174
CQUADX4,11968,1,12174,12233,12234,12175
CQUADX4,11969,1,12175,12234,12235,12176
CQUADX4,11970,1,12176,12235,12236,12177
CQUADX4,11971,1,12177,12236,12237,12178
CQUADX4,11972,1,12178,12237,12238,12179
CQUADX4,11973,1,12179,12238,12239,12180
CQUADX4,11974,1,12180,12239,12240,12181
CQUADX4,11975,1,12181,12240,12241,12182
CQUADX4,11976,1,12182,12241,12242,12183
CQUADX4,11977,1,12183,12242,12243,12184
CQUADX4,11978,1,12184,12243,12244,12185
CQUADX4,11979,1,12185,12244,12245,12186
CQUADX4,11980,1,12186,12245,12246,12187
CQUADX4,11981,1,12187,12246,12247,12188
CQUADX4,11982,1,12188,12247,12248,12189
CQUADX4,11983,1,12189,12248,12249,12190
CQUADX4,11984,1,12190,12249,12250,12191
CQUADX4,11985,1,12191,12250,12251,12192
CQUADX4,11986,1,12192,12251,12252,12193
CQUADX4,11987,1,12193,12252,12253,12194
CQUADX4,11988,1,12194,12253,12254,12195
CQUADX4,11989,1,12195,12254,12255,12196
CQUADX4,11990,1,12196,12255,12256,12197
CQUADX4,11991,1,12197,12256,12257,12198
CQUADX4,11992,1,12198,12257,12258,12199
CQUADX4,11993,1,12199,12258,12259,12200
CQUADX4,11994,1,12200,12259,12260,12201
CQUADX4,11995,1,12201,12260,12261,12202
CQUADX4,11996,1,12202,12261,12262,12203
CQUADX4,11997,1,12203,12262,12263,12204
CQUADX4,11998,1,12204,12263,12264,12205
CQUADX4,11999,1,12205,12264,12265,12206
CQUADX4,12000,1,12206,12265,12266,12207
CQUADX4,12001,1,12207,12266,12267,12208
CQUADX4,12002,1,12208,12267,12268,12209
CQUADX4,12003,1,12209,12268,12269,12210
CQUADX4,12004,1,12210,12269,12270,12211
CQUADX4,12005,1,12211,12270,12271,12212
CQUADX4,12006,1,12212,12271,12272,12213
CQUADX4,12007,1,12214,12273,12274,12215
CQUADX4,12008,1,12215,12274,12275,12216
CQUADX4,12009,1,12216,12275,12276,12217
CQUADX4,12010,1,12217,12276,12277,12218
CQUADX4,12011,1,12218,12277,12278,12219
CQUADX4,12012,1,12219,12278,12279,12220
CQUADX4,12013,1,12220,12279,12280,12221
CQUADX4,12014,1,12221,12280,12281,12222
CQUADX4,12015,1,12222,12281,12282,12223
CQUADX4,12016,1,12223,12282,12283,12224
CQUADX4,12017,1,12224,12283,12284,12225
CQUADX4,12018,1,12225,12284,12285,12226
CQUADX4,12019,1,12226,12285,12286,12227
CQUADX4,12020,1,12227,12286,12287,12228
CQUADX4,12021,1,12228,12287,12288,12229
CQUADX4,12022,1,12229,12288,12289,12230
CQUADX4,12023,1,12230,12289,12290,12231
CQUADX4,12024,1,12231,12290,12291,12232
CQUADX4,12025,1,12232,12291,12292,12233
CQUADX4,12026,1,12233,12292,12293,12234
CQUADX4,12027,1,12234,12293,12294,12235
CQUADX4,12028,1,12235,12294,12295,12236
CQUADX4,12029,1,12236,12295,12296,12237
CQUADX4,12030,1,12237,12296,12297,12238
CQUADX4,12031,1,12238,12297,12298,12239
CQUADX4,12032,1,12239,12298,12299,12240
CQUADX4,12033,1,12240,12299,12300,12241
CQUADX4,12034,1,12241,12300,12301,12242
CQUADX4,12035,1,12242,12301,12302,12243
CQUADX4,12036,1,12243,12302,12303,12244
CQUADX4,12037,1,12244,12303,12304,12245
CQUADX4,12038,1,12245,12304,12305,12246
CQUADX4,12039,1,12246,12305,12306,12247
CQUADX4,12040,1,12247,12306,12307,12248
CQUADX4,12041,1,12248,12307,12308,12249
CQUADX4,12042,1,12249,12308,12309,12250
CQUADX4,12043,1,12250,12309,12310,12251
CQUADX4,12044,1,12251,12310,12311,12252
CQUADX4,12045,1,12252,12311,12312,12253
CQUADX4,12046,1,12253,12312,12313,12254
CQUADX4,12047,1,12254,12313,12314,12255
CQUADX4,12048,1,12255,12314,12315,12256
CQUADX4,12049,1,12256,12315,12316,12257
CQUADX4,12050,1,12257,12316,12317,12258
CQUADX4,12051,1,12258,12317,12318,12259
CQUADX4,12052,1,12259,12318,12319,12260
CQUADX4,12053,1,12260,12319,12320,12261
CQUADX4,12054,1,12261,12320,12321,12262
CQUADX4,12055,1,12262,12321,12322,12263
CQUADX4,12056,1,12263,12322,12323,12264
CQUADX4,12057,1,12264,12323,12324,12265
CQUADX4,12058,1,12265,12324,12325,12266
CQUADX4,12059,1,12266,12325,12326,12267
CQUADX4,12060,1,12267,12326,12327,12268
CQUADX4,12061,1,12268,12327,12328,12269
CQUADX4,12062,1,12269,12328,12329,12270
CQUADX4,12063,1,12270,12329,12330,12271
CQUADX4,12064,1,12271,12330,12331,12272
CQUADX4,12065,1,12273,12332,12333,12274
CQUADX4,12066,1,12274,12333,12334,12275
CQUADX4,12067,1,12275,12334,12335,12276
CQUADX4,12068,1,12276,12335,12336,12277
CQUADX4,12069,1,12277,12336,12337,12278
CQUADX4,12070,1,12278,12337,12338,12279
CQUADX4,12071,1,12279,12338,12339,12280
CQUADX4,12072,1,12280,12339,12340,12281
CQUADX4,12073,1,12281,12340,12341,12282
CQUADX4,12074,1,12282,12341,12342,12283
CQUADX4,12075,1,12283,12342,12343,12284
CQUADX4,12076,1,12284,12343,12344,12285
CQUADX4,12077,1,12285,12344,12345,12286
CQUADX4,12078,1,12286,12345,12346,12287
CQUADX4,12079,1,12287,12346,12347,12288
CQUADX4,12080,1,12288,12347,12348,12289
CQUADX4,12081,1,12289,12348,12349,12290
CQUADX4,12082,1,12290,12349,12350,12291
CQUADX4,12083,1,12291,12350,12351,12292
CQUADX4,12084,1,12292,12351,12352,12293
CQUADX4,12085,1,12293,12352,12353,12294
CQUADX4,12086,1,12294,12353,12354,12295
CQUADX4,12087,1,12295,12354,12355,12296
CQUADX4,12088,1,12296,12355,12356,12297
CQUADX4,12089,1,12297,12356,12357,12298
CQUADX4,12090,1,12298,12357,12358,12299
CQUADX4,12091,1,12299,12358,12359,12300
CQUADX4,12092,1,12300,12359,12360,12301
CQUADX4,12093,1,12301,12360,12361,12302
CQUADX4,12094,1,12302,12361,12362,12303
CQUADX4,12095,1,12303,12362,12363,12304
CQUADX4,12096,1,12304,12363,12364,12305
CQUADX4,12097,1,12305,12364,12365,12306
CQUADX4,12098,1,12306,12365,12366,12307
CQUADX4,12099,1,12307,12366,12367,12308
CQUADX4,12100,1,12308,12367,12368,12309
CQUADX4,12101,1,12309,12368,12369,12310
CQUADX4,12102,1,12310,12369,12370,12311
CQUADX4,12103,1,12311,12370,12371,12312
CQUADX4,12104,1,12312,12371,12372,12313
CQUADX4,12105,1,12313,12372,12373,12314
CQUADX4,12106,1,12314,12373,12374,12315
CQUADX4,12107,1,12315,12374,12375,12316
CQUADX4,12108,1,12316,12375,12376,12317
CQUADX4,12109,1,12317,12376,12377,12318
CQUADX4,12110,1,12318,12377,12378,12319
CQUADX4,12111,1,12319,12378,12379,12320
CQUADX4,12112,1,12320,12379,12380,12321
CQUADX4,12113,1,12321,12380,12381,12322
CQUADX4,12114,1,12322,12381,12382,12323
CQUADX4,12115,1,12323,12382,12383,12324
CQUADX4,12116,1,12324,12383,12384,12325
CQUADX4,12117,1,12325,12384,12385,12326
CQUADX4,12118,1,12326,12385,12386,12327
CQUADX4,12119,1,12327,12386,12387,12328
CQUADX4,12120,1,12328,12387,12388,12329
CQUADX4,12121,1,12329,12388,12389,12330
CQUADX4,12122,1,12330,12389,12390,12331
CQUADX4,12123,1,30836,29786,1,30054
CQUADX4,12124,1,29786,29787,60,1
CQUADX4,12125,1,29787,29788,119,60
CQUADX4,12126,1,29788,29789,178,119
CQUADX4,12127,1,29789,29790,237,178
CQUADX4,12128,1,29790,29791,296,237
CQUADX4,12129,1,29791,29792,355,296
CQUADX4,12130,1,29792,29793,414,355
CQUADX4,12131,1,29793,29794,473,414
CQUADX4,12132,1,29794,29795,532,473
CQUADX4,12133,1,29795,29796,591,532
CQUADX4,12134,1,29796,29797,650,591
CQUADX4,12135,1,29797,29798,709,650
CQUADX4,12136,1,29798,29799,768,709
CQUADX4,12137,1,29799,29800,827,768
CQUADX4,12138,1,29800,29801,886,827
CQUADX4,12139,1,29801,29802,945,886
CQUADX4,12140,1,29802,29803,1004,945
CQUADX4,12141,1,29803,29804,1063,1004
CQUADX4,12142,1,29804,29805,1122,1063
CQUADX4,12143,1,29805,29806,1181,1122
CQUADX4,12144,1,29806,29807,1240,1181
CQUADX4,12145,1,29807,29808,1299,1240
CQUADX4,12146,1,29808,29809,1358,1299
CQUADX4,12147,1,29809,29810,1417,1358
CQUADX4,12148,1,29810,29811,1476,1417
CQUADX4,12149,1,29811,29812,1535,1476
CQUADX4,12150,1,29812,29813,1594,1535
CQUADX4,12151,1,29813,29814,1653,1594
CQUADX4,12152,1,29814,29815,1712,1653
CQUADX4,12153,1,29815,29816,1771,1712
CQUADX4,12154,1,29816,29817,1830,1771
CQUADX4,12155,1,29817,29818,1889,1830
CQUADX4,12156,1,29818,29819,1948,1889
CQUADX4,12157,1,29819,29820,2007,1948
CQUADX4,12158,1,29820,29821,2066,2007
CQUADX4,12159,1,29821,29822,2125,2066
CQUADX4,12160,1,29822,29823,2184,2125
CQUADX4,12161,1,29823,29824,2243,2184
CQUADX4,12162,1,29824,29825,2302,2243
CQUADX4,12163,1,29825,29826,2361,2302
CQUADX4,12164,1,29826,29827,2420,2361
CQUADX4,12165,1,29827,29828,2479,2420
CQUADX4,12166,1,29828,29829,2538,2479
CQUADX4,12167,1,29829,29830,2597,2538
CQUADX4,12168,1,29830,29831,2656,2597
CQUADX4,12169,1,29831,29832,2715,2656
CQUADX4,12170,1,29832,29833,2774,2715
CQUADX4,12171,1,29833,29834,2833,2774
CQUADX4,12172,1,29834,29835,2892,2833
CQUADX4,12173,1,29835,29836,2951,2892
CQUADX4,12174,1,29836,29837,3010,2951
CQUADX4,12175,1,29837,29838,3069,3010
CQUADX4,12176,1,29838,29839,3128,3069
CQUADX4,12177,1,29839,29840,3187,3128
CQUADX4,12178,1,29840,29841,3246,3187
CQUADX4,12179,1,29841,29842,3305,3246
CQUADX4,12180,1,29842,29843,3364,3305
CQUADX4,12181,1,29843,29844,3423,3364
CQUADX4,12182,1,29844,29845,3482,3423
CQUADX4,12183,1,29845,29846,3541,3482
CQUADX4,12184,1,29846,29847,3600,3541
CQUADX4,12185,1,29847,29848,3659,3600
CQUADX4,12186,1,29848,29849,3718,3659
CQUADX4,12187,1,29849,29850,3777,3718
CQUADX4,12188,1,29850,29851,3836,3777
CQUADX4,12189,1,29851,29852,3895,3836
CQUADX4,12190,1,29852,29853,3954,3895
CQUADX4,12191,1,29853,29854,4013,3954
CQUADX4,12192,1,29854,29855,4072,4013
CQUADX4,12193,1,29855,29856,4131,4072
CQUADX4,12194,1,29856,29857,4190,4131
CQUADX4,12195,1,29857,29858,4249,4190
CQUADX4,12196,1,29858,29859,4308,4249
CQUADX4,12197,1,29859,29860,4367,4308
CQUADX4,12198,1,29860,29861,4426,4367
CQUADX4,12199,1,29861,29862,4485,4426
CQUADX4,12200,1,29862,29863,4544,4485
CQUADX4,12201,1,29863,29864,4603,4544
CQUADX4,12202,1,29864,29865,4662,4603
CQUADX4,12203,1,29865,29866,4721,4662
CQUADX4,12204,1,29866,29867,4780,4721
CQUADX4,12205,1,29867,29868,4839,4780
CQUADX4,12206,1,29868,29869,4898,4839
CQUADX4,12207,1,29869,29870,4957,4898
CQUADX4,12208,1,29870,29871,5016,4957
CQUADX4,12209,1,29871,29872,5075,5016
CQUADX4,12210,1,29872,29873,5134,5075
CQUADX4,12211,1,29873,29874,5193,5134
CQUADX4,12212,1,29874,29875,5252,5193
CQUADX4,12213,1,29875,29876,5311,5252
CQUADX4,12214,1,29876,29877,5370,5311
CQUADX4,12215,1,29877,29878,5429,5370
CQUADX4,12216,1,29878,29879,5488,5429
CQUADX4,12217,1,29879,29880,5547,5488
CQUADX4,12218,1,29880,29881,5606,5547
CQUADX4,12219,1,29881,29882,5665,5606
CQUADX4,12220,1,29882,29883,5724,5665
CQUADX4,12221,1,29883,29884,5783,5724
CQUADX4,12222,1,29884,29885,5842,5783
CQUADX4,12223,1,29885,29886,5901,5842
CQUADX4,12224,1,29886,29887,5960,5901
CQUADX4,12225,1,29887,29888,6019,5960
CQUADX4,12226,1,29888,29889,6078,6019
CQUADX4,12227,1,29889,29890,6137,6078
CQUADX4,12228,1,29890,29891,6196,6137
CQUADX4,12229,1,29891,29892,6255,6196
CQUADX4,12230,1,29892,29893,6314,6255
CQUADX4,12231,1,29893,29894,6373,6314
CQUADX4,12232,1,29894,29895,6432,6373
CQUADX4,12233,1,29895,29896,6491,6432
CQUADX4,12234,1,29896,29897,6550,6491
CQUADX4,12235,1,29897,29898,6609,6550
CQUADX4,12236,1,29898,29899,6668,6609
CQUADX4,12237,1,29899,29900,6727,6668
CQUADX4,12238,1,29900,29901,6786,6727
CQUADX4,12239,1,29901,29902,6845,6786
CQUADX4,12240,1,29902,29903,6904,6845
CQUADX4,12241,1,29903,29904,6963,6904
CQUADX4,12242,1,29904,29905,7022,6963
CQUADX4,12243,1,29905,29906,7081,7022
CQUADX4,12244,1,29906,29907,7140,7081
CQUADX4,12245,1,29907,29908,7199,7140
CQUADX4,12246,1,29908,29909,7258,7199
CQUADX4,12247,1,29909,29910,7317,7258
CQUADX4,12248,1,29910,29911,7376,7317
CQUADX4,12249,1,29911,29912,7435,7376
CQUADX4,12250,1,29912,29913,7494,7435
CQUADX4,12251,1,29913,29914,7553,7494
CQUADX4,12252,1,29914,29915,7612,7553
CQUADX4,12253,1,29915,29916,7671,7612
CQUADX4,12254,1,29916,29917,7730,7671
CQUADX4,12255,1,29917,29918,7789,7730
CQUADX4,12256,1,29918,29919,7848,7789
CQUADX4,12257,1,29919,29920,7907,7848
CQUADX4,12258,1,29920,29921,7966,7907
CQUADX4,12259,1,29921,29922,8025,7966
CQUADX4,12260,1,29922,29923,8084,8025
CQUADX4,12261,1,29923,29924,8143,8084
CQUADX4,12262,1,29924,29925,8202,8143
CQUADX4,12263,1,29925,29926,8261,8202
CQUADX4,12264,1,29926,29927,8320,8261
CQUADX4,12265,1,29927,29928,8379,8320
CQUADX4,12266,1,29928,29929,8438,8379
CQUADX4,12267,1,29929,29930,8497,8438
CQUADX4,12268,1,29930,29931,8556,8497
CQUADX4,12269,1,29931,29932,8615,8556
CQUADX4,12270,1,29932,29933,8674,8615
CQUADX4,12271,1,29933,29934,8733,8674
CQUADX4,12272,1,29934,29935,8792,8733
CQUADX4,12273,1,29935,29936,8851,8792
CQUADX4,12274,1,29936,29937,8910,8851
CQUADX4,12275,1,29937,29938,8969,8910
CQUADX4,12276,1,29938,29939,9028,8969
CQUADX4,12277,1,29939,29940,9087,9028
CQUADX4,12278,1,29940,29941,9146,9087
CQUADX4,12279,1,29941,29942,9205,9146
CQUADX4,12280,1,29942,29943,9264,9205
CQUADX4,12281,1,29943,29944,9323,9264
CQUADX4,12282,1,29944,29945,9382,9323
CQUADX4,12283,1,29945,29946,9441,9382
CQUADX4,12284,1,29946,29947,9500,9441
CQUADX4,12285,1,29947,29948,9559,9500
CQUADX4,12286,1,29948,29949,9618,9559
CQUADX4,12287,1,29949,29950,9677,9618
CQUADX4,12288,1,29950,29951,9736,9677
CQUADX4,12289,1,29951,29952,9795,9736
CQUADX4,12290,1,29952,29953,9854,9795
CQUADX4,12291,1,29953,29954,9913,9854
CQUADX4,12292,1,29954,29955,9972,9913
CQUADX4,12293,1,29955,29956,10031,9972
CQUADX4,12294,1,29956,29957,10090,10031
CQUADX4,12295,1,29957,29958,10149,10090
CQUADX4,12296,1,29958,29959,10208,10149
CQUADX4,12297,1,29959,29960,10267,10208
CQUADX4,12298,1,29960,29961,10326,10267
CQUADX4,12299,1,29961,29962,10385,10326
CQUADX4,12300,1,29962,29963,10444,10385
CQUADX4,12301,1,29963,29964,10503,10444
CQUADX4,12302,1,29964,29965,10562,10503
CQUADX4,12303,1,29965,29966,10621,10562
CQUADX4,12304,1,29966,29967,10680,10621
CQUADX4,12305,1,29967,29968,10739,10680
CQUADX4,12306,1,29968,29969,10798,10739
CQUADX4,12307,1,29969,29970,10857,10798
CQUADX4,12308,1,29970,29971,10916,10857
CQUADX4,12309,1,29971,29972,10975,10916
CQUADX4,12310,1,29972,29973,11034,10975
CQUADX4,12311,1,29973,29974,11093,11034
CQUADX4,12312,1,29974,29975,11152,11093
CQUADX4,12313,1,29975,29976,11211,11152
CQUADX4,12314,1,29976,29977,11270,11211
CQUADX4,12315,1,29977,29978,11329,11270
CQUADX4,12316,1,29978,29979,11388,11329
CQUADX4,12317,1,29979,29980,11447,11388
CQUADX4,12318,1,29980,29981,11506,11447
CQUADX4,12319,1,29981,29982,11565,11506
CQUADX4,12320,1,29982,29983,11624,11565
CQUADX4,12321,1,29983,29984,11683,11624
CQUADX4,12322,1,29984,29985,11742,11683
CQUADX4,12323,1,29985,29986,11801,11742
CQUADX4,12324,1,29986,29987,11860,11801
CQUADX4,12325,1,29987,29988,11919,11860
CQUADX4,12326,1,29988,29989,11978,11919
CQUADX4,12327,1,29989,29990,12037,11978
CQUADX4,12328,1,29990,29991,12096,12037
CQUADX4,12329,1,29991,29992,12155,12096
CQUADX4,12330,1,29992,29993,12214,12155
CQUADX4,12331,1,29993,29994,12273,12214
CQUADX4,12332,1,29994,29995,12332,12273
CQUADX4,12333,1,29995,30833,29517,12332
CQUADX4,12334,1,12332,29517,29518,12333
CQUADX4,12335,1,12333,29518,29519,12334
CQUADX4,12336,1,12334,29519,29520,12335
CQUADX4,12337,1,12335,29520,29521,12336
CQUADX4,12338,1,12336,29521,29522,12337
CQUADX4,12339,1,12337,29522,29523,12338
CQUADX4,12340,1,12338,29523,29524,12339
CQUADX4,12341,1,12339,29524,29525,12340
CQUADX4,12342,1,12340,29525,29526,12341
CQUADX4,12343,1,12341,29526,29527,12342
CQUADX4,12344,1,12342,29527,29528,12343
CQUADX4,12345,1,12343,29528,29529,12344
CQUADX4,12346,1,12344,29529,29530,12345
CQUADX4,12347,1,12345,29530,29531,12346
CQUADX4,12348,1,12346,29531,29532,12347
CQUADX4,12349,1,12347,29532,29533,12348
CQUADX4,12350,1,12348,29533,29534,12349
CQUADX4,12351,1,12349,29534,29535,12350
CQUADX4,12352,1,12350,29535,29536,12351
CQUADX4,12353,1,12351,29536,29537,12352
CQUADX4,12354,1,12352,29537,29538,12353
CQUADX4,12355,1,12353,29538,29539,12354
CQUADX4,12356,1,12354,29539,29540,12355
CQUADX4,12357,1,12355,29540,29541,12356
CQUADX4,12358,1,12356,29541,29542,12357
CQUADX4,12359,1,12357,29542,29543,12358
CQUADX4,12360,1,12358,29543,29544,12359
CQUADX4,12361,1,12359,29544,29545,12360
CQUADX4,12362,1,12360,29545,29546,12361
CQUADX4,12363,1,12361,29546,29547,12362
CQUADX4,12364,1,12362,29547,29548,12363
CQUADX4,12365,1,12363,29548,29549,12364
CQUADX4,12366,1,12364,29549,29550,12365
CQUADX4,12367,1,12365,29550,29551,12366
CQUADX4,12368,1,12366,29551,29552,12367
CQUADX4,12369,1,12367,29552,29553,12368
CQUADX4,12370,1,12368,29553,29554,12369
CQUADX4,12371,1,12369,29554,29555,12370
CQUADX4,12372,1,12370,29555,29556,12371
CQUADX4,12373,1,12371,29556,29557,12372
CQUADX4,12374,1,12372,29557,29558,12373
CQUADX4,12375,1,12373,29558,29559,12374
CQUADX4,12376,1,12374,29559,29560,12375
CQUADX4,12377,1,12375,29560,29561,12376
CQUADX4,12378,1,12376,29561,29562,12377
CQUADX4,12379,1,12377,29562,29563,12378
CQUADX4,12380,1,12378,29563,29564,12379
CQUADX4,12381,1,12379,29564,29565,12380
CQUADX4,12382,1,12380,29565,29566,12381
CQUADX4,12383,1,12381,29566,29567,12382
CQUADX4,12384,1,12382,29567,29568,12383
CQUADX4,12385,1,12383,29568,29569,12384
CQUADX4,12386,1,12384,29569,29570,12385
CQUADX4,12387,1,12385,29570,29571,12386
CQUADX4,12388,1,12386,29571,29572,12387
CQUADX4,12389,1,12387,29572,29573,12388
CQUADX4,12390,1,12388,29573,29574,12389
CQUADX4,12391,1,12389,29574,29575,12390
CQUADX4,12392,1,12390,29575,30834,29576
CQUADX4,12393,1,12331,12390,29576,29577
CQUADX4,12394,1,12272,12331,29577,29578
CQUADX4,12395,1,12213,12272,29578,29579
CQUADX4,12396,1,12154,12213,29579,29580
CQUADX4,12397,1,12095,12154,29580,29581
CQUADX4,12398,1,12036,12095,29581,29582
CQUADX4,12399,1,11977,12036,29582,29583
CQUADX4,12400,1,11918,11977,29583,29584
CQUADX4,12401,1,11859,11918,29584,29585
CQUADX4,12402,1,11800,11859,29585,29586
CQUADX4,12403,1,11741,11800,29586,29587
CQUADX4,12404,1,11682,11741,29587,29588
CQUADX4,12405,1,11623,11682,29588,29589
CQUADX4,12406,1,11564,11623,29589,29590
CQUADX4,12407,1,11505,11564,29590,29591
CQUADX4,12408,1,11446,11505,29591,29592
CQUADX4,12409,1,11387,11446,29592,29593
CQUADX4,12410,1,11328,11387,29593,29594
CQUADX4,12411,1,11269,11328,29594,29595
CQUADX4,12412,1,11210,11269,29595,29596
CQUADX4,12413,1,11151,11210,29596,29597
CQUADX4,12414,1,11092,11151,29597,29598
CQUADX4,12415,1,11033,11092,29598,29599
CQUADX4,12416,1,10974,11033,29599,29600
CQUADX4,12417,1,10915,10974,29600,29601
CQUADX4,12418,1,10856,10915,29601,29602
CQUADX4,12419,1,10797,10856,29602,29603
CQUADX4,12420,1,10738,10797,29603,29604
CQUADX4,12421,1,10679,10738,29604,29605
CQUADX4,12422,1,10620,10679,29605,29606
CQUADX4,12423,1,10561,10620,29606,29607
CQUADX4,12424,1,10502,10561,29607,29608
CQUADX4,12425,1,10443,10502,29608,29609
CQUADX4,12426,1,10384,10443,29609,29610
CQUADX4,12427,1,10325,10384,29610,29611
CQUADX4,12428,1,10266,10325,29611,29612
CQUADX4,12429,1,10207,10266,29612,29613
CQUADX4,12430,1,10148,10207,29613,29614
CQUADX4,12431,1,10089,10148,29614,29615
CQUADX4,12432,1,10030,10089,29615,29616
CQUADX4,12433,1,9971,10030,29616,29617
CQUADX4,12434,1,9912,9971,29617,29618
CQUADX4,12435,1,9853,9912,29618,29619
CQUADX4,12436,1,9794,9853,29619,29620
CQUADX4,12437,1,9735,9794,29620,29621
CQUADX4,12438,1,9676,9735,29621,29622
CQUADX4,12439,1,9617,9676,29622,29623
CQUADX4,12440,1,9558,9617,29623,29624
CQUADX4,12441,1,9499,9558,29624,29625
CQUADX4,12442,1,9440,9499,29625,29626
CQUADX4,12443,1,9381,9440,29626,29627
CQUADX4,12444,1,9322,9381,29627,29628
CQUADX4,12445,1,9263,9322,29628,29629
CQUADX4,12446,1,9204,9263,29629,29630
CQUADX4,12447,1,9145,9204,29630,29631
CQUADX4,12448,1,9086,9145,29631,29632
CQUADX4,12449,1,9027,9086,29632,29633
CQUADX4,12450,1,8968,9027,29633,29634
CQUADX4,12451,1,8909,8968,29634,29635
CQUADX4,12452,1,8850,8909,29635,29636
CQUADX4,12453,1,8791,8850,29636,29637
CQUADX4,12454,1,8732,8791,29637,29638
CQUADX4,12455,1,8673,8732,29638,29639
CQUADX4,12456,1,8614,8673,29639,29640
CQUADX4,12457,1,8555,8614,29640,29641
CQUADX4,12458,1,8496,8555,29641,29642
CQUADX4,12459,1,8437,8496,29642,29643
CQUADX4,12460,1,8378,8437,29643,29644
CQUADX4,12461,1,8319,8378,29644,29645
CQUADX4,12462,1,8260,8319,29645,29646
CQUADX4,12463,1,8201,8260,29646,29647
CQUADX4,12464,1,8142,8201,29647,29648
CQUADX4,12465,1,8083,8142,29648,29649
CQUADX4,12466,1,8024,8083,29649,29650
CQUADX4,12467,1,7965,8024,29650,29651
CQUADX4,12468,1,7906,7965,29651,29652
CQUADX4,12469,1,7847,7906,29652,29653
CQUADX4,12470,1,7788,7847,29653,29654
CQUADX4,12471,1,7729,7788,29654,29655
CQUADX4,12472,1,7670,7729,29655,29656
CQUADX4,12473,1,7611,7670,29656,29657
CQUADX4,12474,1,7552,7611,29657,29658
CQUADX4,12475,1,7493,7552,29658,29659
CQUADX4,12476,1,7434,7493,29659,29660
CQUADX4,12477,1,7375,7434,29660,29661
CQUADX4,12478,1,7316,7375,29661,29662
CQUADX4,12479,1,7257,7316,29662,29663
CQUADX4,12480,1,7198,7257,29663,29664
CQUADX4,12481,1,7139,7198,29664,29665
CQUADX4,12482,1,7080,7139,29665,29666
CQUADX4,12483,1,7021,7080,29666,29667
CQUADX4,12484,1,6962,7021,29667,29668
CQUADX4,12485,1,6903,6962,29668,29669
CQUADX4,12486,1,6844,6903,29669,29670
CQUADX4,12487,1,6785,6844,29670,29671
CQUADX4,12488,1,6726,6785,29671,29672
CQUADX4,12489,1,6667,6726,29672,29673
CQUADX4,12490,1,6608,6667,29673,29674
CQUADX4,12491,1,6549,6608,29674,29675
CQUADX4,12492,1,6490,6549,29675,29676
CQUADX4,12493,1,6431,6490,29676,29677
CQUADX4,12494,1,6372,6431,29677,29678
CQUADX4,12495,1,6313,6372,29678,29679
CQUADX4,12496,1,6254,6313,29679,29680
CQUADX4,12497,1,6195,6254,29680,29681
CQUADX4,12498,1,6136,6195,29681,29682
CQUADX4,12499,1,6077,6136,29682,29683
CQUADX4,12500,1,6018,6077,29683,29684
CQUADX4,12501,1,5959,6018,29684,29685
CQUADX4,12502,1,5900,5959,29685,29686
CQUADX4,12503,1,5841,5900,29686,29687
CQUADX4,12504,1,5782,5841,29687,29688
CQUADX4,12505,1,5723,5782,29688,29689
CQUADX4,12506,1,5664,5723,29689,29690
CQUADX4,12507,1,5605,5664,29690,29691
CQUADX4,12508,1,5546,5605,29691,29692
CQUADX4,12509,1,5487,5546,29692,29693
CQUADX4,12510,1,5428,5487,29693,29694
CQUADX4,12511,1,5369,5428,29694,29695
CQUADX4,12512,1,5310,5369,29695,29696
CQUADX4,12513,1,5251,5310,29696,29697
CQUADX4,12514,1,5192,5251,29697,29698
CQUADX4,12515,1,5133,5192,29698,29699
CQUADX4,12516,1,5074,5133,29699,29700
CQUADX4,12517,1,5015,5074,29700,29701
CQUADX4,12518,1,4956,5015,29701,29702
CQUADX4,12519,1,4897,4956,29702,29703
CQUADX4,12520,1,4838,4897,29703,29704
CQUADX4,12521,1,4779,4838,29704,29705
CQUADX4,12522,1,4720,4779,29705,29706
CQUADX4,12523,1,4661,4720,29706,29707
CQUADX4,12524,1,4602,4661,29707,29708
CQUADX4,12525,1,4543,4602,29708,29709
CQUADX4,12526,1,4484,4543,29709,29710
CQUADX4,12527,1,4425,4484,29710,29711
CQUADX4,12528,1,4366,4425,29711,29712
CQUADX4,12529,1,4307,4366,29712,29713
CQUADX4,12530,1,4248,4307,29713,29714
CQUADX4,12531,1,4189,4248,29714,29715
CQUADX4,12532,1,4130,4189,29715,29716
CQUADX4,12533,1,4071,4130,29716,29717
CQUADX4,12534,1,4012,4071,29717,29718
CQUADX4,12535,1,3953,4012,29718,29719
CQUADX4,12536,1,3894,3953,29719,29720
CQUADX4,12537,1,3835,3894,29720,29721
CQUADX4,12538,1,3776,3835,29721,29722
CQUADX4,12539,1,3717,3776,29722,29723
CQUADX4,12540,1,3658,3717,29723,29724
CQUADX4,12541,1,3599,3658,29724,29725
CQUADX4,12542,1,3540,3599,29725,29726
CQUADX4,12543,1,3481,3540,29726,29727
CQUADX4,12544,1,3422,3481,29727,29728
CQUADX4,12545,1,3363,3422,29728,29729
CQUADX4,12546,1,3304,3363,29729,29730
CQUADX4,12547,1,3245,3304,29730,29731
CQUADX4,12548,1,3186,3245,29731,29732
CQUADX4,12549,1,3127,3186,29732,29733
CQUADX4,12550,1,3068,3127,29733,29734
CQUADX4,12551,1,3009,3068,29734,29735
CQUADX4,12552,1,2950,3009,29735,29736
CQUADX4,12553,1,2891,2950,29736,29737
CQUADX4,12554,1,2832,2891,29737,29738
CQUADX4,12555,1,2773,2832,29738,29739
CQUADX4,12556,1,2714,2773,29739,29740
CQUADX4,12557,1,2655,2714,29740,29741
CQUADX4,12558,1,2596,2655,29741,29742
CQUADX4,12559,1,2537,2596,29742,29743
CQUADX4,12560,1,2478,2537,29743,29744
CQUADX4,12561,1,2419,2478,29744,29745
CQUADX4,12562,1,2360,2419,29745,29746
CQUADX4,12563,1,2301,2360,29746,29747
CQUADX4,12564,1,2242,2301,29747,29748
CQUADX4,12565,1,2183,2242,29748,29749
CQUADX4,12566,1,2124,2183,29749,29750
CQUADX4,12567,1,2065,2124,29750,29751
CQUADX4,12568,1,2006,2065,29751,29752
CQUADX4,12569,1,1947,2006,29752,29753
CQUADX4,12570,1,1888,1947,29753,29754
CQUADX4,12571,1,1829,1888,29754,29755
CQUADX4,12572,1,1770,1829,29755,29756
CQUADX4,12573,1,1711,1770,29756,29757
CQUADX4,12574,1,1652,1711,29757,29758
CQUADX4,12575,1,1593,1652,29758,29759
CQUADX4,12576,1,1534,1593,29759,29760
CQUADX4,12577,1,1475,1534,29760,29761
CQUADX4,12578,1,1416,1475,29761,29762
CQUADX4,12579,1,1357,1416,29762,29763
CQUADX4,12580,1,1298,1357,29763,29764
CQUADX4,12581,1,1239,1298,29764,29765
CQUADX4,12582,1,1180,1239,29765,29766
CQUADX4,12583,1,1121,1180,29766,29767
CQUADX4,12584,1,1062,1121,29767,29768
CQUADX4,12585,1,1003,1062,29768,29769
CQUADX4,12586,1,944,1003,29769,29770
CQUADX4,12587,1,885,944,29770,29771
CQUADX4,12588,1,826,885,29771,29772
CQUADX4,12589,1,767,826,29772,29773
CQUADX4,12590,1,708,767,29773,29774
CQUADX4,12591,1,649,708,29774,29775
CQUADX4,12592,1,590,649,29775,29776
CQUADX4,12593,1,531,590,29776,29777
CQUADX4,12594,1,472,531,29777,29778
CQUADX4,12595,1,413,472,29778,29779
CQUADX4,12596,1,354,413,29779,29780
CQUADX4,12597,1,295,354,29780,29781
CQUADX4,12598,1,236,295,29781,29782
CQUADX4,12599,1,177,236,29782,29783
CQUADX4,12600,1,118,177,29783,29784
CQUADX4,12601,1,59,118,29784,29785
CQUADX4,12602,1,29996,59,29785,30835
CQUADX4,12603,1,29997,58,59,29996
CQUADX4,12604,1,29998,57,58,29997
CQUADX4,12605,1,29999,56,57,29998
CQUADX4,12606,1,30000,55,56,29999
CQUADX4,12607,1,30001,54,55,30000
CQUADX4,12608,1,30002,53,54,30001
CQUADX4,12609,1,30003,52,53,30002
CQUADX4,12610,1,30004,51,52,30003
CQUADX4,12611,1,30005,50,51,30004
CQUADX4,12612,1,30006,49,50,30005
CQUADX4,12613,1,30007,48,49,30006
CQUADX4,12614,1,30008,47,48,30007
CQUADX4,12615,1,30009,46,47,30008
CQUADX4,12616,1,30010,45,46,30009
CQUADX4,12617,1,30011,44,45,30010
CQUADX4,12618,1,30012,43,44,30011
CQUADX4,12619,1,30013,42,43,30012
CQUADX4,12620,1,30014,41,42,30013
CQUADX4,12621,1,30015,40,41,30014
CQUADX4,12622,1,30016,39,40,30015
CQUADX4,12623,1,30017,38,39,30016
CQUADX4,12624,1,30018,37,38,30017
CQUADX4,12625,1,30019,36,37,30018
CQUADX4,12626,1,30020,35,36,30019
CQUADX4,12627,1,30021,34,35,30020
CQUADX4,12628,1,30022,33,34,30021
CQUADX4,12629,1,30023,32,33,30022
CQUADX4,12630,1,30024,31,32,30023
CQUADX4,12631,1,30025,30,31,30024
CQUADX4,12632,1,30026,29,30,30025
CQUADX4,12633,1,30027,28,29,30026
CQUADX4,12634,1,30028,27,28,30027
CQUADX4,12635,1,30029,26,27,30028
CQUADX4,12636,1,30030,25,26,30029
CQUADX4,12637,1,30031,24,25,30030
CQUADX4,12638,1,30032,23,24,30031
CQUADX4,12639,1,30033,22,23,30032
CQUADX4,12640,1,30034,21,22,30033
CQUADX4,12641,1,30035,20,21,30034
CQUADX4,12642,1,30036,19,20,30035
CQUADX4,12643,1,30037,18,19,30036
CQUADX4,12644,1,30038,17,18,30037
CQUADX4,12645,1,30039,16,17,30038
CQUADX4,12646,1,30040,15,16,30039
CQUADX4,12647,1,30041,14,15,30040
CQUADX4,12648,1,30042,13,14,30041
CQUADX4,12649,1,30043,12,13,30042
CQUADX4,12650,1,30044,11,12,30043
CQUADX4,12651,1,30045,10,11,30044
CQUADX4,12652,1,30046,9,10,30045
CQUADX4,12653,1,30047,8,9,30046
CQUADX4,12654,1,30048,7,8,30047
CQUADX4,12655,1,30049,6,7,30048
CQUADX4,12656,1,30050,5,6,30049
CQUADX4,12657,1,30051,4,5,30050
CQUADX4,12658,1,30052,3,4,30051
CQUADX4,12659,1,30053,2,3,30052
CQUADX4,12660,1,30054,1,2,30053
CQUADX4,12661,1,12391,12402,12403,12392
CQUADX4,12662,1,12392,12403,12404,12393
CQUADX4,12663,1,12393,12404,12405,12394
CQUADX4,12664,1,12394,12405,12406,12395
CQUADX4,12665,1,12395,12406,12407,12396
CQUADX4,12666,1,12396,12407,12408,12397
CQUADX4,12667,1,12397,12408,12409,12398
CQUADX4,12668,1,12398,12409,12410,12399
CQUADX4,12669,1,12399,12410,12411,12400
CQUADX4,12670,1,12400,12411,12412,12401
CQUADX4,12671,1,12402,12413,12414,12403
CQUADX4,12672,1,12403,12414,12415,12404
CQUADX4,12673,1,12404,12415,12416,12405
CQUADX4,12674,1,12405,12416,12417,12406
CQUADX4,12675,1,12406,12417,12418,12407
CQUADX4,12676,1,12407,12418,12419,12408
CQUADX4,12677,1,12408,12419,12420,12409
CQUADX4,12678,1,12409,12420,12421,12410
CQUADX4,12679,1,12410,12421,12422,12411
CQUADX4,12680,1,12411,12422,12423,12412
CQUADX4,12681,1,12413,12424,12425,12414
CQUADX4,12682,1,12414,12425,12426,12415
CQUADX4,12683,1,12415,12426,12427,12416
CQUADX4,12684,1,12416,12427,12428,12417
CQUADX4,12685,1,12417,12428,12429,12418
CQUADX4,12686,1,12418,12429,12430,12419
CQUADX4,12687,1,12419,12430,12431,12420
CQUADX4,12688,1,12420,12431,12432,12421
CQUADX4,12689,1,12421,12432,12433,12422
CQUADX4,12690,1,12422,12433,12434,12423
CQUADX4,12691,1,12424,12435,12436,12425
CQUADX4,12692,1,12425,12436,12437,12426
CQUADX4,12693,1,12426,12437,12438,12427
CQUADX4,12694,1,12427,12438,12439,12428
CQUADX4,12695,1,12428,12439,12440,12429
CQUADX4,12696,1,12429,12440,12441,12430
CQUADX4,12697,1,12430,12441,12442,12431
CQUADX4,12698,1,12431,12442,12443,12432
CQUADX4,12699,1,12432,12443,12444,12433
CQUADX4,12700,1,12433,12444,12445,12434
CQUADX4,12701,1,12435,12446,12447,12436
CQUADX4,12702,1,12436,12447,12448,12437
CQUADX4,12703,1,12437,12448,12449,12438
CQUADX4,12704,1,12438,12449,12450,12439
CQUADX4,12705,1,12439,12450,12451,12440
CQUADX4,12706,1,12440,12451,12452,12441
CQUADX4,12707,1,12441,12452,12453,12442
CQUADX4,12708,1,12442,12453,12454,12443
CQUADX4,12709,1,12443,12454,12455,12444
CQUADX4,12710,1,12444,12455,12456,12445
CQUADX4,12711,1,12446,12457,12458,12447
CQUADX4,12712,1,12447,12458,12459,12448
CQUADX4,12713,1,12448,12459,12460,12449
CQUADX4,12714,1,12449,12460,12461,12450
CQUADX4,12715,1,12450,12461,12462,12451
CQUADX4,12716,1,12451,12462,12463,12452
CQUADX4,12717,1,12452,12463,12464,12453
CQUADX4,12718,1,12453,12464,12465,12454
CQUADX4,12719,1,12454,12465,12466,12455
CQUADX4,12720,1,12455,12466,12467,12456
CQUADX4,12721,1,12457,12468,12469,12458
CQUADX4,12722,1,12458,12469,12470,12459
CQUADX4,12723,1,12459,12470,12471,12460
CQUADX4,12724,1,12460,12471,12472,12461
CQUADX4,12725,1,12461,12472,12473,12462
CQUADX4,12726,1,12462,12473,12474,12463
CQUADX4,12727,1,12463,12474,12475,12464
CQUADX4,12728,1,12464,12475,12476,12465
CQUADX4,12729,1,12465,12476,12477,12466
CQUADX4,12730,1,12466,12477,12478,12467
CQUADX4,12731,1,12468,12479,12480,12469
CQUADX4,12732,1,12469,12480,12481,12470
CQUADX4,12733,1,12470,12481,12482,12471
CQUADX4,12734,1,12471,12482,12483,12472
CQUADX4,12735,1,12472,12483,12484,12473
CQUADX4,12736,1,12473,12484,12485,12474
CQUADX4,12737,1,12474,12485,12486,12475
CQUADX4,12738,1,12475,12486,12487,12476
CQUADX4,12739,1,12476,12487,12488,12477
CQUADX4,12740,1,12477,12488,12489,12478
CQUADX4,12741,1,12479,12490,12491,12480
CQUADX4,12742,1,12480,12491,12492,12481
CQUADX4,12743,1,12481,12492,12493,12482
CQUADX4,12744,1,12482,12493,12494,12483
CQUADX4,12745,1,12483,12494,12495,12484
CQUADX4,12746,1,12484,12495,12496,12485
CQUADX4,12747,1,12485,12496,12497,12486
CQUADX4,12748,1,12486,12497,12498,12487
CQUADX4,12749,1,12487,12498,12499,12488
CQUADX4,12750,1,12488,12499,12500,12489
CQUADX4,12751,1,12490,12501,12502,12491
CQUADX4,12752,1,12491,12502,12503,12492
CQUADX4,12753,1,12492,12503,12504,12493
CQUADX4,12754,1,12493,12504,12505,12494
CQUADX4,12755,1,12494,12505,12506,12495
CQUADX4,12756,1,12495,12506,12507,12496
CQUADX4,12757,1,12496,12507,12508,12497
CQUADX4,12758,1,12497,12508,12509,12498
CQUADX4,12759,1,12498,12509,12510,12499
CQUADX4,12760,1,12499,12510,12511,12500
CQUADX4,12761,1,12501,12512,12513,12502
CQUADX4,12762,1,12502,12513,12514,12503
CQUADX4,12763,1,12503,12514,12515,12504
CQUADX4,12764,1,12504,12515,12516,12505
CQUADX4,12765,1,12505,12516,12517,12506
CQUADX4,12766,1,12506,12517,12518,12507
CQUADX4,12767,1,12507,12518,12519,12508
CQUADX4,12768,1,12508,12519,12520,12509
CQUADX4,12769,1,12509,12520,12521,12510
CQUADX4,12770,1,12510,12521,12522,12511
CQUADX4,12771,1,12512,12523,12524,12513
CQUADX4,12772,1,12513,12524,12525,12514
CQUADX4,12773,1,12514,12525,12526,12515
CQUADX4,12774,1,12515,12526,12527,12516
CQUADX4,12775,1,12516,12527,12528,12517
CQUADX4,12776,1,12517,12528,12529,12518
CQUADX4,12777,1,12518,12529,12530,12519
CQUADX4,12778,1,12519,12530,12531,12520
CQUADX4,12779,1,12520,12531,12532,12521
CQUADX4,12780,1,12521,12532,12533,12522
CQUADX4,12781,1,12523,12534,12535,12524
CQUADX4,12782,1,12524,12535,12536,12525
CQUADX4,12783,1,12525,12536,12537,12526
CQUADX4,12784,1,12526,12537,12538,12527
CQUADX4,12785,1,12527,12538,12539,12528
CQUADX4,12786,1,12528,12539,12540,12529
CQUADX4,12787,1,12529,12540,12541,12530
CQUADX4,12788,1,12530,12541,12542,12531
CQUADX4,12789,1,12531,12542,12543,12532
CQUADX4,12790,1,12532,12543,12544,12533
CQUADX4,12791,1,12534,12545,12546,12535
CQUADX4,12792,1,12535,12546,12547,12536
CQUADX4,12793,1,12536,12547,12548,12537
CQUADX4,12794,1,12537,12548,12549,12538
CQUADX4,12795,1,12538,12549,12550,12539
CQUADX4,12796,1,12539,12550,12551,12540
CQUADX4,12797,1,12540,12551,12552,12541
CQUADX4,12798,1,12541,12552,12553,12542
CQUADX4,12799,1,12542,12553,12554,12543
CQUADX4,12800,1,12543,12554,12555,12544
CQUADX4,12801,1,12545,12556,12557,12546
CQUADX4,12802,1,12546,12557,12558,12547
CQUADX4,12803,1,12547,12558,12559,12548
CQUADX4,12804,1,12548,12559,12560,12549
CQUADX4,12805,1,12549,12560,12561,12550
CQUADX4,12806,1,12550,12561,12562,12551
CQUADX4,12807,1,12551,12562,12563,12552
CQUADX4,12808,1,12552,12563,12564,12553
CQUADX4,12809,1,12553,12564,12565,12554
CQUADX4,12810,1,12554,12565,12566,12555
CQUADX4,12811,1,12556,12567,12568,12557
CQUADX4,12812,1,12557,12568,12569,12558
CQUADX4,12813,1,12558,12569,12570,12559
CQUADX4,12814,1,12559,12570,12571,12560
CQUADX4,12815,1,12560,12571,12572,12561
CQUADX4,12816,1,12561,12572,12573,12562
CQUADX4,12817,1,12562,12573,12574,12563
CQUADX4,12818,1,12563,12574,12575,12564
CQUADX4,12819,1,12564,12575,12576,12565
CQUADX4,12820,1,12565,12576,12577,12566
CQUADX4,12821,1,12567,12578,12579,12568
CQUADX4,12822,1,12568,12579,12580,12569
CQUADX4,12823,1,12569,12580,12581,12570
CQUADX4,12824,1,12570,12581,12582,12571
CQUADX4,12825,1,12571,12582,12583,12572
CQUADX4,12826,1,12572,12583,12584,12573
CQUADX4,12827,1,12573,12584,12585,12574
CQUADX4,12828,1,12574,12585,12586,12575
CQUADX4,12829,1,12575,12586,12587,12576
CQUADX4,12830,1,12576,12587,12588,12577
CQUADX4,12831,1,12578,12589,12590,12579
CQUADX4,12832,1,12579,12590,12591,12580
CQUADX4,12833,1,12580,12591,12592,12581
CQUADX4,12834,1,12581,12592,12593,12582
CQUADX4,12835,1,12582,12593,12594,12583
CQUADX4,12836,1,12583,12594,12595,12584
CQUADX4,12837,1,12584,12595,12596,12585
CQUADX4,12838,1,12585,12596,12597,12586
CQUADX4,12839,1,12586,12597,12598,12587
CQUADX4,12840,1,12587,12598,12599,12588
CQUADX4,12841,1,12589,12600,12601,12590
CQUADX4,12842,1,12590,12601,12602,12591
CQUADX4,12843,1,12591,12602,12603,12592
CQUADX4,12844,1,12592,12603,12604,12593
CQUADX4,12845,1,12593,12604,12605,12594
CQUADX4,12846,1,12594,12605,12606,12595
CQUADX4,12847,1,12595,12606,12607,12596
CQUADX4,12848,1,12596,12607,12608,12597
CQUADX4,12849,1,12597,12608,12609,12598
CQUADX4,12850,1,12598,12609,12610,12599
CQUADX4,12851,1,12600,12611,12612,12601
CQUADX4,12852,1,12601,12612,12613,12602
CQUADX4,12853,1,12602,12613,12614,12603
CQUADX4,12854,1,12603,12614,12615,12604
CQUADX4,12855,1,12604,12615,12616,12605
CQUADX4,12856,1,12605,12616,12617,12606
CQUADX4,12857,1,12606,12617,12618,12607
CQUADX4,12858,1,12607,12618,12619,12608
CQUADX4,12859,1,12608,12619,12620,12609
CQUADX4,12860,1,12609,12620,12621,12610
CQUADX4,12861,1,12611,12622,12623,12612
CQUADX4,12862,1,12612,12623,12624,12613
CQUADX4,12863,1,12613,12624,12625,12614
CQUADX4,12864,1,12614,12625,12626,12615
CQUADX4,12865,1,12615,12626,12627,12616
CQUADX4,12866,1,12616,12627,12628,12617
CQUADX4,12867,1,12617,12628,12629,12618
CQUADX4,12868,1,12618,12629,12630,12619
CQUADX4,12869,1,12619,12630,12631,12620
CQUADX4,12870,1,12620,12631,12632,12621
CQUADX4,12871,1,12622,12633,12634,12623
CQUADX4,12872,1,12623,12634,12635,12624
CQUADX4,12873,1,12624,12635,12636,12625
CQUADX4,12874,1,12625,12636,12637,12626
CQUADX4,12875,1,12626,12637,12638,12627
CQUADX4,12876,1,12627,12638,12639,12628
CQUADX4,12877,1,12628,12639,12640,12629
CQUADX4,12878,1,12629,12640,12641,12630
CQUADX4,12879,1,12630,12641,12642,12631
CQUADX4,12880,1,12631,12642,12643,12632
CQUADX4,12881,1,12633,12644,12645,12634
CQUADX4,12882,1,12634,12645,12646,12635
CQUADX4,12883,1,12635,12646,12647,12636
CQUADX4,12884,1,12636,12647,12648,12637
CQUADX4,12885,1,12637,12648,12649,12638
CQUADX4,12886,1,12638,12649,12650,12639
CQUADX4,12887,1,12639,12650,12651,12640
CQUADX4,12888,1,12640,12651,12652,12641
CQUADX4,12889,1,12641,12652,12653,12642
CQUADX4,12890,1,12642,12653,12654,12643
CQUADX4,12891,1,12644,12655,12656,12645
CQUADX4,12892,1,12645,12656,12657,12646
CQUADX4,12893,1,12646,12657,12658,12647
CQUADX4,12894,1,12647,12658,12659,12648
CQUADX4,12895,1,12648,12659,12660,12649
CQUADX4,12896,1,12649,12660,12661,12650
CQUADX4,12897,1,12650,12661,12662,12651
CQUADX4,12898,1,12651,12662,12663,12652
CQUADX4,12899,1,12652,12663,12664,12653
CQUADX4,12900,1,12653,12664,12665,12654
CQUADX4,12901,1,12655,12666,12667,12656
CQUADX4,12902,1,12656,12667,12668,12657
CQUADX4,12903,1,12657,12668,12669,12658
CQUADX4,12904,1,12658,12669,12670,12659
CQUADX4,12905,1,12659,12670,12671,12660
CQUADX4,12906,1,12660,12671,12672,12661
CQUADX4,12907,1,12661,12672,12673,12662
CQUADX4,12908,1,12662,12673,12674,12663
CQUADX4,12909,1,12663,12674,12675,12664
CQUADX4,12910,1,12664,12675,12676,12665
CQUADX4,12911,1,12666,12677,12678,12667
CQUADX4,12912,1,12667,12678,12679,12668
CQUADX4,12913,1,12668,12679,12680,12669
CQUADX4,12914,1,12669,12680,12681,12670
CQUADX4,12915,1,12670,12681,12682,12671
CQUADX4,12916,1,12671,12682,12683,12672
CQUADX4,12917,1,12672,12683,12684,12673
CQUADX4,12918,1,12673,12684,12685,12674
CQUADX4,12919,1,12674,12685,12686,12675
CQUADX4,12920,1,12675,12686,12687,12676
CQUADX4,12921,1,12677,12688,12689,12678
CQUADX4,12922,1,12678,12689,12690,12679
CQUADX4,12923,1,12679,12690,12691,12680
CQUADX4,12924,1,12680,12691,12692,12681
CQUADX4,12925,1,12681,12692,12693,12682
CQUADX4,12926,1,12682,12693,12694,12683
CQUADX4,12927,1,12683,12694,12695,12684
CQUADX4,12928,1,12684,12695,12696,12685
CQUADX4,12929,1,12685,12696,12697,12686
CQUADX4,12930,1,12686,12697,12698,12687
CQUADX4,12931,1,12688,12699,12700,12689
CQUADX4,12932,1,12689,12700,12701,12690
CQUADX4,12933,1,12690,12701,12702,12691
CQUADX4,12934,1,12691,12702,12703,12692
CQUADX4,12935,1,12692,12703,12704,12693
CQUADX4,12936,1,12693,12704,12705,12694
CQUADX4,12937,1,12694,12705,12706,12695
CQUADX4,12938,1,12695,12706,12707,12696
CQUADX4,12939,1,12696,12707,12708,12697
CQUADX4,12940,1,12697,12708,12709,12698
CQUADX4,12941,1,12699,12710,12711,12700
CQUADX4,12942,1,12700,12711,12712,12701
CQUADX4,12943,1,12701,12712,12713,12702
CQUADX4,12944,1,12702,12713,12714,12703
CQUADX4,12945,1,12703,12714,12715,12704
CQUADX4,12946,1,12704,12715,12716,12705
CQUADX4,12947,1,12705,12716,12717,12706
CQUADX4,12948,1,12706,12717,12718,12707
CQUADX4,12949,1,12707,12718,12719,12708
CQUADX4,12950,1,12708,12719,12720,12709
CQUADX4,12951,1,12710,12721,12722,12711
CQUADX4,12952,1,12711,12722,12723,12712
CQUADX4,12953,1,12712,12723,12724,12713
CQUADX4,12954,1,12713,12724,12725,12714
CQUADX4,12955,1,12714,12725,12726,12715
CQUADX4,12956,1,12715,12726,12727,12716
CQUADX4,12957,1,12716,12727,12728,12717
CQUADX4,12958,1,12717,12728,12729,12718
CQUADX4,12959,1,12718,12729,12730,12719
CQUADX4,12960,1,12719,12730,12731,12720
CQUADX4,12961,1,12721,12732,12733,12722
CQUADX4,12962,1,12722,12733,12734,12723
CQUADX4,12963,1,12723,12734,12735,12724
CQUADX4,12964,1,12724,12735,12736,12725
CQUADX4,12965,1,12725,12736,12737,12726
CQUADX4,12966,1,12726,12737,12738,12727
CQUADX4,12967,1,12727,12738,12739,12728
CQUADX4,12968,1,12728,12739,12740,12729
CQUADX4,12969,1,12729,12740,12741,12730
CQUADX4,12970,1,12730,12741,12742,12731
CQUADX4,12971,1,12732,12743,12744,12733
CQUADX4,12972,1,12733,12744,12745,12734
CQUADX4,12973,1,12734,12745,12746,12735
CQUADX4,12974,1,12735,12746,12747,12736
CQUADX4,12975,1,12736,12747,12748,12737
CQUADX4,12976,1,12737,12748,12749,12738
CQUADX4,12977,1,12738,12749,12750,12739
CQUADX4,12978,1,12739,12750,12751,12740
CQUADX4,12979,1,12740,12751,12752,12741
CQUADX4,12980,1,12741,12752,12753,12742
CQUADX4,12981,1,12743,12754,12755,12744
CQUADX4,12982,1,12744,12755,12756,12745
CQUADX4,12983,1,12745,12756,12757,12746
CQUADX4,12984,1,12746,12757,12758,12747
CQUADX4,12985,1,12747,12758,12759,12748
CQUADX4,12986,1,12748,12759,12760,12749
CQUADX4,12987,1,12749,12760,12761,12750
CQUADX4,12988,1,12750,12761,12762,12751
CQUADX4,12989,1,12751,12762,12763,12752
CQUADX4,12990,1,12752,12763,12764,12753
CQUADX4,12991,1,12754,12765,12766,12755
CQUADX4,12992,1,12755,12766,12767,12756
CQUADX4,12993,1,12756,12767,12768,12757
CQUADX4,12994,1,12757,12768,12769,12758
CQUADX4,12995,1,12758,12769,12770,12759
CQUADX4,12996,1,12759,12770,12771,12760
CQUADX4,12997,1,12760,12771,12772,12761
CQUADX4,12998,1,12761,12772,12773,12762
CQUADX4,12999,1,12762,12773,12774,12763
CQUADX4,13000,1,12763,12774,12775,12764
CQUADX4,13001,1,12765,12776,12777,12766
CQUADX4,13002,1,12766,12777,12778,12767
CQUADX4,13003,1,12767,12778,12779,12768
CQUADX4,13004,1,12768,12779,12780,12769
CQUADX4,13005,1,12769,12780,12781,12770
CQUADX4,13006,1,12770,12781,12782,12771
CQUADX4,13007,1,12771,12782,12783,12772
CQUADX4,13008,1,12772,12783,12784,12773
CQUADX4,13009,1,12773,12784,12785,12774
CQUADX4,13010,1,12774,12785,12786,12775
CQUADX4,13011,1,12776,12787,12788,12777
CQUADX4,13012,1,12777,12788,12789,12778
CQUADX4,13013,1,12778,12789,12790,12779
CQUADX4,13014,1,12779,12790,12791,12780
CQUADX4,13015,1,12780,12791,12792,12781
CQUADX4,13016,1,12781,12792,12793,12782
CQUADX4,13017,1,12782,12793,12794,12783
CQUADX4,13018,1,12783,12794,12795,12784
CQUADX4,13019,1,12784,12795,12796,12785
CQUADX4,13020,1,12785,12796,12797,12786
CQUADX4,13021,1,12787,12798,12799,12788
CQUADX4,13022,1,12788,12799,12800,12789
CQUADX4,13023,1,12789,12800,12801,12790
CQUADX4,13024,1,12790,12801,12802,12791
CQUADX4,13025,1,12791,12802,12803,12792
CQUADX4,13026,1,12792,12803,12804,12793
CQUADX4,13027,1,12793,12804,12805,12794
CQUADX4,13028,1,12794,12805,12806,12795
CQUADX4,13029,1,12795,12806,12807,12796
CQUADX4,13030,1,12796,12807,12808,12797
CQUADX4,13031,1,12798,12809,12810,12799
CQUADX4,13032,1,12799,12810,12811,12800
CQUADX4,13033,1,12800,12811,12812,12801
CQUADX4,13034,1,12801,12812,12813,12802
CQUADX4,13035,1,12802,12813,12814,12803
CQUADX4,13036,1,12803,12814,12815,12804
CQUADX4,13037,1,12804,12815,12816,12805
CQUADX4,13038,1,12805,12816,12817,12806
CQUADX4,13039,1,12806,12817,12818,12807
CQUADX4,13040,1,12807,12818,12819,12808
CQUADX4,13041,1,30839,30116,12391,30104
CQUADX4,13042,1,30116,30117,12402,12391
CQUADX4,13043,1,30117,30118,12413,12402
CQUADX4,13044,1,30118,30119,12424,12413
CQUADX4,13045,1,30119,30120,12435,12424
CQUADX4,13046,1,30120,30121,12446,12435
CQUADX4,13047,1,30121,30122,12457,12446
CQUADX4,13048,1,30122,30123,12468,12457
CQUADX4,13049,1,30123,30124,12479,12468
CQUADX4,13050,1,30124,30125,12490,12479
CQUADX4,13051,1,30125,30126,12501,12490
CQUADX4,13052,1,30126,30127,12512,12501
CQUADX4,13053,1,30127,30128,12523,12512
CQUADX4,13054,1,30128,30129,12534,12523
CQUADX4,13055,1,30129,30130,12545,12534
CQUADX4,13056,1,30130,30131,12556,12545
CQUADX4,13057,1,30131,30132,12567,12556
CQUADX4,13058,1,30132,30133,12578,12567
CQUADX4,13059,1,30133,30134,12589,12578
CQUADX4,13060,1,30134,30135,12600,12589
CQUADX4,13061,1,30135,30136,12611,12600
CQUADX4,13062,1,30136,30137,12622,12611
CQUADX4,13063,1,30137,30138,12633,12622
CQUADX4,13064,1,30138,30139,12644,12633
CQUADX4,13065,1,30139,30140,12655,12644
CQUADX4,13066,1,30140,30141,12666,12655
CQUADX4,13067,1,30141,30142,12677,12666
CQUADX4,13068,1,30142,30143,12688,12677
CQUADX4,13069,1,30143,30144,12699,12688
CQUADX4,13070,1,30144,30145,12710,12699
CQUADX4,13071,1,30145,30146,12721,12710
CQUADX4,13072,1,30146,30147,12732,12721
CQUADX4,13073,1,30147,30148,12743,12732
CQUADX4,13074,1,30148,30149,12754,12743
CQUADX4,13075,1,30149,30150,12765,12754
CQUADX4,13076,1,30150,30151,12776,12765
CQUADX4,13077,1,30151,30152,12787,12776
CQUADX4,13078,1,30152,30153,12798,12787
CQUADX4,13079,1,30153,30154,12809,12798
CQUADX4,13080,1,30154,30840,30105,12809
CQUADX4,13081,1,12809,30105,30106,12810
CQUADX4,13082,1,12810,30106,30107,12811
CQUADX4,13083,1,12811,30107,30108,12812
CQUADX4,13084,1,12812,30108,30109,12813
CQUADX4,13085,1,12813,30109,30110,12814
CQUADX4,13086,1,12814,30110,30111,12815
CQUADX4,13087,1,12815,30111,30112,12816
CQUADX4,13088,1,12816,30112,30113,12817
CQUADX4,13089,1,12817,30113,30114,12818
CQUADX4,13090,1,12818,30114,30115,12819
CQUADX4,13091,1,12819,30115,30837,30055
CQUADX4,13092,1,12808,12819,30055,30056
CQUADX4,13093,1,12797,12808,30056,30057
CQUADX4,13094,1,12786,12797,30057,30058
CQUADX4,13095,1,12775,12786,30058,30059
CQUADX4,13096,1,12764,12775,30059,30060
CQUADX4,13097,1,12753,12764,30060,30061
CQUADX4,13098,1,12742,12753,30061,30062
CQUADX4,13099,1,12731,12742,30062,30063
CQUADX4,13100,1,12720,12731,30063,30064
CQUADX4,13101,1,12709,12720,30064,30065
CQUADX4,13102,1,12698,12709,30065,30066
CQUADX4,13103,1,12687,12698,30066,30067
CQUADX4,13104,1,12676,12687,30067,30068
CQUADX4,13105,1,12665,12676,30068,30069
CQUADX4,13106,1,12654,12665,30069,30070
CQUADX4,13107,1,12643,12654,30070,30071
CQUADX4,13108,1,12632,12643,30071,30072
CQUADX4,13109,1,12621,12632,30072,30073
CQUADX4,13110,1,12610,12621,30073,30074
CQUADX4,13111,1,12599,12610,30074,30075
CQUADX4,13112,1,12588,12599,30075,30076
CQUADX4,13113,1,12577,12588,30076,30077
CQUADX4,13114,1,12566,12577,30077,30078
CQUADX4,13115,1,12555,12566,30078,30079
CQUADX4,13116,1,12544,12555,30079,30080
CQUADX4,13117,1,12533,12544,30080,30081
CQUADX4,13118,1,12522,12533,30081,30082
CQUADX4,13119,1,12511,12522,30082,30083
CQUADX4,13120,1,12500,12511,30083,30084
CQUADX4,13121,1,12489,12500,30084,30085
CQUADX4,13122,1,12478,12489,30085,30086
CQUADX4,13123,1,12467,12478,30086,30087
CQUADX4,13124,1,12456,12467,30087,30088
CQUADX4,13125,1,12445,12456,30088,30089
CQUADX4,13126,1,12434,12445,30089,30090
CQUADX4,13127,1,12423,12434,30090,30091
CQUADX4,13128,1,12412,12423,30091,30092
CQUADX4,13129,1,12401,12412,30092,30093
CQUADX4,13130,1,30094,12401,30093,30838
CQUADX4,13131,1,30095,12400,12401,30094
CQUADX4,13132,1,30096,12399,12400,30095
CQUADX4,13133,1,30097,12398,12399,30096
CQUADX4,13134,1,30098,12397,12398,30097
CQUADX4,13135,1,30099,12396,12397,30098
CQUADX4,13136,1,30100,12395,12396,30099
CQUADX4,13137,1,30101,12394,12395,30100
CQUADX4,13138,1,30102,12393,12394,30101
CQUADX4,13139,1,30103,12392,12393,30102
CQUADX4,13140,1,30104,12391,12392,30103
CQUADX4,13141,1,12854,12855,12821,12820
CQUADX4,13142,1,12855,12856,12822,12821
CQUADX4,13143,1,12856,12857,12823,12822
CQUADX4,13144,1,12857,12858,12824,12823
CQUADX4,13145,1,12858,12859,12825,12824
CQUADX4,13146,1,12859,12860,12826,12825
CQUADX4,13147,1,12860,12861,12827,12826
CQUADX4,13148,1,12861,12862,12828,12827
CQUADX4,13149,1,12862,12863,12829,12828
CQUADX4,13150,1,12863,12864,12830,12829
CQUADX4,13151,1,12864,12865,12831,12830
CQUADX4,13152,1,12865,12866,12832,12831
CQUADX4,13153,1,12866,12867,12833,12832
CQUADX4,13154,1,12867,12868,12834,12833
CQUADX4,13155,1,12868,12869,12835,12834
CQUADX4,13156,1,12869,12870,12836,12835
CQUADX4,13157,1,12870,12871,12837,12836
CQUADX4,13158,1,12871,12872,12838,12837
CQUADX4,13159,1,12872,12873,12839,12838
CQUADX4,13160,1,12873,12874,12840,12839
CQUADX4,13161,1,12874,12875,12841,12840
CQUADX4,13162,1,12875,12876,12842,12841
CQUADX4,13163,1,12876,12877,12843,12842
CQUADX4,13164,1,12877,12878,12844,12843
CQUADX4,13165,1,12878,12879,12845,12844
CQUADX4,13166,1,12879,12880,12846,12845
CQUADX4,13167,1,12880,12881,12847,12846
CQUADX4,13168,1,12881,12882,12848,12847
CQUADX4,13169,1,12882,12883,12849,12848
CQUADX4,13170,1,12883,12884,12850,12849
CQUADX4,13171,1,12884,12885,12851,12850
CQUADX4,13172,1,12885,12886,12852,12851
CQUADX4,13173,1,12886,12887,12853,12852
CQUADX4,13174,1,12888,12889,12855,12854
CQUADX4,13175,1,12889,12890,12856,12855
CQUADX4,13176,1,12890,12891,12857,12856
CQUADX4,13177,1,12891,12892,12858,12857
CQUADX4,13178,1,12892,12893,12859,12858
CQUADX4,13179,1,12893,12894,12860,12859
CQUADX4,13180,1,12894,12895,12861,12860
CQUADX4,13181,1,12895,12896,12862,12861
CQUADX4,13182,1,12896,12897,12863,12862
CQUADX4,13183,1,12897,12898,12864,12863
CQUADX4,13184,1,12898,12899,12865,12864
CQUADX4,13185,1,12899,12900,12866,12865
CQUADX4,13186,1,12900,12901,12867,12866
CQUADX4,13187,1,12901,12902,12868,12867
CQUADX4,13188,1,12902,12903,12869,12868
CQUADX4,13189,1,12903,12904,12870,12869
CQUADX4,13190,1,12904,12905,12871,12870
CQUADX4,13191,1,12905,12906,12872,12871
CQUADX4,13192,1,12906,12907,12873,12872
CQUADX4,13193,1,12907,12908,12874,12873
CQUADX4,13194,1,12908,12909,12875,12874
CQUADX4,13195,1,12909,12910,12876,12875
CQUADX4,13196,1,12910,12911,12877,12876
CQUADX4,13197,1,12911,12912,12878,12877
CQUADX4,13198,1,12912,12913,12879,12878
CQUADX4,13199,1,12913,12914,12880,12879
CQUADX4,13200,1,12914,12915,12881,12880
CQUADX4,13201,1,12915,12916,12882,12881
CQUADX4,13202,1,12916,12917,12883,12882
CQUADX4,13203,1,12917,12918,12884,12883
CQUADX4,13204,1,12918,12919,12885,12884
CQUADX4,13205,1,12919,12920,12886,12885
CQUADX4,13206,1,12920,12921,12887,12886
CQUADX4,13207,1,12922,12923,12889,12888
CQUADX4,13208,1,12923,12924,12890,12889
CQUADX4,13209,1,12924,12925,12891,12890
CQUADX4,13210,1,12925,12926,12892,12891
CQUADX4,13211,1,12926,12927,12893,12892
CQUADX4,13212,1,12927,12928,12894,12893
CQUADX4,13213,1,12928,12929,12895,12894
CQUADX4,13214,1,12929,12930,12896,12895
CQUADX4,13215,1,12930,12931,12897,12896
CQUADX4,13216,1,12931,12932,12898,12897
CQUADX4,13217,1,12932,12933,12899,12898
CQUADX4,13218,1,12933,12934,12900,12899
CQUADX4,13219,1,12934,12935,12901,12900
CQUADX4,13220,1,12935,12936,12902,12901
CQUADX4,13221,1,12936,12937,12903,12902
CQUADX4,13222,1,12937,12938,12904,12903
CQUADX4,13223,1,12938,12939,12905,12904
CQUADX4,13224,1,12939,12940,12906,12905
CQUADX4,13225,1,12940,12941,12907,12906
CQUADX4,13226,1,12941,12942,12908,12907
CQUADX4,13227,1,12942,12943,12909,12908
CQUADX4,13228,1,12943,12944,12910,12909
CQUADX4,13229,1,12944,12945,12911,12910
CQUADX4,13230,1,12945,12946,12912,12911
CQUADX4,13231,1,12946,12947,12913,12912
CQUADX4,13232,1,12947,12948,12914,12913
CQUADX4,13233,1,12948,12949,12915,12914
CQUADX4,13234,1,12949,12950,12916,12915
CQUADX4,13235,1,12950,12951,12917,12916
CQUADX4,13236,1,12951,12952,12918,12917
CQUADX4,13237,1,12952,12953,12919,12918
CQUADX4,13238,1,12953,12954,12920,12919
CQUADX4,13239,1,12954,12955,12921,12920
CQUADX4,13240,1,12956,12957,12923,12922
CQUADX4,13241,1,12957,12958,12924,12923
CQUADX4,13242,1,12958,12959,12925,12924
CQUADX4,13243,1,12959,12960,12926,12925
CQUADX4,13244,1,12960,12961,12927,12926
CQUADX4,13245,1,12961,12962,12928,12927
CQUADX4,13246,1,12962,12963,12929,12928
CQUADX4,13247,1,12963,12964,12930,12929
CQUADX4,13248,1,12964,12965,12931,12930
CQUADX4,13249,1,12965,12966,12932,12931
CQUADX4,13250,1,12966,12967,12933,12932
CQUADX4,13251,1,12967,12968,12934,12933
CQUADX4,13252,1,12968,12969,12935,12934
CQUADX4,13253,1,12969,12970,12936,12935
CQUADX4,13254,1,12970,12971,12937,12936
CQUADX4,13255,1,12971,12972,12938,12937
CQUADX4,13256,1,12972,12973,12939,12938
CQUADX4,13257,1,12973,12974,12940,12939
CQUADX4,13258,1,12974,12975,12941,12940
CQUADX4,13259,1,12975,12976,12942,12941
CQUADX4,13260,1,12976,12977,12943,12942
CQUADX4,13261,1,12977,12978,12944,12943
CQUADX4,13262,1,12978,12979,12945,12944
CQUADX4,13263,1,12979,12980,12946,12945
CQUADX4,13264,1,12980,12981,12947,12946
CQUADX4,13265,1,12981,12982,12948,12947
CQUADX4,13266,1,12982,12983,12949,12948
CQUADX4,13267,1,12983,12984,12950,12949
CQUADX4,13268,1,12984,12985,12951,12950
CQUADX4,13269,1,12985,12986,12952,12951
CQUADX4,13270,1,12986,12987,12953,12952
CQUADX4,13271,1,12987,12988,12954,12953
CQUADX4,13272,1,12988,12989,12955,12954
CQUADX4,13273,1,12990,12991,12957,12956
CQUADX4,13274,1,12991,12992,12958,12957
CQUADX4,13275,1,12992,12993,12959,12958
CQUADX4,13276,1,12993,12994,12960,12959
CQUADX4,13277,1,12994,12995,12961,12960
CQUADX4,13278,1,12995,12996,12962,12961
CQUADX4,13279,1,12996,12997,12963,12962
CQUADX4,13280,1,12997,12998,12964,12963
CQUADX4,13281,1,12998,12999,12965,12964
CQUADX4,13282,1,12999,13000,12966,12965
CQUADX4,13283,1,13000,13001,12967,12966
CQUADX4,13284,1,13001,13002,12968,12967
CQUADX4,13285,1,13002,13003,12969,12968
CQUADX4,13286,1,13003,13004,12970,12969
CQUADX4,13287,1,13004,13005,12971,12970
CQUADX4,13288,1,13005,13006,12972,12971
CQUADX4,13289,1,13006,13007,12973,12972
CQUADX4,13290,1,13007,13008,12974,12973
CQUADX4,13291,1,13008,13009,12975,12974
CQUADX4,13292,1,13009,13010,12976,12975
CQUADX4,13293,1,13010,13011,12977,12976
CQUADX4,13294,1,13011,13012,12978,12977
CQUADX4,13295,1,13012,13013,12979,12978
CQUADX4,13296,1,13013,13014,12980,12979
CQUADX4,13297,1,13014,13015,12981,12980
CQUADX4,13298,1,13015,13016,12982,12981
CQUADX4,13299,1,13016,13017,12983,12982
CQUADX4,13300,1,13017,13018,12984,12983
CQUADX4,13301,1,13018,13019,12985,12984
CQUADX4,13302,1,13019,13020,12986,12985
CQUADX4,13303,1,13020,13021,12987,12986
CQUADX4,13304,1,13021,13022,12988,12987
CQUADX4,13305,1,13022,13023,12989,12988
CQUADX4,13306,1,13024,13025,12991,12990
CQUADX4,13307,1,13025,13026,12992,12991
CQUADX4,13308,1,13026,13027,12993,12992
CQUADX4,13309,1,13027,13028,12994,12993
CQUADX4,13310,1,13028,13029,12995,12994
CQUADX4,13311,1,13029,13030,12996,12995
CQUADX4,13312,1,13030,13031,12997,12996
CQUADX4,13313,1,13031,13032,12998,12997
CQUADX4,13314,1,13032,13033,12999,12998
CQUADX4,13315,1,13033,13034,13000,12999
CQUADX4,13316,1,13034,13035,13001,13000
CQUADX4,13317,1,13035,13036,13002,13001
CQUADX4,13318,1,13036,13037,13003,13002
CQUADX4,13319,1,13037,13038,13004,13003
CQUADX4,13320,1,13038,13039,13005,13004
CQUADX4,13321,1,13039,13040,13006,13005
CQUADX4,13322,1,13040,13041,13007,13006
CQUADX4,13323,1,13041,13042,13008,13007
CQUADX4,13324,1,13042,13043,13009,13008
CQUADX4,13325,1,13043,13044,13010,13009
CQUADX4,13326,1,13044,13045,13011,13010
CQUADX4,13327,1,13045,13046,13012,13011
CQUADX4,13328,1,13046,13047,13013,13012
CQUADX4,13329,1,13047,13048,13014,13013
CQUADX4,13330,1,13048,13049,13015,13014
CQUADX4,13331,1,13049,13050,13016,13015
CQUADX4,13332,1,13050,13051,13017,13016
CQUADX4,13333,1,13051,13052,13018,13017
CQUADX4,13334,1,13052,13053,13019,13018
CQUADX4,13335,1,13053,13054,13020,13019
CQUADX4,13336,1,13054,13055,13021,13020
CQUADX4,13337,1,13055,13056,13022,13021
CQUADX4,13338,1,13056,13057,13023,13022
CQUADX4,13339,1,13058,13059,13025,13024
CQUADX4,13340,1,13059,13060,13026,13025
CQUADX4,13341,1,13060,13061,13027,13026
CQUADX4,13342,1,13061,13062,13028,13027
CQUADX4,13343,1,13062,13063,13029,13028
CQUADX4,13344,1,13063,13064,13030,13029
CQUADX4,13345,1,13064,13065,13031,13030
CQUADX4,13346,1,13065,13066,13032,13031
CQUADX4,13347,1,13066,13067,13033,13032
CQUADX4,13348,1,13067,13068,13034,13033
CQUADX4,13349,1,13068,13069,13035,13034
CQUADX4,13350,1,13069,13070,13036,13035
CQUADX4,13351,1,13070,13071,13037,13036
CQUADX4,13352,1,13071,13072,13038,13037
CQUADX4,13353,1,13072,13073,13039,13038
CQUADX4,13354,1,13073,13074,13040,13039
CQUADX4,13355,1,13074,13075,13041,13040
CQUADX4,13356,1,13075,13076,13042,13041
CQUADX4,13357,1,13076,13077,13043,13042
CQUADX4,13358,1,13077,13078,13044,13043
CQUADX4,13359,1,13078,13079,13045,13044
CQUADX4,13360,1,13079,13080,13046,13045
CQUADX4,13361,1,13080,13081,13047,13046
CQUADX4,13362,1,13081,13082,13048,13047
CQUADX4,13363,1,13082,13083,13049,13048
CQUADX4,13364,1,13083,13084,13050,13049
CQUADX4,13365,1,13084,13085,13051,13050
CQUADX4,13366,1,13085,13086,13052,13051
CQUADX4,13367,1,13086,13087,13053,13052
CQUADX4,13368,1,13087,13088,13054,13053
CQUADX4,13369,1,13088,13089,13055,13054
CQUADX4,13370,1,13089,13090,13056,13055
CQUADX4,13371,1,13090,13091,13057,13056
CQUADX4,13372,1,13092,13093,13059,13058
CQUADX4,13373,1,13093,13094,13060,13059
CQUADX4,13374,1,13094,13095,13061,13060
CQUADX4,13375,1,13095,13096,13062,13061
CQUADX4,13376,1,13096,13097,13063,13062
CQUADX4,13377,1,13097,13098,13064,13063
CQUADX4,13378,1,13098,13099,13065,13064
CQUADX4,13379,1,13099,13100,13066,13065
CQUADX4,13380,1,13100,13101,13067,13066
CQUADX4,13381,1,13101,13102,13068,13067
CQUADX4,13382,1,13102,13103,13069,13068
CQUADX4,13383,1,13103,13104,13070,13069
CQUADX4,13384,1,13104,13105,13071,13070
CQUADX4,13385,1,13105,13106,13072,13071
CQUADX4,13386,1,13106,13107,13073,13072
CQUADX4,13387,1,13107,13108,13074,13073
CQUADX4,13388,1,13108,13109,13075,13074
CQUADX4,13389,1,13109,13110,13076,13075
CQUADX4,13390,1,13110,13111,13077,13076
CQUADX4,13391,1,13111,13112,13078,13077
CQUADX4,13392,1,13112,13113,13079,13078
CQUADX4,13393,1,13113,13114,13080,13079
CQUADX4,13394,1,13114,13115,13081,13080
CQUADX4,13395,1,13115,13116,13082,13081
CQUADX4,13396,1,13116,13117,13083,13082
CQUADX4,13397,1,13117,13118,13084,13083
CQUADX4,13398,1,13118,13119,13085,13084
CQUADX4,13399,1,13119,13120,13086,13085
CQUADX4,13400,1,13120,13121,13087,13086
CQUADX4,13401,1,13121,13122,13088,13087
CQUADX4,13402,1,13122,13123,13089,13088
CQUADX4,13403,1,13123,13124,13090,13089
CQUADX4,13404,1,13124,13125,13091,13090
CQUADX4,13405,1,13126,13127,13093,13092
CQUADX4,13406,1,13127,13128,13094,13093
CQUADX4,13407,1,13128,13129,13095,13094
CQUADX4,13408,1,13129,13130,13096,13095
CQUADX4,13409,1,13130,13131,13097,13096
CQUADX4,13410,1,13131,13132,13098,13097
CQUADX4,13411,1,13132,13133,13099,13098
CQUADX4,13412,1,13133,13134,13100,13099
CQUADX4,13413,1,13134,13135,13101,13100
CQUADX4,13414,1,13135,13136,13102,13101
CQUADX4,13415,1,13136,13137,13103,13102
CQUADX4,13416,1,13137,13138,13104,13103
CQUADX4,13417,1,13138,13139,13105,13104
CQUADX4,13418,1,13139,13140,13106,13105
CQUADX4,13419,1,13140,13141,13107,13106
CQUADX4,13420,1,13141,13142,13108,13107
CQUADX4,13421,1,13142,13143,13109,13108
CQUADX4,13422,1,13143,13144,13110,13109
CQUADX4,13423,1,13144,13145,13111,13110
CQUADX4,13424,1,13145,13146,13112,13111
CQUADX4,13425,1,13146,13147,13113,13112
CQUADX4,13426,1,13147,13148,13114,13113
CQUADX4,13427,1,13148,13149,13115,13114
CQUADX4,13428,1,13149,13150,13116,13115
CQUADX4,13429,1,13150,13151,13117,13116
CQUADX4,13430,1,13151,13152,13118,13117
CQUADX4,13431,1,13152,13153,13119,13118
CQUADX4,13432,1,13153,13154,13120,13119
CQUADX4,13433,1,13154,13155,13121,13120
CQUADX4,13434,1,13155,13156,13122,13121
CQUADX4,13435,1,13156,13157,13123,13122
CQUADX4,13436,1,13157,13158,13124,13123
CQUADX4,13437,1,13158,13159,13125,13124
CQUADX4,13438,1,13160,13161,13127,13126
CQUADX4,13439,1,13161,13162,13128,13127
CQUADX4,13440,1,13162,13163,13129,13128
CQUADX4,13441,1,13163,13164,13130,13129
CQUADX4,13442,1,13164,13165,13131,13130
CQUADX4,13443,1,13165,13166,13132,13131
CQUADX4,13444,1,13166,13167,13133,13132
CQUADX4,13445,1,13167,13168,13134,13133
CQUADX4,13446,1,13168,13169,13135,13134
CQUADX4,13447,1,13169,13170,13136,13135
CQUADX4,13448,1,13170,13171,13137,13136
CQUADX4,13449,1,13171,13172,13138,13137
CQUADX4,13450,1,13172,13173,13139,13138
CQUADX4,13451,1,13173,13174,13140,13139
CQUADX4,13452,1,13174,13175,13141,13140
CQUADX4,13453,1,13175,13176,13142,13141
CQUADX4,13454,1,13176,13177,13143,13142
CQUADX4,13455,1,13177,13178,13144,13143
CQUADX4,13456,1,13178,13179,13145,13144
CQUADX4,13457,1,13179,13180,13146,13145
CQUADX4,13458,1,13180,13181,13147,13146
CQUADX4,13459,1,13181,13182,13148,13147
CQUADX4,13460,1,13182,13183,13149,13148
CQUADX4,13461,1,13183,13184,13150,13149
CQUADX4,13462,1,13184,13185,13151,13150
CQUADX4,13463,1,13185,13186,13152,13151
CQUADX4,13464,1,13186,13187,13153,13152
CQUADX4,13465,1,13187,13188,13154,13153
CQUADX4,13466,1,13188,13189,13155,13154
CQUADX4,13467,1,13189,13190,13156,13155
CQUADX4,13468,1,13190,13191,13157,13156
CQUADX4,13469,1,13191,13192,13158,13157
CQUADX4,13470,1,13192,13193,13159,13158
CQUADX4,13471,1,13194,13195,13161,13160
CQUADX4,13472,1,13195,13196,13162,13161
CQUADX4,13473,1,13196,13197,13163,13162
CQUADX4,13474,1,13197,13198,13164,13163
CQUADX4,13475,1,13198,13199,13165,13164
CQUADX4,13476,1,13199,13200,13166,13165
CQUADX4,13477,1,13200,13201,13167,13166
CQUADX4,13478,1,13201,13202,13168,13167
CQUADX4,13479,1,13202,13203,13169,13168
CQUADX4,13480,1,13203,13204,13170,13169
CQUADX4,13481,1,13204,13205,13171,13170
CQUADX4,13482,1,13205,13206,13172,13171
CQUADX4,13483,1,13206,13207,13173,13172
CQUADX4,13484,1,13207,13208,13174,13173
CQUADX4,13485,1,13208,13209,13175,13174
CQUADX4,13486,1,13209,13210,13176,13175
CQUADX4,13487,1,13210,13211,13177,13176
CQUADX4,13488,1,13211,13212,13178,13177
CQUADX4,13489,1,13212,13213,13179,13178
CQUADX4,13490,1,13213,13214,13180,13179
CQUADX4,13491,1,13214,13215,13181,13180
CQUADX4,13492,1,13215,13216,13182,13181
CQUADX4,13493,1,13216,13217,13183,13182
CQUADX4,13494,1,13217,13218,13184,13183
CQUADX4,13495,1,13218,13219,13185,13184
CQUADX4,13496,1,13219,13220,13186,13185
CQUADX4,13497,1,13220,13221,13187,13186
CQUADX4,13498,1,13221,13222,13188,13187
CQUADX4,13499,1,13222,13223,13189,13188
CQUADX4,13500,1,13223,13224,13190,13189
CQUADX4,13501,1,13224,13225,13191,13190
CQUADX4,13502,1,13225,13226,13192,13191
CQUADX4,13503,1,13226,13227,13193,13192
CQUADX4,13504,1,13228,13229,13195,13194
CQUADX4,13505,1,13229,13230,13196,13195
CQUADX4,13506,1,13230,13231,13197,13196
CQUADX4,13507,1,13231,13232,13198,13197
CQUADX4,13508,1,13232,13233,13199,13198
CQUADX4,13509,1,13233,13234,13200,13199
CQUADX4,13510,1,13234,13235,13201,13200
CQUADX4,13511,1,13235,13236,13202,13201
CQUADX4,13512,1,13236,13237,13203,13202
CQUADX4,13513,1,13237,13238,13204,13203
CQUADX4,13514,1,13238,13239,13205,13204
CQUADX4,13515,1,13239,13240,13206,13205
CQUADX4,13516,1,13240,13241,13207,13206
CQUADX4,13517,1,13241,13242,13208,13207
CQUADX4,13518,1,13242,13243,13209,13208
CQUADX4,13519,1,13243,13244,13210,13209
CQUADX4,13520,1,13244,13245,13211,13210
CQUADX4,13521,1,13245,13246,13212,13211
CQUADX4,13522,1,13246,13247,13213,13212
CQUADX4,13523,1,13247,13248,13214,13213
CQUADX4,13524,1,13248,13249,13215,13214
CQUADX4,13525,1,13249,13250,13216,13215
CQUADX4,13526,1,13250,13251,13217,13216
CQUADX4,13527,1,13251,13252,13218,13217
CQUADX4,13528,1,13252,13253,13219,13218
CQUADX4,13529,1,13253,13254,13220,13219
CQUADX4,13530,1,13254,13255,13221,13220
CQUADX4,13531,1,13255,13256,13222,13221
CQUADX4,13532,1,13256,13257,13223,13222
CQUADX4,13533,1,13257,13258,13224,13223
CQUADX4,13534,1,13258,13259,13225,13224
CQUADX4,13535,1,13259,13260,13226,13225
CQUADX4,13536,1,13260,13261,13227,13226
CQUADX4,13537,1,13262,13263,13229,13228
CQUADX4,13538,1,13263,13264,13230,13229
CQUADX4,13539,1,13264,13265,13231,13230
CQUADX4,13540,1,13265,13266,13232,13231
CQUADX4,13541,1,13266,13267,13233,13232
CQUADX4,13542,1,13267,13268,13234,13233
CQUADX4,13543,1,13268,13269,13235,13234
CQUADX4,13544,1,13269,13270,13236,13235
CQUADX4,13545,1,13270,13271,13237,13236
CQUADX4,13546,1,13271,13272,13238,13237
CQUADX4,13547,1,13272,13273,13239,13238
CQUADX4,13548,1,13273,13274,13240,13239
CQUADX4,13549,1,13274,13275,13241,13240
CQUADX4,13550,1,13275,13276,13242,13241
CQUADX4,13551,1,13276,13277,13243,13242
CQUADX4,13552,1,13277,13278,13244,13243
CQUADX4,13553,1,13278,13279,13245,13244
CQUADX4,13554,1,13279,13280,13246,13245
CQUADX4,13555,1,13280,13281,13247,13246
CQUADX4,13556,1,13281,13282,13248,13247
CQUADX4,13557,1,13282,13283,13249,13248
CQUADX4,13558,1,13283,13284,13250,13249
CQUADX4,13559,1,13284,13285,13251,13250
CQUADX4,13560,1,13285,13286,13252,13251
CQUADX4,13561,1,13286,13287,13253,13252
CQUADX4,13562,1,13287,13288,13254,13253
CQUADX4,13563,1,13288,13289,13255,13254
CQUADX4,13564,1,13289,13290,13256,13255
CQUADX4,13565,1,13290,13291,13257,13256
CQUADX4,13566,1,13291,13292,13258,13257
CQUADX4,13567,1,13292,13293,13259,13258
CQUADX4,13568,1,13293,13294,13260,13259
CQUADX4,13569,1,13294,13295,13261,13260
CQUADX4,13570,1,13296,13297,13263,13262
CQUADX4,13571,1,13297,13298,13264,13263
CQUADX4,13572,1,13298,13299,13265,13264
CQUADX4,13573,1,13299,13300,13266,13265
CQUADX4,13574,1,13300,13301,13267,13266
CQUADX4,13575,1,13301,13302,13268,13267
CQUADX4,13576,1,13302,13303,13269,13268
CQUADX4,13577,1,13303,13304,13270,13269
CQUADX4,13578,1,13304,13305,13271,13270
CQUADX4,13579,1,13305,13306,13272,13271
CQUADX4,13580,1,13306,13307,13273,13272
CQUADX4,13581,1,13307,13308,13274,13273
CQUADX4,13582,1,13308,13309,13275,13274
CQUADX4,13583,1,13309,13310,13276,13275
CQUADX4,13584,1,13310,13311,13277,13276
CQUADX4,13585,1,13311,13312,13278,13277
CQUADX4,13586,1,13312,13313,13279,13278
CQUADX4,13587,1,13313,13314,13280,13279
CQUADX4,13588,1,13314,13315,13281,13280
CQUADX4,13589,1,13315,13316,13282,13281
CQUADX4,13590,1,13316,13317,13283,13282
CQUADX4,13591,1,13317,13318,13284,13283
CQUADX4,13592,1,13318,13319,13285,13284
CQUADX4,13593,1,13319,13320,13286,13285
CQUADX4,13594,1,13320,13321,13287,13286
CQUADX4,13595,1,13321,13322,13288,13287
CQUADX4,13596,1,13322,13323,13289,13288
CQUADX4,13597,1,13323,13324,13290,13289
CQUADX4,13598,1,13324,13325,13291,13290
CQUADX4,13599,1,13325,13326,13292,13291
CQUADX4,13600,1,13326,13327,13293,13292
CQUADX4,13601,1,13327,13328,13294,13293
CQUADX4,13602,1,13328,13329,13295,13294
CQUADX4,13603,1,13330,13331,13297,13296
CQUADX4,13604,1,13331,13332,13298,13297
CQUADX4,13605,1,13332,13333,13299,13298
CQUADX4,13606,1,13333,13334,13300,13299
CQUADX4,13607,1,13334,13335,13301,13300
CQUADX4,13608,1,13335,13336,13302,13301
CQUADX4,13609,1,13336,13337,13303,13302
CQUADX4,13610,1,13337,13338,13304,13303
CQUADX4,13611,1,13338,13339,13305,13304
CQUADX4,13612,1,13339,13340,13306,13305
CQUADX4,13613,1,13340,13341,13307,13306
CQUADX4,13614,1,13341,13342,13308,13307
CQUADX4,13615,1,13342,13343,13309,13308
CQUADX4,13616,1,13343,13344,13310,13309
CQUADX4,13617,1,13344,13345,13311,13310
CQUADX4,13618,1,13345,13346,13312,13311
CQUADX4,13619,1,13346,13347,13313,13312
CQUADX4,13620,1,13347,13348,13314,13313
CQUADX4,13621,1,13348,13349,13315,13314
CQUADX4,13622,1,13349,13350,13316,13315
CQUADX4,13623,1,13350,13351,13317,13316
CQUADX4,13624,1,13351,13352,13318,13317
CQUADX4,13625,1,13352,13353,13319,13318
CQUADX4,13626,1,13353,13354,13320,13319
CQUADX4,13627,1,13354,13355,13321,13320
CQUADX4,13628,1,13355,13356,13322,13321
CQUADX4,13629,1,13356,13357,13323,13322
CQUADX4,13630,1,13357,13358,13324,13323
CQUADX4,13631,1,13358,13359,13325,13324
CQUADX4,13632,1,13359,13360,13326,13325
CQUADX4,13633,1,13360,13361,13327,13326
CQUADX4,13634,1,13361,13362,13328,13327
CQUADX4,13635,1,13362,13363,13329,13328
CQUADX4,13636,1,13364,13365,13331,13330
CQUADX4,13637,1,13365,13366,13332,13331
CQUADX4,13638,1,13366,13367,13333,13332
CQUADX4,13639,1,13367,13368,13334,13333
CQUADX4,13640,1,13368,13369,13335,13334
CQUADX4,13641,1,13369,13370,13336,13335
CQUADX4,13642,1,13370,13371,13337,13336
CQUADX4,13643,1,13371,13372,13338,13337
CQUADX4,13644,1,13372,13373,13339,13338
CQUADX4,13645,1,13373,13374,13340,13339
CQUADX4,13646,1,13374,13375,13341,13340
CQUADX4,13647,1,13375,13376,13342,13341
CQUADX4,13648,1,13376,13377,13343,13342
CQUADX4,13649,1,13377,13378,13344,13343
CQUADX4,13650,1,13378,13379,13345,13344
CQUADX4,13651,1,13379,13380,13346,13345
CQUADX4,13652,1,13380,13381,13347,13346
CQUADX4,13653,1,13381,13382,13348,13347
CQUADX4,13654,1,13382,13383,13349,13348
CQUADX4,13655,1,13383,13384,13350,13349
CQUADX4,13656,1,13384,13385,13351,13350
CQUADX4,13657,1,13385,13386,13352,13351
CQUADX4,13658,1,13386,13387,13353,13352
CQUADX4,13659,1,13387,13388,13354,13353
CQUADX4,13660,1,13388,13389,13355,13354
CQUADX4,13661,1,13389,13390,13356,13355
CQUADX4,13662,1,13390,13391,13357,13356
CQUADX4,13663,1,13391,13392,13358,13357
CQUADX4,13664,1,13392,13393,13359,13358
CQUADX4,13665,1,13393,13394,13360,13359
CQUADX4,13666,1,13394,13395,13361,13360
CQUADX4,13667,1,13395,13396,13362,13361
CQUADX4,13668,1,13396,13397,13363,13362
CQUADX4,13669,1,13398,13399,13365,13364
CQUADX4,13670,1,13399,13400,13366,13365
CQUADX4,13671,1,13400,13401,13367,13366
CQUADX4,13672,1,13401,13402,13368,13367
CQUADX4,13673,1,13402,13403,13369,13368
CQUADX4,13674,1,13403,13404,13370,13369
CQUADX4,13675,1,13404,13405,13371,13370
CQUADX4,13676,1,13405,13406,13372,13371
CQUADX4,13677,1,13406,13407,13373,13372
CQUADX4,13678,1,13407,13408,13374,13373
CQUADX4,13679,1,13408,13409,13375,13374
CQUADX4,13680,1,13409,13410,13376,13375
CQUADX4,13681,1,13410,13411,13377,13376
CQUADX4,13682,1,13411,13412,13378,13377
CQUADX4,13683,1,13412,13413,13379,13378
CQUADX4,13684,1,13413,13414,13380,13379
CQUADX4,13685,1,13414,13415,13381,13380
CQUADX4,13686,1,13415,13416,13382,13381
CQUADX4,13687,1,13416,13417,13383,13382
CQUADX4,13688,1,13417,13418,13384,13383
CQUADX4,13689,1,13418,13419,13385,13384
CQUADX4,13690,1,13419,13420,13386,13385
CQUADX4,13691,1,13420,13421,13387,13386
CQUADX4,13692,1,13421,13422,13388,13387
CQUADX4,13693,1,13422,13423,13389,13388
CQUADX4,13694,1,13423,13424,13390,13389
CQUADX4,13695,1,13424,13425,13391,13390
CQUADX4,13696,1,13425,13426,13392,13391
CQUADX4,13697,1,13426,13427,13393,13392
CQUADX4,13698,1,13427,13428,13394,13393
CQUADX4,13699,1,13428,13429,13395,13394
CQUADX4,13700,1,13429,13430,13396,13395
CQUADX4,13701,1,13430,13431,13397,13396
CQUADX4,13702,1,13432,13433,13399,13398
CQUADX4,13703,1,13433,13434,13400,13399
CQUADX4,13704,1,13434,13435,13401,13400
CQUADX4,13705,1,13435,13436,13402,13401
CQUADX4,13706,1,13436,13437,13403,13402
CQUADX4,13707,1,13437,13438,13404,13403
CQUADX4,13708,1,13438,13439,13405,13404
CQUADX4,13709,1,13439,13440,13406,13405
CQUADX4,13710,1,13440,13441,13407,13406
CQUADX4,13711,1,13441,13442,13408,13407
CQUADX4,13712,1,13442,13443,13409,13408
CQUADX4,13713,1,13443,13444,13410,13409
CQUADX4,13714,1,13444,13445,13411,13410
CQUADX4,13715,1,13445,13446,13412,13411
CQUADX4,13716,1,13446,13447,13413,13412
CQUADX4,13717,1,13447,13448,13414,13413
CQUADX4,13718,1,13448,13449,13415,13414
CQUADX4,13719,1,13449,13450,13416,13415
CQUADX4,13720,1,13450,13451,13417,13416
CQUADX4,13721,1,13451,13452,13418,13417
CQUADX4,13722,1,13452,13453,13419,13418
CQUADX4,13723,1,13453,13454,13420,13419
CQUADX4,13724,1,13454,13455,13421,13420
CQUADX4,13725,1,13455,13456,13422,13421
CQUADX4,13726,1,13456,13457,13423,13422
CQUADX4,13727,1,13457,13458,13424,13423
CQUADX4,13728,1,13458,13459,13425,13424
CQUADX4,13729,1,13459,13460,13426,13425
CQUADX4,13730,1,13460,13461,13427,13426
CQUADX4,13731,1,13461,13462,13428,13427
CQUADX4,13732,1,13462,13463,13429,13428
CQUADX4,13733,1,13463,13464,13430,13429
CQUADX4,13734,1,13464,13465,13431,13430
CQUADX4,13735,1,13466,13467,13433,13432
CQUADX4,13736,1,13467,13468,13434,13433
CQUADX4,13737,1,13468,13469,13435,13434
CQUADX4,13738,1,13469,13470,13436,13435
CQUADX4,13739,1,13470,13471,13437,13436
CQUADX4,13740,1,13471,13472,13438,13437
CQUADX4,13741,1,13472,13473,13439,13438
CQUADX4,13742,1,13473,13474,13440,13439
CQUADX4,13743,1,13474,13475,13441,13440
CQUADX4,13744,1,13475,13476,13442,13441
CQUADX4,13745,1,13476,13477,13443,13442
CQUADX4,13746,1,13477,13478,13444,13443
CQUADX4,13747,1,13478,13479,13445,13444
CQUADX4,13748,1,13479,13480,13446,13445
CQUADX4,13749,1,13480,13481,13447,13446
CQUADX4,13750,1,13481,13482,13448,13447
CQUADX4,13751,1,13482,13483,13449,13448
CQUADX4,13752,1,13483,13484,13450,13449
CQUADX4,13753,1,13484,13485,13451,13450
CQUADX4,13754,1,13485,13486,13452,13451
CQUADX4,13755,1,13486,13487,13453,13452
CQUADX4,13756,1,13487,13488,13454,13453
CQUADX4,13757,1,13488,13489,13455,13454
CQUADX4,13758,1,13489,13490,13456,13455
CQUADX4,13759,1,13490,13491,13457,13456
CQUADX4,13760,1,13491,13492,13458,13457
CQUADX4,13761,1,13492,13493,13459,13458
CQUADX4,13762,1,13493,13494,13460,13459
CQUADX4,13763,1,13494,13495,13461,13460
CQUADX4,13764,1,13495,13496,13462,13461
CQUADX4,13765,1,13496,13497,13463,13462
CQUADX4,13766,1,13497,13498,13464,13463
CQUADX4,13767,1,13498,13499,13465,13464
CQUADX4,13768,1,13500,13501,13467,13466
CQUADX4,13769,1,13501,13502,13468,13467
CQUADX4,13770,1,13502,13503,13469,13468
CQUADX4,13771,1,13503,13504,13470,13469
CQUADX4,13772,1,13504,13505,13471,13470
CQUADX4,13773,1,13505,13506,13472,13471
CQUADX4,13774,1,13506,13507,13473,13472
CQUADX4,13775,1,13507,13508,13474,13473
CQUADX4,13776,1,13508,13509,13475,13474
CQUADX4,13777,1,13509,13510,13476,13475
CQUADX4,13778,1,13510,13511,13477,13476
CQUADX4,13779,1,13511,13512,13478,13477
CQUADX4,13780,1,13512,13513,13479,13478
CQUADX4,13781,1,13513,13514,13480,13479
CQUADX4,13782,1,13514,13515,13481,13480
CQUADX4,13783,1,13515,13516,13482,13481
CQUADX4,13784,1,13516,13517,13483,13482
CQUADX4,13785,1,13517,13518,13484,13483
CQUADX4,13786,1,13518,13519,13485,13484
CQUADX4,13787,1,13519,13520,13486,13485
CQUADX4,13788,1,13520,13521,13487,13486
CQUADX4,13789,1,13521,13522,13488,13487
CQUADX4,13790,1,13522,13523,13489,13488
CQUADX4,13791,1,13523,13524,13490,13489
CQUADX4,13792,1,13524,13525,13491,13490
CQUADX4,13793,1,13525,13526,13492,13491
CQUADX4,13794,1,13526,13527,13493,13492
CQUADX4,13795,1,13527,13528,13494,13493
CQUADX4,13796,1,13528,13529,13495,13494
CQUADX4,13797,1,13529,13530,13496,13495
CQUADX4,13798,1,13530,13531,13497,13496
CQUADX4,13799,1,13531,13532,13498,13497
CQUADX4,13800,1,13532,13533,13499,13498
CQUADX4,13801,1,13534,13535,13501,13500
CQUADX4,13802,1,13535,13536,13502,13501
CQUADX4,13803,1,13536,13537,13503,13502
CQUADX4,13804,1,13537,13538,13504,13503
CQUADX4,13805,1,13538,13539,13505,13504
CQUADX4,13806,1,13539,13540,13506,13505
CQUADX4,13807,1,13540,13541,13507,13506
CQUADX4,13808,1,13541,13542,13508,13507
CQUADX4,13809,1,13542,13543,13509,13508
CQUADX4,13810,1,13543,13544,13510,13509
CQUADX4,13811,1,13544,13545,13511,13510
CQUADX4,13812,1,13545,13546,13512,13511
CQUADX4,13813,1,13546,13547,13513,13512
CQUADX4,13814,1,13547,13548,13514,13513
CQUADX4,13815,1,13548,13549,13515,13514
CQUADX4,13816,1,13549,13550,13516,13515
CQUADX4,13817,1,13550,13551,13517,13516
CQUADX4,13818,1,13551,13552,13518,13517
CQUADX4,13819,1,13552,13553,13519,13518
CQUADX4,13820,1,13553,13554,13520,13519
CQUADX4,13821,1,13554,13555,13521,13520
CQUADX4,13822,1,13555,13556,13522,13521
CQUADX4,13823,1,13556,13557,13523,13522
CQUADX4,13824,1,13557,13558,13524,13523
CQUADX4,13825,1,13558,13559,13525,13524
CQUADX4,13826,1,13559,13560,13526,13525
CQUADX4,13827,1,13560,13561,13527,13526
CQUADX4,13828,1,13561,13562,13528,13527
CQUADX4,13829,1,13562,13563,13529,13528
CQUADX4,13830,1,13563,13564,13530,13529
CQUADX4,13831,1,13564,13565,13531,13530
CQUADX4,13832,1,13565,13566,13532,13531
CQUADX4,13833,1,13566,13567,13533,13532
CQUADX4,13834,1,13568,13569,13535,13534
CQUADX4,13835,1,13569,13570,13536,13535
CQUADX4,13836,1,13570,13571,13537,13536
CQUADX4,13837,1,13571,13572,13538,13537
CQUADX4,13838,1,13572,13573,13539,13538
CQUADX4,13839,1,13573,13574,13540,13539
CQUADX4,13840,1,13574,13575,13541,13540
CQUADX4,13841,1,13575,13576,13542,13541
CQUADX4,13842,1,13576,13577,13543,13542
CQUADX4,13843,1,13577,13578,13544,13543
CQUADX4,13844,1,13578,13579,13545,13544
CQUADX4,13845,1,13579,13580,13546,13545
CQUADX4,13846,1,13580,13581,13547,13546
CQUADX4,13847,1,13581,13582,13548,13547
CQUADX4,13848,1,13582,13583,13549,13548
CQUADX4,13849,1,13583,13584,13550,13549
CQUADX4,13850,1,13584,13585,13551,13550
CQUADX4,13851,1,13585,13586,13552,13551
CQUADX4,13852,1,13586,13587,13553,13552
CQUADX4,13853,1,13587,13588,13554,13553
CQUADX4,13854,1,13588,13589,13555,13554
CQUADX4,13855,1,13589,13590,13556,13555
CQUADX4,13856,1,13590,13591,13557,13556
CQUADX4,13857,1,13591,13592,13558,13557
CQUADX4,13858,1,13592,13593,13559,13558
CQUADX4,13859,1,13593,13594,13560,13559
CQUADX4,13860,1,13594,13595,13561,13560
CQUADX4,13861,1,13595,13596,13562,13561
CQUADX4,13862,1,13596,13597,13563,13562
CQUADX4,13863,1,13597,13598,13564,13563
CQUADX4,13864,1,13598,13599,13565,13564
CQUADX4,13865,1,13599,13600,13566,13565
CQUADX4,13866,1,13600,13601,13567,13566
CQUADX4,13867,1,13602,13603,13569,13568
CQUADX4,13868,1,13603,13604,13570,13569
CQUADX4,13869,1,13604,13605,13571,13570
CQUADX4,13870,1,13605,13606,13572,13571
CQUADX4,13871,1,13606,13607,13573,13572
CQUADX4,13872,1,13607,13608,13574,13573
CQUADX4,13873,1,13608,13609,13575,13574
CQUADX4,13874,1,13609,13610,13576,13575
CQUADX4,13875,1,13610,13611,13577,13576
CQUADX4,13876,1,13611,13612,13578,13577
CQUADX4,13877,1,13612,13613,13579,13578
CQUADX4,13878,1,13613,13614,13580,13579
CQUADX4,13879,1,13614,13615,13581,13580
CQUADX4,13880,1,13615,13616,13582,13581
CQUADX4,13881,1,13616,13617,13583,13582
CQUADX4,13882,1,13617,13618,13584,13583
CQUADX4,13883,1,13618,13619,13585,13584
CQUADX4,13884,1,13619,13620,13586,13585
CQUADX4,13885,1,13620,13621,13587,13586
CQUADX4,13886,1,13621,13622,13588,13587
CQUADX4,13887,1,13622,13623,13589,13588
CQUADX4,13888,1,13623,13624,13590,13589
CQUADX4,13889,1,13624,13625,13591,13590
CQUADX4,13890,1,13625,13626,13592,13591
CQUADX4,13891,1,13626,13627,13593,13592
CQUADX4,13892,1,13627,13628,13594,13593
CQUADX4,13893,1,13628,13629,13595,13594
CQUADX4,13894,1,13629,13630,13596,13595
CQUADX4,13895,1,13630,13631,13597,13596
CQUADX4,13896,1,13631,13632,13598,13597
CQUADX4,13897,1,13632,13633,13599,13598
CQUADX4,13898,1,13633,13634,13600,13599
CQUADX4,13899,1,13634,13635,13601,13600
CQUADX4,13900,1,13636,13637,13603,13602
CQUADX4,13901,1,13637,13638,13604,13603
CQUADX4,13902,1,13638,13639,13605,13604
CQUADX4,13903,1,13639,13640,13606,13605
CQUADX4,13904,1,13640,13641,13607,13606
CQUADX4,13905,1,13641,13642,13608,13607
CQUADX4,13906,1,13642,13643,13609,13608
CQUADX4,13907,1,13643,13644,13610,13609
CQUADX4,13908,1,13644,13645,13611,13610
CQUADX4,13909,1,13645,13646,13612,13611
CQUADX4,13910,1,13646,13647,13613,13612
CQUADX4,13911,1,13647,13648,13614,13613
CQUADX4,13912,1,13648,13649,13615,13614
CQUADX4,13913,1,13649,13650,13616,13615
CQUADX4,13914,1,13650,13651,13617,13616
CQUADX4,13915,1,13651,13652,13618,13617
CQUADX4,13916,1,13652,13653,13619,13618
CQUADX4,13917,1,13653,13654,13620,13619
CQUADX4,13918,1,13654,13655,13621,13620
CQUADX4,13919,1,13655,13656,13622,13621
CQUADX4,13920,1,13656,13657,13623,13622
CQUADX4,13921,1,13657,13658,13624,13623
CQUADX4,13922,1,13658,13659,13625,13624
CQUADX4,13923,1,13659,13660,13626,13625
CQUADX4,13924,1,13660,13661,13627,13626
CQUADX4,13925,1,13661,13662,13628,13627
CQUADX4,13926,1,13662,13663,13629,13628
CQUADX4,13927,1,13663,13664,13630,13629
CQUADX4,13928,1,13664,13665,13631,13630
CQUADX4,13929,1,13665,13666,13632,13631
CQUADX4,13930,1,13666,13667,13633,13632
CQUADX4,13931,1,13667,13668,13634,13633
CQUADX4,13932,1,13668,13669,13635,13634
CQUADX4,13933,1,13670,13671,13637,13636
CQUADX4,13934,1,13671,13672,13638,13637
CQUADX4,13935,1,13672,13673,13639,13638
CQUADX4,13936,1,13673,13674,13640,13639
CQUADX4,13937,1,13674,13675,13641,13640
CQUADX4,13938,1,13675,13676,13642,13641
CQUADX4,13939,1,13676,13677,13643,13642
CQUADX4,13940,1,13677,13678,13644,13643
CQUADX4,13941,1,13678,13679,13645,13644
CQUADX4,13942,1,13679,13680,13646,13645
CQUADX4,13943,1,13680,13681,13647,13646
CQUADX4,13944,1,13681,13682,13648,13647
CQUADX4,13945,1,13682,13683,13649,13648
CQUADX4,13946,1,13683,13684,13650,13649
CQUADX4,13947,1,13684,13685,13651,13650
CQUADX4,13948,1,13685,13686,13652,13651
CQUADX4,13949,1,13686,13687,13653,13652
CQUADX4,13950,1,13687,13688,13654,13653
CQUADX4,13951,1,13688,13689,13655,13654
CQUADX4,13952,1,13689,13690,13656,13655
CQUADX4,13953,1,13690,13691,13657,13656
CQUADX4,13954,1,13691,13692,13658,13657
CQUADX4,13955,1,13692,13693,13659,13658
CQUADX4,13956,1,13693,13694,13660,13659
CQUADX4,13957,1,13694,13695,13661,13660
CQUADX4,13958,1,13695,13696,13662,13661
CQUADX4,13959,1,13696,13697,13663,13662
CQUADX4,13960,1,13697,13698,13664,13663
CQUADX4,13961,1,13698,13699,13665,13664
CQUADX4,13962,1,13699,13700,13666,13665
CQUADX4,13963,1,13700,13701,13667,13666
CQUADX4,13964,1,13701,13702,13668,13667
CQUADX4,13965,1,13702,13703,13669,13668
CQUADX4,13966,1,13704,13705,13671,13670
CQUADX4,13967,1,13705,13706,13672,13671
CQUADX4,13968,1,13706,13707,13673,13672
CQUADX4,13969,1,13707,13708,13674,13673
CQUADX4,13970,1,13708,13709,13675,13674
CQUADX4,13971,1,13709,13710,13676,13675
CQUADX4,13972,1,13710,13711,13677,13676
CQUADX4,13973,1,13711,13712,13678,13677
CQUADX4,13974,1,13712,13713,13679,13678
CQUADX4,13975,1,13713,13714,13680,13679
CQUADX4,13976,1,13714,13715,13681,13680
CQUADX4,13977,1,13715,13716,13682,13681
CQUADX4,13978,1,13716,13717,13683,13682
CQUADX4,13979,1,13717,13718,13684,13683
CQUADX4,13980,1,13718,13719,13685,13684
CQUADX4,13981,1,13719,13720,13686,13685
CQUADX4,13982,1,13720,13721,13687,13686
CQUADX4,13983,1,13721,13722,13688,13687
CQUADX4,13984,1,13722,13723,13689,13688
CQUADX4,13985,1,13723,13724,13690,13689
CQUADX4,13986,1,13724,13725,13691,13690
CQUADX4,13987,1,13725,13726,13692,13691
CQUADX4,13988,1,13726,13727,13693,13692
CQUADX4,13989,1,13727,13728,13694,13693
CQUADX4,13990,1,13728,13729,13695,13694
CQUADX4,13991,1,13729,13730,13696,13695
CQUADX4,13992,1,13730,13731,13697,13696
CQUADX4,13993,1,13731,13732,13698,13697
CQUADX4,13994,1,13732,13733,13699,13698
CQUADX4,13995,1,13733,13734,13700,13699
CQUADX4,13996,1,13734,13735,13701,13700
CQUADX4,13997,1,13735,13736,13702,13701
CQUADX4,13998,1,13736,13737,13703,13702
CQUADX4,13999,1,13738,13739,13705,13704
CQUADX4,14000,1,13739,13740,13706,13705
CQUADX4,14001,1,13740,13741,13707,13706
CQUADX4,14002,1,13741,13742,13708,13707
CQUADX4,14003,1,13742,13743,13709,13708
CQUADX4,14004,1,13743,13744,13710,13709
CQUADX4,14005,1,13744,13745,13711,13710
CQUADX4,14006,1,13745,13746,13712,13711
CQUADX4,14007,1,13746,13747,13713,13712
CQUADX4,14008,1,13747,13748,13714,13713
CQUADX4,14009,1,13748,13749,13715,13714
CQUADX4,14010,1,13749,13750,13716,13715
CQUADX4,14011,1,13750,13751,13717,13716
CQUADX4,14012,1,13751,13752,13718,13717
CQUADX4,14013,1,13752,13753,13719,13718
CQUADX4,14014,1,13753,13754,13720,13719
CQUADX4,14015,1,13754,13755,13721,13720
CQUADX4,14016,1,13755,13756,13722,13721
CQUADX4,14017,1,13756,13757,13723,13722
CQUADX4,14018,1,13757,13758,13724,13723
CQUADX4,14019,1,13758,13759,13725,13724
CQUADX4,14020,1,13759,13760,13726,13725
CQUADX4,14021,1,13760,13761,13727,13726
CQUADX4,14022,1,13761,13762,13728,13727
CQUADX4,14023,1,13762,13763,13729,13728
CQUADX4,14024,1,13763,13764,13730,13729
CQUADX4,14025,1,13764,13765,13731,13730
CQUADX4,14026,1,13765,13766,13732,13731
CQUADX4,14027,1,13766,13767,13733,13732
CQUADX4,14028,1,13767,13768,13734,13733
CQUADX4,14029,1,13768,13769,13735,13734
CQUADX4,14030,1,13769,13770,13736,13735
CQUADX4,14031,1,13770,13771,13737,13736
CQUADX4,14032,1,13772,13773,13739,13738
CQUADX4,14033,1,13773,13774,13740,13739
CQUADX4,14034,1,13774,13775,13741,13740
CQUADX4,14035,1,13775,13776,13742,13741
CQUADX4,14036,1,13776,13777,13743,13742
CQUADX4,14037,1,13777,13778,13744,13743
CQUADX4,14038,1,13778,13779,13745,13744
CQUADX4,14039,1,13779,13780,13746,13745
CQUADX4,14040,1,13780,13781,13747,13746
CQUADX4,14041,1,13781,13782,13748,13747
CQUADX4,14042,1,13782,13783,13749,13748
CQUADX4,14043,1,13783,13784,13750,13749
CQUADX4,14044,1,13784,13785,13751,13750
CQUADX4,14045,1,13785,13786,13752,13751
CQUADX4,14046,1,13786,13787,13753,13752
CQUADX4,14047,1,13787,13788,13754,13753
CQUADX4,14048,1,13788,13789,13755,13754
CQUADX4,14049,1,13789,13790,13756,13755
CQUADX4,14050,1,13790,13791,13757,13756
CQUADX4,14051,1,13791,13792,13758,13757
CQUADX4,14052,1,13792,13793,13759,13758
CQUADX4,14053,1,13793,13794,13760,13759
CQUADX4,14054,1,13794,13795,13761,13760
CQUADX4,14055,1,13795,13796,13762,13761
CQUADX4,14056,1,13796,13797,13763,13762
CQUADX4,14057,1,13797,13798,13764,13763
CQUADX4,14058,1,13798,13799,13765,13764
CQUADX4,14059,1,13799,13800,13766,13765
CQUADX4,14060,1,13800,13801,13767,13766
CQUADX4,14061,1,13801,13802,13768,13767
CQUADX4,14062,1,13802,13803,13769,13768
CQUADX4,14063,1,13803,13804,13770,13769
CQUADX4,14064,1,13804,13805,13771,13770
CQUADX4,14065,1,13806,13807,13773,13772
CQUADX4,14066,1,13807,13808,13774,13773
CQUADX4,14067,1,13808,13809,13775,13774
CQUADX4,14068,1,13809,13810,13776,13775
CQUADX4,14069,1,13810,13811,13777,13776
CQUADX4,14070,1,13811,13812,13778,13777
CQUADX4,14071,1,13812,13813,13779,13778
CQUADX4,14072,1,13813,13814,13780,13779
CQUADX4,14073,1,13814,13815,13781,13780
CQUADX4,14074,1,13815,13816,13782,13781
CQUADX4,14075,1,13816,13817,13783,13782
CQUADX4,14076,1,13817,13818,13784,13783
CQUADX4,14077,1,13818,13819,13785,13784
CQUADX4,14078,1,13819,13820,13786,13785
CQUADX4,14079,1,13820,13821,13787,13786
CQUADX4,14080,1,13821,13822,13788,13787
CQUADX4,14081,1,13822,13823,13789,13788
CQUADX4,14082,1,13823,13824,13790,13789
CQUADX4,14083,1,13824,13825,13791,13790
CQUADX4,14084,1,13825,13826,13792,13791
CQUADX4,14085,1,13826,13827,13793,13792
CQUADX4,14086,1,13827,13828,13794,13793
CQUADX4,14087,1,13828,13829,13795,13794
CQUADX4,14088,1,13829,13830,13796,13795
CQUADX4,14089,1,13830,13831,13797,13796
CQUADX4,14090,1,13831,13832,13798,13797
CQUADX4,14091,1,13832,13833,13799,13798
CQUADX4,14092,1,13833,13834,13800,13799
CQUADX4,14093,1,13834,13835,13801,13800
CQUADX4,14094,1,13835,13836,13802,13801
CQUADX4,14095,1,13836,13837,13803,13802
CQUADX4,14096,1,13837,13838,13804,13803
CQUADX4,14097,1,13838,13839,13805,13804
CQUADX4,14098,1,13840,13841,13807,13806
CQUADX4,14099,1,13841,13842,13808,13807
CQUADX4,14100,1,13842,13843,13809,13808
CQUADX4,14101,1,13843,13844,13810,13809
CQUADX4,14102,1,13844,13845,13811,13810
CQUADX4,14103,1,13845,13846,13812,13811
CQUADX4,14104,1,13846,13847,13813,13812
CQUADX4,14105,1,13847,13848,13814,13813
CQUADX4,14106,1,13848,13849,13815,13814
CQUADX4,14107,1,13849,13850,13816,13815
CQUADX4,14108,1,13850,13851,13817,13816
CQUADX4,14109,1,13851,13852,13818,13817
CQUADX4,14110,1,13852,13853,13819,13818
CQUADX4,14111,1,13853,13854,13820,13819
CQUADX4,14112,1,13854,13855,13821,13820
CQUADX4,14113,1,13855,13856,13822,13821
CQUADX4,14114,1,13856,13857,13823,13822
CQUADX4,14115,1,13857,13858,13824,13823
CQUADX4,14116,1,13858,13859,13825,13824
CQUADX4,14117,1,13859,13860,13826,13825
CQUADX4,14118,1,13860,13861,13827,13826
CQUADX4,14119,1,13861,13862,13828,13827
CQUADX4,14120,1,13862,13863,13829,13828
CQUADX4,14121,1,13863,13864,13830,13829
CQUADX4,14122,1,13864,13865,13831,13830
CQUADX4,14123,1,13865,13866,13832,13831
CQUADX4,14124,1,13866,13867,13833,13832
CQUADX4,14125,1,13867,13868,13834,13833
CQUADX4,14126,1,13868,13869,13835,13834
CQUADX4,14127,1,13869,13870,13836,13835
CQUADX4,14128,1,13870,13871,13837,13836
CQUADX4,14129,1,13871,13872,13838,13837
CQUADX4,14130,1,13872,13873,13839,13838
CQUADX4,14131,1,13874,13875,13841,13840
CQUADX4,14132,1,13875,13876,13842,13841
CQUADX4,14133,1,13876,13877,13843,13842
CQUADX4,14134,1,13877,13878,13844,13843
CQUADX4,14135,1,13878,13879,13845,13844
CQUADX4,14136,1,13879,13880,13846,13845
CQUADX4,14137,1,13880,13881,13847,13846
CQUADX4,14138,1,13881,13882,13848,13847
CQUADX4,14139,1,13882,13883,13849,13848
CQUADX4,14140,1,13883,13884,13850,13849
CQUADX4,14141,1,13884,13885,13851,13850
CQUADX4,14142,1,13885,13886,13852,13851
CQUADX4,14143,1,13886,13887,13853,13852
CQUADX4,14144,1,13887,13888,13854,13853
CQUADX4,14145,1,13888,13889,13855,13854
CQUADX4,14146,1,13889,13890,13856,13855
CQUADX4,14147,1,13890,13891,13857,13856
CQUADX4,14148,1,13891,13892,13858,13857
CQUADX4,14149,1,13892,13893,13859,13858
CQUADX4,14150,1,13893,13894,13860,13859
CQUADX4,14151,1,13894,13895,13861,13860
CQUADX4,14152,1,13895,13896,13862,13861
CQUADX4,14153,1,13896,13897,13863,13862
CQUADX4,14154,1,13897,13898,13864,13863
CQUADX4,14155,1,13898,13899,13865,13864
CQUADX4,14156,1,13899,13900,13866,13865
CQUADX4,14157,1,13900,13901,13867,13866
CQUADX4,14158,1,13901,13902,13868,13867
CQUADX4,14159,1,13902,13903,13869,13868
CQUADX4,14160,1,13903,13904,13870,13869
CQUADX4,14161,1,13904,13905,13871,13870
CQUADX4,14162,1,13905,13906,13872,13871
CQUADX4,14163,1,13906,13907,13873,13872
CQUADX4,14164,1,13908,13909,13875,13874
CQUADX4,14165,1,13909,13910,13876,13875
CQUADX4,14166,1,13910,13911,13877,13876
CQUADX4,14167,1,13911,13912,13878,13877
CQUADX4,14168,1,13912,13913,13879,13878
CQUADX4,14169,1,13913,13914,13880,13879
CQUADX4,14170,1,13914,13915,13881,13880
CQUADX4,14171,1,13915,13916,13882,13881
CQUADX4,14172,1,13916,13917,13883,13882
CQUADX4,14173,1,13917,13918,13884,13883
CQUADX4,14174,1,13918,13919,13885,13884
CQUADX4,14175,1,13919,13920,13886,13885
CQUADX4,14176,1,13920,13921,13887,13886
CQUADX4,14177,1,13921,13922,13888,13887
CQUADX4,14178,1,13922,13923,13889,13888
CQUADX4,14179,1,13923,13924,13890,13889
CQUADX4,14180,1,13924,13925,13891,13890
CQUADX4,14181,1,13925,13926,13892,13891
CQUADX4,14182,1,13926,13927,13893,13892
CQUADX4,14183,1,13927,13928,13894,13893
CQUADX4,14184,1,13928,13929,13895,13894
CQUADX4,14185,1,13929,13930,13896,13895
CQUADX4,14186,1,13930,13931,13897,13896
CQUADX4,14187,1,13931,13932,13898,13897
CQUADX4,14188,1,13932,13933,13899,13898
CQUADX4,14189,1,13933,13934,13900,13899
CQUADX4,14190,1,13934,13935,13901,13900
CQUADX4,14191,1,13935,13936,13902,13901
CQUADX4,14192,1,13936,13937,13903,13902
CQUADX4,14193,1,13937,13938,13904,13903
CQUADX4,14194,1,13938,13939,13905,13904
CQUADX4,14195,1,13939,13940,13906,13905
CQUADX4,14196,1,13940,13941,13907,13906
CQUADX4,14197,1,13942,13943,13909,13908
CQUADX4,14198,1,13943,13944,13910,13909
CQUADX4,14199,1,13944,13945,13911,13910
CQUADX4,14200,1,13945,13946,13912,13911
CQUADX4,14201,1,13946,13947,13913,13912
CQUADX4,14202,1,13947,13948,13914,13913
CQUADX4,14203,1,13948,13949,13915,13914
CQUADX4,14204,1,13949,13950,13916,13915
CQUADX4,14205,1,13950,13951,13917,13916
CQUADX4,14206,1,13951,13952,13918,13917
CQUADX4,14207,1,13952,13953,13919,13918
CQUADX4,14208,1,13953,13954,13920,13919
CQUADX4,14209,1,13954,13955,13921,13920
CQUADX4,14210,1,13955,13956,13922,13921
CQUADX4,14211,1,13956,13957,13923,13922
CQUADX4,14212,1,13957,13958,13924,13923
CQUADX4,14213,1,13958,13959,13925,13924
CQUADX4,14214,1,13959,13960,13926,13925
CQUADX4,14215,1,13960,13961,13927,13926
CQUADX4,14216,1,13961,13962,13928,13927
CQUADX4,14217,1,13962,13963,13929,13928
CQUADX4,14218,1,13963,13964,13930,13929
CQUADX4,14219,1,13964,13965,13931,13930
CQUADX4,14220,1,13965,13966,13932,13931
CQUADX4,14221,1,13966,13967,13933,13932
CQUADX4,14222,1,13967,13968,13934,13933
CQUADX4,14223,1,13968,13969,13935,13934
CQUADX4,14224,1,13969,13970,13936,13935
CQUADX4,14225,1,13970,13971,13937,13936
CQUADX4,14226,1,13971,13972,13938,13937
CQUADX4,14227,1,13972,13973,13939,13938
CQUADX4,14228,1,13973,13974,13940,13939
CQUADX4,14229,1,13974,13975,13941,13940
CQUADX4,14230,1,13976,13977,13943,13942
CQUADX4,14231,1,13977,13978,13944,13943
CQUADX4,14232,1,13978,13979,13945,13944
CQUADX4,14233,1,13979,13980,13946,13945
CQUADX4,14234,1,13980,13981,13947,13946
CQUADX4,14235,1,13981,13982,13948,13947
CQUADX4,14236,1,13982,13983,13949,13948
CQUADX4,14237,1,13983,13984,13950,13949
CQUADX4,14238,1,13984,13985,13951,13950
CQUADX4,14239,1,13985,13986,13952,13951
CQUADX4,14240,1,13986,13987,13953,13952
CQUADX4,14241,1,13987,13988,13954,13953
CQUADX4,14242,1,13988,13989,13955,13954
CQUADX4,14243,1,13989,13990,13956,13955
CQUADX4,14244,1,13990,13991,13957,13956
CQUADX4,14245,1,13991,13992,13958,13957
CQUADX4,14246,1,13992,13993,13959,13958
CQUADX4,14247,1,13993,13994,13960,13959
CQUADX4,14248,1,13994,13995,13961,13960
CQUADX4,14249,1,13995,13996,13962,13961
CQUADX4,14250,1,13996,13997,13963,13962
CQUADX4,14251,1,13997,13998,13964,13963
CQUADX4,14252,1,13998,13999,13965,13964
CQUADX4,14253,1,13999,14000,13966,13965
CQUADX4,14254,1,14000,14001,13967,13966
CQUADX4,14255,1,14001,14002,13968,13967
CQUADX4,14256,1,14002,14003,13969,13968
CQUADX4,14257,1,14003,14004,13970,13969
CQUADX4,14258,1,14004,14005,13971,13970
CQUADX4,14259,1,14005,14006,13972,13971
CQUADX4,14260,1,14006,14007,13973,13972
CQUADX4,14261,1,14007,14008,13974,13973
CQUADX4,14262,1,14008,14009,13975,13974
CQUADX4,14263,1,14010,14011,13977,13976
CQUADX4,14264,1,14011,14012,13978,13977
CQUADX4,14265,1,14012,14013,13979,13978
CQUADX4,14266,1,14013,14014,13980,13979
CQUADX4,14267,1,14014,14015,13981,13980
CQUADX4,14268,1,14015,14016,13982,13981
CQUADX4,14269,1,14016,14017,13983,13982
CQUADX4,14270,1,14017,14018,13984,13983
CQUADX4,14271,1,14018,14019,13985,13984
CQUADX4,14272,1,14019,14020,13986,13985
CQUADX4,14273,1,14020,14021,13987,13986
CQUADX4,14274,1,14021,14022,13988,13987
CQUADX4,14275,1,14022,14023,13989,13988
CQUADX4,14276,1,14023,14024,13990,13989
CQUADX4,14277,1,14024,14025,13991,13990
CQUADX4,14278,1,14025,14026,13992,13991
CQUADX4,14279,1,14026,14027,13993,13992
CQUADX4,14280,1,14027,14028,13994,13993
CQUADX4,14281,1,14028,14029,13995,13994
CQUADX4,14282,1,14029,14030,13996,13995
CQUADX4,14283,1,14030,14031,13997,13996
CQUADX4,14284,1,14031,14032,13998,13997
CQUADX4,14285,1,14032,14033,13999,13998
CQUADX4,14286,1,14033,14034,14000,13999
CQUADX4,14287,1,14034,14035,14001,14000
CQUADX4,14288,1,14035,14036,14002,14001
CQUADX4,14289,1,14036,14037,14003,14002
CQUADX4,14290,1,14037,14038,14004,14003
CQUADX4,14291,1,14038,14039,14005,14004
CQUADX4,14292,1,14039,14040,14006,14005
CQUADX4,14293,1,14040,14041,14007,14006
CQUADX4,14294,1,14041,14042,14008,14007
CQUADX4,14295,1,14042,14043,14009,14008
CQUADX4,14296,1,14044,14045,14011,14010
CQUADX4,14297,1,14045,14046,14012,14011
CQUADX4,14298,1,14046,14047,14013,14012
CQUADX4,14299,1,14047,14048,14014,14013
CQUADX4,14300,1,14048,14049,14015,14014
CQUADX4,14301,1,14049,14050,14016,14015
CQUADX4,14302,1,14050,14051,14017,14016
CQUADX4,14303,1,14051,14052,14018,14017
CQUADX4,14304,1,14052,14053,14019,14018
CQUADX4,14305,1,14053,14054,14020,14019
CQUADX4,14306,1,14054,14055,14021,14020
CQUADX4,14307,1,14055,14056,14022,14021
CQUADX4,14308,1,14056,14057,14023,14022
CQUADX4,14309,1,14057,14058,14024,14023
CQUADX4,14310,1,14058,14059,14025,14024
CQUADX4,14311,1,14059,14060,14026,14025
CQUADX4,14312,1,14060,14061,14027,14026
CQUADX4,14313,1,14061,14062,14028,14027
CQUADX4,14314,1,14062,14063,14029,14028
CQUADX4,14315,1,14063,14064,14030,14029
CQUADX4,14316,1,14064,14065,14031,14030
CQUADX4,14317,1,14065,14066,14032,14031
CQUADX4,14318,1,14066,14067,14033,14032
CQUADX4,14319,1,14067,14068,14034,14033
CQUADX4,14320,1,14068,14069,14035,14034
CQUADX4,14321,1,14069,14070,14036,14035
CQUADX4,14322,1,14070,14071,14037,14036
CQUADX4,14323,1,14071,14072,14038,14037
CQUADX4,14324,1,14072,14073,14039,14038
CQUADX4,14325,1,14073,14074,14040,14039
CQUADX4,14326,1,14074,14075,14041,14040
CQUADX4,14327,1,14075,14076,14042,14041
CQUADX4,14328,1,14076,14077,14043,14042
CQUADX4,14329,1,14078,14079,14045,14044
CQUADX4,14330,1,14079,14080,14046,14045
CQUADX4,14331,1,14080,14081,14047,14046
CQUADX4,14332,1,14081,14082,14048,14047
CQUADX4,14333,1,14082,14083,14049,14048
CQUADX4,14334,1,14083,14084,14050,14049
CQUADX4,14335,1,14084,14085,14051,14050
CQUADX4,14336,1,14085,14086,14052,14051
CQUADX4,14337,1,14086,14087,14053,14052
CQUADX4,14338,1,14087,14088,14054,14053
CQUADX4,14339,1,14088,14089,14055,14054
CQUADX4,14340,1,14089,14090,14056,14055
CQUADX4,14341,1,14090,14091,14057,14056
CQUADX4,14342,1,14091,14092,14058,14057
CQUADX4,14343,1,14092,14093,14059,14058
CQUADX4,14344,1,14093,14094,14060,14059
CQUADX4,14345,1,14094,14095,14061,14060
CQUADX4,14346,1,14095,14096,14062,14061
CQUADX4,14347,1,14096,14097,14063,14062
CQUADX4,14348,1,14097,14098,14064,14063
CQUADX4,14349,1,14098,14099,14065,14064
CQUADX4,14350,1,14099,14100,14066,14065
CQUADX4,14351,1,14100,14101,14067,14066
CQUADX4,14352,1,14101,14102,14068,14067
CQUADX4,14353,1,14102,14103,14069,14068
CQUADX4,14354,1,14103,14104,14070,14069
CQUADX4,14355,1,14104,14105,14071,14070
CQUADX4,14356,1,14105,14106,14072,14071
CQUADX4,14357,1,14106,14107,14073,14072
CQUADX4,14358,1,14107,14108,14074,14073
CQUADX4,14359,1,14108,14109,14075,14074
CQUADX4,14360,1,14109,14110,14076,14075
CQUADX4,14361,1,14110,14111,14077,14076
CQUADX4,14362,1,14112,14113,14079,14078
CQUADX4,14363,1,14113,14114,14080,14079
CQUADX4,14364,1,14114,14115,14081,14080
CQUADX4,14365,1,14115,14116,14082,14081
CQUADX4,14366,1,14116,14117,14083,14082
CQUADX4,14367,1,14117,14118,14084,14083
CQUADX4,14368,1,14118,14119,14085,14084
CQUADX4,14369,1,14119,14120,14086,14085
CQUADX4,14370,1,14120,14121,14087,14086
CQUADX4,14371,1,14121,14122,14088,14087
CQUADX4,14372,1,14122,14123,14089,14088
CQUADX4,14373,1,14123,14124,14090,14089
CQUADX4,14374,1,14124,14125,14091,14090
CQUADX4,14375,1,14125,14126,14092,14091
CQUADX4,14376,1,14126,14127,14093,14092
CQUADX4,14377,1,14127,14128,14094,14093
CQUADX4,14378,1,14128,14129,14095,14094
CQUADX4,14379,1,14129,14130,14096,14095
CQUADX4,14380,1,14130,14131,14097,14096
CQUADX4,14381,1,14131,14132,14098,14097
CQUADX4,14382,1,14132,14133,14099,14098
CQUADX4,14383,1,14133,14134,14100,14099
CQUADX4,14384,1,14134,14135,14101,14100
CQUADX4,14385,1,14135,14136,14102,14101
CQUADX4,14386,1,14136,14137,14103,14102
CQUADX4,14387,1,14137,14138,14104,14103
CQUADX4,14388,1,14138,14139,14105,14104
CQUADX4,14389,1,14139,14140,14106,14105
CQUADX4,14390,1,14140,14141,14107,14106
CQUADX4,14391,1,14141,14142,14108,14107
CQUADX4,14392,1,14142,14143,14109,14108
CQUADX4,14393,1,14143,14144,14110,14109
CQUADX4,14394,1,14144,14145,14111,14110
CQUADX4,14395,1,14146,14147,14113,14112
CQUADX4,14396,1,14147,14148,14114,14113
CQUADX4,14397,1,14148,14149,14115,14114
CQUADX4,14398,1,14149,14150,14116,14115
CQUADX4,14399,1,14150,14151,14117,14116
CQUADX4,14400,1,14151,14152,14118,14117
CQUADX4,14401,1,14152,14153,14119,14118
CQUADX4,14402,1,14153,14154,14120,14119
CQUADX4,14403,1,14154,14155,14121,14120
CQUADX4,14404,1,14155,14156,14122,14121
CQUADX4,14405,1,14156,14157,14123,14122
CQUADX4,14406,1,14157,14158,14124,14123
CQUADX4,14407,1,14158,14159,14125,14124
CQUADX4,14408,1,14159,14160,14126,14125
CQUADX4,14409,1,14160,14161,14127,14126
CQUADX4,14410,1,14161,14162,14128,14127
CQUADX4,14411,1,14162,14163,14129,14128
CQUADX4,14412,1,14163,14164,14130,14129
CQUADX4,14413,1,14164,14165,14131,14130
CQUADX4,14414,1,14165,14166,14132,14131
CQUADX4,14415,1,14166,14167,14133,14132
CQUADX4,14416,1,14167,14168,14134,14133
CQUADX4,14417,1,14168,14169,14135,14134
CQUADX4,14418,1,14169,14170,14136,14135
CQUADX4,14419,1,14170,14171,14137,14136
CQUADX4,14420,1,14171,14172,14138,14137
CQUADX4,14421,1,14172,14173,14139,14138
CQUADX4,14422,1,14173,14174,14140,14139
CQUADX4,14423,1,14174,14175,14141,14140
CQUADX4,14424,1,14175,14176,14142,14141
CQUADX4,14425,1,14176,14177,14143,14142
CQUADX4,14426,1,14177,14178,14144,14143
CQUADX4,14427,1,14178,14179,14145,14144
CQUADX4,14428,1,14180,14181,14147,14146
CQUADX4,14429,1,14181,14182,14148,14147
CQUADX4,14430,1,14182,14183,14149,14148
CQUADX4,14431,1,14183,14184,14150,14149
CQUADX4,14432,1,14184,14185,14151,14150
CQUADX4,14433,1,14185,14186,14152,14151
CQUADX4,14434,1,14186,14187,14153,14152
CQUADX4,14435,1,14187,14188,14154,14153
CQUADX4,14436,1,14188,14189,14155,14154
CQUADX4,14437,1,14189,14190,14156,14155
CQUADX4,14438,1,14190,14191,14157,14156
CQUADX4,14439,1,14191,14192,14158,14157
CQUADX4,14440,1,14192,14193,14159,14158
CQUADX4,14441,1,14193,14194,14160,14159
CQUADX4,14442,1,14194,14195,14161,14160
CQUADX4,14443,1,14195,14196,14162,14161
CQUADX4,14444,1,14196,14197,14163,14162
CQUADX4,14445,1,14197,14198,14164,14163
CQUADX4,14446,1,14198,14199,14165,14164
CQUADX4,14447,1,14199,14200,14166,14165
CQUADX4,14448,1,14200,14201,14167,14166
CQUADX4,14449,1,14201,14202,14168,14167
CQUADX4,14450,1,14202,14203,14169,14168
CQUADX4,14451,1,14203,14204,14170,14169
CQUADX4,14452,1,14204,14205,14171,14170
CQUADX4,14453,1,14205,14206,14172,14171
CQUADX4,14454,1,14206,14207,14173,14172
CQUADX4,14455,1,14207,14208,14174,14173
CQUADX4,14456,1,14208,14209,14175,14174
CQUADX4,14457,1,14209,14210,14176,14175
CQUADX4,14458,1,14210,14211,14177,14176
CQUADX4,14459,1,14211,14212,14178,14177
CQUADX4,14460,1,14212,14213,14179,14178
CQUADX4,14461,1,14214,14215,14181,14180
CQUADX4,14462,1,14215,14216,14182,14181
CQUADX4,14463,1,14216,14217,14183,14182
CQUADX4,14464,1,14217,14218,14184,14183
CQUADX4,14465,1,14218,14219,14185,14184
CQUADX4,14466,1,14219,14220,14186,14185
CQUADX4,14467,1,14220,14221,14187,14186
CQUADX4,14468,1,14221,14222,14188,14187
CQUADX4,14469,1,14222,14223,14189,14188
CQUADX4,14470,1,14223,14224,14190,14189
CQUADX4,14471,1,14224,14225,14191,14190
CQUADX4,14472,1,14225,14226,14192,14191
CQUADX4,14473,1,14226,14227,14193,14192
CQUADX4,14474,1,14227,14228,14194,14193
CQUADX4,14475,1,14228,14229,14195,14194
CQUADX4,14476,1,14229,14230,14196,14195
CQUADX4,14477,1,14230,14231,14197,14196
CQUADX4,14478,1,14231,14232,14198,14197
CQUADX4,14479,1,14232,14233,14199,14198
CQUADX4,14480,1,14233,14234,14200,14199
CQUADX4,14481,1,14234,14235,14201,14200
CQUADX4,14482,1,14235,14236,14202,14201
CQUADX4,14483,1,14236,14237,14203,14202
CQUADX4,14484,1,14237,14238,14204,14203
CQUADX4,14485,1,14238,14239,14205,14204
CQUADX4,14486,1,14239,14240,14206,14205
CQUADX4,14487,1,14240,14241,14207,14206
CQUADX4,14488,1,14241,14242,14208,14207
CQUADX4,14489,1,14242,14243,14209,14208
CQUADX4,14490,1,14243,14244,14210,14209
CQUADX4,14491,1,14244,14245,14211,14210
CQUADX4,14492,1,14245,14246,14212,14211
CQUADX4,14493,1,14246,14247,14213,14212
CQUADX4,14494,1,14248,14249,14215,14214
CQUADX4,14495,1,14249,14250,14216,14215
CQUADX4,14496,1,14250,14251,14217,14216
CQUADX4,14497,1,14251,14252,14218,14217
CQUADX4,14498,1,14252,14253,14219,14218
CQUADX4,14499,1,14253,14254,14220,14219
CQUADX4,14500,1,14254,14255,14221,14220
CQUADX4,14501,1,14255,14256,14222,14221
CQUADX4,14502,1,14256,14257,14223,14222
CQUADX4,14503,1,14257,14258,14224,14223
CQUADX4,14504,1,14258,14259,14225,14224
CQUADX4,14505,1,14259,14260,14226,14225
CQUADX4,14506,1,14260,14261,14227,14226
CQUADX4,14507,1,14261,14262,14228,14227
CQUADX4,14508,1,14262,14263,14229,14228
CQUADX4,14509,1,14263,14264,14230,14229
CQUADX4,14510,1,14264,14265,14231,14230
CQUADX4,14511,1,14265,14266,14232,14231
CQUADX4,14512,1,14266,14267,14233,14232
CQUADX4,14513,1,14267,14268,14234,14233
CQUADX4,14514,1,14268,14269,14235,14234
CQUADX4,14515,1,14269,14270,14236,14235
CQUADX4,14516,1,14270,14271,14237,14236
CQUADX4,14517,1,14271,14272,14238,14237
CQUADX4,14518,1,14272,14273,14239,14238
CQUADX4,14519,1,14273,14274,14240,14239
CQUADX4,14520,1,14274,14275,14241,14240
CQUADX4,14521,1,14275,14276,14242,14241
CQUADX4,14522,1,14276,14277,14243,14242
CQUADX4,14523,1,14277,14278,14244,14243
CQUADX4,14524,1,14278,14279,14245,14244
CQUADX4,14525,1,14279,14280,14246,14245
CQUADX4,14526,1,14280,14281,14247,14246
CQUADX4,14527,1,14282,14283,14249,14248
CQUADX4,14528,1,14283,14284,14250,14249
CQUADX4,14529,1,14284,14285,14251,14250
CQUADX4,14530,1,14285,14286,14252,14251
CQUADX4,14531,1,14286,14287,14253,14252
CQUADX4,14532,1,14287,14288,14254,14253
CQUADX4,14533,1,14288,14289,14255,14254
CQUADX4,14534,1,14289,14290,14256,14255
CQUADX4,14535,1,14290,14291,14257,14256
CQUADX4,14536,1,14291,14292,14258,14257
CQUADX4,14537,1,14292,14293,14259,14258
CQUADX4,14538,1,14293,14294,14260,14259
CQUADX4,14539,1,14294,14295,14261,14260
CQUADX4,14540,1,14295,14296,14262,14261
CQUADX4,14541,1,14296,14297,14263,14262
CQUADX4,14542,1,14297,14298,14264,14263
CQUADX4,14543,1,14298,14299,14265,14264
CQUADX4,14544,1,14299,14300,14266,14265
CQUADX4,14545,1,14300,14301,14267,14266
CQUADX4,14546,1,14301,14302,14268,14267
CQUADX4,14547,1,14302,14303,14269,14268
CQUADX4,14548,1,14303,14304,14270,14269
CQUADX4,14549,1,14304,14305,14271,14270
CQUADX4,14550,1,14305,14306,14272,14271
CQUADX4,14551,1,14306,14307,14273,14272
CQUADX4,14552,1,14307,14308,14274,14273
CQUADX4,14553,1,14308,14309,14275,14274
CQUADX4,14554,1,14309,14310,14276,14275
CQUADX4,14555,1,14310,14311,14277,14276
CQUADX4,14556,1,14311,14312,14278,14277
CQUADX4,14557,1,14312,14313,14279,14278
CQUADX4,14558,1,14313,14314,14280,14279
CQUADX4,14559,1,14314,14315,14281,14280
CQUADX4,14560,1,14316,14317,14283,14282
CQUADX4,14561,1,14317,14318,14284,14283
CQUADX4,14562,1,14318,14319,14285,14284
CQUADX4,14563,1,14319,14320,14286,14285
CQUADX4,14564,1,14320,14321,14287,14286
CQUADX4,14565,1,14321,14322,14288,14287
CQUADX4,14566,1,14322,14323,14289,14288
CQUADX4,14567,1,14323,14324,14290,14289
CQUADX4,14568,1,14324,14325,14291,14290
CQUADX4,14569,1,14325,14326,14292,14291
CQUADX4,14570,1,14326,14327,14293,14292
CQUADX4,14571,1,14327,14328,14294,14293
CQUADX4,14572,1,14328,14329,14295,14294
CQUADX4,14573,1,14329,14330,14296,14295
CQUADX4,14574,1,14330,14331,14297,14296
CQUADX4,14575,1,14331,14332,14298,14297
CQUADX4,14576,1,14332,14333,14299,14298
CQUADX4,14577,1,14333,14334,14300,14299
CQUADX4,14578,1,14334,14335,14301,14300
CQUADX4,14579,1,14335,14336,14302,14301
CQUADX4,14580,1,14336,14337,14303,14302
CQUADX4,14581,1,14337,14338,14304,14303
CQUADX4,14582,1,14338,14339,14305,14304
CQUADX4,14583,1,14339,14340,14306,14305
CQUADX4,14584,1,14340,14341,14307,14306
CQUADX4,14585,1,14341,14342,14308,14307
CQUADX4,14586,1,14342,14343,14309,14308
CQUADX4,14587,1,14343,14344,14310,14309
CQUADX4,14588,1,14344,14345,14311,14310
CQUADX4,14589,1,14345,14346,14312,14311
CQUADX4,14590,1,14346,14347,14313,14312
CQUADX4,14591,1,14347,14348,14314,14313
CQUADX4,14592,1,14348,14349,14315,14314
CQUADX4,14593,1,14350,14351,14317,14316
CQUADX4,14594,1,14351,14352,14318,14317
CQUADX4,14595,1,14352,14353,14319,14318
CQUADX4,14596,1,14353,14354,14320,14319
CQUADX4,14597,1,14354,14355,14321,14320
CQUADX4,14598,1,14355,14356,14322,14321
CQUADX4,14599,1,14356,14357,14323,14322
CQUADX4,14600,1,14357,14358,14324,14323
CQUADX4,14601,1,14358,14359,14325,14324
CQUADX4,14602,1,14359,14360,14326,14325
CQUADX4,14603,1,14360,14361,14327,14326
CQUADX4,14604,1,14361,14362,14328,14327
CQUADX4,14605,1,14362,14363,14329,14328
CQUADX4,14606,1,14363,14364,14330,14329
CQUADX4,14607,1,14364,14365,14331,14330
CQUADX4,14608,1,14365,14366,14332,14331
CQUADX4,14609,1,14366,14367,14333,14332
CQUADX4,14610,1,14367,14368,14334,14333
CQUADX4,14611,1,14368,14369,14335,14334
CQUADX4,14612,1,14369,14370,14336,14335
CQUADX4,14613,1,14370,14371,14337,14336
CQUADX4,14614,1,14371,14372,14338,14337
CQUADX4,14615,1,14372,14373,14339,14338
CQUADX4,14616,1,14373,14374,14340,14339
CQUADX4,14617,1,14374,14375,14341,14340
CQUADX4,14618,1,14375,14376,14342,14341
CQUADX4,14619,1,14376,14377,14343,14342
CQUADX4,14620,1,14377,14378,14344,14343
CQUADX4,14621,1,14378,14379,14345,14344
CQUADX4,14622,1,14379,14380,14346,14345
CQUADX4,14623,1,14380,14381,14347,14346
CQUADX4,14624,1,14381,14382,14348,14347
CQUADX4,14625,1,14382,14383,14349,14348
CQUADX4,14626,1,14384,14385,14351,14350
CQUADX4,14627,1,14385,14386,14352,14351
CQUADX4,14628,1,14386,14387,14353,14352
CQUADX4,14629,1,14387,14388,14354,14353
CQUADX4,14630,1,14388,14389,14355,14354
CQUADX4,14631,1,14389,14390,14356,14355
CQUADX4,14632,1,14390,14391,14357,14356
CQUADX4,14633,1,14391,14392,14358,14357
CQUADX4,14634,1,14392,14393,14359,14358
CQUADX4,14635,1,14393,14394,14360,14359
CQUADX4,14636,1,14394,14395,14361,14360
CQUADX4,14637,1,14395,14396,14362,14361
CQUADX4,14638,1,14396,14397,14363,14362
CQUADX4,14639,1,14397,14398,14364,14363
CQUADX4,14640,1,14398,14399,14365,14364
CQUADX4,14641,1,14399,14400,14366,14365
CQUADX4,14642,1,14400,14401,14367,14366
CQUADX4,14643,1,14401,14402,14368,14367
CQUADX4,14644,1,14402,14403,14369,14368
CQUADX4,14645,1,14403,14404,14370,14369
CQUADX4,14646,1,14404,14405,14371,14370
CQUADX4,14647,1,14405,14406,14372,14371
CQUADX4,14648,1,14406,14407,14373,14372
CQUADX4,14649,1,14407,14408,14374,14373
CQUADX4,14650,1,14408,14409,14375,14374
CQUADX4,14651,1,14409,14410,14376,14375
CQUADX4,14652,1,14410,14411,14377,14376
CQUADX4,14653,1,14411,14412,14378,14377
CQUADX4,14654,1,14412,14413,14379,14378
CQUADX4,14655,1,14413,14414,14380,14379
CQUADX4,14656,1,14414,14415,14381,14380
CQUADX4,14657,1,14415,14416,14382,14381
CQUADX4,14658,1,14416,14417,14383,14382
CQUADX4,14659,1,14418,14419,14385,14384
CQUADX4,14660,1,14419,14420,14386,14385
CQUADX4,14661,1,14420,14421,14387,14386
CQUADX4,14662,1,14421,14422,14388,14387
CQUADX4,14663,1,14422,14423,14389,14388
CQUADX4,14664,1,14423,14424,14390,14389
CQUADX4,14665,1,14424,14425,14391,14390
CQUADX4,14666,1,14425,14426,14392,14391
CQUADX4,14667,1,14426,14427,14393,14392
CQUADX4,14668,1,14427,14428,14394,14393
CQUADX4,14669,1,14428,14429,14395,14394
CQUADX4,14670,1,14429,14430,14396,14395
CQUADX4,14671,1,14430,14431,14397,14396
CQUADX4,14672,1,14431,14432,14398,14397
CQUADX4,14673,1,14432,14433,14399,14398
CQUADX4,14674,1,14433,14434,14400,14399
CQUADX4,14675,1,14434,14435,14401,14400
CQUADX4,14676,1,14435,14436,14402,14401
CQUADX4,14677,1,14436,14437,14403,14402
CQUADX4,14678,1,14437,14438,14404,14403
CQUADX4,14679,1,14438,14439,14405,14404
CQUADX4,14680,1,14439,14440,14406,14405
CQUADX4,14681,1,14440,14441,14407,14406
CQUADX4,14682,1,14441,14442,14408,14407
CQUADX4,14683,1,14442,14443,14409,14408
CQUADX4,14684,1,14443,14444,14410,14409
CQUADX4,14685,1,14444,14445,14411,14410
CQUADX4,14686,1,14445,14446,14412,14411
CQUADX4,14687,1,14446,14447,14413,14412
CQUADX4,14688,1,14447,14448,14414,14413
CQUADX4,14689,1,14448,14449,14415,14414
CQUADX4,14690,1,14449,14450,14416,14415
CQUADX4,14691,1,14450,14451,14417,14416
CQUADX4,14692,1,14452,14453,14419,14418
CQUADX4,14693,1,14453,14454,14420,14419
CQUADX4,14694,1,14454,14455,14421,14420
CQUADX4,14695,1,14455,14456,14422,14421
CQUADX4,14696,1,14456,14457,14423,14422
CQUADX4,14697,1,14457,14458,14424,14423
CQUADX4,14698,1,14458,14459,14425,14424
CQUADX4,14699,1,14459,14460,14426,14425
CQUADX4,14700,1,14460,14461,14427,14426
CQUADX4,14701,1,14461,14462,14428,14427
CQUADX4,14702,1,14462,14463,14429,14428
CQUADX4,14703,1,14463,14464,14430,14429
CQUADX4,14704,1,14464,14465,14431,14430
CQUADX4,14705,1,14465,14466,14432,14431
CQUADX4,14706,1,14466,14467,14433,14432
CQUADX4,14707,1,14467,14468,14434,14433
CQUADX4,14708,1,14468,14469,14435,14434
CQUADX4,14709,1,14469,14470,14436,14435
CQUADX4,14710,1,14470,14471,14437,14436
CQUADX4,14711,1,14471,14472,14438,14437
CQUADX4,14712,1,14472,14473,14439,14438
CQUADX4,14713,1,14473,14474,14440,14439
CQUADX4,14714,1,14474,14475,14441,14440
CQUADX4,14715,1,14475,14476,14442,14441
CQUADX4,14716,1,14476,14477,14443,14442
CQUADX4,14717,1,14477,14478,14444,14443
CQUADX4,14718,1,14478,14479,14445,14444
CQUADX4,14719,1,14479,14480,14446,14445
CQUADX4,14720,1,14480,14481,14447,14446
CQUADX4,14721,1,14481,14482,14448,14447
CQUADX4,14722,1,14482,14483,14449,14448
CQUADX4,14723,1,14483,14484,14450,14449
CQUADX4,14724,1,14484,14485,14451,14450
CQUADX4,14725,1,14486,14487,14453,14452
CQUADX4,14726,1,14487,14488,14454,14453
CQUADX4,14727,1,14488,14489,14455,14454
CQUADX4,14728,1,14489,14490,14456,14455
CQUADX4,14729,1,14490,14491,14457,14456
CQUADX4,14730,1,14491,14492,14458,14457
CQUADX4,14731,1,14492,14493,14459,14458
CQUADX4,14732,1,14493,14494,14460,14459
CQUADX4,14733,1,14494,14495,14461,14460
CQUADX4,14734,1,14495,14496,14462,14461
CQUADX4,14735,1,14496,14497,14463,14462
CQUADX4,14736,1,14497,14498,14464,14463
CQUADX4,14737,1,14498,14499,14465,14464
CQUADX4,14738,1,14499,14500,14466,14465
CQUADX4,14739,1,14500,14501,14467,14466
CQUADX4,14740,1,14501,14502,14468,14467
CQUADX4,14741,1,14502,14503,14469,14468
CQUADX4,14742,1,14503,14504,14470,14469
CQUADX4,14743,1,14504,14505,14471,14470
CQUADX4,14744,1,14505,14506,14472,14471
CQUADX4,14745,1,14506,14507,14473,14472
CQUADX4,14746,1,14507,14508,14474,14473
CQUADX4,14747,1,14508,14509,14475,14474
CQUADX4,14748,1,14509,14510,14476,14475
CQUADX4,14749,1,14510,14511,14477,14476
CQUADX4,14750,1,14511,14512,14478,14477
CQUADX4,14751,1,14512,14513,14479,14478
CQUADX4,14752,1,14513,14514,14480,14479
CQUADX4,14753,1,14514,14515,14481,14480
CQUADX4,14754,1,14515,14516,14482,14481
CQUADX4,14755,1,14516,14517,14483,14482
CQUADX4,14756,1,14517,14518,14484,14483
CQUADX4,14757,1,14518,14519,14485,14484
CQUADX4,14758,1,14520,14521,14487,14486
CQUADX4,14759,1,14521,14522,14488,14487
CQUADX4,14760,1,14522,14523,14489,14488
CQUADX4,14761,1,14523,14524,14490,14489
CQUADX4,14762,1,14524,14525,14491,14490
CQUADX4,14763,1,14525,14526,14492,14491
CQUADX4,14764,1,14526,14527,14493,14492
CQUADX4,14765,1,14527,14528,14494,14493
CQUADX4,14766,1,14528,14529,14495,14494
CQUADX4,14767,1,14529,14530,14496,14495
CQUADX4,14768,1,14530,14531,14497,14496
CQUADX4,14769,1,14531,14532,14498,14497
CQUADX4,14770,1,14532,14533,14499,14498
CQUADX4,14771,1,14533,14534,14500,14499
CQUADX4,14772,1,14534,14535,14501,14500
CQUADX4,14773,1,14535,14536,14502,14501
CQUADX4,14774,1,14536,14537,14503,14502
CQUADX4,14775,1,14537,14538,14504,14503
CQUADX4,14776,1,14538,14539,14505,14504
CQUADX4,14777,1,14539,14540,14506,14505
CQUADX4,14778,1,14540,14541,14507,14506
CQUADX4,14779,1,14541,14542,14508,14507
CQUADX4,14780,1,14542,14543,14509,14508
CQUADX4,14781,1,14543,14544,14510,14509
CQUADX4,14782,1,14544,14545,14511,14510
CQUADX4,14783,1,14545,14546,14512,14511
CQUADX4,14784,1,14546,14547,14513,14512
CQUADX4,14785,1,14547,14548,14514,14513
CQUADX4,14786,1,14548,14549,14515,14514
CQUADX4,14787,1,14549,14550,14516,14515
CQUADX4,14788,1,14550,14551,14517,14516
CQUADX4,14789,1,14551,14552,14518,14517
CQUADX4,14790,1,14552,14553,14519,14518
CQUADX4,14791,1,14554,14555,14521,14520
CQUADX4,14792,1,14555,14556,14522,14521
CQUADX4,14793,1,14556,14557,14523,14522
CQUADX4,14794,1,14557,14558,14524,14523
CQUADX4,14795,1,14558,14559,14525,14524
CQUADX4,14796,1,14559,14560,14526,14525
CQUADX4,14797,1,14560,14561,14527,14526
CQUADX4,14798,1,14561,14562,14528,14527
CQUADX4,14799,1,14562,14563,14529,14528
CQUADX4,14800,1,14563,14564,14530,14529
CQUADX4,14801,1,14564,14565,14531,14530
CQUADX4,14802,1,14565,14566,14532,14531
CQUADX4,14803,1,14566,14567,14533,14532
CQUADX4,14804,1,14567,14568,14534,14533
CQUADX4,14805,1,14568,14569,14535,14534
CQUADX4,14806,1,14569,14570,14536,14535
CQUADX4,14807,1,14570,14571,14537,14536
CQUADX4,14808,1,14571,14572,14538,14537
CQUADX4,14809,1,14572,14573,14539,14538
CQUADX4,14810,1,14573,14574,14540,14539
CQUADX4,14811,1,14574,14575,14541,14540
CQUADX4,14812,1,14575,14576,14542,14541
CQUADX4,14813,1,14576,14577,14543,14542
CQUADX4,14814,1,14577,14578,14544,14543
CQUADX4,14815,1,14578,14579,14545,14544
CQUADX4,14816,1,14579,14580,14546,14545
CQUADX4,14817,1,14580,14581,14547,14546
CQUADX4,14818,1,14581,14582,14548,14547
CQUADX4,14819,1,14582,14583,14549,14548
CQUADX4,14820,1,14583,14584,14550,14549
CQUADX4,14821,1,14584,14585,14551,14550
CQUADX4,14822,1,14585,14586,14552,14551
CQUADX4,14823,1,14586,14587,14553,14552
CQUADX4,14824,1,14588,14589,14555,14554
CQUADX4,14825,1,14589,14590,14556,14555
CQUADX4,14826,1,14590,14591,14557,14556
CQUADX4,14827,1,14591,14592,14558,14557
CQUADX4,14828,1,14592,14593,14559,14558
CQUADX4,14829,1,14593,14594,14560,14559
CQUADX4,14830,1,14594,14595,14561,14560
CQUADX4,14831,1,14595,14596,14562,14561
CQUADX4,14832,1,14596,14597,14563,14562
CQUADX4,14833,1,14597,14598,14564,14563
CQUADX4,14834,1,14598,14599,14565,14564
CQUADX4,14835,1,14599,14600,14566,14565
CQUADX4,14836,1,14600,14601,14567,14566
CQUADX4,14837,1,14601,14602,14568,14567
CQUADX4,14838,1,14602,14603,14569,14568
CQUADX4,14839,1,14603,14604,14570,14569
CQUADX4,14840,1,14604,14605,14571,14570
CQUADX4,14841,1,14605,14606,14572,14571
CQUADX4,14842,1,14606,14607,14573,14572
CQUADX4,14843,1,14607,14608,14574,14573
CQUADX4,14844,1,14608,14609,14575,14574
CQUADX4,14845,1,14609,14610,14576,14575
CQUADX4,14846,1,14610,14611,14577,14576
CQUADX4,14847,1,14611,14612,14578,14577
CQUADX4,14848,1,14612,14613,14579,14578
CQUADX4,14849,1,14613,14614,14580,14579
CQUADX4,14850,1,14614,14615,14581,14580
CQUADX4,14851,1,14615,14616,14582,14581
CQUADX4,14852,1,14616,14617,14583,14582
CQUADX4,14853,1,14617,14618,14584,14583
CQUADX4,14854,1,14618,14619,14585,14584
CQUADX4,14855,1,14619,14620,14586,14585
CQUADX4,14856,1,14620,14621,14587,14586
CQUADX4,14857,1,14622,14623,14589,14588
CQUADX4,14858,1,14623,14624,14590,14589
CQUADX4,14859,1,14624,14625,14591,14590
CQUADX4,14860,1,14625,14626,14592,14591
CQUADX4,14861,1,14626,14627,14593,14592
CQUADX4,14862,1,14627,14628,14594,14593
CQUADX4,14863,1,14628,14629,14595,14594
CQUADX4,14864,1,14629,14630,14596,14595
CQUADX4,14865,1,14630,14631,14597,14596
CQUADX4,14866,1,14631,14632,14598,14597
CQUADX4,14867,1,14632,14633,14599,14598
CQUADX4,14868,1,14633,14634,14600,14599
CQUADX4,14869,1,14634,14635,14601,14600
CQUADX4,14870,1,14635,14636,14602,14601
CQUADX4,14871,1,14636,14637,14603,14602
CQUADX4,14872,1,14637,14638,14604,14603
CQUADX4,14873,1,14638,14639,14605,14604
CQUADX4,14874,1,14639,14640,14606,14605
CQUADX4,14875,1,14640,14641,14607,14606
CQUADX4,14876,1,14641,14642,14608,14607
CQUADX4,14877,1,14642,14643,14609,14608
CQUADX4,14878,1,14643,14644,14610,14609
CQUADX4,14879,1,14644,14645,14611,14610
CQUADX4,14880,1,14645,14646,14612,14611
CQUADX4,14881,1,14646,14647,14613,14612
CQUADX4,14882,1,14647,14648,14614,14613
CQUADX4,14883,1,14648,14649,14615,14614
CQUADX4,14884,1,14649,14650,14616,14615
CQUADX4,14885,1,14650,14651,14617,14616
CQUADX4,14886,1,14651,14652,14618,14617
CQUADX4,14887,1,14652,14653,14619,14618
CQUADX4,14888,1,14653,14654,14620,14619
CQUADX4,14889,1,14654,14655,14621,14620
CQUADX4,14890,1,14656,14657,14623,14622
CQUADX4,14891,1,14657,14658,14624,14623
CQUADX4,14892,1,14658,14659,14625,14624
CQUADX4,14893,1,14659,14660,14626,14625
CQUADX4,14894,1,14660,14661,14627,14626
CQUADX4,14895,1,14661,14662,14628,14627
CQUADX4,14896,1,14662,14663,14629,14628
CQUADX4,14897,1,14663,14664,14630,14629
CQUADX4,14898,1,14664,14665,14631,14630
CQUADX4,14899,1,14665,14666,14632,14631
CQUADX4,14900,1,14666,14667,14633,14632
CQUADX4,14901,1,14667,14668,14634,14633
CQUADX4,14902,1,14668,14669,14635,14634
CQUADX4,14903,1,14669,14670,14636,14635
CQUADX4,14904,1,14670,14671,14637,14636
CQUADX4,14905,1,14671,14672,14638,14637
CQUADX4,14906,1,14672,14673,14639,14638
CQUADX4,14907,1,14673,14674,14640,14639
CQUADX4,14908,1,14674,14675,14641,14640
CQUADX4,14909,1,14675,14676,14642,14641
CQUADX4,14910,1,14676,14677,14643,14642
CQUADX4,14911,1,14677,14678,14644,14643
CQUADX4,14912,1,14678,14679,14645,14644
CQUADX4,14913,1,14679,14680,14646,14645
CQUADX4,14914,1,14680,14681,14647,14646
CQUADX4,14915,1,14681,14682,14648,14647
CQUADX4,14916,1,14682,14683,14649,14648
CQUADX4,14917,1,14683,14684,14650,14649
CQUADX4,14918,1,14684,14685,14651,14650
CQUADX4,14919,1,14685,14686,14652,14651
CQUADX4,14920,1,14686,14687,14653,14652
CQUADX4,14921,1,14687,14688,14654,14653
CQUADX4,14922,1,14688,14689,14655,14654
CQUADX4,14923,1,14690,14691,14657,14656
CQUADX4,14924,1,14691,14692,14658,14657
CQUADX4,14925,1,14692,14693,14659,14658
CQUADX4,14926,1,14693,14694,14660,14659
CQUADX4,14927,1,14694,14695,14661,14660
CQUADX4,14928,1,14695,14696,14662,14661
CQUADX4,14929,1,14696,14697,14663,14662
CQUADX4,14930,1,14697,14698,14664,14663
CQUADX4,14931,1,14698,14699,14665,14664
CQUADX4,14932,1,14699,14700,14666,14665
CQUADX4,14933,1,14700,14701,14667,14666
CQUADX4,14934,1,14701,14702,14668,14667
CQUADX4,14935,1,14702,14703,14669,14668
CQUADX4,14936,1,14703,14704,14670,14669
CQUADX4,14937,1,14704,14705,14671,14670
CQUADX4,14938,1,14705,14706,14672,14671
CQUADX4,14939,1,14706,14707,14673,14672
CQUADX4,14940,1,14707,14708,14674,14673
CQUADX4,14941,1,14708,14709,14675,14674
CQUADX4,14942,1,14709,14710,14676,14675
CQUADX4,14943,1,14710,14711,14677,14676
CQUADX4,14944,1,14711,14712,14678,14677
CQUADX4,14945,1,14712,14713,14679,14678
CQUADX4,14946,1,14713,14714,14680,14679
CQUADX4,14947,1,14714,14715,14681,14680
CQUADX4,14948,1,14715,14716,14682,14681
CQUADX4,14949,1,14716,14717,14683,14682
CQUADX4,14950,1,14717,14718,14684,14683
CQUADX4,14951,1,14718,14719,14685,14684
CQUADX4,14952,1,14719,14720,14686,14685
CQUADX4,14953,1,14720,14721,14687,14686
CQUADX4,14954,1,14721,14722,14688,14687
CQUADX4,14955,1,14722,14723,14689,14688
CQUADX4,14956,1,14724,14725,14691,14690
CQUADX4,14957,1,14725,14726,14692,14691
CQUADX4,14958,1,14726,14727,14693,14692
CQUADX4,14959,1,14727,14728,14694,14693
CQUADX4,14960,1,14728,14729,14695,14694
CQUADX4,14961,1,14729,14730,14696,14695
CQUADX4,14962,1,14730,14731,14697,14696
CQUADX4,14963,1,14731,14732,14698,14697
CQUADX4,14964,1,14732,14733,14699,14698
CQUADX4,14965,1,14733,14734,14700,14699
CQUADX4,14966,1,14734,14735,14701,14700
CQUADX4,14967,1,14735,14736,14702,14701
CQUADX4,14968,1,14736,14737,14703,14702
CQUADX4,14969,1,14737,14738,14704,14703
CQUADX4,14970,1,14738,14739,14705,14704
CQUADX4,14971,1,14739,14740,14706,14705
CQUADX4,14972,1,14740,14741,14707,14706
CQUADX4,14973,1,14741,14742,14708,14707
CQUADX4,14974,1,14742,14743,14709,14708
CQUADX4,14975,1,14743,14744,14710,14709
CQUADX4,14976,1,14744,14745,14711,14710
CQUADX4,14977,1,14745,14746,14712,14711
CQUADX4,14978,1,14746,14747,14713,14712
CQUADX4,14979,1,14747,14748,14714,14713
CQUADX4,14980,1,14748,14749,14715,14714
CQUADX4,14981,1,14749,14750,14716,14715
CQUADX4,14982,1,14750,14751,14717,14716
CQUADX4,14983,1,14751,14752,14718,14717
CQUADX4,14984,1,14752,14753,14719,14718
CQUADX4,14985,1,14753,14754,14720,14719
CQUADX4,14986,1,14754,14755,14721,14720
CQUADX4,14987,1,14755,14756,14722,14721
CQUADX4,14988,1,14756,14757,14723,14722
CQUADX4,14989,1,14758,14759,14725,14724
CQUADX4,14990,1,14759,14760,14726,14725
CQUADX4,14991,1,14760,14761,14727,14726
CQUADX4,14992,1,14761,14762,14728,14727
CQUADX4,14993,1,14762,14763,14729,14728
CQUADX4,14994,1,14763,14764,14730,14729
CQUADX4,14995,1,14764,14765,14731,14730
CQUADX4,14996,1,14765,14766,14732,14731
CQUADX4,14997,1,14766,14767,14733,14732
CQUADX4,14998,1,14767,14768,14734,14733
CQUADX4,14999,1,14768,14769,14735,14734
CQUADX4,15000,1,14769,14770,14736,14735
CQUADX4,15001,1,14770,14771,14737,14736
CQUADX4,15002,1,14771,14772,14738,14737
CQUADX4,15003,1,14772,14773,14739,14738
CQUADX4,15004,1,14773,14774,14740,14739
CQUADX4,15005,1,14774,14775,14741,14740
CQUADX4,15006,1,14775,14776,14742,14741
CQUADX4,15007,1,14776,14777,14743,14742
CQUADX4,15008,1,14777,14778,14744,14743
CQUADX4,15009,1,14778,14779,14745,14744
CQUADX4,15010,1,14779,14780,14746,14745
CQUADX4,15011,1,14780,14781,14747,14746
CQUADX4,15012,1,14781,14782,14748,14747
CQUADX4,15013,1,14782,14783,14749,14748
CQUADX4,15014,1,14783,14784,14750,14749
CQUADX4,15015,1,14784,14785,14751,14750
CQUADX4,15016,1,14785,14786,14752,14751
CQUADX4,15017,1,14786,14787,14753,14752
CQUADX4,15018,1,14787,14788,14754,14753
CQUADX4,15019,1,14788,14789,14755,14754
CQUADX4,15020,1,14789,14790,14756,14755
CQUADX4,15021,1,14790,14791,14757,14756
CQUADX4,15022,1,14792,14793,14759,14758
CQUADX4,15023,1,14793,14794,14760,14759
CQUADX4,15024,1,14794,14795,14761,14760
CQUADX4,15025,1,14795,14796,14762,14761
CQUADX4,15026,1,14796,14797,14763,14762
CQUADX4,15027,1,14797,14798,14764,14763
CQUADX4,15028,1,14798,14799,14765,14764
CQUADX4,15029,1,14799,14800,14766,14765
CQUADX4,15030,1,14800,14801,14767,14766
CQUADX4,15031,1,14801,14802,14768,14767
CQUADX4,15032,1,14802,14803,14769,14768
CQUADX4,15033,1,14803,14804,14770,14769
CQUADX4,15034,1,14804,14805,14771,14770
CQUADX4,15035,1,14805,14806,14772,14771
CQUADX4,15036,1,14806,14807,14773,14772
CQUADX4,15037,1,14807,14808,14774,14773
CQUADX4,15038,1,14808,14809,14775,14774
CQUADX4,15039,1,14809,14810,14776,14775
CQUADX4,15040,1,14810,14811,14777,14776
CQUADX4,15041,1,14811,14812,14778,14777
CQUADX4,15042,1,14812,14813,14779,14778
CQUADX4,15043,1,14813,14814,14780,14779
CQUADX4,15044,1,14814,14815,14781,14780
CQUADX4,15045,1,14815,14816,14782,14781
CQUADX4,15046,1,14816,14817,14783,14782
CQUADX4,15047,1,14817,14818,14784,14783
CQUADX4,15048,1,14818,14819,14785,14784
CQUADX4,15049,1,14819,14820,14786,14785
CQUADX4,15050,1,14820,14821,14787,14786
CQUADX4,15051,1,14821,14822,14788,14787
CQUADX4,15052,1,14822,14823,14789,14788
CQUADX4,15053,1,14823,14824,14790,14789
CQUADX4,15054,1,14824,14825,14791,14790
CQUADX4,15055,1,30740,12820,30739,30849
CQUADX4,15056,1,30741,12854,12820,30740
CQUADX4,15057,1,30742,12888,12854,30741
CQUADX4,15058,1,30743,12922,12888,30742
CQUADX4,15059,1,30744,12956,12922,30743
CQUADX4,15060,1,30745,12990,12956,30744
CQUADX4,15061,1,30746,13024,12990,30745
CQUADX4,15062,1,30747,13058,13024,30746
CQUADX4,15063,1,30748,13092,13058,30747
CQUADX4,15064,1,30749,13126,13092,30748
CQUADX4,15065,1,30750,13160,13126,30749
CQUADX4,15066,1,30751,13194,13160,30750
CQUADX4,15067,1,30752,13228,13194,30751
CQUADX4,15068,1,30753,13262,13228,30752
CQUADX4,15069,1,30754,13296,13262,30753
CQUADX4,15070,1,30755,13330,13296,30754
CQUADX4,15071,1,30756,13364,13330,30755
CQUADX4,15072,1,30757,13398,13364,30756
CQUADX4,15073,1,30758,13432,13398,30757
CQUADX4,15074,1,30759,13466,13432,30758
CQUADX4,15075,1,30760,13500,13466,30759
CQUADX4,15076,1,30761,13534,13500,30760
CQUADX4,15077,1,30762,13568,13534,30761
CQUADX4,15078,1,30763,13602,13568,30762
CQUADX4,15079,1,30764,13636,13602,30763
CQUADX4,15080,1,30765,13670,13636,30764
CQUADX4,15081,1,30766,13704,13670,30765
CQUADX4,15082,1,30767,13738,13704,30766
CQUADX4,15083,1,30768,13772,13738,30767
CQUADX4,15084,1,30769,13806,13772,30768
CQUADX4,15085,1,30770,13840,13806,30769
CQUADX4,15086,1,30771,13874,13840,30770
CQUADX4,15087,1,30772,13908,13874,30771
CQUADX4,15088,1,30773,13942,13908,30772
CQUADX4,15089,1,30774,13976,13942,30773
CQUADX4,15090,1,30775,14010,13976,30774
CQUADX4,15091,1,30776,14044,14010,30775
CQUADX4,15092,1,30777,14078,14044,30776
CQUADX4,15093,1,30778,14112,14078,30777
CQUADX4,15094,1,30779,14146,14112,30778
CQUADX4,15095,1,30780,14180,14146,30779
CQUADX4,15096,1,30781,14214,14180,30780
CQUADX4,15097,1,30782,14248,14214,30781
CQUADX4,15098,1,30783,14282,14248,30782
CQUADX4,15099,1,30784,14316,14282,30783
CQUADX4,15100,1,30785,14350,14316,30784
CQUADX4,15101,1,30786,14384,14350,30785
CQUADX4,15102,1,30787,14418,14384,30786
CQUADX4,15103,1,30788,14452,14418,30787
CQUADX4,15104,1,30789,14486,14452,30788
CQUADX4,15105,1,30790,14520,14486,30789
CQUADX4,15106,1,30791,14554,14520,30790
CQUADX4,15107,1,30792,14588,14554,30791
CQUADX4,15108,1,30793,14622,14588,30792
CQUADX4,15109,1,30794,14656,14622,30793
CQUADX4,15110,1,30795,14690,14656,30794
CQUADX4,15111,1,30796,14724,14690,30795
CQUADX4,15112,1,30797,14758,14724,30796
CQUADX4,15113,1,30798,14792,14758,30797
CQUADX4,15114,1,30850,30799,14792,30798
CQUADX4,15115,1,30799,30800,14793,14792
CQUADX4,15116,1,30800,30801,14794,14793
CQUADX4,15117,1,30801,30802,14795,14794
CQUADX4,15118,1,30802,30803,14796,14795
CQUADX4,15119,1,30803,30804,14797,14796
CQUADX4,15120,1,30804,30805,14798,14797
CQUADX4,15121,1,30805,30806,14799,14798
CQUADX4,15122,1,30806,30807,14800,14799
CQUADX4,15123,1,30807,30808,14801,14800
CQUADX4,15124,1,30808,30809,14802,14801
CQUADX4,15125,1,30809,30810,14803,14802
CQUADX4,15126,1,30810,30811,14804,14803
CQUADX4,15127,1,30811,30812,14805,14804
CQUADX4,15128,1,30812,30813,14806,14805
CQUADX4,15129,1,30813,30814,14807,14806
CQUADX4,15130,1,30814,30815,14808,14807
CQUADX4,15131,1,30815,30816,14809,14808
CQUADX4,15132,1,30816,30817,14810,14809
CQUADX4,15133,1,30817,30818,14811,14810
CQUADX4,15134,1,30818,30819,14812,14811
CQUADX4,15135,1,30819,30820,14813,14812
CQUADX4,15136,1,30820,30821,14814,14813
CQUADX4,15137,1,30821,30822,14815,14814
CQUADX4,15138,1,30822,30823,14816,14815
CQUADX4,15139,1,30823,30824,14817,14816
CQUADX4,15140,1,30824,30825,14818,14817
CQUADX4,15141,1,30825,30826,14819,14818
CQUADX4,15142,1,30826,30827,14820,14819
CQUADX4,15143,1,30827,30828,14821,14820
CQUADX4,15144,1,30828,30829,14822,14821
CQUADX4,15145,1,30829,30830,14823,14822
CQUADX4,15146,1,30830,30831,14824,14823
CQUADX4,15147,1,30831,30832,14825,14824
CQUADX4,15148,1,30832,30836,30054,14825
CQUADX4,15149,1,14825,30054,30053,14791
CQUADX4,15150,1,14791,30053,30052,14757
CQUADX4,15151,1,14757,30052,30051,14723
CQUADX4,15152,1,14723,30051,30050,14689
CQUADX4,15153,1,14689,30050,30049,14655
CQUADX4,15154,1,14655,30049,30048,14621
CQUADX4,15155,1,14621,30048,30047,14587
CQUADX4,15156,1,14587,30047,30046,14553
CQUADX4,15157,1,14553,30046,30045,14519
CQUADX4,15158,1,14519,30045,30044,14485
CQUADX4,15159,1,14485,30044,30043,14451
CQUADX4,15160,1,14451,30043,30042,14417
CQUADX4,15161,1,14417,30042,30041,14383
CQUADX4,15162,1,14383,30041,30040,14349
CQUADX4,15163,1,14349,30040,30039,14315
CQUADX4,15164,1,14315,30039,30038,14281
CQUADX4,15165,1,14281,30038,30037,14247
CQUADX4,15166,1,14247,30037,30036,14213
CQUADX4,15167,1,14213,30036,30035,14179
CQUADX4,15168,1,14179,30035,30034,14145
CQUADX4,15169,1,14145,30034,30033,14111
CQUADX4,15170,1,14111,30033,30032,14077
CQUADX4,15171,1,14077,30032,30031,14043
CQUADX4,15172,1,14043,30031,30030,14009
CQUADX4,15173,1,14009,30030,30029,13975
CQUADX4,15174,1,13975,30029,30028,13941
CQUADX4,15175,1,13941,30028,30027,13907
CQUADX4,15176,1,13907,30027,30026,13873
CQUADX4,15177,1,13873,30026,30025,13839
CQUADX4,15178,1,13839,30025,30024,13805
CQUADX4,15179,1,13805,30024,30023,13771
CQUADX4,15180,1,13771,30023,30022,13737
CQUADX4,15181,1,13737,30022,30021,13703
CQUADX4,15182,1,13703,30021,30020,13669
CQUADX4,15183,1,13669,30020,30019,13635
CQUADX4,15184,1,13635,30019,30018,13601
CQUADX4,15185,1,13601,30018,30017,13567
CQUADX4,15186,1,13567,30017,30016,13533
CQUADX4,15187,1,13533,30016,30015,13499
CQUADX4,15188,1,13499,30015,30014,13465
CQUADX4,15189,1,13465,30014,30013,13431
CQUADX4,15190,1,13431,30013,30012,13397
CQUADX4,15191,1,13397,30012,30011,13363
CQUADX4,15192,1,13363,30011,30010,13329
CQUADX4,15193,1,13329,30010,30009,13295
CQUADX4,15194,1,13295,30009,30008,13261
CQUADX4,15195,1,13261,30008,30007,13227
CQUADX4,15196,1,13227,30007,30006,13193
CQUADX4,15197,1,13193,30006,30005,13159
CQUADX4,15198,1,13159,30005,30004,13125
CQUADX4,15199,1,13125,30004,30003,13091
CQUADX4,15200,1,13091,30003,30002,13057
CQUADX4,15201,1,13057,30002,30001,13023
CQUADX4,15202,1,13023,30001,30000,12989
CQUADX4,15203,1,12989,30000,29999,12955
CQUADX4,15204,1,12955,29999,29998,12921
CQUADX4,15205,1,12921,29998,29997,12887
CQUADX4,15206,1,12887,29997,29996,12853
CQUADX4,15207,1,12853,29996,30835,30706
CQUADX4,15208,1,12852,12853,30706,30707
CQUADX4,15209,1,12851,12852,30707,30708
CQUADX4,15210,1,12850,12851,30708,30709
CQUADX4,15211,1,12849,12850,30709,30710
CQUADX4,15212,1,12848,12849,30710,30711
CQUADX4,15213,1,12847,12848,30711,30712
CQUADX4,15214,1,12846,12847,30712,30713
CQUADX4,15215,1,12845,12846,30713,30714
CQUADX4,15216,1,12844,12845,30714,30715
CQUADX4,15217,1,12843,12844,30715,30716
CQUADX4,15218,1,12842,12843,30716,30717
CQUADX4,15219,1,12841,12842,30717,30718
CQUADX4,15220,1,12840,12841,30718,30719
CQUADX4,15221,1,12839,12840,30719,30720
CQUADX4,15222,1,12838,12839,30720,30721
CQUADX4,15223,1,12837,12838,30721,30722
CQUADX4,15224,1,12836,12837,30722,30723
CQUADX4,15225,1,12835,12836,30723,30724
CQUADX4,15226,1,12834,12835,30724,30725
CQUADX4,15227,1,12833,12834,30725,30726
CQUADX4,15228,1,12832,12833,30726,30727
CQUADX4,15229,1,12831,12832,30727,30728
CQUADX4,15230,1,12830,12831,30728,30729
CQUADX4,15231,1,12829,12830,30729,30730
CQUADX4,15232,1,12828,12829,30730,30731
CQUADX4,15233,1,12827,12828,30731,30732
CQUADX4,15234,1,12826,12827,30732,30733
CQUADX4,15235,1,12825,12826,30733,30734
CQUADX4,15236,1,12824,12825,30734,30735
CQUADX4,15237,1,12823,12824,30735,30736
CQUADX4,15238,1,12822,12823,30736,30737
CQUADX4,15239,1,12821,12822,30737,30738
CQUADX4,15240,1,12820,12821,30738,30739
CQUADX4,15241,1,14826,15075,15076,14827
CQUADX4,15242,1,14827,15076,15077,14828
CQUADX4,15243,1,14828,15077,15078,14829
CQUADX4,15244,1,14829,15078,15079,14830
CQUADX4,15245,1,14830,15079,15080,14831
CQUADX4,15246,1,14831,15080,15081,14832
CQUADX4,15247,1,14832,15081,15082,14833
CQUADX4,15248,1,14833,15082,15083,14834
CQUADX4,15249,1,14834,15083,15084,14835
CQUADX4,15250,1,14835,15084,15085,14836
CQUADX4,15251,1,14836,15085,15086,14837
CQUADX4,15252,1,14837,15086,15087,14838
CQUADX4,15253,1,14838,15087,15088,14839
CQUADX4,15254,1,14839,15088,15089,14840
CQUADX4,15255,1,14840,15089,15090,14841
CQUADX4,15256,1,14841,15090,15091,14842
CQUADX4,15257,1,14842,15091,15092,14843
CQUADX4,15258,1,14843,15092,15093,14844
CQUADX4,15259,1,14844,15093,15094,14845
CQUADX4,15260,1,14845,15094,15095,14846
CQUADX4,15261,1,14846,15095,15096,14847
CQUADX4,15262,1,14847,15096,15097,14848
CQUADX4,15263,1,14848,15097,15098,14849
CQUADX4,15264,1,14849,15098,15099,14850
CQUADX4,15265,1,14850,15099,15100,14851
CQUADX4,15266,1,14851,15100,15101,14852
CQUADX4,15267,1,14852,15101,15102,14853
CQUADX4,15268,1,14853,15102,15103,14854
CQUADX4,15269,1,14854,15103,15104,14855
CQUADX4,15270,1,14855,15104,15105,14856
CQUADX4,15271,1,14856,15105,15106,14857
CQUADX4,15272,1,14857,15106,15107,14858
CQUADX4,15273,1,14858,15107,15108,14859
CQUADX4,15274,1,14859,15108,15109,14860
CQUADX4,15275,1,14860,15109,15110,14861
CQUADX4,15276,1,14861,15110,15111,14862
CQUADX4,15277,1,14862,15111,15112,14863
CQUADX4,15278,1,14863,15112,15113,14864
CQUADX4,15279,1,14864,15113,15114,14865
CQUADX4,15280,1,14865,15114,15115,14866
CQUADX4,15281,1,14866,15115,15116,14867
CQUADX4,15282,1,14867,15116,15117,14868
CQUADX4,15283,1,14868,15117,15118,14869
CQUADX4,15284,1,14869,15118,15119,14870
CQUADX4,15285,1,14870,15119,15120,14871
CQUADX4,15286,1,14871,15120,15121,14872
CQUADX4,15287,1,14872,15121,15122,14873
CQUADX4,15288,1,14873,15122,15123,14874
CQUADX4,15289,1,14874,15123,15124,14875
CQUADX4,15290,1,14875,15124,15125,14876
CQUADX4,15291,1,14876,15125,15126,14877
CQUADX4,15292,1,14877,15126,15127,14878
CQUADX4,15293,1,14878,15127,15128,14879
CQUADX4,15294,1,14879,15128,15129,14880
CQUADX4,15295,1,14880,15129,15130,14881
CQUADX4,15296,1,14881,15130,15131,14882
CQUADX4,15297,1,14882,15131,15132,14883
CQUADX4,15298,1,14883,15132,15133,14884
CQUADX4,15299,1,14884,15133,15134,14885
CQUADX4,15300,1,14885,15134,15135,14886
CQUADX4,15301,1,14886,15135,15136,14887
CQUADX4,15302,1,14887,15136,15137,14888
CQUADX4,15303,1,14888,15137,15138,14889
CQUADX4,15304,1,14889,15138,15139,14890
CQUADX4,15305,1,14890,15139,15140,14891
CQUADX4,15306,1,14891,15140,15141,14892
CQUADX4,15307,1,14892,15141,15142,14893
CQUADX4,15308,1,14893,15142,15143,14894
CQUADX4,15309,1,14894,15143,15144,14895
CQUADX4,15310,1,14895,15144,15145,14896
CQUADX4,15311,1,14896,15145,15146,14897
CQUADX4,15312,1,14897,15146,15147,14898
CQUADX4,15313,1,14898,15147,15148,14899
CQUADX4,15314,1,14899,15148,15149,14900
CQUADX4,15315,1,14900,15149,15150,14901
CQUADX4,15316,1,14901,15150,15151,14902
CQUADX4,15317,1,14902,15151,15152,14903
CQUADX4,15318,1,14903,15152,15153,14904
CQUADX4,15319,1,14904,15153,15154,14905
CQUADX4,15320,1,14905,15154,15155,14906
CQUADX4,15321,1,14906,15155,15156,14907
CQUADX4,15322,1,14907,15156,15157,14908
CQUADX4,15323,1,14908,15157,15158,14909
CQUADX4,15324,1,14909,15158,15159,14910
CQUADX4,15325,1,14910,15159,15160,14911
CQUADX4,15326,1,14911,15160,15161,14912
CQUADX4,15327,1,14912,15161,15162,14913
CQUADX4,15328,1,14913,15162,15163,14914
CQUADX4,15329,1,14914,15163,15164,14915
CQUADX4,15330,1,14915,15164,15165,14916
CQUADX4,15331,1,14916,15165,15166,14917
CQUADX4,15332,1,14917,15166,15167,14918
CQUADX4,15333,1,14918,15167,15168,14919
CQUADX4,15334,1,14919,15168,15169,14920
CQUADX4,15335,1,14920,15169,15170,14921
CQUADX4,15336,1,14921,15170,15171,14922
CQUADX4,15337,1,14922,15171,15172,14923
CQUADX4,15338,1,14923,15172,15173,14924
CQUADX4,15339,1,14924,15173,15174,14925
CQUADX4,15340,1,14925,15174,15175,14926
CQUADX4,15341,1,14926,15175,15176,14927
CQUADX4,15342,1,14927,15176,15177,14928
CQUADX4,15343,1,14928,15177,15178,14929
CQUADX4,15344,1,14929,15178,15179,14930
CQUADX4,15345,1,14930,15179,15180,14931
CQUADX4,15346,1,14931,15180,15181,14932
CQUADX4,15347,1,14932,15181,15182,14933
CQUADX4,15348,1,14933,15182,15183,14934
CQUADX4,15349,1,14934,15183,15184,14935
CQUADX4,15350,1,14935,15184,15185,14936
CQUADX4,15351,1,14936,15185,15186,14937
CQUADX4,15352,1,14937,15186,15187,14938
CQUADX4,15353,1,14938,15187,15188,14939
CQUADX4,15354,1,14939,15188,15189,14940
CQUADX4,15355,1,14940,15189,15190,14941
CQUADX4,15356,1,14941,15190,15191,14942
CQUADX4,15357,1,14942,15191,15192,14943
CQUADX4,15358,1,14943,15192,15193,14944
CQUADX4,15359,1,14944,15193,15194,14945
CQUADX4,15360,1,14945,15194,15195,14946
CQUADX4,15361,1,14946,15195,15196,14947
CQUADX4,15362,1,14947,15196,15197,14948
CQUADX4,15363,1,14948,15197,15198,14949
CQUADX4,15364,1,14949,15198,15199,14950
CQUADX4,15365,1,14950,15199,15200,14951
CQUADX4,15366,1,14951,15200,15201,14952
CQUADX4,15367,1,14952,15201,15202,14953
CQUADX4,15368,1,14953,15202,15203,14954
CQUADX4,15369,1,14954,15203,15204,14955
CQUADX4,15370,1,14955,15204,15205,14956
CQUADX4,15371,1,14956,15205,15206,14957
CQUADX4,15372,1,14957,15206,15207,14958
CQUADX4,15373,1,14958,15207,15208,14959
CQUADX4,15374,1,14959,15208,15209,14960
CQUADX4,15375,1,14960,15209,15210,14961
CQUADX4,15376,1,14961,15210,15211,14962
CQUADX4,15377,1,14962,15211,15212,14963
CQUADX4,15378,1,14963,15212,15213,14964
CQUADX4,15379,1,14964,15213,15214,14965
CQUADX4,15380,1,14965,15214,15215,14966
CQUADX4,15381,1,14966,15215,15216,14967
CQUADX4,15382,1,14967,15216,15217,14968
CQUADX4,15383,1,14968,15217,15218,14969
CQUADX4,15384,1,14969,15218,15219,14970
CQUADX4,15385,1,14970,15219,15220,14971
CQUADX4,15386,1,14971,15220,15221,14972
CQUADX4,15387,1,14972,15221,15222,14973
CQUADX4,15388,1,14973,15222,15223,14974
CQUADX4,15389,1,14974,15223,15224,14975
CQUADX4,15390,1,14975,15224,15225,14976
CQUADX4,15391,1,14976,15225,15226,14977
CQUADX4,15392,1,14977,15226,15227,14978
CQUADX4,15393,1,14978,15227,15228,14979
CQUADX4,15394,1,14979,15228,15229,14980
CQUADX4,15395,1,14980,15229,15230,14981
CQUADX4,15396,1,14981,15230,15231,14982
CQUADX4,15397,1,14982,15231,15232,14983
CQUADX4,15398,1,14983,15232,15233,14984
CQUADX4,15399,1,14984,15233,15234,14985
CQUADX4,15400,1,14985,15234,15235,14986
CQUADX4,15401,1,14986,15235,15236,14987
CQUADX4,15402,1,14987,15236,15237,14988
CQUADX4,15403,1,14988,15237,15238,14989
CQUADX4,15404,1,14989,15238,15239,14990
CQUADX4,15405,1,14990,15239,15240,14991
CQUADX4,15406,1,14991,15240,15241,14992
CQUADX4,15407,1,14992,15241,15242,14993
CQUADX4,15408,1,14993,15242,15243,14994
CQUADX4,15409,1,14994,15243,15244,14995
CQUADX4,15410,1,14995,15244,15245,14996
CQUADX4,15411,1,14996,15245,15246,14997
CQUADX4,15412,1,14997,15246,15247,14998
CQUADX4,15413,1,14998,15247,15248,14999
CQUADX4,15414,1,14999,15248,15249,15000
CQUADX4,15415,1,15000,15249,15250,15001
CQUADX4,15416,1,15001,15250,15251,15002
CQUADX4,15417,1,15002,15251,15252,15003
CQUADX4,15418,1,15003,15252,15253,15004
CQUADX4,15419,1,15004,15253,15254,15005
CQUADX4,15420,1,15005,15254,15255,15006
CQUADX4,15421,1,15006,15255,15256,15007
CQUADX4,15422,1,15007,15256,15257,15008
CQUADX4,15423,1,15008,15257,15258,15009
CQUADX4,15424,1,15009,15258,15259,15010
CQUADX4,15425,1,15010,15259,15260,15011
CQUADX4,15426,1,15011,15260,15261,15012
CQUADX4,15427,1,15012,15261,15262,15013
CQUADX4,15428,1,15013,15262,15263,15014
CQUADX4,15429,1,15014,15263,15264,15015
CQUADX4,15430,1,15015,15264,15265,15016
CQUADX4,15431,1,15016,15265,15266,15017
CQUADX4,15432,1,15017,15266,15267,15018
CQUADX4,15433,1,15018,15267,15268,15019
CQUADX4,15434,1,15019,15268,15269,15020
CQUADX4,15435,1,15020,15269,15270,15021
CQUADX4,15436,1,15021,15270,15271,15022
CQUADX4,15437,1,15022,15271,15272,15023
CQUADX4,15438,1,15023,15272,15273,15024
CQUADX4,15439,1,15024,15273,15274,15025
CQUADX4,15440,1,15025,15274,15275,15026
CQUADX4,15441,1,15026,15275,15276,15027
CQUADX4,15442,1,15027,15276,15277,15028
CQUADX4,15443,1,15028,15277,15278,15029
CQUADX4,15444,1,15029,15278,15279,15030
CQUADX4,15445,1,15030,15279,15280,15031
CQUADX4,15446,1,15031,15280,15281,15032
CQUADX4,15447,1,15032,15281,15282,15033
CQUADX4,15448,1,15033,15282,15283,15034
CQUADX4,15449,1,15034,15283,15284,15035
CQUADX4,15450,1,15035,15284,15285,15036
CQUADX4,15451,1,15036,15285,15286,15037
CQUADX4,15452,1,15037,15286,15287,15038
CQUADX4,15453,1,15038,15287,15288,15039
CQUADX4,15454,1,15039,15288,15289,15040
CQUADX4,15455,1,15040,15289,15290,15041
CQUADX4,15456,1,15041,15290,15291,15042
CQUADX4,15457,1,15042,15291,15292,15043
CQUADX4,15458,1,15043,15292,15293,15044
CQUADX4,15459,1,15044,15293,15294,15045
CQUADX4,15460,1,15045,15294,15295,15046
CQUADX4,15461,1,15046,15295,15296,15047
CQUADX4,15462,1,15047,15296,15297,15048
CQUADX4,15463,1,15048,15297,15298,15049
CQUADX4,15464,1,15049,15298,15299,15050
CQUADX4,15465,1,15050,15299,15300,15051
CQUADX4,15466,1,15051,15300,15301,15052
CQUADX4,15467,1,15052,15301,15302,15053
CQUADX4,15468,1,15053,15302,15303,15054
CQUADX4,15469,1,15054,15303,15304,15055
CQUADX4,15470,1,15055,15304,15305,15056
CQUADX4,15471,1,15056,15305,15306,15057
CQUADX4,15472,1,15057,15306,15307,15058
CQUADX4,15473,1,15058,15307,15308,15059
CQUADX4,15474,1,15059,15308,15309,15060
CQUADX4,15475,1,15060,15309,15310,15061
CQUADX4,15476,1,15061,15310,15311,15062
CQUADX4,15477,1,15062,15311,15312,15063
CQUADX4,15478,1,15063,15312,15313,15064
CQUADX4,15479,1,15064,15313,15314,15065
CQUADX4,15480,1,15065,15314,15315,15066
CQUADX4,15481,1,15066,15315,15316,15067
CQUADX4,15482,1,15067,15316,15317,15068
CQUADX4,15483,1,15068,15317,15318,15069
CQUADX4,15484,1,15069,15318,15319,15070
CQUADX4,15485,1,15070,15319,15320,15071
CQUADX4,15486,1,15071,15320,15321,15072
CQUADX4,15487,1,15072,15321,15322,15073
CQUADX4,15488,1,15073,15322,15323,15074
CQUADX4,15489,1,15075,15324,15325,15076
CQUADX4,15490,1,15076,15325,15326,15077
CQUADX4,15491,1,15077,15326,15327,15078
CQUADX4,15492,1,15078,15327,15328,15079
CQUADX4,15493,1,15079,15328,15329,15080
CQUADX4,15494,1,15080,15329,15330,15081
CQUADX4,15495,1,15081,15330,15331,15082
CQUADX4,15496,1,15082,15331,15332,15083
CQUADX4,15497,1,15083,15332,15333,15084
CQUADX4,15498,1,15084,15333,15334,15085
CQUADX4,15499,1,15085,15334,15335,15086
CQUADX4,15500,1,15086,15335,15336,15087
CQUADX4,15501,1,15087,15336,15337,15088
CQUADX4,15502,1,15088,15337,15338,15089
CQUADX4,15503,1,15089,15338,15339,15090
CQUADX4,15504,1,15090,15339,15340,15091
CQUADX4,15505,1,15091,15340,15341,15092
CQUADX4,15506,1,15092,15341,15342,15093
CQUADX4,15507,1,15093,15342,15343,15094
CQUADX4,15508,1,15094,15343,15344,15095
CQUADX4,15509,1,15095,15344,15345,15096
CQUADX4,15510,1,15096,15345,15346,15097
CQUADX4,15511,1,15097,15346,15347,15098
CQUADX4,15512,1,15098,15347,15348,15099
CQUADX4,15513,1,15099,15348,15349,15100
CQUADX4,15514,1,15100,15349,15350,15101
CQUADX4,15515,1,15101,15350,15351,15102
CQUADX4,15516,1,15102,15351,15352,15103
CQUADX4,15517,1,15103,15352,15353,15104
CQUADX4,15518,1,15104,15353,15354,15105
CQUADX4,15519,1,15105,15354,15355,15106
CQUADX4,15520,1,15106,15355,15356,15107
CQUADX4,15521,1,15107,15356,15357,15108
CQUADX4,15522,1,15108,15357,15358,15109
CQUADX4,15523,1,15109,15358,15359,15110
CQUADX4,15524,1,15110,15359,15360,15111
CQUADX4,15525,1,15111,15360,15361,15112
CQUADX4,15526,1,15112,15361,15362,15113
CQUADX4,15527,1,15113,15362,15363,15114
CQUADX4,15528,1,15114,15363,15364,15115
CQUADX4,15529,1,15115,15364,15365,15116
CQUADX4,15530,1,15116,15365,15366,15117
CQUADX4,15531,1,15117,15366,15367,15118
CQUADX4,15532,1,15118,15367,15368,15119
CQUADX4,15533,1,15119,15368,15369,15120
CQUADX4,15534,1,15120,15369,15370,15121
CQUADX4,15535,1,15121,15370,15371,15122
CQUADX4,15536,1,15122,15371,15372,15123
CQUADX4,15537,1,15123,15372,15373,15124
CQUADX4,15538,1,15124,15373,15374,15125
CQUADX4,15539,1,15125,15374,15375,15126
CQUADX4,15540,1,15126,15375,15376,15127
CQUADX4,15541,1,15127,15376,15377,15128
CQUADX4,15542,1,15128,15377,15378,15129
CQUADX4,15543,1,15129,15378,15379,15130
CQUADX4,15544,1,15130,15379,15380,15131
CQUADX4,15545,1,15131,15380,15381,15132
CQUADX4,15546,1,15132,15381,15382,15133
CQUADX4,15547,1,15133,15382,15383,15134
CQUADX4,15548,1,15134,15383,15384,15135
CQUADX4,15549,1,15135,15384,15385,15136
CQUADX4,15550,1,15136,15385,15386,15137
CQUADX4,15551,1,15137,15386,15387,15138
CQUADX4,15552,1,15138,15387,15388,15139
CQUADX4,15553,1,15139,15388,15389,15140
CQUADX4,15554,1,15140,15389,15390,15141
CQUADX4,15555,1,15141,15390,15391,15142
CQUADX4,15556,1,15142,15391,15392,15143
CQUADX4,15557,1,15143,15392,15393,15144
CQUADX4,15558,1,15144,15393,15394,15145
CQUADX4,15559,1,15145,15394,15395,15146
CQUADX4,15560,1,15146,15395,15396,15147
CQUADX4,15561,1,15147,15396,15397,15148
CQUADX4,15562,1,15148,15397,15398,15149
CQUADX4,15563,1,15149,15398,15399,15150
CQUADX4,15564,1,15150,15399,15400,15151
CQUADX4,15565,1,15151,15400,15401,15152
CQUADX4,15566,1,15152,15401,15402,15153
CQUADX4,15567,1,15153,15402,15403,15154
CQUADX4,15568,1,15154,15403,15404,15155
CQUADX4,15569,1,15155,15404,15405,15156
CQUADX4,15570,1,15156,15405,15406,15157
CQUADX4,15571,1,15157,15406,15407,15158
CQUADX4,15572,1,15158,15407,15408,15159
CQUADX4,15573,1,15159,15408,15409,15160
CQUADX4,15574,1,15160,15409,15410,15161
CQUADX4,15575,1,15161,15410,15411,15162
CQUADX4,15576,1,15162,15411,15412,15163
CQUADX4,15577,1,15163,15412,15413,15164
CQUADX4,15578,1,15164,15413,15414,15165
CQUADX4,15579,1,15165,15414,15415,15166
CQUADX4,15580,1,15166,15415,15416,15167
CQUADX4,15581,1,15167,15416,15417,15168
CQUADX4,15582,1,15168,15417,15418,15169
CQUADX4,15583,1,15169,15418,15419,15170
CQUADX4,15584,1,15170,15419,15420,15171
CQUADX4,15585,1,15171,15420,15421,15172
CQUADX4,15586,1,15172,15421,15422,15173
CQUADX4,15587,1,15173,15422,15423,15174
CQUADX4,15588,1,15174,15423,15424,15175
CQUADX4,15589,1,15175,15424,15425,15176
CQUADX4,15590,1,15176,15425,15426,15177
CQUADX4,15591,1,15177,15426,15427,15178
CQUADX4,15592,1,15178,15427,15428,15179
CQUADX4,15593,1,15179,15428,15429,15180
CQUADX4,15594,1,15180,15429,15430,15181
CQUADX4,15595,1,15181,15430,15431,15182
CQUADX4,15596,1,15182,15431,15432,15183
CQUADX4,15597,1,15183,15432,15433,15184
CQUADX4,15598,1,15184,15433,15434,15185
CQUADX4,15599,1,15185,15434,15435,15186
CQUADX4,15600,1,15186,15435,15436,15187
CQUADX4,15601,1,15187,15436,15437,15188
CQUADX4,15602,1,15188,15437,15438,15189
CQUADX4,15603,1,15189,15438,15439,15190
CQUADX4,15604,1,15190,15439,15440,15191
CQUADX4,15605,1,15191,15440,15441,15192
CQUADX4,15606,1,15192,15441,15442,15193
CQUADX4,15607,1,15193,15442,15443,15194
CQUADX4,15608,1,15194,15443,15444,15195
CQUADX4,15609,1,15195,15444,15445,15196
CQUADX4,15610,1,15196,15445,15446,15197
CQUADX4,15611,1,15197,15446,15447,15198
CQUADX4,15612,1,15198,15447,15448,15199
CQUADX4,15613,1,15199,15448,15449,15200
CQUADX4,15614,1,15200,15449,15450,15201
CQUADX4,15615,1,15201,15450,15451,15202
CQUADX4,15616,1,15202,15451,15452,15203
CQUADX4,15617,1,15203,15452,15453,15204
CQUADX4,15618,1,15204,15453,15454,15205
CQUADX4,15619,1,15205,15454,15455,15206
CQUADX4,15620,1,15206,15455,15456,15207
CQUADX4,15621,1,15207,15456,15457,15208
CQUADX4,15622,1,15208,15457,15458,15209
CQUADX4,15623,1,15209,15458,15459,15210
CQUADX4,15624,1,15210,15459,15460,15211
CQUADX4,15625,1,15211,15460,15461,15212
CQUADX4,15626,1,15212,15461,15462,15213
CQUADX4,15627,1,15213,15462,15463,15214
CQUADX4,15628,1,15214,15463,15464,15215
CQUADX4,15629,1,15215,15464,15465,15216
CQUADX4,15630,1,15216,15465,15466,15217
CQUADX4,15631,1,15217,15466,15467,15218
CQUADX4,15632,1,15218,15467,15468,15219
CQUADX4,15633,1,15219,15468,15469,15220
CQUADX4,15634,1,15220,15469,15470,15221
CQUADX4,15635,1,15221,15470,15471,15222
CQUADX4,15636,1,15222,15471,15472,15223
CQUADX4,15637,1,15223,15472,15473,15224
CQUADX4,15638,1,15224,15473,15474,15225
CQUADX4,15639,1,15225,15474,15475,15226
CQUADX4,15640,1,15226,15475,15476,15227
CQUADX4,15641,1,15227,15476,15477,15228
CQUADX4,15642,1,15228,15477,15478,15229
CQUADX4,15643,1,15229,15478,15479,15230
CQUADX4,15644,1,15230,15479,15480,15231
CQUADX4,15645,1,15231,15480,15481,15232
CQUADX4,15646,1,15232,15481,15482,15233
CQUADX4,15647,1,15233,15482,15483,15234
CQUADX4,15648,1,15234,15483,15484,15235
CQUADX4,15649,1,15235,15484,15485,15236
CQUADX4,15650,1,15236,15485,15486,15237
CQUADX4,15651,1,15237,15486,15487,15238
CQUADX4,15652,1,15238,15487,15488,15239
CQUADX4,15653,1,15239,15488,15489,15240
CQUADX4,15654,1,15240,15489,15490,15241
CQUADX4,15655,1,15241,15490,15491,15242
CQUADX4,15656,1,15242,15491,15492,15243
CQUADX4,15657,1,15243,15492,15493,15244
CQUADX4,15658,1,15244,15493,15494,15245
CQUADX4,15659,1,15245,15494,15495,15246
CQUADX4,15660,1,15246,15495,15496,15247
CQUADX4,15661,1,15247,15496,15497,15248
CQUADX4,15662,1,15248,15497,15498,15249
CQUADX4,15663,1,15249,15498,15499,15250
CQUADX4,15664,1,15250,15499,15500,15251
CQUADX4,15665,1,15251,15500,15501,15252
CQUADX4,15666,1,15252,15501,15502,15253
CQUADX4,15667,1,15253,15502,15503,15254
CQUADX4,15668,1,15254,15503,15504,15255
CQUADX4,15669,1,15255,15504,15505,15256
CQUADX4,15670,1,15256,15505,15506,15257
CQUADX4,15671,1,15257,15506,15507,15258
CQUADX4,15672,1,15258,15507,15508,15259
CQUADX4,15673,1,15259,15508,15509,15260
CQUADX4,15674,1,15260,15509,15510,15261
CQUADX4,15675,1,15261,15510,15511,15262
CQUADX4,15676,1,15262,15511,15512,15263
CQUADX4,15677,1,15263,15512,15513,15264
CQUADX4,15678,1,15264,15513,15514,15265
CQUADX4,15679,1,15265,15514,15515,15266
CQUADX4,15680,1,15266,15515,15516,15267
CQUADX4,15681,1,15267,15516,15517,15268
CQUADX4,15682,1,15268,15517,15518,15269
CQUADX4,15683,1,15269,15518,15519,15270
CQUADX4,15684,1,15270,15519,15520,15271
CQUADX4,15685,1,15271,15520,15521,15272
CQUADX4,15686,1,15272,15521,15522,15273
CQUADX4,15687,1,15273,15522,15523,15274
CQUADX4,15688,1,15274,15523,15524,15275
CQUADX4,15689,1,15275,15524,15525,15276
CQUADX4,15690,1,15276,15525,15526,15277
CQUADX4,15691,1,15277,15526,15527,15278
CQUADX4,15692,1,15278,15527,15528,15279
CQUADX4,15693,1,15279,15528,15529,15280
CQUADX4,15694,1,15280,15529,15530,15281
CQUADX4,15695,1,15281,15530,15531,15282
CQUADX4,15696,1,15282,15531,15532,15283
CQUADX4,15697,1,15283,15532,15533,15284
CQUADX4,15698,1,15284,15533,15534,15285
CQUADX4,15699,1,15285,15534,15535,15286
CQUADX4,15700,1,15286,15535,15536,15287
CQUADX4,15701,1,15287,15536,15537,15288
CQUADX4,15702,1,15288,15537,15538,15289
CQUADX4,15703,1,15289,15538,15539,15290
CQUADX4,15704,1,15290,15539,15540,15291
CQUADX4,15705,1,15291,15540,15541,15292
CQUADX4,15706,1,15292,15541,15542,15293
CQUADX4,15707,1,15293,15542,15543,15294
CQUADX4,15708,1,15294,15543,15544,15295
CQUADX4,15709,1,15295,15544,15545,15296
CQUADX4,15710,1,15296,15545,15546,15297
CQUADX4,15711,1,15297,15546,15547,15298
CQUADX4,15712,1,15298,15547,15548,15299
CQUADX4,15713,1,15299,15548,15549,15300
CQUADX4,15714,1,15300,15549,15550,15301
CQUADX4,15715,1,15301,15550,15551,15302
CQUADX4,15716,1,15302,15551,15552,15303
CQUADX4,15717,1,15303,15552,15553,15304
CQUADX4,15718,1,15304,15553,15554,15305
CQUADX4,15719,1,15305,15554,15555,15306
CQUADX4,15720,1,15306,15555,15556,15307
CQUADX4,15721,1,15307,15556,15557,15308
CQUADX4,15722,1,15308,15557,15558,15309
CQUADX4,15723,1,15309,15558,15559,15310
CQUADX4,15724,1,15310,15559,15560,15311
CQUADX4,15725,1,15311,15560,15561,15312
CQUADX4,15726,1,15312,15561,15562,15313
CQUADX4,15727,1,15313,15562,15563,15314
CQUADX4,15728,1,15314,15563,15564,15315
CQUADX4,15729,1,15315,15564,15565,15316
CQUADX4,15730,1,15316,15565,15566,15317
CQUADX4,15731,1,15317,15566,15567,15318
CQUADX4,15732,1,15318,15567,15568,15319
CQUADX4,15733,1,15319,15568,15569,15320
CQUADX4,15734,1,15320,15569,15570,15321
CQUADX4,15735,1,15321,15570,15571,15322
CQUADX4,15736,1,15322,15571,15572,15323
CQUADX4,15737,1,15324,15573,15574,15325
CQUADX4,15738,1,15325,15574,15575,15326
CQUADX4,15739,1,15326,15575,15576,15327
CQUADX4,15740,1,15327,15576,15577,15328
CQUADX4,15741,1,15328,15577,15578,15329
CQUADX4,15742,1,15329,15578,15579,15330
CQUADX4,15743,1,15330,15579,15580,15331
CQUADX4,15744,1,15331,15580,15581,15332
CQUADX4,15745,1,15332,15581,15582,15333
CQUADX4,15746,1,15333,15582,15583,15334
CQUADX4,15747,1,15334,15583,15584,15335
CQUADX4,15748,1,15335,15584,15585,15336
CQUADX4,15749,1,15336,15585,15586,15337
CQUADX4,15750,1,15337,15586,15587,15338
CQUADX4,15751,1,15338,15587,15588,15339
CQUADX4,15752,1,15339,15588,15589,15340
CQUADX4,15753,1,15340,15589,15590,15341
CQUADX4,15754,1,15341,15590,15591,15342
CQUADX4,15755,1,15342,15591,15592,15343
CQUADX4,15756,1,15343,15592,15593,15344
CQUADX4,15757,1,15344,15593,15594,15345
CQUADX4,15758,1,15345,15594,15595,15346
CQUADX4,15759,1,15346,15595,15596,15347
CQUADX4,15760,1,15347,15596,15597,15348
CQUADX4,15761,1,15348,15597,15598,15349
CQUADX4,15762,1,15349,15598,15599,15350
CQUADX4,15763,1,15350,15599,15600,15351
CQUADX4,15764,1,15351,15600,15601,15352
CQUADX4,15765,1,15352,15601,15602,15353
CQUADX4,15766,1,15353,15602,15603,15354
CQUADX4,15767,1,15354,15603,15604,15355
CQUADX4,15768,1,15355,15604,15605,15356
CQUADX4,15769,1,15356,15605,15606,15357
CQUADX4,15770,1,15357,15606,15607,15358
CQUADX4,15771,1,15358,15607,15608,15359
CQUADX4,15772,1,15359,15608,15609,15360
CQUADX4,15773,1,15360,15609,15610,15361
CQUADX4,15774,1,15361,15610,15611,15362
CQUADX4,15775,1,15362,15611,15612,15363
CQUADX4,15776,1,15363,15612,15613,15364
CQUADX4,15777,1,15364,15613,15614,15365
CQUADX4,15778,1,15365,15614,15615,15366
CQUADX4,15779,1,15366,15615,15616,15367
CQUADX4,15780,1,15367,15616,15617,15368
CQUADX4,15781,1,15368,15617,15618,15369
CQUADX4,15782,1,15369,15618,15619,15370
CQUADX4,15783,1,15370,15619,15620,15371
CQUADX4,15784,1,15371,15620,15621,15372
CQUADX4,15785,1,15372,15621,15622,15373
CQUADX4,15786,1,15373,15622,15623,15374
CQUADX4,15787,1,15374,15623,15624,15375
CQUADX4,15788,1,15375,15624,15625,15376
CQUADX4,15789,1,15376,15625,15626,15377
CQUADX4,15790,1,15377,15626,15627,15378
CQUADX4,15791,1,15378,15627,15628,15379
CQUADX4,15792,1,15379,15628,15629,15380
CQUADX4,15793,1,15380,15629,15630,15381
CQUADX4,15794,1,15381,15630,15631,15382
CQUADX4,15795,1,15382,15631,15632,15383
CQUADX4,15796,1,15383,15632,15633,15384
CQUADX4,15797,1,15384,15633,15634,15385
CQUADX4,15798,1,15385,15634,15635,15386
CQUADX4,15799,1,15386,15635,15636,15387
CQUADX4,15800,1,15387,15636,15637,15388
CQUADX4,15801,1,15388,15637,15638,15389
CQUADX4,15802,1,15389,15638,15639,15390
CQUADX4,15803,1,15390,15639,15640,15391
CQUADX4,15804,1,15391,15640,15641,15392
CQUADX4,15805,1,15392,15641,15642,15393
CQUADX4,15806,1,15393,15642,15643,15394
CQUADX4,15807,1,15394,15643,15644,15395
CQUADX4,15808,1,15395,15644,15645,15396
CQUADX4,15809,1,15396,15645,15646,15397
CQUADX4,15810,1,15397,15646,15647,15398
CQUADX4,15811,1,15398,15647,15648,15399
CQUADX4,15812,1,15399,15648,15649,15400
CQUADX4,15813,1,15400,15649,15650,15401
CQUADX4,15814,1,15401,15650,15651,15402
CQUADX4,15815,1,15402,15651,15652,15403
CQUADX4,15816,1,15403,15652,15653,15404
CQUADX4,15817,1,15404,15653,15654,15405
CQUADX4,15818,1,15405,15654,15655,15406
CQUADX4,15819,1,15406,15655,15656,15407
CQUADX4,15820,1,15407,15656,15657,15408
CQUADX4,15821,1,15408,15657,15658,15409
CQUADX4,15822,1,15409,15658,15659,15410
CQUADX4,15823,1,15410,15659,15660,15411
CQUADX4,15824,1,15411,15660,15661,15412
CQUADX4,15825,1,15412,15661,15662,15413
CQUADX4,15826,1,15413,15662,15663,15414
CQUADX4,15827,1,15414,15663,15664,15415
CQUADX4,15828,1,15415,15664,15665,15416
CQUADX4,15829,1,15416,15665,15666,15417
CQUADX4,15830,1,15417,15666,15667,15418
CQUADX4,15831,1,15418,15667,15668,15419
CQUADX4,15832,1,15419,15668,15669,15420
CQUADX4,15833,1,15420,15669,15670,15421
CQUADX4,15834,1,15421,15670,15671,15422
CQUADX4,15835,1,15422,15671,15672,15423
CQUADX4,15836,1,15423,15672,15673,15424
CQUADX4,15837,1,15424,15673,15674,15425
CQUADX4,15838,1,15425,15674,15675,15426
CQUADX4,15839,1,15426,15675,15676,15427
CQUADX4,15840,1,15427,15676,15677,15428
CQUADX4,15841,1,15428,15677,15678,15429
CQUADX4,15842,1,15429,15678,15679,15430
CQUADX4,15843,1,15430,15679,15680,15431
CQUADX4,15844,1,15431,15680,15681,15432
CQUADX4,15845,1,15432,15681,15682,15433
CQUADX4,15846,1,15433,15682,15683,15434
CQUADX4,15847,1,15434,15683,15684,15435
CQUADX4,15848,1,15435,15684,15685,15436
CQUADX4,15849,1,15436,15685,15686,15437
CQUADX4,15850,1,15437,15686,15687,15438
CQUADX4,15851,1,15438,15687,15688,15439
CQUADX4,15852,1,15439,15688,15689,15440
CQUADX4,15853,1,15440,15689,15690,15441
CQUADX4,15854,1,15441,15690,15691,15442
CQUADX4,15855,1,15442,15691,15692,15443
CQUADX4,15856,1,15443,15692,15693,15444
CQUADX4,15857,1,15444,15693,15694,15445
CQUADX4,15858,1,15445,15694,15695,15446
CQUADX4,15859,1,15446,15695,15696,15447
CQUADX4,15860,1,15447,15696,15697,15448
CQUADX4,15861,1,15448,15697,15698,15449
CQUADX4,15862,1,15449,15698,15699,15450
CQUADX4,15863,1,15450,15699,15700,15451
CQUADX4,15864,1,15451,15700,15701,15452
CQUADX4,15865,1,15452,15701,15702,15453
CQUADX4,15866,1,15453,15702,15703,15454
CQUADX4,15867,1,15454,15703,15704,15455
CQUADX4,15868,1,15455,15704,15705,15456
CQUADX4,15869,1,15456,15705,15706,15457
CQUADX4,15870,1,15457,15706,15707,15458
CQUADX4,15871,1,15458,15707,15708,15459
CQUADX4,15872,1,15459,15708,15709,15460
CQUADX4,15873,1,15460,15709,15710,15461
CQUADX4,15874,1,15461,15710,15711,15462
CQUADX4,15875,1,15462,15711,15712,15463
CQUADX4,15876,1,15463,15712,15713,15464
CQUADX4,15877,1,15464,15713,15714,15465
CQUADX4,15878,1,15465,15714,15715,15466
CQUADX4,15879,1,15466,15715,15716,15467
CQUADX4,15880,1,15467,15716,15717,15468
CQUADX4,15881,1,15468,15717,15718,15469
CQUADX4,15882,1,15469,15718,15719,15470
CQUADX4,15883,1,15470,15719,15720,15471
CQUADX4,15884,1,15471,15720,15721,15472
CQUADX4,15885,1,15472,15721,15722,15473
CQUADX4,15886,1,15473,15722,15723,15474
CQUADX4,15887,1,15474,15723,15724,15475
CQUADX4,15888,1,15475,15724,15725,15476
CQUADX4,15889,1,15476,15725,15726,15477
CQUADX4,15890,1,15477,15726,15727,15478
CQUADX4,15891,1,15478,15727,15728,15479
CQUADX4,15892,1,15479,15728,15729,15480
CQUADX4,15893,1,15480,15729,15730,15481
CQUADX4,15894,1,15481,15730,15731,15482
CQUADX4,15895,1,15482,15731,15732,15483
CQUADX4,15896,1,15483,15732,15733,15484
CQUADX4,15897,1,15484,15733,15734,15485
CQUADX4,15898,1,15485,15734,15735,15486
CQUADX4,15899,1,15486,15735,15736,15487
CQUADX4,15900,1,15487,15736,15737,15488
CQUADX4,15901,1,15488,15737,15738,15489
CQUADX4,15902,1,15489,15738,15739,15490
CQUADX4,15903,1,15490,15739,15740,15491
CQUADX4,15904,1,15491,15740,15741,15492
CQUADX4,15905,1,15492,15741,15742,15493
CQUADX4,15906,1,15493,15742,15743,15494
CQUADX4,15907,1,15494,15743,15744,15495
CQUADX4,15908,1,15495,15744,15745,15496
CQUADX4,15909,1,15496,15745,15746,15497
CQUADX4,15910,1,15497,15746,15747,15498
CQUADX4,15911,1,15498,15747,15748,15499
CQUADX4,15912,1,15499,15748,15749,15500
CQUADX4,15913,1,15500,15749,15750,15501
CQUADX4,15914,1,15501,15750,15751,15502
CQUADX4,15915,1,15502,15751,15752,15503
CQUADX4,15916,1,15503,15752,15753,15504
CQUADX4,15917,1,15504,15753,15754,15505
CQUADX4,15918,1,15505,15754,15755,15506
CQUADX4,15919,1,15506,15755,15756,15507
CQUADX4,15920,1,15507,15756,15757,15508
CQUADX4,15921,1,15508,15757,15758,15509
CQUADX4,15922,1,15509,15758,15759,15510
CQUADX4,15923,1,15510,15759,15760,15511
CQUADX4,15924,1,15511,15760,15761,15512
CQUADX4,15925,1,15512,15761,15762,15513
CQUADX4,15926,1,15513,15762,15763,15514
CQUADX4,15927,1,15514,15763,15764,15515
CQUADX4,15928,1,15515,15764,15765,15516
CQUADX4,15929,1,15516,15765,15766,15517
CQUADX4,15930,1,15517,15766,15767,15518
CQUADX4,15931,1,15518,15767,15768,15519
CQUADX4,15932,1,15519,15768,15769,15520
CQUADX4,15933,1,15520,15769,15770,15521
CQUADX4,15934,1,15521,15770,15771,15522
CQUADX4,15935,1,15522,15771,15772,15523
CQUADX4,15936,1,15523,15772,15773,15524
CQUADX4,15937,1,15524,15773,15774,15525
CQUADX4,15938,1,15525,15774,15775,15526
CQUADX4,15939,1,15526,15775,15776,15527
CQUADX4,15940,1,15527,15776,15777,15528
CQUADX4,15941,1,15528,15777,15778,15529
CQUADX4,15942,1,15529,15778,15779,15530
CQUADX4,15943,1,15530,15779,15780,15531
CQUADX4,15944,1,15531,15780,15781,15532
CQUADX4,15945,1,15532,15781,15782,15533
CQUADX4,15946,1,15533,15782,15783,15534
CQUADX4,15947,1,15534,15783,15784,15535
CQUADX4,15948,1,15535,15784,15785,15536
CQUADX4,15949,1,15536,15785,15786,15537
CQUADX4,15950,1,15537,15786,15787,15538
CQUADX4,15951,1,15538,15787,15788,15539
CQUADX4,15952,1,15539,15788,15789,15540
CQUADX4,15953,1,15540,15789,15790,15541
CQUADX4,15954,1,15541,15790,15791,15542
CQUADX4,15955,1,15542,15791,15792,15543
CQUADX4,15956,1,15543,15792,15793,15544
CQUADX4,15957,1,15544,15793,15794,15545
CQUADX4,15958,1,15545,15794,15795,15546
CQUADX4,15959,1,15546,15795,15796,15547
CQUADX4,15960,1,15547,15796,15797,15548
CQUADX4,15961,1,15548,15797,15798,15549
CQUADX4,15962,1,15549,15798,15799,15550
CQUADX4,15963,1,15550,15799,15800,15551
CQUADX4,15964,1,15551,15800,15801,15552
CQUADX4,15965,1,15552,15801,15802,15553
CQUADX4,15966,1,15553,15802,15803,15554
CQUADX4,15967,1,15554,15803,15804,15555
CQUADX4,15968,1,15555,15804,15805,15556
CQUADX4,15969,1,15556,15805,15806,15557
CQUADX4,15970,1,15557,15806,15807,15558
CQUADX4,15971,1,15558,15807,15808,15559
CQUADX4,15972,1,15559,15808,15809,15560
CQUADX4,15973,1,15560,15809,15810,15561
CQUADX4,15974,1,15561,15810,15811,15562
CQUADX4,15975,1,15562,15811,15812,15563
CQUADX4,15976,1,15563,15812,15813,15564
CQUADX4,15977,1,15564,15813,15814,15565
CQUADX4,15978,1,15565,15814,15815,15566
CQUADX4,15979,1,15566,15815,15816,15567
CQUADX4,15980,1,15567,15816,15817,15568
CQUADX4,15981,1,15568,15817,15818,15569
CQUADX4,15982,1,15569,15818,15819,15570
CQUADX4,15983,1,15570,15819,15820,15571
CQUADX4,15984,1,15571,15820,15821,15572
CQUADX4,15985,1,15573,15822,15823,15574
CQUADX4,15986,1,15574,15823,15824,15575
CQUADX4,15987,1,15575,15824,15825,15576
CQUADX4,15988,1,15576,15825,15826,15577
CQUADX4,15989,1,15577,15826,15827,15578
CQUADX4,15990,1,15578,15827,15828,15579
CQUADX4,15991,1,15579,15828,15829,15580
CQUADX4,15992,1,15580,15829,15830,15581
CQUADX4,15993,1,15581,15830,15831,15582
CQUADX4,15994,1,15582,15831,15832,15583
CQUADX4,15995,1,15583,15832,15833,15584
CQUADX4,15996,1,15584,15833,15834,15585
CQUADX4,15997,1,15585,15834,15835,15586
CQUADX4,15998,1,15586,15835,15836,15587
CQUADX4,15999,1,15587,15836,15837,15588
CQUADX4,16000,1,15588,15837,15838,15589
CQUADX4,16001,1,15589,15838,15839,15590
CQUADX4,16002,1,15590,15839,15840,15591
CQUADX4,16003,1,15591,15840,15841,15592
CQUADX4,16004,1,15592,15841,15842,15593
CQUADX4,16005,1,15593,15842,15843,15594
CQUADX4,16006,1,15594,15843,15844,15595
CQUADX4,16007,1,15595,15844,15845,15596
CQUADX4,16008,1,15596,15845,15846,15597
CQUADX4,16009,1,15597,15846,15847,15598
CQUADX4,16010,1,15598,15847,15848,15599
CQUADX4,16011,1,15599,15848,15849,15600
CQUADX4,16012,1,15600,15849,15850,15601
CQUADX4,16013,1,15601,15850,15851,15602
CQUADX4,16014,1,15602,15851,15852,15603
CQUADX4,16015,1,15603,15852,15853,15604
CQUADX4,16016,1,15604,15853,15854,15605
CQUADX4,16017,1,15605,15854,15855,15606
CQUADX4,16018,1,15606,15855,15856,15607
CQUADX4,16019,1,15607,15856,15857,15608
CQUADX4,16020,1,15608,15857,15858,15609
CQUADX4,16021,1,15609,15858,15859,15610
CQUADX4,16022,1,15610,15859,15860,15611
CQUADX4,16023,1,15611,15860,15861,15612
CQUADX4,16024,1,15612,15861,15862,15613
CQUADX4,16025,1,15613,15862,15863,15614
CQUADX4,16026,1,15614,15863,15864,15615
CQUADX4,16027,1,15615,15864,15865,15616
CQUADX4,16028,1,15616,15865,15866,15617
CQUADX4,16029,1,15617,15866,15867,15618
CQUADX4,16030,1,15618,15867,15868,15619
CQUADX4,16031,1,15619,15868,15869,15620
CQUADX4,16032,1,15620,15869,15870,15621
CQUADX4,16033,1,15621,15870,15871,15622
CQUADX4,16034,1,15622,15871,15872,15623
CQUADX4,16035,1,15623,15872,15873,15624
CQUADX4,16036,1,15624,15873,15874,15625
CQUADX4,16037,1,15625,15874,15875,15626
CQUADX4,16038,1,15626,15875,15876,15627
CQUADX4,16039,1,15627,15876,15877,15628
CQUADX4,16040,1,15628,15877,15878,15629
CQUADX4,16041,1,15629,15878,15879,15630
CQUADX4,16042,1,15630,15879,15880,15631
CQUADX4,16043,1,15631,15880,15881,15632
CQUADX4,16044,1,15632,15881,15882,15633
CQUADX4,16045,1,15633,15882,15883,15634
CQUADX4,16046,1,15634,15883,15884,15635
CQUADX4,16047,1,15635,15884,15885,15636
CQUADX4,16048,1,15636,15885,15886,15637
CQUADX4,16049,1,15637,15886,15887,15638
CQUADX4,16050,1,15638,15887,15888,15639
CQUADX4,16051,1,15639,15888,15889,15640
CQUADX4,16052,1,15640,15889,15890,15641
CQUADX4,16053,1,15641,15890,15891,15642
CQUADX4,16054,1,15642,15891,15892,15643
CQUADX4,16055,1,15643,15892,15893,15644
CQUADX4,16056,1,15644,15893,15894,15645
CQUADX4,16057,1,15645,15894,15895,15646
CQUADX4,16058,1,15646,15895,15896,15647
CQUADX4,16059,1,15647,15896,15897,15648
CQUADX4,16060,1,15648,15897,15898,15649
CQUADX4,16061,1,15649,15898,15899,15650
CQUADX4,16062,1,15650,15899,15900,15651
CQUADX4,16063,1,15651,15900,15901,15652
CQUADX4,16064,1,15652,15901,15902,15653
CQUADX4,16065,1,15653,15902,15903,15654
CQUADX4,16066,1,15654,15903,15904,15655
CQUADX4,16067,1,15655,15904,15905,15656
CQUADX4,16068,1,15656,15905,15906,15657
CQUADX4,16069,1,15657,15906,15907,15658
CQUADX4,16070,1,15658,15907,15908,15659
CQUADX4,16071,1,15659,15908,15909,15660
CQUADX4,16072,1,15660,15909,15910,15661
CQUADX4,16073,1,15661,15910,15911,15662
CQUADX4,16074,1,15662,15911,15912,15663
CQUADX4,16075,1,15663,15912,15913,15664
CQUADX4,16076,1,15664,15913,15914,15665
CQUADX4,16077,1,15665,15914,15915,15666
CQUADX4,16078,1,15666,15915,15916,15667
CQUADX4,16079,1,15667,15916,15917,15668
CQUADX4,16080,1,15668,15917,15918,15669
CQUADX4,16081,1,15669,15918,15919,15670
CQUADX4,16082,1,15670,15919,15920,15671
CQUADX4,16083,1,15671,15920,15921,15672
CQUADX4,16084,1,15672,15921,15922,15673
CQUADX4,16085,1,15673,15922,15923,15674
CQUADX4,16086,1,15674,15923,15924,15675
CQUADX4,16087,1,15675,15924,15925,15676
CQUADX4,16088,1,15676,15925,15926,15677
CQUADX4,16089,1,15677,15926,15927,15678
CQUADX4,16090,1,15678,15927,15928,15679
CQUADX4,16091,1,15679,15928,15929,15680
CQUADX4,16092,1,15680,15929,15930,15681
CQUADX4,16093,1,15681,15930,15931,15682
CQUADX4,16094,1,15682,15931,15932,15683
CQUADX4,16095,1,15683,15932,15933,15684
CQUADX4,16096,1,15684,15933,15934,15685
CQUADX4,16097,1,15685,15934,15935,15686
CQUADX4,16098,1,15686,15935,15936,15687
CQUADX4,16099,1,15687,15936,15937,15688
CQUADX4,16100,1,15688,15937,15938,15689
CQUADX4,16101,1,15689,15938,15939,15690
CQUADX4,16102,1,15690,15939,15940,15691
CQUADX4,16103,1,15691,15940,15941,15692
CQUADX4,16104,1,15692,15941,15942,15693
CQUADX4,16105,1,15693,15942,15943,15694
CQUADX4,16106,1,15694,15943,15944,15695
CQUADX4,16107,1,15695,15944,15945,15696
CQUADX4,16108,1,15696,15945,15946,15697
CQUADX4,16109,1,15697,15946,15947,15698
CQUADX4,16110,1,15698,15947,15948,15699
CQUADX4,16111,1,15699,15948,15949,15700
CQUADX4,16112,1,15700,15949,15950,15701
CQUADX4,16113,1,15701,15950,15951,15702
CQUADX4,16114,1,15702,15951,15952,15703
CQUADX4,16115,1,15703,15952,15953,15704
CQUADX4,16116,1,15704,15953,15954,15705
CQUADX4,16117,1,15705,15954,15955,15706
CQUADX4,16118,1,15706,15955,15956,15707
CQUADX4,16119,1,15707,15956,15957,15708
CQUADX4,16120,1,15708,15957,15958,15709
CQUADX4,16121,1,15709,15958,15959,15710
CQUADX4,16122,1,15710,15959,15960,15711
CQUADX4,16123,1,15711,15960,15961,15712
CQUADX4,16124,1,15712,15961,15962,15713
CQUADX4,16125,1,15713,15962,15963,15714
CQUADX4,16126,1,15714,15963,15964,15715
CQUADX4,16127,1,15715,15964,15965,15716
CQUADX4,16128,1,15716,15965,15966,15717
CQUADX4,16129,1,15717,15966,15967,15718
CQUADX4,16130,1,15718,15967,15968,15719
CQUADX4,16131,1,15719,15968,15969,15720
CQUADX4,16132,1,15720,15969,15970,15721
CQUADX4,16133,1,15721,15970,15971,15722
CQUADX4,16134,1,15722,15971,15972,15723
CQUADX4,16135,1,15723,15972,15973,15724
CQUADX4,16136,1,15724,15973,15974,15725
CQUADX4,16137,1,15725,15974,15975,15726
CQUADX4,16138,1,15726,15975,15976,15727
CQUADX4,16139,1,15727,15976,15977,15728
CQUADX4,16140,1,15728,15977,15978,15729
CQUADX4,16141,1,15729,15978,15979,15730
CQUADX4,16142,1,15730,15979,15980,15731
CQUADX4,16143,1,15731,15980,15981,15732
CQUADX4,16144,1,15732,15981,15982,15733
CQUADX4,16145,1,15733,15982,15983,15734
CQUADX4,16146,1,15734,15983,15984,15735
CQUADX4,16147,1,15735,15984,15985,15736
CQUADX4,16148,1,15736,15985,15986,15737
CQUADX4,16149,1,15737,15986,15987,15738
CQUADX4,16150,1,15738,15987,15988,15739
CQUADX4,16151,1,15739,15988,15989,15740
CQUADX4,16152,1,15740,15989,15990,15741
CQUADX4,16153,1,15741,15990,15991,15742
CQUADX4,16154,1,15742,15991,15992,15743
CQUADX4,16155,1,15743,15992,15993,15744
CQUADX4,16156,1,15744,15993,15994,15745
CQUADX4,16157,1,15745,15994,15995,15746
CQUADX4,16158,1,15746,15995,15996,15747
CQUADX4,16159,1,15747,15996,15997,15748
CQUADX4,16160,1,15748,15997,15998,15749
CQUADX4,16161,1,15749,15998,15999,15750
CQUADX4,16162,1,15750,15999,16000,15751
CQUADX4,16163,1,15751,16000,16001,15752
CQUADX4,16164,1,15752,16001,16002,15753
CQUADX4,16165,1,15753,16002,16003,15754
CQUADX4,16166,1,15754,16003,16004,15755
CQUADX4,16167,1,15755,16004,16005,15756
CQUADX4,16168,1,15756,16005,16006,15757
CQUADX4,16169,1,15757,16006,16007,15758
CQUADX4,16170,1,15758,16007,16008,15759
CQUADX4,16171,1,15759,16008,16009,15760
CQUADX4,16172,1,15760,16009,16010,15761
CQUADX4,16173,1,15761,16010,16011,15762
CQUADX4,16174,1,15762,16011,16012,15763
CQUADX4,16175,1,15763,16012,16013,15764
CQUADX4,16176,1,15764,16013,16014,15765
CQUADX4,16177,1,15765,16014,16015,15766
CQUADX4,16178,1,15766,16015,16016,15767
CQUADX4,16179,1,15767,16016,16017,15768
CQUADX4,16180,1,15768,16017,16018,15769
CQUADX4,16181,1,15769,16018,16019,15770
CQUADX4,16182,1,15770,16019,16020,15771
CQUADX4,16183,1,15771,16020,16021,15772
CQUADX4,16184,1,15772,16021,16022,15773
CQUADX4,16185,1,15773,16022,16023,15774
CQUADX4,16186,1,15774,16023,16024,15775
CQUADX4,16187,1,15775,16024,16025,15776
CQUADX4,16188,1,15776,16025,16026,15777
CQUADX4,16189,1,15777,16026,16027,15778
CQUADX4,16190,1,15778,16027,16028,15779
CQUADX4,16191,1,15779,16028,16029,15780
CQUADX4,16192,1,15780,16029,16030,15781
CQUADX4,16193,1,15781,16030,16031,15782
CQUADX4,16194,1,15782,16031,16032,15783
CQUADX4,16195,1,15783,16032,16033,15784
CQUADX4,16196,1,15784,16033,16034,15785
CQUADX4,16197,1,15785,16034,16035,15786
CQUADX4,16198,1,15786,16035,16036,15787
CQUADX4,16199,1,15787,16036,16037,15788
CQUADX4,16200,1,15788,16037,16038,15789
CQUADX4,16201,1,15789,16038,16039,15790
CQUADX4,16202,1,15790,16039,16040,15791
CQUADX4,16203,1,15791,16040,16041,15792
CQUADX4,16204,1,15792,16041,16042,15793
CQUADX4,16205,1,15793,16042,16043,15794
CQUADX4,16206,1,15794,16043,16044,15795
CQUADX4,16207,1,15795,16044,16045,15796
CQUADX4,16208,1,15796,16045,16046,15797
CQUADX4,16209,1,15797,16046,16047,15798
CQUADX4,16210,1,15798,16047,16048,15799
CQUADX4,16211,1,15799,16048,16049,15800
CQUADX4,16212,1,15800,16049,16050,15801
CQUADX4,16213,1,15801,16050,16051,15802
CQUADX4,16214,1,15802,16051,16052,15803
CQUADX4,16215,1,15803,16052,16053,15804
CQUADX4,16216,1,15804,16053,16054,15805
CQUADX4,16217,1,15805,16054,16055,15806
CQUADX4,16218,1,15806,16055,16056,15807
CQUADX4,16219,1,15807,16056,16057,15808
CQUADX4,16220,1,15808,16057,16058,15809
CQUADX4,16221,1,15809,16058,16059,15810
CQUADX4,16222,1,15810,16059,16060,15811
CQUADX4,16223,1,15811,16060,16061,15812
CQUADX4,16224,1,15812,16061,16062,15813
CQUADX4,16225,1,15813,16062,16063,15814
CQUADX4,16226,1,15814,16063,16064,15815
CQUADX4,16227,1,15815,16064,16065,15816
CQUADX4,16228,1,15816,16065,16066,15817
CQUADX4,16229,1,15817,16066,16067,15818
CQUADX4,16230,1,15818,16067,16068,15819
CQUADX4,16231,1,15819,16068,16069,15820
CQUADX4,16232,1,15820,16069,16070,15821
CQUADX4,16233,1,15822,16071,16072,15823
CQUADX4,16234,1,15823,16072,16073,15824
CQUADX4,16235,1,15824,16073,16074,15825
CQUADX4,16236,1,15825,16074,16075,15826
CQUADX4,16237,1,15826,16075,16076,15827
CQUADX4,16238,1,15827,16076,16077,15828
CQUADX4,16239,1,15828,16077,16078,15829
CQUADX4,16240,1,15829,16078,16079,15830
CQUADX4,16241,1,15830,16079,16080,15831
CQUADX4,16242,1,15831,16080,16081,15832
CQUADX4,16243,1,15832,16081,16082,15833
CQUADX4,16244,1,15833,16082,16083,15834
CQUADX4,16245,1,15834,16083,16084,15835
CQUADX4,16246,1,15835,16084,16085,15836
CQUADX4,16247,1,15836,16085,16086,15837
CQUADX4,16248,1,15837,16086,16087,15838
CQUADX4,16249,1,15838,16087,16088,15839
CQUADX4,16250,1,15839,16088,16089,15840
CQUADX4,16251,1,15840,16089,16090,15841
CQUADX4,16252,1,15841,16090,16091,15842
CQUADX4,16253,1,15842,16091,16092,15843
CQUADX4,16254,1,15843,16092,16093,15844
CQUADX4,16255,1,15844,16093,16094,15845
CQUADX4,16256,1,15845,16094,16095,15846
CQUADX4,16257,1,15846,16095,16096,15847
CQUADX4,16258,1,15847,16096,16097,15848
CQUADX4,16259,1,15848,16097,16098,15849
CQUADX4,16260,1,15849,16098,16099,15850
CQUADX4,16261,1,15850,16099,16100,15851
CQUADX4,16262,1,15851,16100,16101,15852
CQUADX4,16263,1,15852,16101,16102,15853
CQUADX4,16264,1,15853,16102,16103,15854
CQUADX4,16265,1,15854,16103,16104,15855
CQUADX4,16266,1,15855,16104,16105,15856
CQUADX4,16267,1,15856,16105,16106,15857
CQUADX4,16268,1,15857,16106,16107,15858
CQUADX4,16269,1,15858,16107,16108,15859
CQUADX4,16270,1,15859,16108,16109,15860
CQUADX4,16271,1,15860,16109,16110,15861
CQUADX4,16272,1,15861,16110,16111,15862
CQUADX4,16273,1,15862,16111,16112,15863
CQUADX4,16274,1,15863,16112,16113,15864
CQUADX4,16275,1,15864,16113,16114,15865
CQUADX4,16276,1,15865,16114,16115,15866
CQUADX4,16277,1,15866,16115,16116,15867
CQUADX4,16278,1,15867,16116,16117,15868
CQUADX4,16279,1,15868,16117,16118,15869
CQUADX4,16280,1,15869,16118,16119,15870
CQUADX4,16281,1,15870,16119,16120,15871
CQUADX4,16282,1,15871,16120,16121,15872
CQUADX4,16283,1,15872,16121,16122,15873
CQUADX4,16284,1,15873,16122,16123,15874
CQUADX4,16285,1,15874,16123,16124,15875
CQUADX4,16286,1,15875,16124,16125,15876
CQUADX4,16287,1,15876,16125,16126,15877
CQUADX4,16288,1,15877,16126,16127,15878
CQUADX4,16289,1,15878,16127,16128,15879
CQUADX4,16290,1,15879,16128,16129,15880
CQUADX4,16291,1,15880,16129,16130,15881
CQUADX4,16292,1,15881,16130,16131,15882
CQUADX4,16293,1,15882,16131,16132,15883
CQUADX4,16294,1,15883,16132,16133,15884
CQUADX4,16295,1,15884,16133,16134,15885
CQUADX4,16296,1,15885,16134,16135,15886
CQUADX4,16297,1,15886,16135,16136,15887
CQUADX4,16298,1,15887,16136,16137,15888
CQUADX4,16299,1,15888,16137,16138,15889
CQUADX4,16300,1,15889,16138,16139,15890
CQUADX4,16301,1,15890,16139,16140,15891
CQUADX4,16302,1,15891,16140,16141,15892
CQUADX4,16303,1,15892,16141,16142,15893
CQUADX4,16304,1,15893,16142,16143,15894
CQUADX4,16305,1,15894,16143,16144,15895
CQUADX4,16306,1,15895,16144,16145,15896
CQUADX4,16307,1,15896,16145,16146,15897
CQUADX4,16308,1,15897,16146,16147,15898
CQUADX4,16309,1,15898,16147,16148,15899
CQUADX4,16310,1,15899,16148,16149,15900
CQUADX4,16311,1,15900,16149,16150,15901
CQUADX4,16312,1,15901,16150,16151,15902
CQUADX4,16313,1,15902,16151,16152,15903
CQUADX4,16314,1,15903,16152,16153,15904
CQUADX4,16315,1,15904,16153,16154,15905
CQUADX4,16316,1,15905,16154,16155,15906
CQUADX4,16317,1,15906,16155,16156,15907
CQUADX4,16318,1,15907,16156,16157,15908
CQUADX4,16319,1,15908,16157,16158,15909
CQUADX4,16320,1,15909,16158,16159,15910
CQUADX4,16321,1,15910,16159,16160,15911
CQUADX4,16322,1,15911,16160,16161,15912
CQUADX4,16323,1,15912,16161,16162,15913
CQUADX4,16324,1,15913,16162,16163,15914
CQUADX4,16325,1,15914,16163,16164,15915
CQUADX4,16326,1,15915,16164,16165,15916
CQUADX4,16327,1,15916,16165,16166,15917
CQUADX4,16328,1,15917,16166,16167,15918
CQUADX4,16329,1,15918,16167,16168,15919
CQUADX4,16330,1,15919,16168,16169,15920
CQUADX4,16331,1,15920,16169,16170,15921
CQUADX4,16332,1,15921,16170,16171,15922
CQUADX4,16333,1,15922,16171,16172,15923
CQUADX4,16334,1,15923,16172,16173,15924
CQUADX4,16335,1,15924,16173,16174,15925
CQUADX4,16336,1,15925,16174,16175,15926
CQUADX4,16337,1,15926,16175,16176,15927
CQUADX4,16338,1,15927,16176,16177,15928
CQUADX4,16339,1,15928,16177,16178,15929
CQUADX4,16340,1,15929,16178,16179,15930
CQUADX4,16341,1,15930,16179,16180,15931
CQUADX4,16342,1,15931,16180,16181,15932
CQUADX4,16343,1,15932,16181,16182,15933
CQUADX4,16344,1,15933,16182,16183,15934
CQUADX4,16345,1,15934,16183,16184,15935
CQUADX4,16346,1,15935,16184,16185,15936
CQUADX4,16347,1,15936,16185,16186,15937
CQUADX4,16348,1,15937,16186,16187,15938
CQUADX4,16349,1,15938,16187,16188,15939
CQUADX4,16350,1,15939,16188,16189,15940
CQUADX4,16351,1,15940,16189,16190,15941
CQUADX4,16352,1,15941,16190,16191,15942
CQUADX4,16353,1,15942,16191,16192,15943
CQUADX4,16354,1,15943,16192,16193,15944
CQUADX4,16355,1,15944,16193,16194,15945
CQUADX4,16356,1,15945,16194,16195,15946
CQUADX4,16357,1,15946,16195,16196,15947
CQUADX4,16358,1,15947,16196,16197,15948
CQUADX4,16359,1,15948,16197,16198,15949
CQUADX4,16360,1,15949,16198,16199,15950
CQUADX4,16361,1,15950,16199,16200,15951
CQUADX4,16362,1,15951,16200,16201,15952
CQUADX4,16363,1,15952,16201,16202,15953
CQUADX4,16364,1,15953,16202,16203,15954
CQUADX4,16365,1,15954,16203,16204,15955
CQUADX4,16366,1,15955,16204,16205,15956
CQUADX4,16367,1,15956,16205,16206,15957
CQUADX4,16368,1,15957,16206,16207,15958
CQUADX4,16369,1,15958,16207,16208,15959
CQUADX4,16370,1,15959,16208,16209,15960
CQUADX4,16371,1,15960,16209,16210,15961
CQUADX4,16372,1,15961,16210,16211,15962
CQUADX4,16373,1,15962,16211,16212,15963
CQUADX4,16374,1,15963,16212,16213,15964
CQUADX4,16375,1,15964,16213,16214,15965
CQUADX4,16376,1,15965,16214,16215,15966
CQUADX4,16377,1,15966,16215,16216,15967
CQUADX4,16378,1,15967,16216,16217,15968
CQUADX4,16379,1,15968,16217,16218,15969
CQUADX4,16380,1,15969,16218,16219,15970
CQUADX4,16381,1,15970,16219,16220,15971
CQUADX4,16382,1,15971,16220,16221,15972
CQUADX4,16383,1,15972,16221,16222,15973
CQUADX4,16384,1,15973,16222,16223,15974
CQUADX4,16385,1,15974,16223,16224,15975
CQUADX4,16386,1,15975,16224,16225,15976
CQUADX4,16387,1,15976,16225,16226,15977
CQUADX4,16388,1,15977,16226,16227,15978
CQUADX4,16389,1,15978,16227,16228,15979
CQUADX4,16390,1,15979,16228,16229,15980
CQUADX4,16391,1,15980,16229,16230,15981
CQUADX4,16392,1,15981,16230,16231,15982
CQUADX4,16393,1,15982,16231,16232,15983
CQUADX4,16394,1,15983,16232,16233,15984
CQUADX4,16395,1,15984,16233,16234,15985
CQUADX4,16396,1,15985,16234,16235,15986
CQUADX4,16397,1,15986,16235,16236,15987
CQUADX4,16398,1,15987,16236,16237,15988
CQUADX4,16399,1,15988,16237,16238,15989
CQUADX4,16400,1,15989,16238,16239,15990
CQUADX4,16401,1,15990,16239,16240,15991
CQUADX4,16402,1,15991,16240,16241,15992
CQUADX4,16403,1,15992,16241,16242,15993
CQUADX4,16404,1,15993,16242,16243,15994
CQUADX4,16405,1,15994,16243,16244,15995
CQUADX4,16406,1,15995,16244,16245,15996
CQUADX4,16407,1,15996,16245,16246,15997
CQUADX4,16408,1,15997,16246,16247,15998
CQUADX4,16409,1,15998,16247,16248,15999
CQUADX4,16410,1,15999,16248,16249,16000
CQUADX4,16411,1,16000,16249,16250,16001
CQUADX4,16412,1,16001,16250,16251,16002
CQUADX4,16413,1,16002,16251,16252,16003
CQUADX4,16414,1,16003,16252,16253,16004
CQUADX4,16415,1,16004,16253,16254,16005
CQUADX4,16416,1,16005,16254,16255,16006
CQUADX4,16417,1,16006,16255,16256,16007
CQUADX4,16418,1,16007,16256,16257,16008
CQUADX4,16419,1,16008,16257,16258,16009
CQUADX4,16420,1,16009,16258,16259,16010
CQUADX4,16421,1,16010,16259,16260,16011
CQUADX4,16422,1,16011,16260,16261,16012
CQUADX4,16423,1,16012,16261,16262,16013
CQUADX4,16424,1,16013,16262,16263,16014
CQUADX4,16425,1,16014,16263,16264,16015
CQUADX4,16426,1,16015,16264,16265,16016
CQUADX4,16427,1,16016,16265,16266,16017
CQUADX4,16428,1,16017,16266,16267,16018
CQUADX4,16429,1,16018,16267,16268,16019
CQUADX4,16430,1,16019,16268,16269,16020
CQUADX4,16431,1,16020,16269,16270,16021
CQUADX4,16432,1,16021,16270,16271,16022
CQUADX4,16433,1,16022,16271,16272,16023
CQUADX4,16434,1,16023,16272,16273,16024
CQUADX4,16435,1,16024,16273,16274,16025
CQUADX4,16436,1,16025,16274,16275,16026
CQUADX4,16437,1,16026,16275,16276,16027
CQUADX4,16438,1,16027,16276,16277,16028
CQUADX4,16439,1,16028,16277,16278,16029
CQUADX4,16440,1,16029,16278,16279,16030
CQUADX4,16441,1,16030,16279,16280,16031
CQUADX4,16442,1,16031,16280,16281,16032
CQUADX4,16443,1,16032,16281,16282,16033
CQUADX4,16444,1,16033,16282,16283,16034
CQUADX4,16445,1,16034,16283,16284,16035
CQUADX4,16446,1,16035,16284,16285,16036
CQUADX4,16447,1,16036,16285,16286,16037
CQUADX4,16448,1,16037,16286,16287,16038
CQUADX4,16449,1,16038,16287,16288,16039
CQUADX4,16450,1,16039,16288,16289,16040
CQUADX4,16451,1,16040,16289,16290,16041
CQUADX4,16452,1,16041,16290,16291,16042
CQUADX4,16453,1,16042,16291,16292,16043
CQUADX4,16454,1,16043,16292,16293,16044
CQUADX4,16455,1,16044,16293,16294,16045
CQUADX4,16456,1,16045,16294,16295,16046
CQUADX4,16457,1,16046,16295,16296,16047
CQUADX4,16458,1,16047,16296,16297,16048
CQUADX4,16459,1,16048,16297,16298,16049
CQUADX4,16460,1,16049,16298,16299,16050
CQUADX4,16461,1,16050,16299,16300,16051
CQUADX4,16462,1,16051,16300,16301,16052
CQUADX4,16463,1,16052,16301,16302,16053
CQUADX4,16464,1,16053,16302,16303,16054
CQUADX4,16465,1,16054,16303,16304,16055
CQUADX4,16466,1,16055,16304,16305,16056
CQUADX4,16467,1,16056,16305,16306,16057
CQUADX4,16468,1,16057,16306,16307,16058
CQUADX4,16469,1,16058,16307,16308,16059
CQUADX4,16470,1,16059,16308,16309,16060
CQUADX4,16471,1,16060,16309,16310,16061
CQUADX4,16472,1,16061,16310,16311,16062
CQUADX4,16473,1,16062,16311,16312,16063
CQUADX4,16474,1,16063,16312,16313,16064
CQUADX4,16475,1,16064,16313,16314,16065
CQUADX4,16476,1,16065,16314,16315,16066
CQUADX4,16477,1,16066,16315,16316,16067
CQUADX4,16478,1,16067,16316,16317,16068
CQUADX4,16479,1,16068,16317,16318,16069
CQUADX4,16480,1,16069,16318,16319,16070
CQUADX4,16481,1,16071,16320,16321,16072
CQUADX4,16482,1,16072,16321,16322,16073
CQUADX4,16483,1,16073,16322,16323,16074
CQUADX4,16484,1,16074,16323,16324,16075
CQUADX4,16485,1,16075,16324,16325,16076
CQUADX4,16486,1,16076,16325,16326,16077
CQUADX4,16487,1,16077,16326,16327,16078
CQUADX4,16488,1,16078,16327,16328,16079
CQUADX4,16489,1,16079,16328,16329,16080
CQUADX4,16490,1,16080,16329,16330,16081
CQUADX4,16491,1,16081,16330,16331,16082
CQUADX4,16492,1,16082,16331,16332,16083
CQUADX4,16493,1,16083,16332,16333,16084
CQUADX4,16494,1,16084,16333,16334,16085
CQUADX4,16495,1,16085,16334,16335,16086
CQUADX4,16496,1,16086,16335,16336,16087
CQUADX4,16497,1,16087,16336,16337,16088
CQUADX4,16498,1,16088,16337,16338,16089
CQUADX4,16499,1,16089,16338,16339,16090
CQUADX4,16500,1,16090,16339,16340,16091
CQUADX4,16501,1,16091,16340,16341,16092
CQUADX4,16502,1,16092,16341,16342,16093
CQUADX4,16503,1,16093,16342,16343,16094
CQUADX4,16504,1,16094,16343,16344,16095
CQUADX4,16505,1,16095,16344,16345,16096
CQUADX4,16506,1,16096,16345,16346,16097
CQUADX4,16507,1,16097,16346,16347,16098
CQUADX4,16508,1,16098,16347,16348,16099
CQUADX4,16509,1,16099,16348,16349,16100
CQUADX4,16510,1,16100,16349,16350,16101
CQUADX4,16511,1,16101,16350,16351,16102
CQUADX4,16512,1,16102,16351,16352,16103
CQUADX4,16513,1,16103,16352,16353,16104
CQUADX4,16514,1,16104,16353,16354,16105
CQUADX4,16515,1,16105,16354,16355,16106
CQUADX4,16516,1,16106,16355,16356,16107
CQUADX4,16517,1,16107,16356,16357,16108
CQUADX4,16518,1,16108,16357,16358,16109
CQUADX4,16519,1,16109,16358,16359,16110
CQUADX4,16520,1,16110,16359,16360,16111
CQUADX4,16521,1,16111,16360,16361,16112
CQUADX4,16522,1,16112,16361,16362,16113
CQUADX4,16523,1,16113,16362,16363,16114
CQUADX4,16524,1,16114,16363,16364,16115
CQUADX4,16525,1,16115,16364,16365,16116
CQUADX4,16526,1,16116,16365,16366,16117
CQUADX4,16527,1,16117,16366,16367,16118
CQUADX4,16528,1,16118,16367,16368,16119
CQUADX4,16529,1,16119,16368,16369,16120
CQUADX4,16530,1,16120,16369,16370,16121
CQUADX4,16531,1,16121,16370,16371,16122
CQUADX4,16532,1,16122,16371,16372,16123
CQUADX4,16533,1,16123,16372,16373,16124
CQUADX4,16534,1,16124,16373,16374,16125
CQUADX4,16535,1,16125,16374,16375,16126
CQUADX4,16536,1,16126,16375,16376,16127
CQUADX4,16537,1,16127,16376,16377,16128
CQUADX4,16538,1,16128,16377,16378,16129
CQUADX4,16539,1,16129,16378,16379,16130
CQUADX4,16540,1,16130,16379,16380,16131
CQUADX4,16541,1,16131,16380,16381,16132
CQUADX4,16542,1,16132,16381,16382,16133
CQUADX4,16543,1,16133,16382,16383,16134
CQUADX4,16544,1,16134,16383,16384,16135
CQUADX4,16545,1,16135,16384,16385,16136
CQUADX4,16546,1,16136,16385,16386,16137
CQUADX4,16547,1,16137,16386,16387,16138
CQUADX4,16548,1,16138,16387,16388,16139
CQUADX4,16549,1,16139,16388,16389,16140
CQUADX4,16550,1,16140,16389,16390,16141
CQUADX4,16551,1,16141,16390,16391,16142
CQUADX4,16552,1,16142,16391,16392,16143
CQUADX4,16553,1,16143,16392,16393,16144
CQUADX4,16554,1,16144,16393,16394,16145
CQUADX4,16555,1,16145,16394,16395,16146
CQUADX4,16556,1,16146,16395,16396,16147
CQUADX4,16557,1,16147,16396,16397,16148
CQUADX4,16558,1,16148,16397,16398,16149
CQUADX4,16559,1,16149,16398,16399,16150
CQUADX4,16560,1,16150,16399,16400,16151
CQUADX4,16561,1,16151,16400,16401,16152
CQUADX4,16562,1,16152,16401,16402,16153
CQUADX4,16563,1,16153,16402,16403,16154
CQUADX4,16564,1,16154,16403,16404,16155
CQUADX4,16565,1,16155,16404,16405,16156
CQUADX4,16566,1,16156,16405,16406,16157
CQUADX4,16567,1,16157,16406,16407,16158
CQUADX4,16568,1,16158,16407,16408,16159
CQUADX4,16569,1,16159,16408,16409,16160
CQUADX4,16570,1,16160,16409,16410,16161
CQUADX4,16571,1,16161,16410,16411,16162
CQUADX4,16572,1,16162,16411,16412,16163
CQUADX4,16573,1,16163,16412,16413,16164
CQUADX4,16574,1,16164,16413,16414,16165
CQUADX4,16575,1,16165,16414,16415,16166
CQUADX4,16576,1,16166,16415,16416,16167
CQUADX4,16577,1,16167,16416,16417,16168
CQUADX4,16578,1,16168,16417,16418,16169
CQUADX4,16579,1,16169,16418,16419,16170
CQUADX4,16580,1,16170,16419,16420,16171
CQUADX4,16581,1,16171,16420,16421,16172
CQUADX4,16582,1,16172,16421,16422,16173
CQUADX4,16583,1,16173,16422,16423,16174
CQUADX4,16584,1,16174,16423,16424,16175
CQUADX4,16585,1,16175,16424,16425,16176
CQUADX4,16586,1,16176,16425,16426,16177
CQUADX4,16587,1,16177,16426,16427,16178
CQUADX4,16588,1,16178,16427,16428,16179
CQUADX4,16589,1,16179,16428,16429,16180
CQUADX4,16590,1,16180,16429,16430,16181
CQUADX4,16591,1,16181,16430,16431,16182
CQUADX4,16592,1,16182,16431,16432,16183
CQUADX4,16593,1,16183,16432,16433,16184
CQUADX4,16594,1,16184,16433,16434,16185
CQUADX4,16595,1,16185,16434,16435,16186
CQUADX4,16596,1,16186,16435,16436,16187
CQUADX4,16597,1,16187,16436,16437,16188
CQUADX4,16598,1,16188,16437,16438,16189
CQUADX4,16599,1,16189,16438,16439,16190
CQUADX4,16600,1,16190,16439,16440,16191
CQUADX4,16601,1,16191,16440,16441,16192
CQUADX4,16602,1,16192,16441,16442,16193
CQUADX4,16603,1,16193,16442,16443,16194
CQUADX4,16604,1,16194,16443,16444,16195
CQUADX4,16605,1,16195,16444,16445,16196
CQUADX4,16606,1,16196,16445,16446,16197
CQUADX4,16607,1,16197,16446,16447,16198
CQUADX4,16608,1,16198,16447,16448,16199
CQUADX4,16609,1,16199,16448,16449,16200
CQUADX4,16610,1,16200,16449,16450,16201
CQUADX4,16611,1,16201,16450,16451,16202
CQUADX4,16612,1,16202,16451,16452,16203
CQUADX4,16613,1,16203,16452,16453,16204
CQUADX4,16614,1,16204,16453,16454,16205
CQUADX4,16615,1,16205,16454,16455,16206
CQUADX4,16616,1,16206,16455,16456,16207
CQUADX4,16617,1,16207,16456,16457,16208
CQUADX4,16618,1,16208,16457,16458,16209
CQUADX4,16619,1,16209,16458,16459,16210
CQUADX4,16620,1,16210,16459,16460,16211
CQUADX4,16621,1,16211,16460,16461,16212
CQUADX4,16622,1,16212,16461,16462,16213
CQUADX4,16623,1,16213,16462,16463,16214
CQUADX4,16624,1,16214,16463,16464,16215
CQUADX4,16625,1,16215,16464,16465,16216
CQUADX4,16626,1,16216,16465,16466,16217
CQUADX4,16627,1,16217,16466,16467,16218
CQUADX4,16628,1,16218,16467,16468,16219
CQUADX4,16629,1,16219,16468,16469,16220
CQUADX4,16630,1,16220,16469,16470,16221
CQUADX4,16631,1,16221,16470,16471,16222
CQUADX4,16632,1,16222,16471,16472,16223
CQUADX4,16633,1,16223,16472,16473,16224
CQUADX4,16634,1,16224,16473,16474,16225
CQUADX4,16635,1,16225,16474,16475,16226
CQUADX4,16636,1,16226,16475,16476,16227
CQUADX4,16637,1,16227,16476,16477,16228
CQUADX4,16638,1,16228,16477,16478,16229
CQUADX4,16639,1,16229,16478,16479,16230
CQUADX4,16640,1,16230,16479,16480,16231
CQUADX4,16641,1,16231,16480,16481,16232
CQUADX4,16642,1,16232,16481,16482,16233
CQUADX4,16643,1,16233,16482,16483,16234
CQUADX4,16644,1,16234,16483,16484,16235
CQUADX4,16645,1,16235,16484,16485,16236
CQUADX4,16646,1,16236,16485,16486,16237
CQUADX4,16647,1,16237,16486,16487,16238
CQUADX4,16648,1,16238,16487,16488,16239
CQUADX4,16649,1,16239,16488,16489,16240
CQUADX4,16650,1,16240,16489,16490,16241
CQUADX4,16651,1,16241,16490,16491,16242
CQUADX4,16652,1,16242,16491,16492,16243
CQUADX4,16653,1,16243,16492,16493,16244
CQUADX4,16654,1,16244,16493,16494,16245
CQUADX4,16655,1,16245,16494,16495,16246
CQUADX4,16656,1,16246,16495,16496,16247
CQUADX4,16657,1,16247,16496,16497,16248
CQUADX4,16658,1,16248,16497,16498,16249
CQUADX4,16659,1,16249,16498,16499,16250
CQUADX4,16660,1,16250,16499,16500,16251
CQUADX4,16661,1,16251,16500,16501,16252
CQUADX4,16662,1,16252,16501,16502,16253
CQUADX4,16663,1,16253,16502,16503,16254
CQUADX4,16664,1,16254,16503,16504,16255
CQUADX4,16665,1,16255,16504,16505,16256
CQUADX4,16666,1,16256,16505,16506,16257
CQUADX4,16667,1,16257,16506,16507,16258
CQUADX4,16668,1,16258,16507,16508,16259
CQUADX4,16669,1,16259,16508,16509,16260
CQUADX4,16670,1,16260,16509,16510,16261
CQUADX4,16671,1,16261,16510,16511,16262
CQUADX4,16672,1,16262,16511,16512,16263
CQUADX4,16673,1,16263,16512,16513,16264
CQUADX4,16674,1,16264,16513,16514,16265
CQUADX4,16675,1,16265,16514,16515,16266
CQUADX4,16676,1,16266,16515,16516,16267
CQUADX4,16677,1,16267,16516,16517,16268
CQUADX4,16678,1,16268,16517,16518,16269
CQUADX4,16679,1,16269,16518,16519,16270
CQUADX4,16680,1,16270,16519,16520,16271
CQUADX4,16681,1,16271,16520,16521,16272
CQUADX4,16682,1,16272,16521,16522,16273
CQUADX4,16683,1,16273,16522,16523,16274
CQUADX4,16684,1,16274,16523,16524,16275
CQUADX4,16685,1,16275,16524,16525,16276
CQUADX4,16686,1,16276,16525,16526,16277
CQUADX4,16687,1,16277,16526,16527,16278
CQUADX4,16688,1,16278,16527,16528,16279
CQUADX4,16689,1,16279,16528,16529,16280
CQUADX4,16690,1,16280,16529,16530,16281
CQUADX4,16691,1,16281,16530,16531,16282
CQUADX4,16692,1,16282,16531,16532,16283
CQUADX4,16693,1,16283,16532,16533,16284
CQUADX4,16694,1,16284,16533,16534,16285
CQUADX4,16695,1,16285,16534,16535,16286
CQUADX4,16696,1,16286,16535,16536,16287
CQUADX4,16697,1,16287,16536,16537,16288
CQUADX4,16698,1,16288,16537,16538,16289
CQUADX4,16699,1,16289,16538,16539,16290
CQUADX4,16700,1,16290,16539,16540,16291
CQUADX4,16701,1,16291,16540,16541,16292
CQUADX4,16702,1,16292,16541,16542,16293
CQUADX4,16703,1,16293,16542,16543,16294
CQUADX4,16704,1,16294,16543,16544,16295
CQUADX4,16705,1,16295,16544,16545,16296
CQUADX4,16706,1,16296,16545,16546,16297
CQUADX4,16707,1,16297,16546,16547,16298
CQUADX4,16708,1,16298,16547,16548,16299
CQUADX4,16709,1,16299,16548,16549,16300
CQUADX4,16710,1,16300,16549,16550,16301
CQUADX4,16711,1,16301,16550,16551,16302
CQUADX4,16712,1,16302,16551,16552,16303
CQUADX4,16713,1,16303,16552,16553,16304
CQUADX4,16714,1,16304,16553,16554,16305
CQUADX4,16715,1,16305,16554,16555,16306
CQUADX4,16716,1,16306,16555,16556,16307
CQUADX4,16717,1,16307,16556,16557,16308
CQUADX4,16718,1,16308,16557,16558,16309
CQUADX4,16719,1,16309,16558,16559,16310
CQUADX4,16720,1,16310,16559,16560,16311
CQUADX4,16721,1,16311,16560,16561,16312
CQUADX4,16722,1,16312,16561,16562,16313
CQUADX4,16723,1,16313,16562,16563,16314
CQUADX4,16724,1,16314,16563,16564,16315
CQUADX4,16725,1,16315,16564,16565,16316
CQUADX4,16726,1,16316,16565,16566,16317
CQUADX4,16727,1,16317,16566,16567,16318
CQUADX4,16728,1,16318,16567,16568,16319
CQUADX4,16729,1,16320,16569,16570,16321
CQUADX4,16730,1,16321,16570,16571,16322
CQUADX4,16731,1,16322,16571,16572,16323
CQUADX4,16732,1,16323,16572,16573,16324
CQUADX4,16733,1,16324,16573,16574,16325
CQUADX4,16734,1,16325,16574,16575,16326
CQUADX4,16735,1,16326,16575,16576,16327
CQUADX4,16736,1,16327,16576,16577,16328
CQUADX4,16737,1,16328,16577,16578,16329
CQUADX4,16738,1,16329,16578,16579,16330
CQUADX4,16739,1,16330,16579,16580,16331
CQUADX4,16740,1,16331,16580,16581,16332
CQUADX4,16741,1,16332,16581,16582,16333
CQUADX4,16742,1,16333,16582,16583,16334
CQUADX4,16743,1,16334,16583,16584,16335
CQUADX4,16744,1,16335,16584,16585,16336
CQUADX4,16745,1,16336,16585,16586,16337
CQUADX4,16746,1,16337,16586,16587,16338
CQUADX4,16747,1,16338,16587,16588,16339
CQUADX4,16748,1,16339,16588,16589,16340
CQUADX4,16749,1,16340,16589,16590,16341
CQUADX4,16750,1,16341,16590,16591,16342
CQUADX4,16751,1,16342,16591,16592,16343
CQUADX4,16752,1,16343,16592,16593,16344
CQUADX4,16753,1,16344,16593,16594,16345
CQUADX4,16754,1,16345,16594,16595,16346
CQUADX4,16755,1,16346,16595,16596,16347
CQUADX4,16756,1,16347,16596,16597,16348
CQUADX4,16757,1,16348,16597,16598,16349
CQUADX4,16758,1,16349,16598,16599,16350
CQUADX4,16759,1,16350,16599,16600,16351
CQUADX4,16760,1,16351,16600,16601,16352
CQUADX4,16761,1,16352,16601,16602,16353
CQUADX4,16762,1,16353,16602,16603,16354
CQUADX4,16763,1,16354,16603,16604,16355
CQUADX4,16764,1,16355,16604,16605,16356
CQUADX4,16765,1,16356,16605,16606,16357
CQUADX4,16766,1,16357,16606,16607,16358
CQUADX4,16767,1,16358,16607,16608,16359
CQUADX4,16768,1,16359,16608,16609,16360
CQUADX4,16769,1,16360,16609,16610,16361
CQUADX4,16770,1,16361,16610,16611,16362
CQUADX4,16771,1,16362,16611,16612,16363
CQUADX4,16772,1,16363,16612,16613,16364
CQUADX4,16773,1,16364,16613,16614,16365
CQUADX4,16774,1,16365,16614,16615,16366
CQUADX4,16775,1,16366,16615,16616,16367
CQUADX4,16776,1,16367,16616,16617,16368
CQUADX4,16777,1,16368,16617,16618,16369
CQUADX4,16778,1,16369,16618,16619,16370
CQUADX4,16779,1,16370,16619,16620,16371
CQUADX4,16780,1,16371,16620,16621,16372
CQUADX4,16781,1,16372,16621,16622,16373
CQUADX4,16782,1,16373,16622,16623,16374
CQUADX4,16783,1,16374,16623,16624,16375
CQUADX4,16784,1,16375,16624,16625,16376
CQUADX4,16785,1,16376,16625,16626,16377
CQUADX4,16786,1,16377,16626,16627,16378
CQUADX4,16787,1,16378,16627,16628,16379
CQUADX4,16788,1,16379,16628,16629,16380
CQUADX4,16789,1,16380,16629,16630,16381
CQUADX4,16790,1,16381,16630,16631,16382
CQUADX4,16791,1,16382,16631,16632,16383
CQUADX4,16792,1,16383,16632,16633,16384
CQUADX4,16793,1,16384,16633,16634,16385
CQUADX4,16794,1,16385,16634,16635,16386
CQUADX4,16795,1,16386,16635,16636,16387
CQUADX4,16796,1,16387,16636,16637,16388
CQUADX4,16797,1,16388,16637,16638,16389
CQUADX4,16798,1,16389,16638,16639,16390
CQUADX4,16799,1,16390,16639,16640,16391
CQUADX4,16800,1,16391,16640,16641,16392
CQUADX4,16801,1,16392,16641,16642,16393
CQUADX4,16802,1,16393,16642,16643,16394
CQUADX4,16803,1,16394,16643,16644,16395
CQUADX4,16804,1,16395,16644,16645,16396
CQUADX4,16805,1,16396,16645,16646,16397
CQUADX4,16806,1,16397,16646,16647,16398
CQUADX4,16807,1,16398,16647,16648,16399
CQUADX4,16808,1,16399,16648,16649,16400
CQUADX4,16809,1,16400,16649,16650,16401
CQUADX4,16810,1,16401,16650,16651,16402
CQUADX4,16811,1,16402,16651,16652,16403
CQUADX4,16812,1,16403,16652,16653,16404
CQUADX4,16813,1,16404,16653,16654,16405
CQUADX4,16814,1,16405,16654,16655,16406
CQUADX4,16815,1,16406,16655,16656,16407
CQUADX4,16816,1,16407,16656,16657,16408
CQUADX4,16817,1,16408,16657,16658,16409
CQUADX4,16818,1,16409,16658,16659,16410
CQUADX4,16819,1,16410,16659,16660,16411
CQUADX4,16820,1,16411,16660,16661,16412
CQUADX4,16821,1,16412,16661,16662,16413
CQUADX4,16822,1,16413,16662,16663,16414
CQUADX4,16823,1,16414,16663,16664,16415
CQUADX4,16824,1,16415,16664,16665,16416
CQUADX4,16825,1,16416,16665,16666,16417
CQUADX4,16826,1,16417,16666,16667,16418
CQUADX4,16827,1,16418,16667,16668,16419
CQUADX4,16828,1,16419,16668,16669,16420
CQUADX4,16829,1,16420,16669,16670,16421
CQUADX4,16830,1,16421,16670,16671,16422
CQUADX4,16831,1,16422,16671,16672,16423
CQUADX4,16832,1,16423,16672,16673,16424
CQUADX4,16833,1,16424,16673,16674,16425
CQUADX4,16834,1,16425,16674,16675,16426
CQUADX4,16835,1,16426,16675,16676,16427
CQUADX4,16836,1,16427,16676,16677,16428
CQUADX4,16837,1,16428,16677,16678,16429
CQUADX4,16838,1,16429,16678,16679,16430
CQUADX4,16839,1,16430,16679,16680,16431
CQUADX4,16840,1,16431,16680,16681,16432
CQUADX4,16841,1,16432,16681,16682,16433
CQUADX4,16842,1,16433,16682,16683,16434
CQUADX4,16843,1,16434,16683,16684,16435
CQUADX4,16844,1,16435,16684,16685,16436
CQUADX4,16845,1,16436,16685,16686,16437
CQUADX4,16846,1,16437,16686,16687,16438
CQUADX4,16847,1,16438,16687,16688,16439
CQUADX4,16848,1,16439,16688,16689,16440
CQUADX4,16849,1,16440,16689,16690,16441
CQUADX4,16850,1,16441,16690,16691,16442
CQUADX4,16851,1,16442,16691,16692,16443
CQUADX4,16852,1,16443,16692,16693,16444
CQUADX4,16853,1,16444,16693,16694,16445
CQUADX4,16854,1,16445,16694,16695,16446
CQUADX4,16855,1,16446,16695,16696,16447
CQUADX4,16856,1,16447,16696,16697,16448
CQUADX4,16857,1,16448,16697,16698,16449
CQUADX4,16858,1,16449,16698,16699,16450
CQUADX4,16859,1,16450,16699,16700,16451
CQUADX4,16860,1,16451,16700,16701,16452
CQUADX4,16861,1,16452,16701,16702,16453
CQUADX4,16862,1,16453,16702,16703,16454
CQUADX4,16863,1,16454,16703,16704,16455
CQUADX4,16864,1,16455,16704,16705,16456
CQUADX4,16865,1,16456,16705,16706,16457
CQUADX4,16866,1,16457,16706,16707,16458
CQUADX4,16867,1,16458,16707,16708,16459
CQUADX4,16868,1,16459,16708,16709,16460
CQUADX4,16869,1,16460,16709,16710,16461
CQUADX4,16870,1,16461,16710,16711,16462
CQUADX4,16871,1,16462,16711,16712,16463
CQUADX4,16872,1,16463,16712,16713,16464
CQUADX4,16873,1,16464,16713,16714,16465
CQUADX4,16874,1,16465,16714,16715,16466
CQUADX4,16875,1,16466,16715,16716,16467
CQUADX4,16876,1,16467,16716,16717,16468
CQUADX4,16877,1,16468,16717,16718,16469
CQUADX4,16878,1,16469,16718,16719,16470
CQUADX4,16879,1,16470,16719,16720,16471
CQUADX4,16880,1,16471,16720,16721,16472
CQUADX4,16881,1,16472,16721,16722,16473
CQUADX4,16882,1,16473,16722,16723,16474
CQUADX4,16883,1,16474,16723,16724,16475
CQUADX4,16884,1,16475,16724,16725,16476
CQUADX4,16885,1,16476,16725,16726,16477
CQUADX4,16886,1,16477,16726,16727,16478
CQUADX4,16887,1,16478,16727,16728,16479
CQUADX4,16888,1,16479,16728,16729,16480
CQUADX4,16889,1,16480,16729,16730,16481
CQUADX4,16890,1,16481,16730,16731,16482
CQUADX4,16891,1,16482,16731,16732,16483
CQUADX4,16892,1,16483,16732,16733,16484
CQUADX4,16893,1,16484,16733,16734,16485
CQUADX4,16894,1,16485,16734,16735,16486
CQUADX4,16895,1,16486,16735,16736,16487
CQUADX4,16896,1,16487,16736,16737,16488
CQUADX4,16897,1,16488,16737,16738,16489
CQUADX4,16898,1,16489,16738,16739,16490
CQUADX4,16899,1,16490,16739,16740,16491
CQUADX4,16900,1,16491,16740,16741,16492
CQUADX4,16901,1,16492,16741,16742,16493
CQUADX4,16902,1,16493,16742,16743,16494
CQUADX4,16903,1,16494,16743,16744,16495
CQUADX4,16904,1,16495,16744,16745,16496
CQUADX4,16905,1,16496,16745,16746,16497
CQUADX4,16906,1,16497,16746,16747,16498
CQUADX4,16907,1,16498,16747,16748,16499
CQUADX4,16908,1,16499,16748,16749,16500
CQUADX4,16909,1,16500,16749,16750,16501
CQUADX4,16910,1,16501,16750,16751,16502
CQUADX4,16911,1,16502,16751,16752,16503
CQUADX4,16912,1,16503,16752,16753,16504
CQUADX4,16913,1,16504,16753,16754,16505
CQUADX4,16914,1,16505,16754,16755,16506
CQUADX4,16915,1,16506,16755,16756,16507
CQUADX4,16916,1,16507,16756,16757,16508
CQUADX4,16917,1,16508,16757,16758,16509
CQUADX4,16918,1,16509,16758,16759,16510
CQUADX4,16919,1,16510,16759,16760,16511
CQUADX4,16920,1,16511,16760,16761,16512
CQUADX4,16921,1,16512,16761,16762,16513
CQUADX4,16922,1,16513,16762,16763,16514
CQUADX4,16923,1,16514,16763,16764,16515
CQUADX4,16924,1,16515,16764,16765,16516
CQUADX4,16925,1,16516,16765,16766,16517
CQUADX4,16926,1,16517,16766,16767,16518
CQUADX4,16927,1,16518,16767,16768,16519
CQUADX4,16928,1,16519,16768,16769,16520
CQUADX4,16929,1,16520,16769,16770,16521
CQUADX4,16930,1,16521,16770,16771,16522
CQUADX4,16931,1,16522,16771,16772,16523
CQUADX4,16932,1,16523,16772,16773,16524
CQUADX4,16933,1,16524,16773,16774,16525
CQUADX4,16934,1,16525,16774,16775,16526
CQUADX4,16935,1,16526,16775,16776,16527
CQUADX4,16936,1,16527,16776,16777,16528
CQUADX4,16937,1,16528,16777,16778,16529
CQUADX4,16938,1,16529,16778,16779,16530
CQUADX4,16939,1,16530,16779,16780,16531
CQUADX4,16940,1,16531,16780,16781,16532
CQUADX4,16941,1,16532,16781,16782,16533
CQUADX4,16942,1,16533,16782,16783,16534
CQUADX4,16943,1,16534,16783,16784,16535
CQUADX4,16944,1,16535,16784,16785,16536
CQUADX4,16945,1,16536,16785,16786,16537
CQUADX4,16946,1,16537,16786,16787,16538
CQUADX4,16947,1,16538,16787,16788,16539
CQUADX4,16948,1,16539,16788,16789,16540
CQUADX4,16949,1,16540,16789,16790,16541
CQUADX4,16950,1,16541,16790,16791,16542
CQUADX4,16951,1,16542,16791,16792,16543
CQUADX4,16952,1,16543,16792,16793,16544
CQUADX4,16953,1,16544,16793,16794,16545
CQUADX4,16954,1,16545,16794,16795,16546
CQUADX4,16955,1,16546,16795,16796,16547
CQUADX4,16956,1,16547,16796,16797,16548
CQUADX4,16957,1,16548,16797,16798,16549
CQUADX4,16958,1,16549,16798,16799,16550
CQUADX4,16959,1,16550,16799,16800,16551
CQUADX4,16960,1,16551,16800,16801,16552
CQUADX4,16961,1,16552,16801,16802,16553
CQUADX4,16962,1,16553,16802,16803,16554
CQUADX4,16963,1,16554,16803,16804,16555
CQUADX4,16964,1,16555,16804,16805,16556
CQUADX4,16965,1,16556,16805,16806,16557
CQUADX4,16966,1,16557,16806,16807,16558
CQUADX4,16967,1,16558,16807,16808,16559
CQUADX4,16968,1,16559,16808,16809,16560
CQUADX4,16969,1,16560,16809,16810,16561
CQUADX4,16970,1,16561,16810,16811,16562
CQUADX4,16971,1,16562,16811,16812,16563
CQUADX4,16972,1,16563,16812,16813,16564
CQUADX4,16973,1,16564,16813,16814,16565
CQUADX4,16974,1,16565,16814,16815,16566
CQUADX4,16975,1,16566,16815,16816,16567
CQUADX4,16976,1,16567,16816,16817,16568
CQUADX4,16977,1,16569,16818,16819,16570
CQUADX4,16978,1,16570,16819,16820,16571
CQUADX4,16979,1,16571,16820,16821,16572
CQUADX4,16980,1,16572,16821,16822,16573
CQUADX4,16981,1,16573,16822,16823,16574
CQUADX4,16982,1,16574,16823,16824,16575
CQUADX4,16983,1,16575,16824,16825,16576
CQUADX4,16984,1,16576,16825,16826,16577
CQUADX4,16985,1,16577,16826,16827,16578
CQUADX4,16986,1,16578,16827,16828,16579
CQUADX4,16987,1,16579,16828,16829,16580
CQUADX4,16988,1,16580,16829,16830,16581
CQUADX4,16989,1,16581,16830,16831,16582
CQUADX4,16990,1,16582,16831,16832,16583
CQUADX4,16991,1,16583,16832,16833,16584
CQUADX4,16992,1,16584,16833,16834,16585
CQUADX4,16993,1,16585,16834,16835,16586
CQUADX4,16994,1,16586,16835,16836,16587
CQUADX4,16995,1,16587,16836,16837,16588
CQUADX4,16996,1,16588,16837,16838,16589
CQUADX4,16997,1,16589,16838,16839,16590
CQUADX4,16998,1,16590,16839,16840,16591
CQUADX4,16999,1,16591,16840,16841,16592
CQUADX4,17000,1,16592,16841,16842,16593
CQUADX4,17001,1,16593,16842,16843,16594
CQUADX4,17002,1,16594,16843,16844,16595
CQUADX4,17003,1,16595,16844,16845,16596
CQUADX4,17004,1,16596,16845,16846,16597
CQUADX4,17005,1,16597,16846,16847,16598
CQUADX4,17006,1,16598,16847,16848,16599
CQUADX4,17007,1,16599,16848,16849,16600
CQUADX4,17008,1,16600,16849,16850,16601
CQUADX4,17009,1,16601,16850,16851,16602
CQUADX4,17010,1,16602,16851,16852,16603
CQUADX4,17011,1,16603,16852,16853,16604
CQUADX4,17012,1,16604,16853,16854,16605
CQUADX4,17013,1,16605,16854,16855,16606
CQUADX4,17014,1,16606,16855,16856,16607
CQUADX4,17015,1,16607,16856,16857,16608
CQUADX4,17016,1,16608,16857,16858,16609
CQUADX4,17017,1,16609,16858,16859,16610
CQUADX4,17018,1,16610,16859,16860,16611
CQUADX4,17019,1,16611,16860,16861,16612
CQUADX4,17020,1,16612,16861,16862,16613
CQUADX4,17021,1,16613,16862,16863,16614
CQUADX4,17022,1,16614,16863,16864,16615
CQUADX4,17023,1,16615,16864,16865,16616
CQUADX4,17024,1,16616,16865,16866,16617
CQUADX4,17025,1,16617,16866,16867,16618
CQUADX4,17026,1,16618,16867,16868,16619
CQUADX4,17027,1,16619,16868,16869,16620
CQUADX4,17028,1,16620,16869,16870,16621
CQUADX4,17029,1,16621,16870,16871,16622
CQUADX4,17030,1,16622,16871,16872,16623
CQUADX4,17031,1,16623,16872,16873,16624
CQUADX4,17032,1,16624,16873,16874,16625
CQUADX4,17033,1,16625,16874,16875,16626
CQUADX4,17034,1,16626,16875,16876,16627
CQUADX4,17035,1,16627,16876,16877,16628
CQUADX4,17036,1,16628,16877,16878,16629
CQUADX4,17037,1,16629,16878,16879,16630
CQUADX4,17038,1,16630,16879,16880,16631
CQUADX4,17039,1,16631,16880,16881,16632
CQUADX4,17040,1,16632,16881,16882,16633
CQUADX4,17041,1,16633,16882,16883,16634
CQUADX4,17042,1,16634,16883,16884,16635
CQUADX4,17043,1,16635,16884,16885,16636
CQUADX4,17044,1,16636,16885,16886,16637
CQUADX4,17045,1,16637,16886,16887,16638
CQUADX4,17046,1,16638,16887,16888,16639
CQUADX4,17047,1,16639,16888,16889,16640
CQUADX4,17048,1,16640,16889,16890,16641
CQUADX4,17049,1,16641,16890,16891,16642
CQUADX4,17050,1,16642,16891,16892,16643
CQUADX4,17051,1,16643,16892,16893,16644
CQUADX4,17052,1,16644,16893,16894,16645
CQUADX4,17053,1,16645,16894,16895,16646
CQUADX4,17054,1,16646,16895,16896,16647
CQUADX4,17055,1,16647,16896,16897,16648
CQUADX4,17056,1,16648,16897,16898,16649
CQUADX4,17057,1,16649,16898,16899,16650
CQUADX4,17058,1,16650,16899,16900,16651
CQUADX4,17059,1,16651,16900,16901,16652
CQUADX4,17060,1,16652,16901,16902,16653
CQUADX4,17061,1,16653,16902,16903,16654
CQUADX4,17062,1,16654,16903,16904,16655
CQUADX4,17063,1,16655,16904,16905,16656
CQUADX4,17064,1,16656,16905,16906,16657
CQUADX4,17065,1,16657,16906,16907,16658
CQUADX4,17066,1,16658,16907,16908,16659
CQUADX4,17067,1,16659,16908,16909,16660
CQUADX4,17068,1,16660,16909,16910,16661
CQUADX4,17069,1,16661,16910,16911,16662
CQUADX4,17070,1,16662,16911,16912,16663
CQUADX4,17071,1,16663,16912,16913,16664
CQUADX4,17072,1,16664,16913,16914,16665
CQUADX4,17073,1,16665,16914,16915,16666
CQUADX4,17074,1,16666,16915,16916,16667
CQUADX4,17075,1,16667,16916,16917,16668
CQUADX4,17076,1,16668,16917,16918,16669
CQUADX4,17077,1,16669,16918,16919,16670
CQUADX4,17078,1,16670,16919,16920,16671
CQUADX4,17079,1,16671,16920,16921,16672
CQUADX4,17080,1,16672,16921,16922,16673
CQUADX4,17081,1,16673,16922,16923,16674
CQUADX4,17082,1,16674,16923,16924,16675
CQUADX4,17083,1,16675,16924,16925,16676
CQUADX4,17084,1,16676,16925,16926,16677
CQUADX4,17085,1,16677,16926,16927,16678
CQUADX4,17086,1,16678,16927,16928,16679
CQUADX4,17087,1,16679,16928,16929,16680
CQUADX4,17088,1,16680,16929,16930,16681
CQUADX4,17089,1,16681,16930,16931,16682
CQUADX4,17090,1,16682,16931,16932,16683
CQUADX4,17091,1,16683,16932,16933,16684
CQUADX4,17092,1,16684,16933,16934,16685
CQUADX4,17093,1,16685,16934,16935,16686
CQUADX4,17094,1,16686,16935,16936,16687
CQUADX4,17095,1,16687,16936,16937,16688
CQUADX4,17096,1,16688,16937,16938,16689
CQUADX4,17097,1,16689,16938,16939,16690
CQUADX4,17098,1,16690,16939,16940,16691
CQUADX4,17099,1,16691,16940,16941,16692
CQUADX4,17100,1,16692,16941,16942,16693
CQUADX4,17101,1,16693,16942,16943,16694
CQUADX4,17102,1,16694,16943,16944,16695
CQUADX4,17103,1,16695,16944,16945,16696
CQUADX4,17104,1,16696,16945,16946,16697
CQUADX4,17105,1,16697,16946,16947,16698
CQUADX4,17106,1,16698,16947,16948,16699
CQUADX4,17107,1,16699,16948,16949,16700
CQUADX4,17108,1,16700,16949,16950,16701
CQUADX4,17109,1,16701,16950,16951,16702
CQUADX4,17110,1,16702,16951,16952,16703
CQUADX4,17111,1,16703,16952,16953,16704
CQUADX4,17112,1,16704,16953,16954,16705
CQUADX4,17113,1,16705,16954,16955,16706
CQUADX4,17114,1,16706,16955,16956,16707
CQUADX4,17115,1,16707,16956,16957,16708
CQUADX4,17116,1,16708,16957,16958,16709
CQUADX4,17117,1,16709,16958,16959,16710
CQUADX4,17118,1,16710,16959,16960,16711
CQUADX4,17119,1,16711,16960,16961,16712
CQUADX4,17120,1,16712,16961,16962,16713
CQUADX4,17121,1,16713,16962,16963,16714
CQUADX4,17122,1,16714,16963,16964,16715
CQUADX4,17123,1,16715,16964,16965,16716
CQUADX4,17124,1,16716,16965,16966,16717
CQUADX4,17125,1,16717,16966,16967,16718
CQUADX4,17126,1,16718,16967,16968,16719
CQUADX4,17127,1,16719,16968,16969,16720
CQUADX4,17128,1,16720,16969,16970,16721
CQUADX4,17129,1,16721,16970,16971,16722
CQUADX4,17130,1,16722,16971,16972,16723
CQUADX4,17131,1,16723,16972,16973,16724
CQUADX4,17132,1,16724,16973,16974,16725
CQUADX4,17133,1,16725,16974,16975,16726
CQUADX4,17134,1,16726,16975,16976,16727
CQUADX4,17135,1,16727,16976,16977,16728
CQUADX4,17136,1,16728,16977,16978,16729
CQUADX4,17137,1,16729,16978,16979,16730
CQUADX4,17138,1,16730,16979,16980,16731
CQUADX4,17139,1,16731,16980,16981,16732
CQUADX4,17140,1,16732,16981,16982,16733
CQUADX4,17141,1,16733,16982,16983,16734
CQUADX4,17142,1,16734,16983,16984,16735
CQUADX4,17143,1,16735,16984,16985,16736
CQUADX4,17144,1,16736,16985,16986,16737
CQUADX4,17145,1,16737,16986,16987,16738
CQUADX4,17146,1,16738,16987,16988,16739
CQUADX4,17147,1,16739,16988,16989,16740
CQUADX4,17148,1,16740,16989,16990,16741
CQUADX4,17149,1,16741,16990,16991,16742
CQUADX4,17150,1,16742,16991,16992,16743
CQUADX4,17151,1,16743,16992,16993,16744
CQUADX4,17152,1,16744,16993,16994,16745
CQUADX4,17153,1,16745,16994,16995,16746
CQUADX4,17154,1,16746,16995,16996,16747
CQUADX4,17155,1,16747,16996,16997,16748
CQUADX4,17156,1,16748,16997,16998,16749
CQUADX4,17157,1,16749,16998,16999,16750
CQUADX4,17158,1,16750,16999,17000,16751
CQUADX4,17159,1,16751,17000,17001,16752
CQUADX4,17160,1,16752,17001,17002,16753
CQUADX4,17161,1,16753,17002,17003,16754
CQUADX4,17162,1,16754,17003,17004,16755
CQUADX4,17163,1,16755,17004,17005,16756
CQUADX4,17164,1,16756,17005,17006,16757
CQUADX4,17165,1,16757,17006,17007,16758
CQUADX4,17166,1,16758,17007,17008,16759
CQUADX4,17167,1,16759,17008,17009,16760
CQUADX4,17168,1,16760,17009,17010,16761
CQUADX4,17169,1,16761,17010,17011,16762
CQUADX4,17170,1,16762,17011,17012,16763
CQUADX4,17171,1,16763,17012,17013,16764
CQUADX4,17172,1,16764,17013,17014,16765
CQUADX4,17173,1,16765,17014,17015,16766
CQUADX4,17174,1,16766,17015,17016,16767
CQUADX4,17175,1,16767,17016,17017,16768
CQUADX4,17176,1,16768,17017,17018,16769
CQUADX4,17177,1,16769,17018,17019,16770
CQUADX4,17178,1,16770,17019,17020,16771
CQUADX4,17179,1,16771,17020,17021,16772
CQUADX4,17180,1,16772,17021,17022,16773
CQUADX4,17181,1,16773,17022,17023,16774
CQUADX4,17182,1,16774,17023,17024,16775
CQUADX4,17183,1,16775,17024,17025,16776
CQUADX4,17184,1,16776,17025,17026,16777
CQUADX4,17185,1,16777,17026,17027,16778
CQUADX4,17186,1,16778,17027,17028,16779
CQUADX4,17187,1,16779,17028,17029,16780
CQUADX4,17188,1,16780,17029,17030,16781
CQUADX4,17189,1,16781,17030,17031,16782
CQUADX4,17190,1,16782,17031,17032,16783
CQUADX4,17191,1,16783,17032,17033,16784
CQUADX4,17192,1,16784,17033,17034,16785
CQUADX4,17193,1,16785,17034,17035,16786
CQUADX4,17194,1,16786,17035,17036,16787
CQUADX4,17195,1,16787,17036,17037,16788
CQUADX4,17196,1,16788,17037,17038,16789
CQUADX4,17197,1,16789,17038,17039,16790
CQUADX4,17198,1,16790,17039,17040,16791
CQUADX4,17199,1,16791,17040,17041,16792
CQUADX4,17200,1,16792,17041,17042,16793
CQUADX4,17201,1,16793,17042,17043,16794
CQUADX4,17202,1,16794,17043,17044,16795
CQUADX4,17203,1,16795,17044,17045,16796
CQUADX4,17204,1,16796,17045,17046,16797
CQUADX4,17205,1,16797,17046,17047,16798
CQUADX4,17206,1,16798,17047,17048,16799
CQUADX4,17207,1,16799,17048,17049,16800
CQUADX4,17208,1,16800,17049,17050,16801
CQUADX4,17209,1,16801,17050,17051,16802
CQUADX4,17210,1,16802,17051,17052,16803
CQUADX4,17211,1,16803,17052,17053,16804
CQUADX4,17212,1,16804,17053,17054,16805
CQUADX4,17213,1,16805,17054,17055,16806
CQUADX4,17214,1,16806,17055,17056,16807
CQUADX4,17215,1,16807,17056,17057,16808
CQUADX4,17216,1,16808,17057,17058,16809
CQUADX4,17217,1,16809,17058,17059,16810
CQUADX4,17218,1,16810,17059,17060,16811
CQUADX4,17219,1,16811,17060,17061,16812
CQUADX4,17220,1,16812,17061,17062,16813
CQUADX4,17221,1,16813,17062,17063,16814
CQUADX4,17222,1,16814,17063,17064,16815
CQUADX4,17223,1,16815,17064,17065,16816
CQUADX4,17224,1,16816,17065,17066,16817
CQUADX4,17225,1,16818,17067,17068,16819
CQUADX4,17226,1,16819,17068,17069,16820
CQUADX4,17227,1,16820,17069,17070,16821
CQUADX4,17228,1,16821,17070,17071,16822
CQUADX4,17229,1,16822,17071,17072,16823
CQUADX4,17230,1,16823,17072,17073,16824
CQUADX4,17231,1,16824,17073,17074,16825
CQUADX4,17232,1,16825,17074,17075,16826
CQUADX4,17233,1,16826,17075,17076,16827
CQUADX4,17234,1,16827,17076,17077,16828
CQUADX4,17235,1,16828,17077,17078,16829
CQUADX4,17236,1,16829,17078,17079,16830
CQUADX4,17237,1,16830,17079,17080,16831
CQUADX4,17238,1,16831,17080,17081,16832
CQUADX4,17239,1,16832,17081,17082,16833
CQUADX4,17240,1,16833,17082,17083,16834
CQUADX4,17241,1,16834,17083,17084,16835
CQUADX4,17242,1,16835,17084,17085,16836
CQUADX4,17243,1,16836,17085,17086,16837
CQUADX4,17244,1,16837,17086,17087,16838
CQUADX4,17245,1,16838,17087,17088,16839
CQUADX4,17246,1,16839,17088,17089,16840
CQUADX4,17247,1,16840,17089,17090,16841
CQUADX4,17248,1,16841,17090,17091,16842
CQUADX4,17249,1,16842,17091,17092,16843
CQUADX4,17250,1,16843,17092,17093,16844
CQUADX4,17251,1,16844,17093,17094,16845
CQUADX4,17252,1,16845,17094,17095,16846
CQUADX4,17253,1,16846,17095,17096,16847
CQUADX4,17254,1,16847,17096,17097,16848
CQUADX4,17255,1,16848,17097,17098,16849
CQUADX4,17256,1,16849,17098,17099,16850
CQUADX4,17257,1,16850,17099,17100,16851
CQUADX4,17258,1,16851,17100,17101,16852
CQUADX4,17259,1,16852,17101,17102,16853
CQUADX4,17260,1,16853,17102,17103,16854
CQUADX4,17261,1,16854,17103,17104,16855
CQUADX4,17262,1,16855,17104,17105,16856
CQUADX4,17263,1,16856,17105,17106,16857
CQUADX4,17264,1,16857,17106,17107,16858
CQUADX4,17265,1,16858,17107,17108,16859
CQUADX4,17266,1,16859,17108,17109,16860
CQUADX4,17267,1,16860,17109,17110,16861
CQUADX4,17268,1,16861,17110,17111,16862
CQUADX4,17269,1,16862,17111,17112,16863
CQUADX4,17270,1,16863,17112,17113,16864
CQUADX4,17271,1,16864,17113,17114,16865
CQUADX4,17272,1,16865,17114,17115,16866
CQUADX4,17273,1,16866,17115,17116,16867
CQUADX4,17274,1,16867,17116,17117,16868
CQUADX4,17275,1,16868,17117,17118,16869
CQUADX4,17276,1,16869,17118,17119,16870
CQUADX4,17277,1,16870,17119,17120,16871
CQUADX4,17278,1,16871,17120,17121,16872
CQUADX4,17279,1,16872,17121,17122,16873
CQUADX4,17280,1,16873,17122,17123,16874
CQUADX4,17281,1,16874,17123,17124,16875
CQUADX4,17282,1,16875,17124,17125,16876
CQUADX4,17283,1,16876,17125,17126,16877
CQUADX4,17284,1,16877,17126,17127,16878
CQUADX4,17285,1,16878,17127,17128,16879
CQUADX4,17286,1,16879,17128,17129,16880
CQUADX4,17287,1,16880,17129,17130,16881
CQUADX4,17288,1,16881,17130,17131,16882
CQUADX4,17289,1,16882,17131,17132,16883
CQUADX4,17290,1,16883,17132,17133,16884
CQUADX4,17291,1,16884,17133,17134,16885
CQUADX4,17292,1,16885,17134,17135,16886
CQUADX4,17293,1,16886,17135,17136,16887
CQUADX4,17294,1,16887,17136,17137,16888
CQUADX4,17295,1,16888,17137,17138,16889
CQUADX4,17296,1,16889,17138,17139,16890
CQUADX4,17297,1,16890,17139,17140,16891
CQUADX4,17298,1,16891,17140,17141,16892
CQUADX4,17299,1,16892,17141,17142,16893
CQUADX4,17300,1,16893,17142,17143,16894
CQUADX4,17301,1,16894,17143,17144,16895
CQUADX4,17302,1,16895,17144,17145,16896
CQUADX4,17303,1,16896,17145,17146,16897
CQUADX4,17304,1,16897,17146,17147,16898
CQUADX4,17305,1,16898,17147,17148,16899
CQUADX4,17306,1,16899,17148,17149,16900
CQUADX4,17307,1,16900,17149,17150,16901
CQUADX4,17308,1,16901,17150,17151,16902
CQUADX4,17309,1,16902,17151,17152,16903
CQUADX4,17310,1,16903,17152,17153,16904
CQUADX4,17311,1,16904,17153,17154,16905
CQUADX4,17312,1,16905,17154,17155,16906
CQUADX4,17313,1,16906,17155,17156,16907
CQUADX4,17314,1,16907,17156,17157,16908
CQUADX4,17315,1,16908,17157,17158,16909
CQUADX4,17316,1,16909,17158,17159,16910
CQUADX4,17317,1,16910,17159,17160,16911
CQUADX4,17318,1,16911,17160,17161,16912
CQUADX4,17319,1,16912,17161,17162,16913
CQUADX4,17320,1,16913,17162,17163,16914
CQUADX4,17321,1,16914,17163,17164,16915
CQUADX4,17322,1,16915,17164,17165,16916
CQUADX4,17323,1,16916,17165,17166,16917
CQUADX4,17324,1,16917,17166,17167,16918
CQUADX4,17325,1,16918,17167,17168,16919
CQUADX4,17326,1,16919,17168,17169,16920
CQUADX4,17327,1,16920,17169,17170,16921
CQUADX4,17328,1,16921,17170,17171,16922
CQUADX4,17329,1,16922,17171,17172,16923
CQUADX4,17330,1,16923,17172,17173,16924
CQUADX4,17331,1,16924,17173,17174,16925
CQUADX4,17332,1,16925,17174,17175,16926
CQUADX4,17333,1,16926,17175,17176,16927
CQUADX4,17334,1,16927,17176,17177,16928
CQUADX4,17335,1,16928,17177,17178,16929
CQUADX4,17336,1,16929,17178,17179,16930
CQUADX4,17337,1,16930,17179,17180,16931
CQUADX4,17338,1,16931,17180,17181,16932
CQUADX4,17339,1,16932,17181,17182,16933
CQUADX4,17340,1,16933,17182,17183,16934
CQUADX4,17341,1,16934,17183,17184,16935
CQUADX4,17342,1,16935,17184,17185,16936
CQUADX4,17343,1,16936,17185,17186,16937
CQUADX4,17344,1,16937,17186,17187,16938
CQUADX4,17345,1,16938,17187,17188,16939
CQUADX4,17346,1,16939,17188,17189,16940
CQUADX4,17347,1,16940,17189,17190,16941
CQUADX4,17348,1,16941,17190,17191,16942
CQUADX4,17349,1,16942,17191,17192,16943
CQUADX4,17350,1,16943,17192,17193,16944
CQUADX4,17351,1,16944,17193,17194,16945
CQUADX4,17352,1,16945,17194,17195,16946
CQUADX4,17353,1,16946,17195,17196,16947
CQUADX4,17354,1,16947,17196,17197,16948
CQUADX4,17355,1,16948,17197,17198,16949
CQUADX4,17356,1,16949,17198,17199,16950
CQUADX4,17357,1,16950,17199,17200,16951
CQUADX4,17358,1,16951,17200,17201,16952
CQUADX4,17359,1,16952,17201,17202,16953
CQUADX4,17360,1,16953,17202,17203,16954
CQUADX4,17361,1,16954,17203,17204,16955
CQUADX4,17362,1,16955,17204,17205,16956
CQUADX4,17363,1,16956,17205,17206,16957
CQUADX4,17364,1,16957,17206,17207,16958
CQUADX4,17365,1,16958,17207,17208,16959
CQUADX4,17366,1,16959,17208,17209,16960
CQUADX4,17367,1,16960,17209,17210,16961
CQUADX4,17368,1,16961,17210,17211,16962
CQUADX4,17369,1,16962,17211,17212,16963
CQUADX4,17370,1,16963,17212,17213,16964
CQUADX4,17371,1,16964,17213,17214,16965
CQUADX4,17372,1,16965,17214,17215,16966
CQUADX4,17373,1,16966,17215,17216,16967
CQUADX4,17374,1,16967,17216,17217,16968
CQUADX4,17375,1,16968,17217,17218,16969
CQUADX4,17376,1,16969,17218,17219,16970
CQUADX4,17377,1,16970,17219,17220,16971
CQUADX4,17378,1,16971,17220,17221,16972
CQUADX4,17379,1,16972,17221,17222,16973
CQUADX4,17380,1,16973,17222,17223,16974
CQUADX4,17381,1,16974,17223,17224,16975
CQUADX4,17382,1,16975,17224,17225,16976
CQUADX4,17383,1,16976,17225,17226,16977
CQUADX4,17384,1,16977,17226,17227,16978
CQUADX4,17385,1,16978,17227,17228,16979
CQUADX4,17386,1,16979,17228,17229,16980
CQUADX4,17387,1,16980,17229,17230,16981
CQUADX4,17388,1,16981,17230,17231,16982
CQUADX4,17389,1,16982,17231,17232,16983
CQUADX4,17390,1,16983,17232,17233,16984
CQUADX4,17391,1,16984,17233,17234,16985
CQUADX4,17392,1,16985,17234,17235,16986
CQUADX4,17393,1,16986,17235,17236,16987
CQUADX4,17394,1,16987,17236,17237,16988
CQUADX4,17395,1,16988,17237,17238,16989
CQUADX4,17396,1,16989,17238,17239,16990
CQUADX4,17397,1,16990,17239,17240,16991
CQUADX4,17398,1,16991,17240,17241,16992
CQUADX4,17399,1,16992,17241,17242,16993
CQUADX4,17400,1,16993,17242,17243,16994
CQUADX4,17401,1,16994,17243,17244,16995
CQUADX4,17402,1,16995,17244,17245,16996
CQUADX4,17403,1,16996,17245,17246,16997
CQUADX4,17404,1,16997,17246,17247,16998
CQUADX4,17405,1,16998,17247,17248,16999
CQUADX4,17406,1,16999,17248,17249,17000
CQUADX4,17407,1,17000,17249,17250,17001
CQUADX4,17408,1,17001,17250,17251,17002
CQUADX4,17409,1,17002,17251,17252,17003
CQUADX4,17410,1,17003,17252,17253,17004
CQUADX4,17411,1,17004,17253,17254,17005
CQUADX4,17412,1,17005,17254,17255,17006
CQUADX4,17413,1,17006,17255,17256,17007
CQUADX4,17414,1,17007,17256,17257,17008
CQUADX4,17415,1,17008,17257,17258,17009
CQUADX4,17416,1,17009,17258,17259,17010
CQUADX4,17417,1,17010,17259,17260,17011
CQUADX4,17418,1,17011,17260,17261,17012
CQUADX4,17419,1,17012,17261,17262,17013
CQUADX4,17420,1,17013,17262,17263,17014
CQUADX4,17421,1,17014,17263,17264,17015
CQUADX4,17422,1,17015,17264,17265,17016
CQUADX4,17423,1,17016,17265,17266,17017
CQUADX4,17424,1,17017,17266,17267,17018
CQUADX4,17425,1,17018,17267,17268,17019
CQUADX4,17426,1,17019,17268,17269,17020
CQUADX4,17427,1,17020,17269,17270,17021
CQUADX4,17428,1,17021,17270,17271,17022
CQUADX4,17429,1,17022,17271,17272,17023
CQUADX4,17430,1,17023,17272,17273,17024
CQUADX4,17431,1,17024,17273,17274,17025
CQUADX4,17432,1,17025,17274,17275,17026
CQUADX4,17433,1,17026,17275,17276,17027
CQUADX4,17434,1,17027,17276,17277,17028
CQUADX4,17435,1,17028,17277,17278,17029
CQUADX4,17436,1,17029,17278,17279,17030
CQUADX4,17437,1,17030,17279,17280,17031
CQUADX4,17438,1,17031,17280,17281,17032
CQUADX4,17439,1,17032,17281,17282,17033
CQUADX4,17440,1,17033,17282,17283,17034
CQUADX4,17441,1,17034,17283,17284,17035
CQUADX4,17442,1,17035,17284,17285,17036
CQUADX4,17443,1,17036,17285,17286,17037
CQUADX4,17444,1,17037,17286,17287,17038
CQUADX4,17445,1,17038,17287,17288,17039
CQUADX4,17446,1,17039,17288,17289,17040
CQUADX4,17447,1,17040,17289,17290,17041
CQUADX4,17448,1,17041,17290,17291,17042
CQUADX4,17449,1,17042,17291,17292,17043
CQUADX4,17450,1,17043,17292,17293,17044
CQUADX4,17451,1,17044,17293,17294,17045
CQUADX4,17452,1,17045,17294,17295,17046
CQUADX4,17453,1,17046,17295,17296,17047
CQUADX4,17454,1,17047,17296,17297,17048
CQUADX4,17455,1,17048,17297,17298,17049
CQUADX4,17456,1,17049,17298,17299,17050
CQUADX4,17457,1,17050,17299,17300,17051
CQUADX4,17458,1,17051,17300,17301,17052
CQUADX4,17459,1,17052,17301,17302,17053
CQUADX4,17460,1,17053,17302,17303,17054
CQUADX4,17461,1,17054,17303,17304,17055
CQUADX4,17462,1,17055,17304,17305,17056
CQUADX4,17463,1,17056,17305,17306,17057
CQUADX4,17464,1,17057,17306,17307,17058
CQUADX4,17465,1,17058,17307,17308,17059
CQUADX4,17466,1,17059,17308,17309,17060
CQUADX4,17467,1,17060,17309,17310,17061
CQUADX4,17468,1,17061,17310,17311,17062
CQUADX4,17469,1,17062,17311,17312,17063
CQUADX4,17470,1,17063,17312,17313,17064
CQUADX4,17471,1,17064,17313,17314,17065
CQUADX4,17472,1,17065,17314,17315,17066
CQUADX4,17473,1,17067,17316,17317,17068
CQUADX4,17474,1,17068,17317,17318,17069
CQUADX4,17475,1,17069,17318,17319,17070
CQUADX4,17476,1,17070,17319,17320,17071
CQUADX4,17477,1,17071,17320,17321,17072
CQUADX4,17478,1,17072,17321,17322,17073
CQUADX4,17479,1,17073,17322,17323,17074
CQUADX4,17480,1,17074,17323,17324,17075
CQUADX4,17481,1,17075,17324,17325,17076
CQUADX4,17482,1,17076,17325,17326,17077
CQUADX4,17483,1,17077,17326,17327,17078
CQUADX4,17484,1,17078,17327,17328,17079
CQUADX4,17485,1,17079,17328,17329,17080
CQUADX4,17486,1,17080,17329,17330,17081
CQUADX4,17487,1,17081,17330,17331,17082
CQUADX4,17488,1,17082,17331,17332,17083
CQUADX4,17489,1,17083,17332,17333,17084
CQUADX4,17490,1,17084,17333,17334,17085
CQUADX4,17491,1,17085,17334,17335,17086
CQUADX4,17492,1,17086,17335,17336,17087
CQUADX4,17493,1,17087,17336,17337,17088
CQUADX4,17494,1,17088,17337,17338,17089
CQUADX4,17495,1,17089,17338,17339,17090
CQUADX4,17496,1,17090,17339,17340,17091
CQUADX4,17497,1,17091,17340,17341,17092
CQUADX4,17498,1,17092,17341,17342,17093
CQUADX4,17499,1,17093,17342,17343,17094
CQUADX4,17500,1,17094,17343,17344,17095
CQUADX4,17501,1,17095,17344,17345,17096
CQUADX4,17502,1,17096,17345,17346,17097
CQUADX4,17503,1,17097,17346,17347,17098
CQUADX4,17504,1,17098,17347,17348,17099
CQUADX4,17505,1,17099,17348,17349,17100
CQUADX4,17506,1,17100,17349,17350,17101
CQUADX4,17507,1,17101,17350,17351,17102
CQUADX4,17508,1,17102,17351,17352,17103
CQUADX4,17509,1,17103,17352,17353,17104
CQUADX4,17510,1,17104,17353,17354,17105
CQUADX4,17511,1,17105,17354,17355,17106
CQUADX4,17512,1,17106,17355,17356,17107
CQUADX4,17513,1,17107,17356,17357,17108
CQUADX4,17514,1,17108,17357,17358,17109
CQUADX4,17515,1,17109,17358,17359,17110
CQUADX4,17516,1,17110,17359,17360,17111
CQUADX4,17517,1,17111,17360,17361,17112
CQUADX4,17518,1,17112,17361,17362,17113
CQUADX4,17519,1,17113,17362,17363,17114
CQUADX4,17520,1,17114,17363,17364,17115
CQUADX4,17521,1,17115,17364,17365,17116
CQUADX4,17522,1,17116,17365,17366,17117
CQUADX4,17523,1,17117,17366,17367,17118
CQUADX4,17524,1,17118,17367,17368,17119
CQUADX4,17525,1,17119,17368,17369,17120
CQUADX4,17526,1,17120,17369,17370,17121
CQUADX4,17527,1,17121,17370,17371,17122
CQUADX4,17528,1,17122,17371,17372,17123
CQUADX4,17529,1,17123,17372,17373,17124
CQUADX4,17530,1,17124,17373,17374,17125
CQUADX4,17531,1,17125,17374,17375,17126
CQUADX4,17532,1,17126,17375,17376,17127
CQUADX4,17533,1,17127,17376,17377,17128
CQUADX4,17534,1,17128,17377,17378,17129
CQUADX4,17535,1,17129,17378,17379,17130
CQUADX4,17536,1,17130,17379,17380,17131
CQUADX4,17537,1,17131,17380,17381,17132
CQUADX4,17538,1,17132,17381,17382,17133
CQUADX4,17539,1,17133,17382,17383,17134
CQUADX4,17540,1,17134,17383,17384,17135
CQUADX4,17541,1,17135,17384,17385,17136
CQUADX4,17542,1,17136,17385,17386,17137
CQUADX4,17543,1,17137,17386,17387,17138
CQUADX4,17544,1,17138,17387,17388,17139
CQUADX4,17545,1,17139,17388,17389,17140
CQUADX4,17546,1,17140,17389,17390,17141
CQUADX4,17547,1,17141,17390,17391,17142
CQUADX4,17548,1,17142,17391,17392,17143
CQUADX4,17549,1,17143,17392,17393,17144
CQUADX4,17550,1,17144,17393,17394,17145
CQUADX4,17551,1,17145,17394,17395,17146
CQUADX4,17552,1,17146,17395,17396,17147
CQUADX4,17553,1,17147,17396,17397,17148
CQUADX4,17554,1,17148,17397,17398,17149
CQUADX4,17555,1,17149,17398,17399,17150
CQUADX4,17556,1,17150,17399,17400,17151
CQUADX4,17557,1,17151,17400,17401,17152
CQUADX4,17558,1,17152,17401,17402,17153
CQUADX4,17559,1,17153,17402,17403,17154
CQUADX4,17560,1,17154,17403,17404,17155
CQUADX4,17561,1,17155,17404,17405,17156
CQUADX4,17562,1,17156,17405,17406,17157
CQUADX4,17563,1,17157,17406,17407,17158
CQUADX4,17564,1,17158,17407,17408,17159
CQUADX4,17565,1,17159,17408,17409,17160
CQUADX4,17566,1,17160,17409,17410,17161
CQUADX4,17567,1,17161,17410,17411,17162
CQUADX4,17568,1,17162,17411,17412,17163
CQUADX4,17569,1,17163,17412,17413,17164
CQUADX4,17570,1,17164,17413,17414,17165
CQUADX4,17571,1,17165,17414,17415,17166
CQUADX4,17572,1,17166,17415,17416,17167
CQUADX4,17573,1,17167,17416,17417,17168
CQUADX4,17574,1,17168,17417,17418,17169
CQUADX4,17575,1,17169,17418,17419,17170
CQUADX4,17576,1,17170,17419,17420,17171
CQUADX4,17577,1,17171,17420,17421,17172
CQUADX4,17578,1,17172,17421,17422,17173
CQUADX4,17579,1,17173,17422,17423,17174
CQUADX4,17580,1,17174,17423,17424,17175
CQUADX4,17581,1,17175,17424,17425,17176
CQUADX4,17582,1,17176,17425,17426,17177
CQUADX4,17583,1,17177,17426,17427,17178
CQUADX4,17584,1,17178,17427,17428,17179
CQUADX4,17585,1,17179,17428,17429,17180
CQUADX4,17586,1,17180,17429,17430,17181
CQUADX4,17587,1,17181,17430,17431,17182
CQUADX4,17588,1,17182,17431,17432,17183
CQUADX4,17589,1,17183,17432,17433,17184
CQUADX4,17590,1,17184,17433,17434,17185
CQUADX4,17591,1,17185,17434,17435,17186
CQUADX4,17592,1,17186,17435,17436,17187
CQUADX4,17593,1,17187,17436,17437,17188
CQUADX4,17594,1,17188,17437,17438,17189
CQUADX4,17595,1,17189,17438,17439,17190
CQUADX4,17596,1,17190,17439,17440,17191
CQUADX4,17597,1,17191,17440,17441,17192
CQUADX4,17598,1,17192,17441,17442,17193
CQUADX4,17599,1,17193,17442,17443,17194
CQUADX4,17600,1,17194,17443,17444,17195
CQUADX4,17601,1,17195,17444,17445,17196
CQUADX4,17602,1,17196,17445,17446,17197
CQUADX4,17603,1,17197,17446,17447,17198
CQUADX4,17604,1,17198,17447,17448,17199
CQUADX4,17605,1,17199,17448,17449,17200
CQUADX4,17606,1,17200,17449,17450,17201
CQUADX4,17607,1,17201,17450,17451,17202
CQUADX4,17608,1,17202,17451,17452,17203
CQUADX4,17609,1,17203,17452,17453,17204
CQUADX4,17610,1,17204,17453,17454,17205
CQUADX4,17611,1,17205,17454,17455,17206
CQUADX4,17612,1,17206,17455,17456,17207
CQUADX4,17613,1,17207,17456,17457,17208
CQUADX4,17614,1,17208,17457,17458,17209
CQUADX4,17615,1,17209,17458,17459,17210
CQUADX4,17616,1,17210,17459,17460,17211
CQUADX4,17617,1,17211,17460,17461,17212
CQUADX4,17618,1,17212,17461,17462,17213
CQUADX4,17619,1,17213,17462,17463,17214
CQUADX4,17620,1,17214,17463,17464,17215
CQUADX4,17621,1,17215,17464,17465,17216
CQUADX4,17622,1,17216,17465,17466,17217
CQUADX4,17623,1,17217,17466,17467,17218
CQUADX4,17624,1,17218,17467,17468,17219
CQUADX4,17625,1,17219,17468,17469,17220
CQUADX4,17626,1,17220,17469,17470,17221
CQUADX4,17627,1,17221,17470,17471,17222
CQUADX4,17628,1,17222,17471,17472,17223
CQUADX4,17629,1,17223,17472,17473,17224
CQUADX4,17630,1,17224,17473,17474,17225
CQUADX4,17631,1,17225,17474,17475,17226
CQUADX4,17632,1,17226,17475,17476,17227
CQUADX4,17633,1,17227,17476,17477,17228
CQUADX4,17634,1,17228,17477,17478,17229
CQUADX4,17635,1,17229,17478,17479,17230
CQUADX4,17636,1,17230,17479,17480,17231
CQUADX4,17637,1,17231,17480,17481,17232
CQUADX4,17638,1,17232,17481,17482,17233
CQUADX4,17639,1,17233,17482,17483,17234
CQUADX4,17640,1,17234,17483,17484,17235
CQUADX4,17641,1,17235,17484,17485,17236
CQUADX4,17642,1,17236,17485,17486,17237
CQUADX4,17643,1,17237,17486,17487,17238
CQUADX4,17644,1,17238,17487,17488,17239
CQUADX4,17645,1,17239,17488,17489,17240
CQUADX4,17646,1,17240,17489,17490,17241
CQUADX4,17647,1,17241,17490,17491,17242
CQUADX4,17648,1,17242,17491,17492,17243
CQUADX4,17649,1,17243,17492,17493,17244
CQUADX4,17650,1,17244,17493,17494,17245
CQUADX4,17651,1,17245,17494,17495,17246
CQUADX4,17652,1,17246,17495,17496,17247
CQUADX4,17653,1,17247,17496,17497,17248
CQUADX4,17654,1,17248,17497,17498,17249
CQUADX4,17655,1,17249,17498,17499,17250
CQUADX4,17656,1,17250,17499,17500,17251
CQUADX4,17657,1,17251,17500,17501,17252
CQUADX4,17658,1,17252,17501,17502,17253
CQUADX4,17659,1,17253,17502,17503,17254
CQUADX4,17660,1,17254,17503,17504,17255
CQUADX4,17661,1,17255,17504,17505,17256
CQUADX4,17662,1,17256,17505,17506,17257
CQUADX4,17663,1,17257,17506,17507,17258
CQUADX4,17664,1,17258,17507,17508,17259
CQUADX4,17665,1,17259,17508,17509,17260
CQUADX4,17666,1,17260,17509,17510,17261
CQUADX4,17667,1,17261,17510,17511,17262
CQUADX4,17668,1,17262,17511,17512,17263
CQUADX4,17669,1,17263,17512,17513,17264
CQUADX4,17670,1,17264,17513,17514,17265
CQUADX4,17671,1,17265,17514,17515,17266
CQUADX4,17672,1,17266,17515,17516,17267
CQUADX4,17673,1,17267,17516,17517,17268
CQUADX4,17674,1,17268,17517,17518,17269
CQUADX4,17675,1,17269,17518,17519,17270
CQUADX4,17676,1,17270,17519,17520,17271
CQUADX4,17677,1,17271,17520,17521,17272
CQUADX4,17678,1,17272,17521,17522,17273
CQUADX4,17679,1,17273,17522,17523,17274
CQUADX4,17680,1,17274,17523,17524,17275
CQUADX4,17681,1,17275,17524,17525,17276
CQUADX4,17682,1,17276,17525,17526,17277
CQUADX4,17683,1,17277,17526,17527,17278
CQUADX4,17684,1,17278,17527,17528,17279
CQUADX4,17685,1,17279,17528,17529,17280
CQUADX4,17686,1,17280,17529,17530,17281
CQUADX4,17687,1,17281,17530,17531,17282
CQUADX4,17688,1,17282,17531,17532,17283
CQUADX4,17689,1,17283,17532,17533,17284
CQUADX4,17690,1,17284,17533,17534,17285
CQUADX4,17691,1,17285,17534,17535,17286
CQUADX4,17692,1,17286,17535,17536,17287
CQUADX4,17693,1,17287,17536,17537,17288
CQUADX4,17694,1,17288,17537,17538,17289
CQUADX4,17695,1,17289,17538,17539,17290
CQUADX4,17696,1,17290,17539,17540,17291
CQUADX4,17697,1,17291,17540,17541,17292
CQUADX4,17698,1,17292,17541,17542,17293
CQUADX4,17699,1,17293,17542,17543,17294
CQUADX4,17700,1,17294,17543,17544,17295
CQUADX4,17701,1,17295,17544,17545,17296
CQUADX4,17702,1,17296,17545,17546,17297
CQUADX4,17703,1,17297,17546,17547,17298
CQUADX4,17704,1,17298,17547,17548,17299
CQUADX4,17705,1,17299,17548,17549,17300
CQUADX4,17706,1,17300,17549,17550,17301
CQUADX4,17707,1,17301,17550,17551,17302
CQUADX4,17708,1,17302,17551,17552,17303
CQUADX4,17709,1,17303,17552,17553,17304
CQUADX4,17710,1,17304,17553,17554,17305
CQUADX4,17711,1,17305,17554,17555,17306
CQUADX4,17712,1,17306,17555,17556,17307
CQUADX4,17713,1,17307,17556,17557,17308
CQUADX4,17714,1,17308,17557,17558,17309
CQUADX4,17715,1,17309,17558,17559,17310
CQUADX4,17716,1,17310,17559,17560,17311
CQUADX4,17717,1,17311,17560,17561,17312
CQUADX4,17718,1,17312,17561,17562,17313
CQUADX4,17719,1,17313,17562,17563,17314
CQUADX4,17720,1,17314,17563,17564,17315
CQUADX4,17721,1,17316,17565,17566,17317
CQUADX4,17722,1,17317,17566,17567,17318
CQUADX4,17723,1,17318,17567,17568,17319
CQUADX4,17724,1,17319,17568,17569,17320
CQUADX4,17725,1,17320,17569,17570,17321
CQUADX4,17726,1,17321,17570,17571,17322
CQUADX4,17727,1,17322,17571,17572,17323
CQUADX4,17728,1,17323,17572,17573,17324
CQUADX4,17729,1,17324,17573,17574,17325
CQUADX4,17730,1,17325,17574,17575,17326
CQUADX4,17731,1,17326,17575,17576,17327
CQUADX4,17732,1,17327,17576,17577,17328
CQUADX4,17733,1,17328,17577,17578,17329
CQUADX4,17734,1,17329,17578,17579,17330
CQUADX4,17735,1,17330,17579,17580,17331
CQUADX4,17736,1,17331,17580,17581,17332
CQUADX4,17737,1,17332,17581,17582,17333
CQUADX4,17738,1,17333,17582,17583,17334
CQUADX4,17739,1,17334,17583,17584,17335
CQUADX4,17740,1,17335,17584,17585,17336
CQUADX4,17741,1,17336,17585,17586,17337
CQUADX4,17742,1,17337,17586,17587,17338
CQUADX4,17743,1,17338,17587,17588,17339
CQUADX4,17744,1,17339,17588,17589,17340
CQUADX4,17745,1,17340,17589,17590,17341
CQUADX4,17746,1,17341,17590,17591,17342
CQUADX4,17747,1,17342,17591,17592,17343
CQUADX4,17748,1,17343,17592,17593,17344
CQUADX4,17749,1,17344,17593,17594,17345
CQUADX4,17750,1,17345,17594,17595,17346
CQUADX4,17751,1,17346,17595,17596,17347
CQUADX4,17752,1,17347,17596,17597,17348
CQUADX4,17753,1,17348,17597,17598,17349
CQUADX4,17754,1,17349,17598,17599,17350
CQUADX4,17755,1,17350,17599,17600,17351
CQUADX4,17756,1,17351,17600,17601,17352
CQUADX4,17757,1,17352,17601,17602,17353
CQUADX4,17758,1,17353,17602,17603,17354
CQUADX4,17759,1,17354,17603,17604,17355
CQUADX4,17760,1,17355,17604,17605,17356
CQUADX4,17761,1,17356,17605,17606,17357
CQUADX4,17762,1,17357,17606,17607,17358
CQUADX4,17763,1,17358,17607,17608,17359
CQUADX4,17764,1,17359,17608,17609,17360
CQUADX4,17765,1,17360,17609,17610,17361
CQUADX4,17766,1,17361,17610,17611,17362
CQUADX4,17767,1,17362,17611,17612,17363
CQUADX4,17768,1,17363,17612,17613,17364
CQUADX4,17769,1,17364,17613,17614,17365
CQUADX4,17770,1,17365,17614,17615,17366
CQUADX4,17771,1,17366,17615,17616,17367
CQUADX4,17772,1,17367,17616,17617,17368
CQUADX4,17773,1,17368,17617,17618,17369
CQUADX4,17774,1,17369,17618,17619,17370
CQUADX4,17775,1,17370,17619,17620,17371
CQUADX4,17776,1,17371,17620,17621,17372
CQUADX4,17777,1,17372,17621,17622,17373
CQUADX4,17778,1,17373,17622,17623,17374
CQUADX4,17779,1,17374,17623,17624,17375
CQUADX4,17780,1,17375,17624,17625,17376
CQUADX4,17781,1,17376,17625,17626,17377
CQUADX4,17782,1,17377,17626,17627,17378
CQUADX4,17783,1,17378,17627,17628,17379
CQUADX4,17784,1,17379,17628,17629,17380
CQUADX4,17785,1,17380,17629,17630,17381
CQUADX4,17786,1,17381,17630,17631,17382
CQUADX4,17787,1,17382,17631,17632,17383
CQUADX4,17788,1,17383,17632,17633,17384
CQUADX4,17789,1,17384,17633,17634,17385
CQUADX4,17790,1,17385,17634,17635,17386
CQUADX4,17791,1,17386,17635,17636,17387
CQUADX4,17792,1,17387,17636,17637,17388
CQUADX4,17793,1,17388,17637,17638,17389
CQUADX4,17794,1,17389,17638,17639,17390
CQUADX4,17795,1,17390,17639,17640,17391
CQUADX4,17796,1,17391,17640,17641,17392
CQUADX4,17797,1,17392,17641,17642,17393
CQUADX4,17798,1,17393,17642,17643,17394
CQUADX4,17799,1,17394,17643,17644,17395
CQUADX4,17800,1,17395,17644,17645,17396
CQUADX4,17801,1,17396,17645,17646,17397
CQUADX4,17802,1,17397,17646,17647,17398
CQUADX4,17803,1,17398,17647,17648,17399
CQUADX4,17804,1,17399,17648,17649,17400
CQUADX4,17805,1,17400,17649,17650,17401
CQUADX4,17806,1,17401,17650,17651,17402
CQUADX4,17807,1,17402,17651,17652,17403
CQUADX4,17808,1,17403,17652,17653,17404
CQUADX4,17809,1,17404,17653,17654,17405
CQUADX4,17810,1,17405,17654,17655,17406
CQUADX4,17811,1,17406,17655,17656,17407
CQUADX4,17812,1,17407,17656,17657,17408
CQUADX4,17813,1,17408,17657,17658,17409
CQUADX4,17814,1,17409,17658,17659,17410
CQUADX4,17815,1,17410,17659,17660,17411
CQUADX4,17816,1,17411,17660,17661,17412
CQUADX4,17817,1,17412,17661,17662,17413
CQUADX4,17818,1,17413,17662,17663,17414
CQUADX4,17819,1,17414,17663,17664,17415
CQUADX4,17820,1,17415,17664,17665,17416
CQUADX4,17821,1,17416,17665,17666,17417
CQUADX4,17822,1,17417,17666,17667,17418
CQUADX4,17823,1,17418,17667,17668,17419
CQUADX4,17824,1,17419,17668,17669,17420
CQUADX4,17825,1,17420,17669,17670,17421
CQUADX4,17826,1,17421,17670,17671,17422
CQUADX4,17827,1,17422,17671,17672,17423
CQUADX4,17828,1,17423,17672,17673,17424
CQUADX4,17829,1,17424,17673,17674,17425
CQUADX4,17830,1,17425,17674,17675,17426
CQUADX4,17831,1,17426,17675,17676,17427
CQUADX4,17832,1,17427,17676,17677,17428
CQUADX4,17833,1,17428,17677,17678,17429
CQUADX4,17834,1,17429,17678,17679,17430
CQUADX4,17835,1,17430,17679,17680,17431
CQUADX4,17836,1,17431,17680,17681,17432
CQUADX4,17837,1,17432,17681,17682,17433
CQUADX4,17838,1,17433,17682,17683,17434
CQUADX4,17839,1,17434,17683,17684,17435
CQUADX4,17840,1,17435,17684,17685,17436
CQUADX4,17841,1,17436,17685,17686,17437
CQUADX4,17842,1,17437,17686,17687,17438
CQUADX4,17843,1,17438,17687,17688,17439
CQUADX4,17844,1,17439,17688,17689,17440
CQUADX4,17845,1,17440,17689,17690,17441
CQUADX4,17846,1,17441,17690,17691,17442
CQUADX4,17847,1,17442,17691,17692,17443
CQUADX4,17848,1,17443,17692,17693,17444
CQUADX4,17849,1,17444,17693,17694,17445
CQUADX4,17850,1,17445,17694,17695,17446
CQUADX4,17851,1,17446,17695,17696,17447
CQUADX4,17852,1,17447,17696,17697,17448
CQUADX4,17853,1,17448,17697,17698,17449
CQUADX4,17854,1,17449,17698,17699,17450
CQUADX4,17855,1,17450,17699,17700,17451
CQUADX4,17856,1,17451,17700,17701,17452
CQUADX4,17857,1,17452,17701,17702,17453
CQUADX4,17858,1,17453,17702,17703,17454
CQUADX4,17859,1,17454,17703,17704,17455
CQUADX4,17860,1,17455,17704,17705,17456
CQUADX4,17861,1,17456,17705,17706,17457
CQUADX4,17862,1,17457,17706,17707,17458
CQUADX4,17863,1,17458,17707,17708,17459
CQUADX4,17864,1,17459,17708,17709,17460
CQUADX4,17865,1,17460,17709,17710,17461
CQUADX4,17866,1,17461,17710,17711,17462
CQUADX4,17867,1,17462,17711,17712,17463
CQUADX4,17868,1,17463,17712,17713,17464
CQUADX4,17869,1,17464,17713,17714,17465
CQUADX4,17870,1,17465,17714,17715,17466
CQUADX4,17871,1,17466,17715,17716,17467
CQUADX4,17872,1,17467,17716,17717,17468
CQUADX4,17873,1,17468,17717,17718,17469
CQUADX4,17874,1,17469,17718,17719,17470
CQUADX4,17875,1,17470,17719,17720,17471
CQUADX4,17876,1,17471,17720,17721,17472
CQUADX4,17877,1,17472,17721,17722,17473
CQUADX4,17878,1,17473,17722,17723,17474
CQUADX4,17879,1,17474,17723,17724,17475
CQUADX4,17880,1,17475,17724,17725,17476
CQUADX4,17881,1,17476,17725,17726,17477
CQUADX4,17882,1,17477,17726,17727,17478
CQUADX4,17883,1,17478,17727,17728,17479
CQUADX4,17884,1,17479,17728,17729,17480
CQUADX4,17885,1,17480,17729,17730,17481
CQUADX4,17886,1,17481,17730,17731,17482
CQUADX4,17887,1,17482,17731,17732,17483
CQUADX4,17888,1,17483,17732,17733,17484
CQUADX4,17889,1,17484,17733,17734,17485
CQUADX4,17890,1,17485,17734,17735,17486
CQUADX4,17891,1,17486,17735,17736,17487
CQUADX4,17892,1,17487,17736,17737,17488
CQUADX4,17893,1,17488,17737,17738,17489
CQUADX4,17894,1,17489,17738,17739,17490
CQUADX4,17895,1,17490,17739,17740,17491
CQUADX4,17896,1,17491,17740,17741,17492
CQUADX4,17897,1,17492,17741,17742,17493
CQUADX4,17898,1,17493,17742,17743,17494
CQUADX4,17899,1,17494,17743,17744,17495
CQUADX4,17900,1,17495,17744,17745,17496
CQUADX4,17901,1,17496,17745,17746,17497
CQUADX4,17902,1,17497,17746,17747,17498
CQUADX4,17903,1,17498,17747,17748,17499
CQUADX4,17904,1,17499,17748,17749,17500
CQUADX4,17905,1,17500,17749,17750,17501
CQUADX4,17906,1,17501,17750,17751,17502
CQUADX4,17907,1,17502,17751,17752,17503
CQUADX4,17908,1,17503,17752,17753,17504
CQUADX4,17909,1,17504,17753,17754,17505
CQUADX4,17910,1,17505,17754,17755,17506
CQUADX4,17911,1,17506,17755,17756,17507
CQUADX4,17912,1,17507,17756,17757,17508
CQUADX4,17913,1,17508,17757,17758,17509
CQUADX4,17914,1,17509,17758,17759,17510
CQUADX4,17915,1,17510,17759,17760,17511
CQUADX4,17916,1,17511,17760,17761,17512
CQUADX4,17917,1,17512,17761,17762,17513
CQUADX4,17918,1,17513,17762,17763,17514
CQUADX4,17919,1,17514,17763,17764,17515
CQUADX4,17920,1,17515,17764,17765,17516
CQUADX4,17921,1,17516,17765,17766,17517
CQUADX4,17922,1,17517,17766,17767,17518
CQUADX4,17923,1,17518,17767,17768,17519
CQUADX4,17924,1,17519,17768,17769,17520
CQUADX4,17925,1,17520,17769,17770,17521
CQUADX4,17926,1,17521,17770,17771,17522
CQUADX4,17927,1,17522,17771,17772,17523
CQUADX4,17928,1,17523,17772,17773,17524
CQUADX4,17929,1,17524,17773,17774,17525
CQUADX4,17930,1,17525,17774,17775,17526
CQUADX4,17931,1,17526,17775,17776,17527
CQUADX4,17932,1,17527,17776,17777,17528
CQUADX4,17933,1,17528,17777,17778,17529
CQUADX4,17934,1,17529,17778,17779,17530
CQUADX4,17935,1,17530,17779,17780,17531
CQUADX4,17936,1,17531,17780,17781,17532
CQUADX4,17937,1,17532,17781,17782,17533
CQUADX4,17938,1,17533,17782,17783,17534
CQUADX4,17939,1,17534,17783,17784,17535
CQUADX4,17940,1,17535,17784,17785,17536
CQUADX4,17941,1,17536,17785,17786,17537
CQUADX4,17942,1,17537,17786,17787,17538
CQUADX4,17943,1,17538,17787,17788,17539
CQUADX4,17944,1,17539,17788,17789,17540
CQUADX4,17945,1,17540,17789,17790,17541
CQUADX4,17946,1,17541,17790,17791,17542
CQUADX4,17947,1,17542,17791,17792,17543
CQUADX4,17948,1,17543,17792,17793,17544
CQUADX4,17949,1,17544,17793,17794,17545
CQUADX4,17950,1,17545,17794,17795,17546
CQUADX4,17951,1,17546,17795,17796,17547
CQUADX4,17952,1,17547,17796,17797,17548
CQUADX4,17953,1,17548,17797,17798,17549
CQUADX4,17954,1,17549,17798,17799,17550
CQUADX4,17955,1,17550,17799,17800,17551
CQUADX4,17956,1,17551,17800,17801,17552
CQUADX4,17957,1,17552,17801,17802,17553
CQUADX4,17958,1,17553,17802,17803,17554
CQUADX4,17959,1,17554,17803,17804,17555
CQUADX4,17960,1,17555,17804,17805,17556
CQUADX4,17961,1,17556,17805,17806,17557
CQUADX4,17962,1,17557,17806,17807,17558
CQUADX4,17963,1,17558,17807,17808,17559
CQUADX4,17964,1,17559,17808,17809,17560
CQUADX4,17965,1,17560,17809,17810,17561
CQUADX4,17966,1,17561,17810,17811,17562
CQUADX4,17967,1,17562,17811,17812,17563
CQUADX4,17968,1,17563,17812,17813,17564
CQUADX4,17969,1,17565,17814,17815,17566
CQUADX4,17970,1,17566,17815,17816,17567
CQUADX4,17971,1,17567,17816,17817,17568
CQUADX4,17972,1,17568,17817,17818,17569
CQUADX4,17973,1,17569,17818,17819,17570
CQUADX4,17974,1,17570,17819,17820,17571
CQUADX4,17975,1,17571,17820,17821,17572
CQUADX4,17976,1,17572,17821,17822,17573
CQUADX4,17977,1,17573,17822,17823,17574
CQUADX4,17978,1,17574,17823,17824,17575
CQUADX4,17979,1,17575,17824,17825,17576
CQUADX4,17980,1,17576,17825,17826,17577
CQUADX4,17981,1,17577,17826,17827,17578
CQUADX4,17982,1,17578,17827,17828,17579
CQUADX4,17983,1,17579,17828,17829,17580
CQUADX4,17984,1,17580,17829,17830,17581
CQUADX4,17985,1,17581,17830,17831,17582
CQUADX4,17986,1,17582,17831,17832,17583
CQUADX4,17987,1,17583,17832,17833,17584
CQUADX4,17988,1,17584,17833,17834,17585
CQUADX4,17989,1,17585,17834,17835,17586
CQUADX4,17990,1,17586,17835,17836,17587
CQUADX4,17991,1,17587,17836,17837,17588
CQUADX4,17992,1,17588,17837,17838,17589
CQUADX4,17993,1,17589,17838,17839,17590
CQUADX4,17994,1,17590,17839,17840,17591
CQUADX4,17995,1,17591,17840,17841,17592
CQUADX4,17996,1,17592,17841,17842,17593
CQUADX4,17997,1,17593,17842,17843,17594
CQUADX4,17998,1,17594,17843,17844,17595
CQUADX4,17999,1,17595,17844,17845,17596
CQUADX4,18000,1,17596,17845,17846,17597
CQUADX4,18001,1,17597,17846,17847,17598
CQUADX4,18002,1,17598,17847,17848,17599
CQUADX4,18003,1,17599,17848,17849,17600
CQUADX4,18004,1,17600,17849,17850,17601
CQUADX4,18005,1,17601,17850,17851,17602
CQUADX4,18006,1,17602,17851,17852,17603
CQUADX4,18007,1,17603,17852,17853,17604
CQUADX4,18008,1,17604,17853,17854,17605
CQUADX4,18009,1,17605,17854,17855,17606
CQUADX4,18010,1,17606,17855,17856,17607
CQUADX4,18011,1,17607,17856,17857,17608
CQUADX4,18012,1,17608,17857,17858,17609
CQUADX4,18013,1,17609,17858,17859,17610
CQUADX4,18014,1,17610,17859,17860,17611
CQUADX4,18015,1,17611,17860,17861,17612
CQUADX4,18016,1,17612,17861,17862,17613
CQUADX4,18017,1,17613,17862,17863,17614
CQUADX4,18018,1,17614,17863,17864,17615
CQUADX4,18019,1,17615,17864,17865,17616
CQUADX4,18020,1,17616,17865,17866,17617
CQUADX4,18021,1,17617,17866,17867,17618
CQUADX4,18022,1,17618,17867,17868,17619
CQUADX4,18023,1,17619,17868,17869,17620
CQUADX4,18024,1,17620,17869,17870,17621
CQUADX4,18025,1,17621,17870,17871,17622
CQUADX4,18026,1,17622,17871,17872,17623
CQUADX4,18027,1,17623,17872,17873,17624
CQUADX4,18028,1,17624,17873,17874,17625
CQUADX4,18029,1,17625,17874,17875,17626
CQUADX4,18030,1,17626,17875,17876,17627
CQUADX4,18031,1,17627,17876,17877,17628
CQUADX4,18032,1,17628,17877,17878,17629
CQUADX4,18033,1,17629,17878,17879,17630
CQUADX4,18034,1,17630,17879,17880,17631
CQUADX4,18035,1,17631,17880,17881,17632
CQUADX4,18036,1,17632,17881,17882,17633
CQUADX4,18037,1,17633,17882,17883,17634
CQUADX4,18038,1,17634,17883,17884,17635
CQUADX4,18039,1,17635,17884,17885,17636
CQUADX4,18040,1,17636,17885,17886,17637
CQUADX4,18041,1,17637,17886,17887,17638
CQUADX4,18042,1,17638,17887,17888,17639
CQUADX4,18043,1,17639,17888,17889,17640
CQUADX4,18044,1,17640,17889,17890,17641
CQUADX4,18045,1,17641,17890,17891,17642
CQUADX4,18046,1,17642,17891,17892,17643
CQUADX4,18047,1,17643,17892,17893,17644
CQUADX4,18048,1,17644,17893,17894,17645
CQUADX4,18049,1,17645,17894,17895,17646
CQUADX4,18050,1,17646,17895,17896,17647
CQUADX4,18051,1,17647,17896,17897,17648
CQUADX4,18052,1,17648,17897,17898,17649
CQUADX4,18053,1,17649,17898,17899,17650
CQUADX4,18054,1,17650,17899,17900,17651
CQUADX4,18055,1,17651,17900,17901,17652
CQUADX4,18056,1,17652,17901,17902,17653
CQUADX4,18057,1,17653,17902,17903,17654
CQUADX4,18058,1,17654,17903,17904,17655
CQUADX4,18059,1,17655,17904,17905,17656
CQUADX4,18060,1,17656,17905,17906,17657
CQUADX4,18061,1,17657,17906,17907,17658
CQUADX4,18062,1,17658,17907,17908,17659
CQUADX4,18063,1,17659,17908,17909,17660
CQUADX4,18064,1,17660,17909,17910,17661
CQUADX4,18065,1,17661,17910,17911,17662
CQUADX4,18066,1,17662,17911,17912,17663
CQUADX4,18067,1,17663,17912,17913,17664
CQUADX4,18068,1,17664,17913,17914,17665
CQUADX4,18069,1,17665,17914,17915,17666
CQUADX4,18070,1,17666,17915,17916,17667
CQUADX4,18071,1,17667,17916,17917,17668
CQUADX4,18072,1,17668,17917,17918,17669
CQUADX4,18073,1,17669,17918,17919,17670
CQUADX4,18074,1,17670,17919,17920,17671
CQUADX4,18075,1,17671,17920,17921,17672
CQUADX4,18076,1,17672,17921,17922,17673
CQUADX4,18077,1,17673,17922,17923,17674
CQUADX4,18078,1,17674,17923,17924,17675
CQUADX4,18079,1,17675,17924,17925,17676
CQUADX4,18080,1,17676,17925,17926,17677
CQUADX4,18081,1,17677,17926,17927,17678
CQUADX4,18082,1,17678,17927,17928,17679
CQUADX4,18083,1,17679,17928,17929,17680
CQUADX4,18084,1,17680,17929,17930,17681
CQUADX4,18085,1,17681,17930,17931,17682
CQUADX4,18086,1,17682,17931,17932,17683
CQUADX4,18087,1,17683,17932,17933,17684
CQUADX4,18088,1,17684,17933,17934,17685
CQUADX4,18089,1,17685,17934,17935,17686
CQUADX4,18090,1,17686,17935,17936,17687
CQUADX4,18091,1,17687,17936,17937,17688
CQUADX4,18092,1,17688,17937,17938,17689
CQUADX4,18093,1,17689,17938,17939,17690
CQUADX4,18094,1,17690,17939,17940,17691
CQUADX4,18095,1,17691,17940,17941,17692
CQUADX4,18096,1,17692,17941,17942,17693
CQUADX4,18097,1,17693,17942,17943,17694
CQUADX4,18098,1,17694,17943,17944,17695
CQUADX4,18099,1,17695,17944,17945,17696
CQUADX4,18100,1,17696,17945,17946,17697
CQUADX4,18101,1,17697,17946,17947,17698
CQUADX4,18102,1,17698,17947,17948,17699
CQUADX4,18103,1,17699,17948,17949,17700
CQUADX4,18104,1,17700,17949,17950,17701
CQUADX4,18105,1,17701,17950,17951,17702
CQUADX4,18106,1,17702,17951,17952,17703
CQUADX4,18107,1,17703,17952,17953,17704
CQUADX4,18108,1,17704,17953,17954,17705
CQUADX4,18109,1,17705,17954,17955,17706
CQUADX4,18110,1,17706,17955,17956,17707
CQUADX4,18111,1,17707,17956,17957,17708
CQUADX4,18112,1,17708,17957,17958,17709
CQUADX4,18113,1,17709,17958,17959,17710
CQUADX4,18114,1,17710,17959,17960,17711
CQUADX4,18115,1,17711,17960,17961,17712
CQUADX4,18116,1,17712,17961,17962,17713
CQUADX4,18117,1,17713,17962,17963,17714
CQUADX4,18118,1,17714,17963,17964,17715
CQUADX4,18119,1,17715,17964,17965,17716
CQUADX4,18120,1,17716,17965,17966,17717
CQUADX4,18121,1,17717,17966,17967,17718
CQUADX4,18122,1,17718,17967,17968,17719
CQUADX4,18123,1,17719,17968,17969,17720
CQUADX4,18124,1,17720,17969,17970,17721
CQUADX4,18125,1,17721,17970,17971,17722
CQUADX4,18126,1,17722,17971,17972,17723
CQUADX4,18127,1,17723,17972,17973,17724
CQUADX4,18128,1,17724,17973,17974,17725
CQUADX4,18129,1,17725,17974,17975,17726
CQUADX4,18130,1,17726,17975,17976,17727
CQUADX4,18131,1,17727,17976,17977,17728
CQUADX4,18132,1,17728,17977,17978,17729
CQUADX4,18133,1,17729,17978,17979,17730
CQUADX4,18134,1,17730,17979,17980,17731
CQUADX4,18135,1,17731,17980,17981,17732
CQUADX4,18136,1,17732,17981,17982,17733
CQUADX4,18137,1,17733,17982,17983,17734
CQUADX4,18138,1,17734,17983,17984,17735
CQUADX4,18139,1,17735,17984,17985,17736
CQUADX4,18140,1,17736,17985,17986,17737
CQUADX4,18141,1,17737,17986,17987,17738
CQUADX4,18142,1,17738,17987,17988,17739
CQUADX4,18143,1,17739,17988,17989,17740
CQUADX4,18144,1,17740,17989,17990,17741
CQUADX4,18145,1,17741,17990,17991,17742
CQUADX4,18146,1,17742,17991,17992,17743
CQUADX4,18147,1,17743,17992,17993,17744
CQUADX4,18148,1,17744,17993,17994,17745
CQUADX4,18149,1,17745,17994,17995,17746
CQUADX4,18150,1,17746,17995,17996,17747
CQUADX4,18151,1,17747,17996,17997,17748
CQUADX4,18152,1,17748,17997,17998,17749
CQUADX4,18153,1,17749,17998,17999,17750
CQUADX4,18154,1,17750,17999,18000,17751
CQUADX4,18155,1,17751,18000,18001,17752
CQUADX4,18156,1,17752,18001,18002,17753
CQUADX4,18157,1,17753,18002,18003,17754
CQUADX4,18158,1,17754,18003,18004,17755
CQUADX4,18159,1,17755,18004,18005,17756
CQUADX4,18160,1,17756,18005,18006,17757
CQUADX4,18161,1,17757,18006,18007,17758
CQUADX4,18162,1,17758,18007,18008,17759
CQUADX4,18163,1,17759,18008,18009,17760
CQUADX4,18164,1,17760,18009,18010,17761
CQUADX4,18165,1,17761,18010,18011,17762
CQUADX4,18166,1,17762,18011,18012,17763
CQUADX4,18167,1,17763,18012,18013,17764
CQUADX4,18168,1,17764,18013,18014,17765
CQUADX4,18169,1,17765,18014,18015,17766
CQUADX4,18170,1,17766,18015,18016,17767
CQUADX4,18171,1,17767,18016,18017,17768
CQUADX4,18172,1,17768,18017,18018,17769
CQUADX4,18173,1,17769,18018,18019,17770
CQUADX4,18174,1,17770,18019,18020,17771
CQUADX4,18175,1,17771,18020,18021,17772
CQUADX4,18176,1,17772,18021,18022,17773
CQUADX4,18177,1,17773,18022,18023,17774
CQUADX4,18178,1,17774,18023,18024,17775
CQUADX4,18179,1,17775,18024,18025,17776
CQUADX4,18180,1,17776,18025,18026,17777
CQUADX4,18181,1,17777,18026,18027,17778
CQUADX4,18182,1,17778,18027,18028,17779
CQUADX4,18183,1,17779,18028,18029,17780
CQUADX4,18184,1,17780,18029,18030,17781
CQUADX4,18185,1,17781,18030,18031,17782
CQUADX4,18186,1,17782,18031,18032,17783
CQUADX4,18187,1,17783,18032,18033,17784
CQUADX4,18188,1,17784,18033,18034,17785
CQUADX4,18189,1,17785,18034,18035,17786
CQUADX4,18190,1,17786,18035,18036,17787
CQUADX4,18191,1,17787,18036,18037,17788
CQUADX4,18192,1,17788,18037,18038,17789
CQUADX4,18193,1,17789,18038,18039,17790
CQUADX4,18194,1,17790,18039,18040,17791
CQUADX4,18195,1,17791,18040,18041,17792
CQUADX4,18196,1,17792,18041,18042,17793
CQUADX4,18197,1,17793,18042,18043,17794
CQUADX4,18198,1,17794,18043,18044,17795
CQUADX4,18199,1,17795,18044,18045,17796
CQUADX4,18200,1,17796,18045,18046,17797
CQUADX4,18201,1,17797,18046,18047,17798
CQUADX4,18202,1,17798,18047,18048,17799
CQUADX4,18203,1,17799,18048,18049,17800
CQUADX4,18204,1,17800,18049,18050,17801
CQUADX4,18205,1,17801,18050,18051,17802
CQUADX4,18206,1,17802,18051,18052,17803
CQUADX4,18207,1,17803,18052,18053,17804
CQUADX4,18208,1,17804,18053,18054,17805
CQUADX4,18209,1,17805,18054,18055,17806
CQUADX4,18210,1,17806,18055,18056,17807
CQUADX4,18211,1,17807,18056,18057,17808
CQUADX4,18212,1,17808,18057,18058,17809
CQUADX4,18213,1,17809,18058,18059,17810
CQUADX4,18214,1,17810,18059,18060,17811
CQUADX4,18215,1,17811,18060,18061,17812
CQUADX4,18216,1,17812,18061,18062,17813
CQUADX4,18217,1,17814,18063,18064,17815
CQUADX4,18218,1,17815,18064,18065,17816
CQUADX4,18219,1,17816,18065,18066,17817
CQUADX4,18220,1,17817,18066,18067,17818
CQUADX4,18221,1,17818,18067,18068,17819
CQUADX4,18222,1,17819,18068,18069,17820
CQUADX4,18223,1,17820,18069,18070,17821
CQUADX4,18224,1,17821,18070,18071,17822
CQUADX4,18225,1,17822,18071,18072,17823
CQUADX4,18226,1,17823,18072,18073,17824
CQUADX4,18227,1,17824,18073,18074,17825
CQUADX4,18228,1,17825,18074,18075,17826
CQUADX4,18229,1,17826,18075,18076,17827
CQUADX4,18230,1,17827,18076,18077,17828
CQUADX4,18231,1,17828,18077,18078,17829
CQUADX4,18232,1,17829,18078,18079,17830
CQUADX4,18233,1,17830,18079,18080,17831
CQUADX4,18234,1,17831,18080,18081,17832
CQUADX4,18235,1,17832,18081,18082,17833
CQUADX4,18236,1,17833,18082,18083,17834
CQUADX4,18237,1,17834,18083,18084,17835
CQUADX4,18238,1,17835,18084,18085,17836
CQUADX4,18239,1,17836,18085,18086,17837
CQUADX4,18240,1,17837,18086,18087,17838
CQUADX4,18241,1,17838,18087,18088,17839
CQUADX4,18242,1,17839,18088,18089,17840
CQUADX4,18243,1,17840,18089,18090,17841
CQUADX4,18244,1,17841,18090,18091,17842
CQUADX4,18245,1,17842,18091,18092,17843
CQUADX4,18246,1,17843,18092,18093,17844
CQUADX4,18247,1,17844,18093,18094,17845
CQUADX4,18248,1,17845,18094,18095,17846
CQUADX4,18249,1,17846,18095,18096,17847
CQUADX4,18250,1,17847,18096,18097,17848
CQUADX4,18251,1,17848,18097,18098,17849
CQUADX4,18252,1,17849,18098,18099,17850
CQUADX4,18253,1,17850,18099,18100,17851
CQUADX4,18254,1,17851,18100,18101,17852
CQUADX4,18255,1,17852,18101,18102,17853
CQUADX4,18256,1,17853,18102,18103,17854
CQUADX4,18257,1,17854,18103,18104,17855
CQUADX4,18258,1,17855,18104,18105,17856
CQUADX4,18259,1,17856,18105,18106,17857
CQUADX4,18260,1,17857,18106,18107,17858
CQUADX4,18261,1,17858,18107,18108,17859
CQUADX4,18262,1,17859,18108,18109,17860
CQUADX4,18263,1,17860,18109,18110,17861
CQUADX4,18264,1,17861,18110,18111,17862
CQUADX4,18265,1,17862,18111,18112,17863
CQUADX4,18266,1,17863,18112,18113,17864
CQUADX4,18267,1,17864,18113,18114,17865
CQUADX4,18268,1,17865,18114,18115,17866
CQUADX4,18269,1,17866,18115,18116,17867
CQUADX4,18270,1,17867,18116,18117,17868
CQUADX4,18271,1,17868,18117,18118,17869
CQUADX4,18272,1,17869,18118,18119,17870
CQUADX4,18273,1,17870,18119,18120,17871
CQUADX4,18274,1,17871,18120,18121,17872
CQUADX4,18275,1,17872,18121,18122,17873
CQUADX4,18276,1,17873,18122,18123,17874
CQUADX4,18277,1,17874,18123,18124,17875
CQUADX4,18278,1,17875,18124,18125,17876
CQUADX4,18279,1,17876,18125,18126,17877
CQUADX4,18280,1,17877,18126,18127,17878
CQUADX4,18281,1,17878,18127,18128,17879
CQUADX4,18282,1,17879,18128,18129,17880
CQUADX4,18283,1,17880,18129,18130,17881
CQUADX4,18284,1,17881,18130,18131,17882
CQUADX4,18285,1,17882,18131,18132,17883
CQUADX4,18286,1,17883,18132,18133,17884
CQUADX4,18287,1,17884,18133,18134,17885
CQUADX4,18288,1,17885,18134,18135,17886
CQUADX4,18289,1,17886,18135,18136,17887
CQUADX4,18290,1,17887,18136,18137,17888
CQUADX4,18291,1,17888,18137,18138,17889
CQUADX4,18292,1,17889,18138,18139,17890
CQUADX4,18293,1,17890,18139,18140,17891
CQUADX4,18294,1,17891,18140,18141,17892
CQUADX4,18295,1,17892,18141,18142,17893
CQUADX4,18296,1,17893,18142,18143,17894
CQUADX4,18297,1,17894,18143,18144,17895
CQUADX4,18298,1,17895,18144,18145,17896
CQUADX4,18299,1,17896,18145,18146,17897
CQUADX4,18300,1,17897,18146,18147,17898
CQUADX4,18301,1,17898,18147,18148,17899
CQUADX4,18302,1,17899,18148,18149,17900
CQUADX4,18303,1,17900,18149,18150,17901
CQUADX4,18304,1,17901,18150,18151,17902
CQUADX4,18305,1,17902,18151,18152,17903
CQUADX4,18306,1,17903,18152,18153,17904
CQUADX4,18307,1,17904,18153,18154,17905
CQUADX4,18308,1,17905,18154,18155,17906
CQUADX4,18309,1,17906,18155,18156,17907
CQUADX4,18310,1,17907,18156,18157,17908
CQUADX4,18311,1,17908,18157,18158,17909
CQUADX4,18312,1,17909,18158,18159,17910
CQUADX4,18313,1,17910,18159,18160,17911
CQUADX4,18314,1,17911,18160,18161,17912
CQUADX4,18315,1,17912,18161,18162,17913
CQUADX4,18316,1,17913,18162,18163,17914
CQUADX4,18317,1,17914,18163,18164,17915
CQUADX4,18318,1,17915,18164,18165,17916
CQUADX4,18319,1,17916,18165,18166,17917
CQUADX4,18320,1,17917,18166,18167,17918
CQUADX4,18321,1,17918,18167,18168,17919
CQUADX4,18322,1,17919,18168,18169,17920
CQUADX4,18323,1,17920,18169,18170,17921
CQUADX4,18324,1,17921,18170,18171,17922
CQUADX4,18325,1,17922,18171,18172,17923
CQUADX4,18326,1,17923,18172,18173,17924
CQUADX4,18327,1,17924,18173,18174,17925
CQUADX4,18328,1,17925,18174,18175,17926
CQUADX4,18329,1,17926,18175,18176,17927
CQUADX4,18330,1,17927,18176,18177,17928
CQUADX4,18331,1,17928,18177,18178,17929
CQUADX4,18332,1,17929,18178,18179,17930
CQUADX4,18333,1,17930,18179,18180,17931
CQUADX4,18334,1,17931,18180,18181,17932
CQUADX4,18335,1,17932,18181,18182,17933
CQUADX4,18336,1,17933,18182,18183,17934
CQUADX4,18337,1,17934,18183,18184,17935
CQUADX4,18338,1,17935,18184,18185,17936
CQUADX4,18339,1,17936,18185,18186,17937
CQUADX4,18340,1,17937,18186,18187,17938
CQUADX4,18341,1,17938,18187,18188,17939
CQUADX4,18342,1,17939,18188,18189,17940
CQUADX4,18343,1,17940,18189,18190,17941
CQUADX4,18344,1,17941,18190,18191,17942
CQUADX4,18345,1,17942,18191,18192,17943
CQUADX4,18346,1,17943,18192,18193,17944
CQUADX4,18347,1,17944,18193,18194,17945
CQUADX4,18348,1,17945,18194,18195,17946
CQUADX4,18349,1,17946,18195,18196,17947
CQUADX4,18350,1,17947,18196,18197,17948
CQUADX4,18351,1,17948,18197,18198,17949
CQUADX4,18352,1,17949,18198,18199,17950
CQUADX4,18353,1,17950,18199,18200,17951
CQUADX4,18354,1,17951,18200,18201,17952
CQUADX4,18355,1,17952,18201,18202,17953
CQUADX4,18356,1,17953,18202,18203,17954
CQUADX4,18357,1,17954,18203,18204,17955
CQUADX4,18358,1,17955,18204,18205,17956
CQUADX4,18359,1,17956,18205,18206,17957
CQUADX4,18360,1,17957,18206,18207,17958
CQUADX4,18361,1,17958,18207,18208,17959
CQUADX4,18362,1,17959,18208,18209,17960
CQUADX4,18363,1,17960,18209,18210,17961
CQUADX4,18364,1,17961,18210,18211,17962
CQUADX4,18365,1,17962,18211,18212,17963
CQUADX4,18366,1,17963,18212,18213,17964
CQUADX4,18367,1,17964,18213,18214,17965
CQUADX4,18368,1,17965,18214,18215,17966
CQUADX4,18369,1,17966,18215,18216,17967
CQUADX4,18370,1,17967,18216,18217,17968
CQUADX4,18371,1,17968,18217,18218,17969
CQUADX4,18372,1,17969,18218,18219,17970
CQUADX4,18373,1,17970,18219,18220,17971
CQUADX4,18374,1,17971,18220,18221,17972
CQUADX4,18375,1,17972,18221,18222,17973
CQUADX4,18376,1,17973,18222,18223,17974
CQUADX4,18377,1,17974,18223,18224,17975
CQUADX4,18378,1,17975,18224,18225,17976
CQUADX4,18379,1,17976,18225,18226,17977
CQUADX4,18380,1,17977,18226,18227,17978
CQUADX4,18381,1,17978,18227,18228,17979
CQUADX4,18382,1,17979,18228,18229,17980
CQUADX4,18383,1,17980,18229,18230,17981
CQUADX4,18384,1,17981,18230,18231,17982
CQUADX4,18385,1,17982,18231,18232,17983
CQUADX4,18386,1,17983,18232,18233,17984
CQUADX4,18387,1,17984,18233,18234,17985
CQUADX4,18388,1,17985,18234,18235,17986
CQUADX4,18389,1,17986,18235,18236,17987
CQUADX4,18390,1,17987,18236,18237,17988
CQUADX4,18391,1,17988,18237,18238,17989
CQUADX4,18392,1,17989,18238,18239,17990
CQUADX4,18393,1,17990,18239,18240,17991
CQUADX4,18394,1,17991,18240,18241,17992
CQUADX4,18395,1,17992,18241,18242,17993
CQUADX4,18396,1,17993,18242,18243,17994
CQUADX4,18397,1,17994,18243,18244,17995
CQUADX4,18398,1,17995,18244,18245,17996
CQUADX4,18399,1,17996,18245,18246,17997
CQUADX4,18400,1,17997,18246,18247,17998
CQUADX4,18401,1,17998,18247,18248,17999
CQUADX4,18402,1,17999,18248,18249,18000
CQUADX4,18403,1,18000,18249,18250,18001
CQUADX4,18404,1,18001,18250,18251,18002
CQUADX4,18405,1,18002,18251,18252,18003
CQUADX4,18406,1,18003,18252,18253,18004
CQUADX4,18407,1,18004,18253,18254,18005
CQUADX4,18408,1,18005,18254,18255,18006
CQUADX4,18409,1,18006,18255,18256,18007
CQUADX4,18410,1,18007,18256,18257,18008
CQUADX4,18411,1,18008,18257,18258,18009
CQUADX4,18412,1,18009,18258,18259,18010
CQUADX4,18413,1,18010,18259,18260,18011
CQUADX4,18414,1,18011,18260,18261,18012
CQUADX4,18415,1,18012,18261,18262,18013
CQUADX4,18416,1,18013,18262,18263,18014
CQUADX4,18417,1,18014,18263,18264,18015
CQUADX4,18418,1,18015,18264,18265,18016
CQUADX4,18419,1,18016,18265,18266,18017
CQUADX4,18420,1,18017,18266,18267,18018
CQUADX4,18421,1,18018,18267,18268,18019
CQUADX4,18422,1,18019,18268,18269,18020
CQUADX4,18423,1,18020,18269,18270,18021
CQUADX4,18424,1,18021,18270,18271,18022
CQUADX4,18425,1,18022,18271,18272,18023
CQUADX4,18426,1,18023,18272,18273,18024
CQUADX4,18427,1,18024,18273,18274,18025
CQUADX4,18428,1,18025,18274,18275,18026
CQUADX4,18429,1,18026,18275,18276,18027
CQUADX4,18430,1,18027,18276,18277,18028
CQUADX4,18431,1,18028,18277,18278,18029
CQUADX4,18432,1,18029,18278,18279,18030
CQUADX4,18433,1,18030,18279,18280,18031
CQUADX4,18434,1,18031,18280,18281,18032
CQUADX4,18435,1,18032,18281,18282,18033
CQUADX4,18436,1,18033,18282,18283,18034
CQUADX4,18437,1,18034,18283,18284,18035
CQUADX4,18438,1,18035,18284,18285,18036
CQUADX4,18439,1,18036,18285,18286,18037
CQUADX4,18440,1,18037,18286,18287,18038
CQUADX4,18441,1,18038,18287,18288,18039
CQUADX4,18442,1,18039,18288,18289,18040
CQUADX4,18443,1,18040,18289,18290,18041
CQUADX4,18444,1,18041,18290,18291,18042
CQUADX4,18445,1,18042,18291,18292,18043
CQUADX4,18446,1,18043,18292,18293,18044
CQUADX4,18447,1,18044,18293,18294,18045
CQUADX4,18448,1,18045,18294,18295,18046
CQUADX4,18449,1,18046,18295,18296,18047
CQUADX4,18450,1,18047,18296,18297,18048
CQUADX4,18451,1,18048,18297,18298,18049
CQUADX4,18452,1,18049,18298,18299,18050
CQUADX4,18453,1,18050,18299,18300,18051
CQUADX4,18454,1,18051,18300,18301,18052
CQUADX4,18455,1,18052,18301,18302,18053
CQUADX4,18456,1,18053,18302,18303,18054
CQUADX4,18457,1,18054,18303,18304,18055
CQUADX4,18458,1,18055,18304,18305,18056
CQUADX4,18459,1,18056,18305,18306,18057
CQUADX4,18460,1,18057,18306,18307,18058
CQUADX4,18461,1,18058,18307,18308,18059
CQUADX4,18462,1,18059,18308,18309,18060
CQUADX4,18463,1,18060,18309,18310,18061
CQUADX4,18464,1,18061,18310,18311,18062
CQUADX4,18465,1,18063,18312,18313,18064
CQUADX4,18466,1,18064,18313,18314,18065
CQUADX4,18467,1,18065,18314,18315,18066
CQUADX4,18468,1,18066,18315,18316,18067
CQUADX4,18469,1,18067,18316,18317,18068
CQUADX4,18470,1,18068,18317,18318,18069
CQUADX4,18471,1,18069,18318,18319,18070
CQUADX4,18472,1,18070,18319,18320,18071
CQUADX4,18473,1,18071,18320,18321,18072
CQUADX4,18474,1,18072,18321,18322,18073
CQUADX4,18475,1,18073,18322,18323,18074
CQUADX4,18476,1,18074,18323,18324,18075
CQUADX4,18477,1,18075,18324,18325,18076
CQUADX4,18478,1,18076,18325,18326,18077
CQUADX4,18479,1,18077,18326,18327,18078
CQUADX4,18480,1,18078,18327,18328,18079
CQUADX4,18481,1,18079,18328,18329,18080
CQUADX4,18482,1,18080,18329,18330,18081
CQUADX4,18483,1,18081,18330,18331,18082
CQUADX4,18484,1,18082,18331,18332,18083
CQUADX4,18485,1,18083,18332,18333,18084
CQUADX4,18486,1,18084,18333,18334,18085
CQUADX4,18487,1,18085,18334,18335,18086
CQUADX4,18488,1,18086,18335,18336,18087
CQUADX4,18489,1,18087,18336,18337,18088
CQUADX4,18490,1,18088,18337,18338,18089
CQUADX4,18491,1,18089,18338,18339,18090
CQUADX4,18492,1,18090,18339,18340,18091
CQUADX4,18493,1,18091,18340,18341,18092
CQUADX4,18494,1,18092,18341,18342,18093
CQUADX4,18495,1,18093,18342,18343,18094
CQUADX4,18496,1,18094,18343,18344,18095
CQUADX4,18497,1,18095,18344,18345,18096
CQUADX4,18498,1,18096,18345,18346,18097
CQUADX4,18499,1,18097,18346,18347,18098
CQUADX4,18500,1,18098,18347,18348,18099
CQUADX4,18501,1,18099,18348,18349,18100
CQUADX4,18502,1,18100,18349,18350,18101
CQUADX4,18503,1,18101,18350,18351,18102
CQUADX4,18504,1,18102,18351,18352,18103
CQUADX4,18505,1,18103,18352,18353,18104
CQUADX4,18506,1,18104,18353,18354,18105
CQUADX4,18507,1,18105,18354,18355,18106
CQUADX4,18508,1,18106,18355,18356,18107
CQUADX4,18509,1,18107,18356,18357,18108
CQUADX4,18510,1,18108,18357,18358,18109
CQUADX4,18511,1,18109,18358,18359,18110
CQUADX4,18512,1,18110,18359,18360,18111
CQUADX4,18513,1,18111,18360,18361,18112
CQUADX4,18514,1,18112,18361,18362,18113
CQUADX4,18515,1,18113,18362,18363,18114
CQUADX4,18516,1,18114,18363,18364,18115
CQUADX4,18517,1,18115,18364,18365,18116
CQUADX4,18518,1,18116,18365,18366,18117
CQUADX4,18519,1,18117,18366,18367,18118
CQUADX4,18520,1,18118,18367,18368,18119
CQUADX4,18521,1,18119,18368,18369,18120
CQUADX4,18522,1,18120,18369,18370,18121
CQUADX4,18523,1,18121,18370,18371,18122
CQUADX4,18524,1,18122,18371,18372,18123
CQUADX4,18525,1,18123,18372,18373,18124
CQUADX4,18526,1,18124,18373,18374,18125
CQUADX4,18527,1,18125,18374,18375,18126
CQUADX4,18528,1,18126,18375,18376,18127
CQUADX4,18529,1,18127,18376,18377,18128
CQUADX4,18530,1,18128,18377,18378,18129
CQUADX4,18531,1,18129,18378,18379,18130
CQUADX4,18532,1,18130,18379,18380,18131
CQUADX4,18533,1,18131,18380,18381,18132
CQUADX4,18534,1,18132,18381,18382,18133
CQUADX4,18535,1,18133,18382,18383,18134
CQUADX4,18536,1,18134,18383,18384,18135
CQUADX4,18537,1,18135,18384,18385,18136
CQUADX4,18538,1,18136,18385,18386,18137
CQUADX4,18539,1,18137,18386,18387,18138
CQUADX4,18540,1,18138,18387,18388,18139
CQUADX4,18541,1,18139,18388,18389,18140
CQUADX4,18542,1,18140,18389,18390,18141
CQUADX4,18543,1,18141,18390,18391,18142
CQUADX4,18544,1,18142,18391,18392,18143
CQUADX4,18545,1,18143,18392,18393,18144
CQUADX4,18546,1,18144,18393,18394,18145
CQUADX4,18547,1,18145,18394,18395,18146
CQUADX4,18548,1,18146,18395,18396,18147
CQUADX4,18549,1,18147,18396,18397,18148
CQUADX4,18550,1,18148,18397,18398,18149
CQUADX4,18551,1,18149,18398,18399,18150
CQUADX4,18552,1,18150,18399,18400,18151
CQUADX4,18553,1,18151,18400,18401,18152
CQUADX4,18554,1,18152,18401,18402,18153
CQUADX4,18555,1,18153,18402,18403,18154
CQUADX4,18556,1,18154,18403,18404,18155
CQUADX4,18557,1,18155,18404,18405,18156
CQUADX4,18558,1,18156,18405,18406,18157
CQUADX4,18559,1,18157,18406,18407,18158
CQUADX4,18560,1,18158,18407,18408,18159
CQUADX4,18561,1,18159,18408,18409,18160
CQUADX4,18562,1,18160,18409,18410,18161
CQUADX4,18563,1,18161,18410,18411,18162
CQUADX4,18564,1,18162,18411,18412,18163
CQUADX4,18565,1,18163,18412,18413,18164
CQUADX4,18566,1,18164,18413,18414,18165
CQUADX4,18567,1,18165,18414,18415,18166
CQUADX4,18568,1,18166,18415,18416,18167
CQUADX4,18569,1,18167,18416,18417,18168
CQUADX4,18570,1,18168,18417,18418,18169
CQUADX4,18571,1,18169,18418,18419,18170
CQUADX4,18572,1,18170,18419,18420,18171
CQUADX4,18573,1,18171,18420,18421,18172
CQUADX4,18574,1,18172,18421,18422,18173
CQUADX4,18575,1,18173,18422,18423,18174
CQUADX4,18576,1,18174,18423,18424,18175
CQUADX4,18577,1,18175,18424,18425,18176
CQUADX4,18578,1,18176,18425,18426,18177
CQUADX4,18579,1,18177,18426,18427,18178
CQUADX4,18580,1,18178,18427,18428,18179
CQUADX4,18581,1,18179,18428,18429,18180
CQUADX4,18582,1,18180,18429,18430,18181
CQUADX4,18583,1,18181,18430,18431,18182
CQUADX4,18584,1,18182,18431,18432,18183
CQUADX4,18585,1,18183,18432,18433,18184
CQUADX4,18586,1,18184,18433,18434,18185
CQUADX4,18587,1,18185,18434,18435,18186
CQUADX4,18588,1,18186,18435,18436,18187
CQUADX4,18589,1,18187,18436,18437,18188
CQUADX4,18590,1,18188,18437,18438,18189
CQUADX4,18591,1,18189,18438,18439,18190
CQUADX4,18592,1,18190,18439,18440,18191
CQUADX4,18593,1,18191,18440,18441,18192
CQUADX4,18594,1,18192,18441,18442,18193
CQUADX4,18595,1,18193,18442,18443,18194
CQUADX4,18596,1,18194,18443,18444,18195
CQUADX4,18597,1,18195,18444,18445,18196
CQUADX4,18598,1,18196,18445,18446,18197
CQUADX4,18599,1,18197,18446,18447,18198
CQUADX4,18600,1,18198,18447,18448,18199
CQUADX4,18601,1,18199,18448,18449,18200
CQUADX4,18602,1,18200,18449,18450,18201
CQUADX4,18603,1,18201,18450,18451,18202
CQUADX4,18604,1,18202,18451,18452,18203
CQUADX4,18605,1,18203,18452,18453,18204
CQUADX4,18606,1,18204,18453,18454,18205
CQUADX4,18607,1,18205,18454,18455,18206
CQUADX4,18608,1,18206,18455,18456,18207
CQUADX4,18609,1,18207,18456,18457,18208
CQUADX4,18610,1,18208,18457,18458,18209
CQUADX4,18611,1,18209,18458,18459,18210
CQUADX4,18612,1,18210,18459,18460,18211
CQUADX4,18613,1,18211,18460,18461,18212
CQUADX4,18614,1,18212,18461,18462,18213
CQUADX4,18615,1,18213,18462,18463,18214
CQUADX4,18616,1,18214,18463,18464,18215
CQUADX4,18617,1,18215,18464,18465,18216
CQUADX4,18618,1,18216,18465,18466,18217
CQUADX4,18619,1,18217,18466,18467,18218
CQUADX4,18620,1,18218,18467,18468,18219
CQUADX4,18621,1,18219,18468,18469,18220
CQUADX4,18622,1,18220,18469,18470,18221
CQUADX4,18623,1,18221,18470,18471,18222
CQUADX4,18624,1,18222,18471,18472,18223
CQUADX4,18625,1,18223,18472,18473,18224
CQUADX4,18626,1,18224,18473,18474,18225
CQUADX4,18627,1,18225,18474,18475,18226
CQUADX4,18628,1,18226,18475,18476,18227
CQUADX4,18629,1,18227,18476,18477,18228
CQUADX4,18630,1,18228,18477,18478,18229
CQUADX4,18631,1,18229,18478,18479,18230
CQUADX4,18632,1,18230,18479,18480,18231
CQUADX4,18633,1,18231,18480,18481,18232
CQUADX4,18634,1,18232,18481,18482,18233
CQUADX4,18635,1,18233,18482,18483,18234
CQUADX4,18636,1,18234,18483,18484,18235
CQUADX4,18637,1,18235,18484,18485,18236
CQUADX4,18638,1,18236,18485,18486,18237
CQUADX4,18639,1,18237,18486,18487,18238
CQUADX4,18640,1,18238,18487,18488,18239
CQUADX4,18641,1,18239,18488,18489,18240
CQUADX4,18642,1,18240,18489,18490,18241
CQUADX4,18643,1,18241,18490,18491,18242
CQUADX4,18644,1,18242,18491,18492,18243
CQUADX4,18645,1,18243,18492,18493,18244
CQUADX4,18646,1,18244,18493,18494,18245
CQUADX4,18647,1,18245,18494,18495,18246
CQUADX4,18648,1,18246,18495,18496,18247
CQUADX4,18649,1,18247,18496,18497,18248
CQUADX4,18650,1,18248,18497,18498,18249
CQUADX4,18651,1,18249,18498,18499,18250
CQUADX4,18652,1,18250,18499,18500,18251
CQUADX4,18653,1,18251,18500,18501,18252
CQUADX4,18654,1,18252,18501,18502,18253
CQUADX4,18655,1,18253,18502,18503,18254
CQUADX4,18656,1,18254,18503,18504,18255
CQUADX4,18657,1,18255,18504,18505,18256
CQUADX4,18658,1,18256,18505,18506,18257
CQUADX4,18659,1,18257,18506,18507,18258
CQUADX4,18660,1,18258,18507,18508,18259
CQUADX4,18661,1,18259,18508,18509,18260
CQUADX4,18662,1,18260,18509,18510,18261
CQUADX4,18663,1,18261,18510,18511,18262
CQUADX4,18664,1,18262,18511,18512,18263
CQUADX4,18665,1,18263,18512,18513,18264
CQUADX4,18666,1,18264,18513,18514,18265
CQUADX4,18667,1,18265,18514,18515,18266
CQUADX4,18668,1,18266,18515,18516,18267
CQUADX4,18669,1,18267,18516,18517,18268
CQUADX4,18670,1,18268,18517,18518,18269
CQUADX4,18671,1,18269,18518,18519,18270
CQUADX4,18672,1,18270,18519,18520,18271
CQUADX4,18673,1,18271,18520,18521,18272
CQUADX4,18674,1,18272,18521,18522,18273
CQUADX4,18675,1,18273,18522,18523,18274
CQUADX4,18676,1,18274,18523,18524,18275
CQUADX4,18677,1,18275,18524,18525,18276
CQUADX4,18678,1,18276,18525,18526,18277
CQUADX4,18679,1,18277,18526,18527,18278
CQUADX4,18680,1,18278,18527,18528,18279
CQUADX4,18681,1,18279,18528,18529,18280
CQUADX4,18682,1,18280,18529,18530,18281
CQUADX4,18683,1,18281,18530,18531,18282
CQUADX4,18684,1,18282,18531,18532,18283
CQUADX4,18685,1,18283,18532,18533,18284
CQUADX4,18686,1,18284,18533,18534,18285
CQUADX4,18687,1,18285,18534,18535,18286
CQUADX4,18688,1,18286,18535,18536,18287
CQUADX4,18689,1,18287,18536,18537,18288
CQUADX4,18690,1,18288,18537,18538,18289
CQUADX4,18691,1,18289,18538,18539,18290
CQUADX4,18692,1,18290,18539,18540,18291
CQUADX4,18693,1,18291,18540,18541,18292
CQUADX4,18694,1,18292,18541,18542,18293
CQUADX4,18695,1,18293,18542,18543,18294
CQUADX4,18696,1,18294,18543,18544,18295
CQUADX4,18697,1,18295,18544,18545,18296
CQUADX4,18698,1,18296,18545,18546,18297
CQUADX4,18699,1,18297,18546,18547,18298
CQUADX4,18700,1,18298,18547,18548,18299
CQUADX4,18701,1,18299,18548,18549,18300
CQUADX4,18702,1,18300,18549,18550,18301
CQUADX4,18703,1,18301,18550,18551,18302
CQUADX4,18704,1,18302,18551,18552,18303
CQUADX4,18705,1,18303,18552,18553,18304
CQUADX4,18706,1,18304,18553,18554,18305
CQUADX4,18707,1,18305,18554,18555,18306
CQUADX4,18708,1,18306,18555,18556,18307
CQUADX4,18709,1,18307,18556,18557,18308
CQUADX4,18710,1,18308,18557,18558,18309
CQUADX4,18711,1,18309,18558,18559,18310
CQUADX4,18712,1,18310,18559,18560,18311
CQUADX4,18713,1,18312,18561,18562,18313
CQUADX4,18714,1,18313,18562,18563,18314
CQUADX4,18715,1,18314,18563,18564,18315
CQUADX4,18716,1,18315,18564,18565,18316
CQUADX4,18717,1,18316,18565,18566,18317
CQUADX4,18718,1,18317,18566,18567,18318
CQUADX4,18719,1,18318,18567,18568,18319
CQUADX4,18720,1,18319,18568,18569,18320
CQUADX4,18721,1,18320,18569,18570,18321
CQUADX4,18722,1,18321,18570,18571,18322
CQUADX4,18723,1,18322,18571,18572,18323
CQUADX4,18724,1,18323,18572,18573,18324
CQUADX4,18725,1,18324,18573,18574,18325
CQUADX4,18726,1,18325,18574,18575,18326
CQUADX4,18727,1,18326,18575,18576,18327
CQUADX4,18728,1,18327,18576,18577,18328
CQUADX4,18729,1,18328,18577,18578,18329
CQUADX4,18730,1,18329,18578,18579,18330
CQUADX4,18731,1,18330,18579,18580,18331
CQUADX4,18732,1,18331,18580,18581,18332
CQUADX4,18733,1,18332,18581,18582,18333
CQUADX4,18734,1,18333,18582,18583,18334
CQUADX4,18735,1,18334,18583,18584,18335
CQUADX4,18736,1,18335,18584,18585,18336
CQUADX4,18737,1,18336,18585,18586,18337
CQUADX4,18738,1,18337,18586,18587,18338
CQUADX4,18739,1,18338,18587,18588,18339
CQUADX4,18740,1,18339,18588,18589,18340
CQUADX4,18741,1,18340,18589,18590,18341
CQUADX4,18742,1,18341,18590,18591,18342
CQUADX4,18743,1,18342,18591,18592,18343
CQUADX4,18744,1,18343,18592,18593,18344
CQUADX4,18745,1,18344,18593,18594,18345
CQUADX4,18746,1,18345,18594,18595,18346
CQUADX4,18747,1,18346,18595,18596,18347
CQUADX4,18748,1,18347,18596,18597,18348
CQUADX4,18749,1,18348,18597,18598,18349
CQUADX4,18750,1,18349,18598,18599,18350
CQUADX4,18751,1,18350,18599,18600,18351
CQUADX4,18752,1,18351,18600,18601,18352
CQUADX4,18753,1,18352,18601,18602,18353
CQUADX4,18754,1,18353,18602,18603,18354
CQUADX4,18755,1,18354,18603,18604,18355
CQUADX4,18756,1,18355,18604,18605,18356
CQUADX4,18757,1,18356,18605,18606,18357
CQUADX4,18758,1,18357,18606,18607,18358
CQUADX4,18759,1,18358,18607,18608,18359
CQUADX4,18760,1,18359,18608,18609,18360
CQUADX4,18761,1,18360,18609,18610,18361
CQUADX4,18762,1,18361,18610,18611,18362
CQUADX4,18763,1,18362,18611,18612,18363
CQUADX4,18764,1,18363,18612,18613,18364
CQUADX4,18765,1,18364,18613,18614,18365
CQUADX4,18766,1,18365,18614,18615,18366
CQUADX4,18767,1,18366,18615,18616,18367
CQUADX4,18768,1,18367,18616,18617,18368
CQUADX4,18769,1,18368,18617,18618,18369
CQUADX4,18770,1,18369,18618,18619,18370
CQUADX4,18771,1,18370,18619,18620,18371
CQUADX4,18772,1,18371,18620,18621,18372
CQUADX4,18773,1,18372,18621,18622,18373
CQUADX4,18774,1,18373,18622,18623,18374
CQUADX4,18775,1,18374,18623,18624,18375
CQUADX4,18776,1,18375,18624,18625,18376
CQUADX4,18777,1,18376,18625,18626,18377
CQUADX4,18778,1,18377,18626,18627,18378
CQUADX4,18779,1,18378,18627,18628,18379
CQUADX4,18780,1,18379,18628,18629,18380
CQUADX4,18781,1,18380,18629,18630,18381
CQUADX4,18782,1,18381,18630,18631,18382
CQUADX4,18783,1,18382,18631,18632,18383
CQUADX4,18784,1,18383,18632,18633,18384
CQUADX4,18785,1,18384,18633,18634,18385
CQUADX4,18786,1,18385,18634,18635,18386
CQUADX4,18787,1,18386,18635,18636,18387
CQUADX4,18788,1,18387,18636,18637,18388
CQUADX4,18789,1,18388,18637,18638,18389
CQUADX4,18790,1,18389,18638,18639,18390
CQUADX4,18791,1,18390,18639,18640,18391
CQUADX4,18792,1,18391,18640,18641,18392
CQUADX4,18793,1,18392,18641,18642,18393
CQUADX4,18794,1,18393,18642,18643,18394
CQUADX4,18795,1,18394,18643,18644,18395
CQUADX4,18796,1,18395,18644,18645,18396
CQUADX4,18797,1,18396,18645,18646,18397
CQUADX4,18798,1,18397,18646,18647,18398
CQUADX4,18799,1,18398,18647,18648,18399
CQUADX4,18800,1,18399,18648,18649,18400
CQUADX4,18801,1,18400,18649,18650,18401
CQUADX4,18802,1,18401,18650,18651,18402
CQUADX4,18803,1,18402,18651,18652,18403
CQUADX4,18804,1,18403,18652,18653,18404
CQUADX4,18805,1,18404,18653,18654,18405
CQUADX4,18806,1,18405,18654,18655,18406
CQUADX4,18807,1,18406,18655,18656,18407
CQUADX4,18808,1,18407,18656,18657,18408
CQUADX4,18809,1,18408,18657,18658,18409
CQUADX4,18810,1,18409,18658,18659,18410
CQUADX4,18811,1,18410,18659,18660,18411
CQUADX4,18812,1,18411,18660,18661,18412
CQUADX4,18813,1,18412,18661,18662,18413
CQUADX4,18814,1,18413,18662,18663,18414
CQUADX4,18815,1,18414,18663,18664,18415
CQUADX4,18816,1,18415,18664,18665,18416
CQUADX4,18817,1,18416,18665,18666,18417
CQUADX4,18818,1,18417,18666,18667,18418
CQUADX4,18819,1,18418,18667,18668,18419
CQUADX4,18820,1,18419,18668,18669,18420
CQUADX4,18821,1,18420,18669,18670,18421
CQUADX4,18822,1,18421,18670,18671,18422
CQUADX4,18823,1,18422,18671,18672,18423
CQUADX4,18824,1,18423,18672,18673,18424
CQUADX4,18825,1,18424,18673,18674,18425
CQUADX4,18826,1,18425,18674,18675,18426
CQUADX4,18827,1,18426,18675,18676,18427
CQUADX4,18828,1,18427,18676,18677,18428
CQUADX4,18829,1,18428,18677,18678,18429
CQUADX4,18830,1,18429,18678,18679,18430
CQUADX4,18831,1,18430,18679,18680,18431
CQUADX4,18832,1,18431,18680,18681,18432
CQUADX4,18833,1,18432,18681,18682,18433
CQUADX4,18834,1,18433,18682,18683,18434
CQUADX4,18835,1,18434,18683,18684,18435
CQUADX4,18836,1,18435,18684,18685,18436
CQUADX4,18837,1,18436,18685,18686,18437
CQUADX4,18838,1,18437,18686,18687,18438
CQUADX4,18839,1,18438,18687,18688,18439
CQUADX4,18840,1,18439,18688,18689,18440
CQUADX4,18841,1,18440,18689,18690,18441
CQUADX4,18842,1,18441,18690,18691,18442
CQUADX4,18843,1,18442,18691,18692,18443
CQUADX4,18844,1,18443,18692,18693,18444
CQUADX4,18845,1,18444,18693,18694,18445
CQUADX4,18846,1,18445,18694,18695,18446
CQUADX4,18847,1,18446,18695,18696,18447
CQUADX4,18848,1,18447,18696,18697,18448
CQUADX4,18849,1,18448,18697,18698,18449
CQUADX4,18850,1,18449,18698,18699,18450
CQUADX4,18851,1,18450,18699,18700,18451
CQUADX4,18852,1,18451,18700,18701,18452
CQUADX4,18853,1,18452,18701,18702,18453
CQUADX4,18854,1,18453,18702,18703,18454
CQUADX4,18855,1,18454,18703,18704,18455
CQUADX4,18856,1,18455,18704,18705,18456
CQUADX4,18857,1,18456,18705,18706,18457
CQUADX4,18858,1,18457,18706,18707,18458
CQUADX4,18859,1,18458,18707,18708,18459
CQUADX4,18860,1,18459,18708,18709,18460
CQUADX4,18861,1,18460,18709,18710,18461
CQUADX4,18862,1,18461,18710,18711,18462
CQUADX4,18863,1,18462,18711,18712,18463
CQUADX4,18864,1,18463,18712,18713,18464
CQUADX4,18865,1,18464,18713,18714,18465
CQUADX4,18866,1,18465,18714,18715,18466
CQUADX4,18867,1,18466,18715,18716,18467
CQUADX4,18868,1,18467,18716,18717,18468
CQUADX4,18869,1,18468,18717,18718,18469
CQUADX4,18870,1,18469,18718,18719,18470
CQUADX4,18871,1,18470,18719,18720,18471
CQUADX4,18872,1,18471,18720,18721,18472
CQUADX4,18873,1,18472,18721,18722,18473
CQUADX4,18874,1,18473,18722,18723,18474
CQUADX4,18875,1,18474,18723,18724,18475
CQUADX4,18876,1,18475,18724,18725,18476
CQUADX4,18877,1,18476,18725,18726,18477
CQUADX4,18878,1,18477,18726,18727,18478
CQUADX4,18879,1,18478,18727,18728,18479
CQUADX4,18880,1,18479,18728,18729,18480
CQUADX4,18881,1,18480,18729,18730,18481
CQUADX4,18882,1,18481,18730,18731,18482
CQUADX4,18883,1,18482,18731,18732,18483
CQUADX4,18884,1,18483,18732,18733,18484
CQUADX4,18885,1,18484,18733,18734,18485
CQUADX4,18886,1,18485,18734,18735,18486
CQUADX4,18887,1,18486,18735,18736,18487
CQUADX4,18888,1,18487,18736,18737,18488
CQUADX4,18889,1,18488,18737,18738,18489
CQUADX4,18890,1,18489,18738,18739,18490
CQUADX4,18891,1,18490,18739,18740,18491
CQUADX4,18892,1,18491,18740,18741,18492
CQUADX4,18893,1,18492,18741,18742,18493
CQUADX4,18894,1,18493,18742,18743,18494
CQUADX4,18895,1,18494,18743,18744,18495
CQUADX4,18896,1,18495,18744,18745,18496
CQUADX4,18897,1,18496,18745,18746,18497
CQUADX4,18898,1,18497,18746,18747,18498
CQUADX4,18899,1,18498,18747,18748,18499
CQUADX4,18900,1,18499,18748,18749,18500
CQUADX4,18901,1,18500,18749,18750,18501
CQUADX4,18902,1,18501,18750,18751,18502
CQUADX4,18903,1,18502,18751,18752,18503
CQUADX4,18904,1,18503,18752,18753,18504
CQUADX4,18905,1,18504,18753,18754,18505
CQUADX4,18906,1,18505,18754,18755,18506
CQUADX4,18907,1,18506,18755,18756,18507
CQUADX4,18908,1,18507,18756,18757,18508
CQUADX4,18909,1,18508,18757,18758,18509
CQUADX4,18910,1,18509,18758,18759,18510
CQUADX4,18911,1,18510,18759,18760,18511
CQUADX4,18912,1,18511,18760,18761,18512
CQUADX4,18913,1,18512,18761,18762,18513
CQUADX4,18914,1,18513,18762,18763,18514
CQUADX4,18915,1,18514,18763,18764,18515
CQUADX4,18916,1,18515,18764,18765,18516
CQUADX4,18917,1,18516,18765,18766,18517
CQUADX4,18918,1,18517,18766,18767,18518
CQUADX4,18919,1,18518,18767,18768,18519
CQUADX4,18920,1,18519,18768,18769,18520
CQUADX4,18921,1,18520,18769,18770,18521
CQUADX4,18922,1,18521,18770,18771,18522
CQUADX4,18923,1,18522,18771,18772,18523
CQUADX4,18924,1,18523,18772,18773,18524
CQUADX4,18925,1,18524,18773,18774,18525
CQUADX4,18926,1,18525,18774,18775,18526
CQUADX4,18927,1,18526,18775,18776,18527
CQUADX4,18928,1,18527,18776,18777,18528
CQUADX4,18929,1,18528,18777,18778,18529
CQUADX4,18930,1,18529,18778,18779,18530
CQUADX4,18931,1,18530,18779,18780,18531
CQUADX4,18932,1,18531,18780,18781,18532
CQUADX4,18933,1,18532,18781,18782,18533
CQUADX4,18934,1,18533,18782,18783,18534
CQUADX4,18935,1,18534,18783,18784,18535
CQUADX4,18936,1,18535,18784,18785,18536
CQUADX4,18937,1,18536,18785,18786,18537
CQUADX4,18938,1,18537,18786,18787,18538
CQUADX4,18939,1,18538,18787,18788,18539
CQUADX4,18940,1,18539,18788,18789,18540
CQUADX4,18941,1,18540,18789,18790,18541
CQUADX4,18942,1,18541,18790,18791,18542
CQUADX4,18943,1,18542,18791,18792,18543
CQUADX4,18944,1,18543,18792,18793,18544
CQUADX4,18945,1,18544,18793,18794,18545
CQUADX4,18946,1,18545,18794,18795,18546
CQUADX4,18947,1,18546,18795,18796,18547
CQUADX4,18948,1,18547,18796,18797,18548
CQUADX4,18949,1,18548,18797,18798,18549
CQUADX4,18950,1,18549,18798,18799,18550
CQUADX4,18951,1,18550,18799,18800,18551
CQUADX4,18952,1,18551,18800,18801,18552
CQUADX4,18953,1,18552,18801,18802,18553
CQUADX4,18954,1,18553,18802,18803,18554
CQUADX4,18955,1,18554,18803,18804,18555
CQUADX4,18956,1,18555,18804,18805,18556
CQUADX4,18957,1,18556,18805,18806,18557
CQUADX4,18958,1,18557,18806,18807,18558
CQUADX4,18959,1,18558,18807,18808,18559
CQUADX4,18960,1,18559,18808,18809,18560
CQUADX4,18961,1,18561,18810,18811,18562
CQUADX4,18962,1,18562,18811,18812,18563
CQUADX4,18963,1,18563,18812,18813,18564
CQUADX4,18964,1,18564,18813,18814,18565
CQUADX4,18965,1,18565,18814,18815,18566
CQUADX4,18966,1,18566,18815,18816,18567
CQUADX4,18967,1,18567,18816,18817,18568
CQUADX4,18968,1,18568,18817,18818,18569
CQUADX4,18969,1,18569,18818,18819,18570
CQUADX4,18970,1,18570,18819,18820,18571
CQUADX4,18971,1,18571,18820,18821,18572
CQUADX4,18972,1,18572,18821,18822,18573
CQUADX4,18973,1,18573,18822,18823,18574
CQUADX4,18974,1,18574,18823,18824,18575
CQUADX4,18975,1,18575,18824,18825,18576
CQUADX4,18976,1,18576,18825,18826,18577
CQUADX4,18977,1,18577,18826,18827,18578
CQUADX4,18978,1,18578,18827,18828,18579
CQUADX4,18979,1,18579,18828,18829,18580
CQUADX4,18980,1,18580,18829,18830,18581
CQUADX4,18981,1,18581,18830,18831,18582
CQUADX4,18982,1,18582,18831,18832,18583
CQUADX4,18983,1,18583,18832,18833,18584
CQUADX4,18984,1,18584,18833,18834,18585
CQUADX4,18985,1,18585,18834,18835,18586
CQUADX4,18986,1,18586,18835,18836,18587
CQUADX4,18987,1,18587,18836,18837,18588
CQUADX4,18988,1,18588,18837,18838,18589
CQUADX4,18989,1,18589,18838,18839,18590
CQUADX4,18990,1,18590,18839,18840,18591
CQUADX4,18991,1,18591,18840,18841,18592
CQUADX4,18992,1,18592,18841,18842,18593
CQUADX4,18993,1,18593,18842,18843,18594
CQUADX4,18994,1,18594,18843,18844,18595
CQUADX4,18995,1,18595,18844,18845,18596
CQUADX4,18996,1,18596,18845,18846,18597
CQUADX4,18997,1,18597,18846,18847,18598
CQUADX4,18998,1,18598,18847,18848,18599
CQUADX4,18999,1,18599,18848,18849,18600
CQUADX4,19000,1,18600,18849,18850,18601
CQUADX4,19001,1,18601,18850,18851,18602
CQUADX4,19002,1,18602,18851,18852,18603
CQUADX4,19003,1,18603,18852,18853,18604
CQUADX4,19004,1,18604,18853,18854,18605
CQUADX4,19005,1,18605,18854,18855,18606
CQUADX4,19006,1,18606,18855,18856,18607
CQUADX4,19007,1,18607,18856,18857,18608
CQUADX4,19008,1,18608,18857,18858,18609
CQUADX4,19009,1,18609,18858,18859,18610
CQUADX4,19010,1,18610,18859,18860,18611
CQUADX4,19011,1,18611,18860,18861,18612
CQUADX4,19012,1,18612,18861,18862,18613
CQUADX4,19013,1,18613,18862,18863,18614
CQUADX4,19014,1,18614,18863,18864,18615
CQUADX4,19015,1,18615,18864,18865,18616
CQUADX4,19016,1,18616,18865,18866,18617
CQUADX4,19017,1,18617,18866,18867,18618
CQUADX4,19018,1,18618,18867,18868,18619
CQUADX4,19019,1,18619,18868,18869,18620
CQUADX4,19020,1,18620,18869,18870,18621
CQUADX4,19021,1,18621,18870,18871,18622
CQUADX4,19022,1,18622,18871,18872,18623
CQUADX4,19023,1,18623,18872,18873,18624
CQUADX4,19024,1,18624,18873,18874,18625
CQUADX4,19025,1,18625,18874,18875,18626
CQUADX4,19026,1,18626,18875,18876,18627
CQUADX4,19027,1,18627,18876,18877,18628
CQUADX4,19028,1,18628,18877,18878,18629
CQUADX4,19029,1,18629,18878,18879,18630
CQUADX4,19030,1,18630,18879,18880,18631
CQUADX4,19031,1,18631,18880,18881,18632
CQUADX4,19032,1,18632,18881,18882,18633
CQUADX4,19033,1,18633,18882,18883,18634
CQUADX4,19034,1,18634,18883,18884,18635
CQUADX4,19035,1,18635,18884,18885,18636
CQUADX4,19036,1,18636,18885,18886,18637
CQUADX4,19037,1,18637,18886,18887,18638
CQUADX4,19038,1,18638,18887,18888,18639
CQUADX4,19039,1,18639,18888,18889,18640
CQUADX4,19040,1,18640,18889,18890,18641
CQUADX4,19041,1,18641,18890,18891,18642
CQUADX4,19042,1,18642,18891,18892,18643
CQUADX4,19043,1,18643,18892,18893,18644
CQUADX4,19044,1,18644,18893,18894,18645
CQUADX4,19045,1,18645,18894,18895,18646
CQUADX4,19046,1,18646,18895,18896,18647
CQUADX4,19047,1,18647,18896,18897,18648
CQUADX4,19048,1,18648,18897,18898,18649
CQUADX4,19049,1,18649,18898,18899,18650
CQUADX4,19050,1,18650,18899,18900,18651
CQUADX4,19051,1,18651,18900,18901,18652
CQUADX4,19052,1,18652,18901,18902,18653
CQUADX4,19053,1,18653,18902,18903,18654
CQUADX4,19054,1,18654,18903,18904,18655
CQUADX4,19055,1,18655,18904,18905,18656
CQUADX4,19056,1,18656,18905,18906,18657
CQUADX4,19057,1,18657,18906,18907,18658
CQUADX4,19058,1,18658,18907,18908,18659
CQUADX4,19059,1,18659,18908,18909,18660
CQUADX4,19060,1,18660,18909,18910,18661
CQUADX4,19061,1,18661,18910,18911,18662
CQUADX4,19062,1,18662,18911,18912,18663
CQUADX4,19063,1,18663,18912,18913,18664
CQUADX4,19064,1,18664,18913,18914,18665
CQUADX4,19065,1,18665,18914,18915,18666
CQUADX4,19066,1,18666,18915,18916,18667
CQUADX4,19067,1,18667,18916,18917,18668
CQUADX4,19068,1,18668,18917,18918,18669
CQUADX4,19069,1,18669,18918,18919,18670
CQUADX4,19070,1,18670,18919,18920,18671
CQUADX4,19071,1,18671,18920,18921,18672
CQUADX4,19072,1,18672,18921,18922,18673
CQUADX4,19073,1,18673,18922,18923,18674
CQUADX4,19074,1,18674,18923,18924,18675
CQUADX4,19075,1,18675,18924,18925,18676
CQUADX4,19076,1,18676,18925,18926,18677
CQUADX4,19077,1,18677,18926,18927,18678
CQUADX4,19078,1,18678,18927,18928,18679
CQUADX4,19079,1,18679,18928,18929,18680
CQUADX4,19080,1,18680,18929,18930,18681
CQUADX4,19081,1,18681,18930,18931,18682
CQUADX4,19082,1,18682,18931,18932,18683
CQUADX4,19083,1,18683,18932,18933,18684
CQUADX4,19084,1,18684,18933,18934,18685
CQUADX4,19085,1,18685,18934,18935,18686
CQUADX4,19086,1,18686,18935,18936,18687
CQUADX4,19087,1,18687,18936,18937,18688
CQUADX4,19088,1,18688,18937,18938,18689
CQUADX4,19089,1,18689,18938,18939,18690
CQUADX4,19090,1,18690,18939,18940,18691
CQUADX4,19091,1,18691,18940,18941,18692
CQUADX4,19092,1,18692,18941,18942,18693
CQUADX4,19093,1,18693,18942,18943,18694
CQUADX4,19094,1,18694,18943,18944,18695
CQUADX4,19095,1,18695,18944,18945,18696
CQUADX4,19096,1,18696,18945,18946,18697
CQUADX4,19097,1,18697,18946,18947,18698
CQUADX4,19098,1,18698,18947,18948,18699
CQUADX4,19099,1,18699,18948,18949,18700
CQUADX4,19100,1,18700,18949,18950,18701
CQUADX4,19101,1,18701,18950,18951,18702
CQUADX4,19102,1,18702,18951,18952,18703
CQUADX4,19103,1,18703,18952,18953,18704
CQUADX4,19104,1,18704,18953,18954,18705
CQUADX4,19105,1,18705,18954,18955,18706
CQUADX4,19106,1,18706,18955,18956,18707
CQUADX4,19107,1,18707,18956,18957,18708
CQUADX4,19108,1,18708,18957,18958,18709
CQUADX4,19109,1,18709,18958,18959,18710
CQUADX4,19110,1,18710,18959,18960,18711
CQUADX4,19111,1,18711,18960,18961,18712
CQUADX4,19112,1,18712,18961,18962,18713
CQUADX4,19113,1,18713,18962,18963,18714
CQUADX4,19114,1,18714,18963,18964,18715
CQUADX4,19115,1,18715,18964,18965,18716
CQUADX4,19116,1,18716,18965,18966,18717
CQUADX4,19117,1,18717,18966,18967,18718
CQUADX4,19118,1,18718,18967,18968,18719
CQUADX4,19119,1,18719,18968,18969,18720
CQUADX4,19120,1,18720,18969,18970,18721
CQUADX4,19121,1,18721,18970,18971,18722
CQUADX4,19122,1,18722,18971,18972,18723
CQUADX4,19123,1,18723,18972,18973,18724
CQUADX4,19124,1,18724,18973,18974,18725
CQUADX4,19125,1,18725,18974,18975,18726
CQUADX4,19126,1,18726,18975,18976,18727
CQUADX4,19127,1,18727,18976,18977,18728
CQUADX4,19128,1,18728,18977,18978,18729
CQUADX4,19129,1,18729,18978,18979,18730
CQUADX4,19130,1,18730,18979,18980,18731
CQUADX4,19131,1,18731,18980,18981,18732
CQUADX4,19132,1,18732,18981,18982,18733
CQUADX4,19133,1,18733,18982,18983,18734
CQUADX4,19134,1,18734,18983,18984,18735
CQUADX4,19135,1,18735,18984,18985,18736
CQUADX4,19136,1,18736,18985,18986,18737
CQUADX4,19137,1,18737,18986,18987,18738
CQUADX4,19138,1,18738,18987,18988,18739
CQUADX4,19139,1,18739,18988,18989,18740
CQUADX4,19140,1,18740,18989,18990,18741
CQUADX4,19141,1,18741,18990,18991,18742
CQUADX4,19142,1,18742,18991,18992,18743
CQUADX4,19143,1,18743,18992,18993,18744
CQUADX4,19144,1,18744,18993,18994,18745
CQUADX4,19145,1,18745,18994,18995,18746
CQUADX4,19146,1,18746,18995,18996,18747
CQUADX4,19147,1,18747,18996,18997,18748
CQUADX4,19148,1,18748,18997,18998,18749
CQUADX4,19149,1,18749,18998,18999,18750
CQUADX4,19150,1,18750,18999,19000,18751
CQUADX4,19151,1,18751,19000,19001,18752
CQUADX4,19152,1,18752,19001,19002,18753
CQUADX4,19153,1,18753,19002,19003,18754
CQUADX4,19154,1,18754,19003,19004,18755
CQUADX4,19155,1,18755,19004,19005,18756
CQUADX4,19156,1,18756,19005,19006,18757
CQUADX4,19157,1,18757,19006,19007,18758
CQUADX4,19158,1,18758,19007,19008,18759
CQUADX4,19159,1,18759,19008,19009,18760
CQUADX4,19160,1,18760,19009,19010,18761
CQUADX4,19161,1,18761,19010,19011,18762
CQUADX4,19162,1,18762,19011,19012,18763
CQUADX4,19163,1,18763,19012,19013,18764
CQUADX4,19164,1,18764,19013,19014,18765
CQUADX4,19165,1,18765,19014,19015,18766
CQUADX4,19166,1,18766,19015,19016,18767
CQUADX4,19167,1,18767,19016,19017,18768
CQUADX4,19168,1,18768,19017,19018,18769
CQUADX4,19169,1,18769,19018,19019,18770
CQUADX4,19170,1,18770,19019,19020,18771
CQUADX4,19171,1,18771,19020,19021,18772
CQUADX4,19172,1,18772,19021,19022,18773
CQUADX4,19173,1,18773,19022,19023,18774
CQUADX4,19174,1,18774,19023,19024,18775
CQUADX4,19175,1,18775,19024,19025,18776
CQUADX4,19176,1,18776,19025,19026,18777
CQUADX4,19177,1,18777,19026,19027,18778
CQUADX4,19178,1,18778,19027,19028,18779
CQUADX4,19179,1,18779,19028,19029,18780
CQUADX4,19180,1,18780,19029,19030,18781
CQUADX4,19181,1,18781,19030,19031,18782
CQUADX4,19182,1,18782,19031,19032,18783
CQUADX4,19183,1,18783,19032,19033,18784
CQUADX4,19184,1,18784,19033,19034,18785
CQUADX4,19185,1,18785,19034,19035,18786
CQUADX4,19186,1,18786,19035,19036,18787
CQUADX4,19187,1,18787,19036,19037,18788
CQUADX4,19188,1,18788,19037,19038,18789
CQUADX4,19189,1,18789,19038,19039,18790
CQUADX4,19190,1,18790,19039,19040,18791
CQUADX4,19191,1,18791,19040,19041,18792
CQUADX4,19192,1,18792,19041,19042,18793
CQUADX4,19193,1,18793,19042,19043,18794
CQUADX4,19194,1,18794,19043,19044,18795
CQUADX4,19195,1,18795,19044,19045,18796
CQUADX4,19196,1,18796,19045,19046,18797
CQUADX4,19197,1,18797,19046,19047,18798
CQUADX4,19198,1,18798,19047,19048,18799
CQUADX4,19199,1,18799,19048,19049,18800
CQUADX4,19200,1,18800,19049,19050,18801
CQUADX4,19201,1,18801,19050,19051,18802
CQUADX4,19202,1,18802,19051,19052,18803
CQUADX4,19203,1,18803,19052,19053,18804
CQUADX4,19204,1,18804,19053,19054,18805
CQUADX4,19205,1,18805,19054,19055,18806
CQUADX4,19206,1,18806,19055,19056,18807
CQUADX4,19207,1,18807,19056,19057,18808
CQUADX4,19208,1,18808,19057,19058,18809
CQUADX4,19209,1,18810,19059,19060,18811
CQUADX4,19210,1,18811,19060,19061,18812
CQUADX4,19211,1,18812,19061,19062,18813
CQUADX4,19212,1,18813,19062,19063,18814
CQUADX4,19213,1,18814,19063,19064,18815
CQUADX4,19214,1,18815,19064,19065,18816
CQUADX4,19215,1,18816,19065,19066,18817
CQUADX4,19216,1,18817,19066,19067,18818
CQUADX4,19217,1,18818,19067,19068,18819
CQUADX4,19218,1,18819,19068,19069,18820
CQUADX4,19219,1,18820,19069,19070,18821
CQUADX4,19220,1,18821,19070,19071,18822
CQUADX4,19221,1,18822,19071,19072,18823
CQUADX4,19222,1,18823,19072,19073,18824
CQUADX4,19223,1,18824,19073,19074,18825
CQUADX4,19224,1,18825,19074,19075,18826
CQUADX4,19225,1,18826,19075,19076,18827
CQUADX4,19226,1,18827,19076,19077,18828
CQUADX4,19227,1,18828,19077,19078,18829
CQUADX4,19228,1,18829,19078,19079,18830
CQUADX4,19229,1,18830,19079,19080,18831
CQUADX4,19230,1,18831,19080,19081,18832
CQUADX4,19231,1,18832,19081,19082,18833
CQUADX4,19232,1,18833,19082,19083,18834
CQUADX4,19233,1,18834,19083,19084,18835
CQUADX4,19234,1,18835,19084,19085,18836
CQUADX4,19235,1,18836,19085,19086,18837
CQUADX4,19236,1,18837,19086,19087,18838
CQUADX4,19237,1,18838,19087,19088,18839
CQUADX4,19238,1,18839,19088,19089,18840
CQUADX4,19239,1,18840,19089,19090,18841
CQUADX4,19240,1,18841,19090,19091,18842
CQUADX4,19241,1,18842,19091,19092,18843
CQUADX4,19242,1,18843,19092,19093,18844
CQUADX4,19243,1,18844,19093,19094,18845
CQUADX4,19244,1,18845,19094,19095,18846
CQUADX4,19245,1,18846,19095,19096,18847
CQUADX4,19246,1,18847,19096,19097,18848
CQUADX4,19247,1,18848,19097,19098,18849
CQUADX4,19248,1,18849,19098,19099,18850
CQUADX4,19249,1,18850,19099,19100,18851
CQUADX4,19250,1,18851,19100,19101,18852
CQUADX4,19251,1,18852,19101,19102,18853
CQUADX4,19252,1,18853,19102,19103,18854
CQUADX4,19253,1,18854,19103,19104,18855
CQUADX4,19254,1,18855,19104,19105,18856
CQUADX4,19255,1,18856,19105,19106,18857
CQUADX4,19256,1,18857,19106,19107,18858
CQUADX4,19257,1,18858,19107,19108,18859
CQUADX4,19258,1,18859,19108,19109,18860
CQUADX4,19259,1,18860,19109,19110,18861
CQUADX4,19260,1,18861,19110,19111,18862
CQUADX4,19261,1,18862,19111,19112,18863
CQUADX4,19262,1,18863,19112,19113,18864
CQUADX4,19263,1,18864,19113,19114,18865
CQUADX4,19264,1,18865,19114,19115,18866
CQUADX4,19265,1,18866,19115,19116,18867
CQUADX4,19266,1,18867,19116,19117,18868
CQUADX4,19267,1,18868,19117,19118,18869
CQUADX4,19268,1,18869,19118,19119,18870
CQUADX4,19269,1,18870,19119,19120,18871
CQUADX4,19270,1,18871,19120,19121,18872
CQUADX4,19271,1,18872,19121,19122,18873
CQUADX4,19272,1,18873,19122,19123,18874
CQUADX4,19273,1,18874,19123,19124,18875
CQUADX4,19274,1,18875,19124,19125,18876
CQUADX4,19275,1,18876,19125,19126,18877
CQUADX4,19276,1,18877,19126,19127,18878
CQUADX4,19277,1,18878,19127,19128,18879
CQUADX4,19278,1,18879,19128,19129,18880
CQUADX4,19279,1,18880,19129,19130,18881
CQUADX4,19280,1,18881,19130,19131,18882
CQUADX4,19281,1,18882,19131,19132,18883
CQUADX4,19282,1,18883,19132,19133,18884
CQUADX4,19283,1,18884,19133,19134,18885
CQUADX4,19284,1,18885,19134,19135,18886
CQUADX4,19285,1,18886,19135,19136,18887
CQUADX4,19286,1,18887,19136,19137,18888
CQUADX4,19287,1,18888,19137,19138,18889
CQUADX4,19288,1,18889,19138,19139,18890
CQUADX4,19289,1,18890,19139,19140,18891
CQUADX4,19290,1,18891,19140,19141,18892
CQUADX4,19291,1,18892,19141,19142,18893
CQUADX4,19292,1,18893,19142,19143,18894
CQUADX4,19293,1,18894,19143,19144,18895
CQUADX4,19294,1,18895,19144,19145,18896
CQUADX4,19295,1,18896,19145,19146,18897
CQUADX4,19296,1,18897,19146,19147,18898
CQUADX4,19297,1,18898,19147,19148,18899
CQUADX4,19298,1,18899,19148,19149,18900
CQUADX4,19299,1,18900,19149,19150,18901
CQUADX4,19300,1,18901,19150,19151,18902
CQUADX4,19301,1,18902,19151,19152,18903
CQUADX4,19302,1,18903,19152,19153,18904
CQUADX4,19303,1,18904,19153,19154,18905
CQUADX4,19304,1,18905,19154,19155,18906
CQUADX4,19305,1,18906,19155,19156,18907
CQUADX4,19306,1,18907,19156,19157,18908
CQUADX4,19307,1,18908,19157,19158,18909
CQUADX4,19308,1,18909,19158,19159,18910
CQUADX4,19309,1,18910,19159,19160,18911
CQUADX4,19310,1,18911,19160,19161,18912
CQUADX4,19311,1,18912,19161,19162,18913
CQUADX4,19312,1,18913,19162,19163,18914
CQUADX4,19313,1,18914,19163,19164,18915
CQUADX4,19314,1,18915,19164,19165,18916
CQUADX4,19315,1,18916,19165,19166,18917
CQUADX4,19316,1,18917,19166,19167,18918
CQUADX4,19317,1,18918,19167,19168,18919
CQUADX4,19318,1,18919,19168,19169,18920
CQUADX4,19319,1,18920,19169,19170,18921
CQUADX4,19320,1,18921,19170,19171,18922
CQUADX4,19321,1,18922,19171,19172,18923
CQUADX4,19322,1,18923,19172,19173,18924
CQUADX4,19323,1,18924,19173,19174,18925
CQUADX4,19324,1,18925,19174,19175,18926
CQUADX4,19325,1,18926,19175,19176,18927
CQUADX4,19326,1,18927,19176,19177,18928
CQUADX4,19327,1,18928,19177,19178,18929
CQUADX4,19328,1,18929,19178,19179,18930
CQUADX4,19329,1,18930,19179,19180,18931
CQUADX4,19330,1,18931,19180,19181,18932
CQUADX4,19331,1,18932,19181,19182,18933
CQUADX4,19332,1,18933,19182,19183,18934
CQUADX4,19333,1,18934,19183,19184,18935
CQUADX4,19334,1,18935,19184,19185,18936
CQUADX4,19335,1,18936,19185,19186,18937
CQUADX4,19336,1,18937,19186,19187,18938
CQUADX4,19337,1,18938,19187,19188,18939
CQUADX4,19338,1,18939,19188,19189,18940
CQUADX4,19339,1,18940,19189,19190,18941
CQUADX4,19340,1,18941,19190,19191,18942
CQUADX4,19341,1,18942,19191,19192,18943
CQUADX4,19342,1,18943,19192,19193,18944
CQUADX4,19343,1,18944,19193,19194,18945
CQUADX4,19344,1,18945,19194,19195,18946
CQUADX4,19345,1,18946,19195,19196,18947
CQUADX4,19346,1,18947,19196,19197,18948
CQUADX4,19347,1,18948,19197,19198,18949
CQUADX4,19348,1,18949,19198,19199,18950
CQUADX4,19349,1,18950,19199,19200,18951
CQUADX4,19350,1,18951,19200,19201,18952
CQUADX4,19351,1,18952,19201,19202,18953
CQUADX4,19352,1,18953,19202,19203,18954
CQUADX4,19353,1,18954,19203,19204,18955
CQUADX4,19354,1,18955,19204,19205,18956
CQUADX4,19355,1,18956,19205,19206,18957
CQUADX4,19356,1,18957,19206,19207,18958
CQUADX4,19357,1,18958,19207,19208,18959
CQUADX4,19358,1,18959,19208,19209,18960
CQUADX4,19359,1,18960,19209,19210,18961
CQUADX4,19360,1,18961,19210,19211,18962
CQUADX4,19361,1,18962,19211,19212,18963
CQUADX4,19362,1,18963,19212,19213,18964
CQUADX4,19363,1,18964,19213,19214,18965
CQUADX4,19364,1,18965,19214,19215,18966
CQUADX4,19365,1,18966,19215,19216,18967
CQUADX4,19366,1,18967,19216,19217,18968
CQUADX4,19367,1,18968,19217,19218,18969
CQUADX4,19368,1,18969,19218,19219,18970
CQUADX4,19369,1,18970,19219,19220,18971
CQUADX4,19370,1,18971,19220,19221,18972
CQUADX4,19371,1,18972,19221,19222,18973
CQUADX4,19372,1,18973,19222,19223,18974
CQUADX4,19373,1,18974,19223,19224,18975
CQUADX4,19374,1,18975,19224,19225,18976
CQUADX4,19375,1,18976,19225,19226,18977
CQUADX4,19376,1,18977,19226,19227,18978
CQUADX4,19377,1,18978,19227,19228,18979
CQUADX4,19378,1,18979,19228,19229,18980
CQUADX4,19379,1,18980,19229,19230,18981
CQUADX4,19380,1,18981,19230,19231,18982
CQUADX4,19381,1,18982,19231,19232,18983
CQUADX4,19382,1,18983,19232,19233,18984
CQUADX4,19383,1,18984,19233,19234,18985
CQUADX4,19384,1,18985,19234,19235,18986
CQUADX4,19385,1,18986,19235,19236,18987
CQUADX4,19386,1,18987,19236,19237,18988
CQUADX4,19387,1,18988,19237,19238,18989
CQUADX4,19388,1,18989,19238,19239,18990
CQUADX4,19389,1,18990,19239,19240,18991
CQUADX4,19390,1,18991,19240,19241,18992
CQUADX4,19391,1,18992,19241,19242,18993
CQUADX4,19392,1,18993,19242,19243,18994
CQUADX4,19393,1,18994,19243,19244,18995
CQUADX4,19394,1,18995,19244,19245,18996
CQUADX4,19395,1,18996,19245,19246,18997
CQUADX4,19396,1,18997,19246,19247,18998
CQUADX4,19397,1,18998,19247,19248,18999
CQUADX4,19398,1,18999,19248,19249,19000
CQUADX4,19399,1,19000,19249,19250,19001
CQUADX4,19400,1,19001,19250,19251,19002
CQUADX4,19401,1,19002,19251,19252,19003
CQUADX4,19402,1,19003,19252,19253,19004
CQUADX4,19403,1,19004,19253,19254,19005
CQUADX4,19404,1,19005,19254,19255,19006
CQUADX4,19405,1,19006,19255,19256,19007
CQUADX4,19406,1,19007,19256,19257,19008
CQUADX4,19407,1,19008,19257,19258,19009
CQUADX4,19408,1,19009,19258,19259,19010
CQUADX4,19409,1,19010,19259,19260,19011
CQUADX4,19410,1,19011,19260,19261,19012
CQUADX4,19411,1,19012,19261,19262,19013
CQUADX4,19412,1,19013,19262,19263,19014
CQUADX4,19413,1,19014,19263,19264,19015
CQUADX4,19414,1,19015,19264,19265,19016
CQUADX4,19415,1,19016,19265,19266,19017
CQUADX4,19416,1,19017,19266,19267,19018
CQUADX4,19417,1,19018,19267,19268,19019
CQUADX4,19418,1,19019,19268,19269,19020
CQUADX4,19419,1,19020,19269,19270,19021
CQUADX4,19420,1,19021,19270,19271,19022
CQUADX4,19421,1,19022,19271,19272,19023
CQUADX4,19422,1,19023,19272,19273,19024
CQUADX4,19423,1,19024,19273,19274,19025
CQUADX4,19424,1,19025,19274,19275,19026
CQUADX4,19425,1,19026,19275,19276,19027
CQUADX4,19426,1,19027,19276,19277,19028
CQUADX4,19427,1,19028,19277,19278,19029
CQUADX4,19428,1,19029,19278,19279,19030
CQUADX4,19429,1,19030,19279,19280,19031
CQUADX4,19430,1,19031,19280,19281,19032
CQUADX4,19431,1,19032,19281,19282,19033
CQUADX4,19432,1,19033,19282,19283,19034
CQUADX4,19433,1,19034,19283,19284,19035
CQUADX4,19434,1,19035,19284,19285,19036
CQUADX4,19435,1,19036,19285,19286,19037
CQUADX4,19436,1,19037,19286,19287,19038
CQUADX4,19437,1,19038,19287,19288,19039
CQUADX4,19438,1,19039,19288,19289,19040
CQUADX4,19439,1,19040,19289,19290,19041
CQUADX4,19440,1,19041,19290,19291,19042
CQUADX4,19441,1,19042,19291,19292,19043
CQUADX4,19442,1,19043,19292,19293,19044
CQUADX4,19443,1,19044,19293,19294,19045
CQUADX4,19444,1,19045,19294,19295,19046
CQUADX4,19445,1,19046,19295,19296,19047
CQUADX4,19446,1,19047,19296,19297,19048
CQUADX4,19447,1,19048,19297,19298,19049
CQUADX4,19448,1,19049,19298,19299,19050
CQUADX4,19449,1,19050,19299,19300,19051
CQUADX4,19450,1,19051,19300,19301,19052
CQUADX4,19451,1,19052,19301,19302,19053
CQUADX4,19452,1,19053,19302,19303,19054
CQUADX4,19453,1,19054,19303,19304,19055
CQUADX4,19454,1,19055,19304,19305,19056
CQUADX4,19455,1,19056,19305,19306,19057
CQUADX4,19456,1,19057,19306,19307,19058
CQUADX4,19457,1,19059,19308,19309,19060
CQUADX4,19458,1,19060,19309,19310,19061
CQUADX4,19459,1,19061,19310,19311,19062
CQUADX4,19460,1,19062,19311,19312,19063
CQUADX4,19461,1,19063,19312,19313,19064
CQUADX4,19462,1,19064,19313,19314,19065
CQUADX4,19463,1,19065,19314,19315,19066
CQUADX4,19464,1,19066,19315,19316,19067
CQUADX4,19465,1,19067,19316,19317,19068
CQUADX4,19466,1,19068,19317,19318,19069
CQUADX4,19467,1,19069,19318,19319,19070
CQUADX4,19468,1,19070,19319,19320,19071
CQUADX4,19469,1,19071,19320,19321,19072
CQUADX4,19470,1,19072,19321,19322,19073
CQUADX4,19471,1,19073,19322,19323,19074
CQUADX4,19472,1,19074,19323,19324,19075
CQUADX4,19473,1,19075,19324,19325,19076
CQUADX4,19474,1,19076,19325,19326,19077
CQUADX4,19475,1,19077,19326,19327,19078
CQUADX4,19476,1,19078,19327,19328,19079
CQUADX4,19477,1,19079,19328,19329,19080
CQUADX4,19478,1,19080,19329,19330,19081
CQUADX4,19479,1,19081,19330,19331,19082
CQUADX4,19480,1,19082,19331,19332,19083
CQUADX4,19481,1,19083,19332,19333,19084
CQUADX4,19482,1,19084,19333,19334,19085
CQUADX4,19483,1,19085,19334,19335,19086
CQUADX4,19484,1,19086,19335,19336,19087
CQUADX4,19485,1,19087,19336,19337,19088
CQUADX4,19486,1,19088,19337,19338,19089
CQUADX4,19487,1,19089,19338,19339,19090
CQUADX4,19488,1,19090,19339,19340,19091
CQUADX4,19489,1,19091,19340,19341,19092
CQUADX4,19490,1,19092,19341,19342,19093
CQUADX4,19491,1,19093,19342,19343,19094
CQUADX4,19492,1,19094,19343,19344,19095
CQUADX4,19493,1,19095,19344,19345,19096
CQUADX4,19494,1,19096,19345,19346,19097
CQUADX4,19495,1,19097,19346,19347,19098
CQUADX4,19496,1,19098,19347,19348,19099
CQUADX4,19497,1,19099,19348,19349,19100
CQUADX4,19498,1,19100,19349,19350,19101
CQUADX4,19499,1,19101,19350,19351,19102
CQUADX4,19500,1,19102,19351,19352,19103
CQUADX4,19501,1,19103,19352,19353,19104
CQUADX4,19502,1,19104,19353,19354,19105
CQUADX4,19503,1,19105,19354,19355,19106
CQUADX4,19504,1,19106,19355,19356,19107
CQUADX4,19505,1,19107,19356,19357,19108
CQUADX4,19506,1,19108,19357,19358,19109
CQUADX4,19507,1,19109,19358,19359,19110
CQUADX4,19508,1,19110,19359,19360,19111
CQUADX4,19509,1,19111,19360,19361,19112
CQUADX4,19510,1,19112,19361,19362,19113
CQUADX4,19511,1,19113,19362,19363,19114
CQUADX4,19512,1,19114,19363,19364,19115
CQUADX4,19513,1,19115,19364,19365,19116
CQUADX4,19514,1,19116,19365,19366,19117
CQUADX4,19515,1,19117,19366,19367,19118
CQUADX4,19516,1,19118,19367,19368,19119
CQUADX4,19517,1,19119,19368,19369,19120
CQUADX4,19518,1,19120,19369,19370,19121
CQUADX4,19519,1,19121,19370,19371,19122
CQUADX4,19520,1,19122,19371,19372,19123
CQUADX4,19521,1,19123,19372,19373,19124
CQUADX4,19522,1,19124,19373,19374,19125
CQUADX4,19523,1,19125,19374,19375,19126
CQUADX4,19524,1,19126,19375,19376,19127
CQUADX4,19525,1,19127,19376,19377,19128
CQUADX4,19526,1,19128,19377,19378,19129
CQUADX4,19527,1,19129,19378,19379,19130
CQUADX4,19528,1,19130,19379,19380,19131
CQUADX4,19529,1,19131,19380,19381,19132
CQUADX4,19530,1,19132,19381,19382,19133
CQUADX4,19531,1,19133,19382,19383,19134
CQUADX4,19532,1,19134,19383,19384,19135
CQUADX4,19533,1,19135,19384,19385,19136
CQUADX4,19534,1,19136,19385,19386,19137
CQUADX4,19535,1,19137,19386,19387,19138
CQUADX4,19536,1,19138,19387,19388,19139
CQUADX4,19537,1,19139,19388,19389,19140
CQUADX4,19538,1,19140,19389,19390,19141
CQUADX4,19539,1,19141,19390,19391,19142
CQUADX4,19540,1,19142,19391,19392,19143
CQUADX4,19541,1,19143,19392,19393,19144
CQUADX4,19542,1,19144,19393,19394,19145
CQUADX4,19543,1,19145,19394,19395,19146
CQUADX4,19544,1,19146,19395,19396,19147
CQUADX4,19545,1,19147,19396,19397,19148
CQUADX4,19546,1,19148,19397,19398,19149
CQUADX4,19547,1,19149,19398,19399,19150
CQUADX4,19548,1,19150,19399,19400,19151
CQUADX4,19549,1,19151,19400,19401,19152
CQUADX4,19550,1,19152,19401,19402,19153
CQUADX4,19551,1,19153,19402,19403,19154
CQUADX4,19552,1,19154,19403,19404,19155
CQUADX4,19553,1,19155,19404,19405,19156
CQUADX4,19554,1,19156,19405,19406,19157
CQUADX4,19555,1,19157,19406,19407,19158
CQUADX4,19556,1,19158,19407,19408,19159
CQUADX4,19557,1,19159,19408,19409,19160
CQUADX4,19558,1,19160,19409,19410,19161
CQUADX4,19559,1,19161,19410,19411,19162
CQUADX4,19560,1,19162,19411,19412,19163
CQUADX4,19561,1,19163,19412,19413,19164
CQUADX4,19562,1,19164,19413,19414,19165
CQUADX4,19563,1,19165,19414,19415,19166
CQUADX4,19564,1,19166,19415,19416,19167
CQUADX4,19565,1,19167,19416,19417,19168
CQUADX4,19566,1,19168,19417,19418,19169
CQUADX4,19567,1,19169,19418,19419,19170
CQUADX4,19568,1,19170,19419,19420,19171
CQUADX4,19569,1,19171,19420,19421,19172
CQUADX4,19570,1,19172,19421,19422,19173
CQUADX4,19571,1,19173,19422,19423,19174
CQUADX4,19572,1,19174,19423,19424,19175
CQUADX4,19573,1,19175,19424,19425,19176
CQUADX4,19574,1,19176,19425,19426,19177
CQUADX4,19575,1,19177,19426,19427,19178
CQUADX4,19576,1,19178,19427,19428,19179
CQUADX4,19577,1,19179,19428,19429,19180
CQUADX4,19578,1,19180,19429,19430,19181
CQUADX4,19579,1,19181,19430,19431,19182
CQUADX4,19580,1,19182,19431,19432,19183
CQUADX4,19581,1,19183,19432,19433,19184
CQUADX4,19582,1,19184,19433,19434,19185
CQUADX4,19583,1,19185,19434,19435,19186
CQUADX4,19584,1,19186,19435,19436,19187
CQUADX4,19585,1,19187,19436,19437,19188
CQUADX4,19586,1,19188,19437,19438,19189
CQUADX4,19587,1,19189,19438,19439,19190
CQUADX4,19588,1,19190,19439,19440,19191
CQUADX4,19589,1,19191,19440,19441,19192
CQUADX4,19590,1,19192,19441,19442,19193
CQUADX4,19591,1,19193,19442,19443,19194
CQUADX4,19592,1,19194,19443,19444,19195
CQUADX4,19593,1,19195,19444,19445,19196
CQUADX4,19594,1,19196,19445,19446,19197
CQUADX4,19595,1,19197,19446,19447,19198
CQUADX4,19596,1,19198,19447,19448,19199
CQUADX4,19597,1,19199,19448,19449,19200
CQUADX4,19598,1,19200,19449,19450,19201
CQUADX4,19599,1,19201,19450,19451,19202
CQUADX4,19600,1,19202,19451,19452,19203
CQUADX4,19601,1,19203,19452,19453,19204
CQUADX4,19602,1,19204,19453,19454,19205
CQUADX4,19603,1,19205,19454,19455,19206
CQUADX4,19604,1,19206,19455,19456,19207
CQUADX4,19605,1,19207,19456,19457,19208
CQUADX4,19606,1,19208,19457,19458,19209
CQUADX4,19607,1,19209,19458,19459,19210
CQUADX4,19608,1,19210,19459,19460,19211
CQUADX4,19609,1,19211,19460,19461,19212
CQUADX4,19610,1,19212,19461,19462,19213
CQUADX4,19611,1,19213,19462,19463,19214
CQUADX4,19612,1,19214,19463,19464,19215
CQUADX4,19613,1,19215,19464,19465,19216
CQUADX4,19614,1,19216,19465,19466,19217
CQUADX4,19615,1,19217,19466,19467,19218
CQUADX4,19616,1,19218,19467,19468,19219
CQUADX4,19617,1,19219,19468,19469,19220
CQUADX4,19618,1,19220,19469,19470,19221
CQUADX4,19619,1,19221,19470,19471,19222
CQUADX4,19620,1,19222,19471,19472,19223
CQUADX4,19621,1,19223,19472,19473,19224
CQUADX4,19622,1,19224,19473,19474,19225
CQUADX4,19623,1,19225,19474,19475,19226
CQUADX4,19624,1,19226,19475,19476,19227
CQUADX4,19625,1,19227,19476,19477,19228
CQUADX4,19626,1,19228,19477,19478,19229
CQUADX4,19627,1,19229,19478,19479,19230
CQUADX4,19628,1,19230,19479,19480,19231
CQUADX4,19629,1,19231,19480,19481,19232
CQUADX4,19630,1,19232,19481,19482,19233
CQUADX4,19631,1,19233,19482,19483,19234
CQUADX4,19632,1,19234,19483,19484,19235
CQUADX4,19633,1,19235,19484,19485,19236
CQUADX4,19634,1,19236,19485,19486,19237
CQUADX4,19635,1,19237,19486,19487,19238
CQUADX4,19636,1,19238,19487,19488,19239
CQUADX4,19637,1,19239,19488,19489,19240
CQUADX4,19638,1,19240,19489,19490,19241
CQUADX4,19639,1,19241,19490,19491,19242
CQUADX4,19640,1,19242,19491,19492,19243
CQUADX4,19641,1,19243,19492,19493,19244
CQUADX4,19642,1,19244,19493,19494,19245
CQUADX4,19643,1,19245,19494,19495,19246
CQUADX4,19644,1,19246,19495,19496,19247
CQUADX4,19645,1,19247,19496,19497,19248
CQUADX4,19646,1,19248,19497,19498,19249
CQUADX4,19647,1,19249,19498,19499,19250
CQUADX4,19648,1,19250,19499,19500,19251
CQUADX4,19649,1,19251,19500,19501,19252
CQUADX4,19650,1,19252,19501,19502,19253
CQUADX4,19651,1,19253,19502,19503,19254
CQUADX4,19652,1,19254,19503,19504,19255
CQUADX4,19653,1,19255,19504,19505,19256
CQUADX4,19654,1,19256,19505,19506,19257
CQUADX4,19655,1,19257,19506,19507,19258
CQUADX4,19656,1,19258,19507,19508,19259
CQUADX4,19657,1,19259,19508,19509,19260
CQUADX4,19658,1,19260,19509,19510,19261
CQUADX4,19659,1,19261,19510,19511,19262
CQUADX4,19660,1,19262,19511,19512,19263
CQUADX4,19661,1,19263,19512,19513,19264
CQUADX4,19662,1,19264,19513,19514,19265
CQUADX4,19663,1,19265,19514,19515,19266
CQUADX4,19664,1,19266,19515,19516,19267
CQUADX4,19665,1,19267,19516,19517,19268
CQUADX4,19666,1,19268,19517,19518,19269
CQUADX4,19667,1,19269,19518,19519,19270
CQUADX4,19668,1,19270,19519,19520,19271
CQUADX4,19669,1,19271,19520,19521,19272
CQUADX4,19670,1,19272,19521,19522,19273
CQUADX4,19671,1,19273,19522,19523,19274
CQUADX4,19672,1,19274,19523,19524,19275
CQUADX4,19673,1,19275,19524,19525,19276
CQUADX4,19674,1,19276,19525,19526,19277
CQUADX4,19675,1,19277,19526,19527,19278
CQUADX4,19676,1,19278,19527,19528,19279
CQUADX4,19677,1,19279,19528,19529,19280
CQUADX4,19678,1,19280,19529,19530,19281
CQUADX4,19679,1,19281,19530,19531,19282
CQUADX4,19680,1,19282,19531,19532,19283
CQUADX4,19681,1,19283,19532,19533,19284
CQUADX4,19682,1,19284,19533,19534,19285
CQUADX4,19683,1,19285,19534,19535,19286
CQUADX4,19684,1,19286,19535,19536,19287
CQUADX4,19685,1,19287,19536,19537,19288
CQUADX4,19686,1,19288,19537,19538,19289
CQUADX4,19687,1,19289,19538,19539,19290
CQUADX4,19688,1,19290,19539,19540,19291
CQUADX4,19689,1,19291,19540,19541,19292
CQUADX4,19690,1,19292,19541,19542,19293
CQUADX4,19691,1,19293,19542,19543,19294
CQUADX4,19692,1,19294,19543,19544,19295
CQUADX4,19693,1,19295,19544,19545,19296
CQUADX4,19694,1,19296,19545,19546,19297
CQUADX4,19695,1,19297,19546,19547,19298
CQUADX4,19696,1,19298,19547,19548,19299
CQUADX4,19697,1,19299,19548,19549,19300
CQUADX4,19698,1,19300,19549,19550,19301
CQUADX4,19699,1,19301,19550,19551,19302
CQUADX4,19700,1,19302,19551,19552,19303
CQUADX4,19701,1,19303,19552,19553,19304
CQUADX4,19702,1,19304,19553,19554,19305
CQUADX4,19703,1,19305,19554,19555,19306
CQUADX4,19704,1,19306,19555,19556,19307
CQUADX4,19705,1,19308,19557,19558,19309
CQUADX4,19706,1,19309,19558,19559,19310
CQUADX4,19707,1,19310,19559,19560,19311
CQUADX4,19708,1,19311,19560,19561,19312
CQUADX4,19709,1,19312,19561,19562,19313
CQUADX4,19710,1,19313,19562,19563,19314
CQUADX4,19711,1,19314,19563,19564,19315
CQUADX4,19712,1,19315,19564,19565,19316
CQUADX4,19713,1,19316,19565,19566,19317
CQUADX4,19714,1,19317,19566,19567,19318
CQUADX4,19715,1,19318,19567,19568,19319
CQUADX4,19716,1,19319,19568,19569,19320
CQUADX4,19717,1,19320,19569,19570,19321
CQUADX4,19718,1,19321,19570,19571,19322
CQUADX4,19719,1,19322,19571,19572,19323
CQUADX4,19720,1,19323,19572,19573,19324
CQUADX4,19721,1,19324,19573,19574,19325
CQUADX4,19722,1,19325,19574,19575,19326
CQUADX4,19723,1,19326,19575,19576,19327
CQUADX4,19724,1,19327,19576,19577,19328
CQUADX4,19725,1,19328,19577,19578,19329
CQUADX4,19726,1,19329,19578,19579,19330
CQUADX4,19727,1,19330,19579,19580,19331
CQUADX4,19728,1,19331,19580,19581,19332
CQUADX4,19729,1,19332,19581,19582,19333
CQUADX4,19730,1,19333,19582,19583,19334
CQUADX4,19731,1,19334,19583,19584,19335
CQUADX4,19732,1,19335,19584,19585,19336
CQUADX4,19733,1,19336,19585,19586,19337
CQUADX4,19734,1,19337,19586,19587,19338
CQUADX4,19735,1,19338,19587,19588,19339
CQUADX4,19736,1,19339,19588,19589,19340
CQUADX4,19737,1,19340,19589,19590,19341
CQUADX4,19738,1,19341,19590,19591,19342
CQUADX4,19739,1,19342,19591,19592,19343
CQUADX4,19740,1,19343,19592,19593,19344
CQUADX4,19741,1,19344,19593,19594,19345
CQUADX4,19742,1,19345,19594,19595,19346
CQUADX4,19743,1,19346,19595,19596,19347
CQUADX4,19744,1,19347,19596,19597,19348
CQUADX4,19745,1,19348,19597,19598,19349
CQUADX4,19746,1,19349,19598,19599,19350
CQUADX4,19747,1,19350,19599,19600,19351
CQUADX4,19748,1,19351,19600,19601,19352
CQUADX4,19749,1,19352,19601,19602,19353
CQUADX4,19750,1,19353,19602,19603,19354
CQUADX4,19751,1,19354,19603,19604,19355
CQUADX4,19752,1,19355,19604,19605,19356
CQUADX4,19753,1,19356,19605,19606,19357
CQUADX4,19754,1,19357,19606,19607,19358
CQUADX4,19755,1,19358,19607,19608,19359
CQUADX4,19756,1,19359,19608,19609,19360
CQUADX4,19757,1,19360,19609,19610,19361
CQUADX4,19758,1,19361,19610,19611,19362
CQUADX4,19759,1,19362,19611,19612,19363
CQUADX4,19760,1,19363,19612,19613,19364
CQUADX4,19761,1,19364,19613,19614,19365
CQUADX4,19762,1,19365,19614,19615,19366
CQUADX4,19763,1,19366,19615,19616,19367
CQUADX4,19764,1,19367,19616,19617,19368
CQUADX4,19765,1,19368,19617,19618,19369
CQUADX4,19766,1,19369,19618,19619,19370
CQUADX4,19767,1,19370,19619,19620,19371
CQUADX4,19768,1,19371,19620,19621,19372
CQUADX4,19769,1,19372,19621,19622,19373
CQUADX4,19770,1,19373,19622,19623,19374
CQUADX4,19771,1,19374,19623,19624,19375
CQUADX4,19772,1,19375,19624,19625,19376
CQUADX4,19773,1,19376,19625,19626,19377
CQUADX4,19774,1,19377,19626,19627,19378
CQUADX4,19775,1,19378,19627,19628,19379
CQUADX4,19776,1,19379,19628,19629,19380
CQUADX4,19777,1,19380,19629,19630,19381
CQUADX4,19778,1,19381,19630,19631,19382
CQUADX4,19779,1,19382,19631,19632,19383
CQUADX4,19780,1,19383,19632,19633,19384
CQUADX4,19781,1,19384,19633,19634,19385
CQUADX4,19782,1,19385,19634,19635,19386
CQUADX4,19783,1,19386,19635,19636,19387
CQUADX4,19784,1,19387,19636,19637,19388
CQUADX4,19785,1,19388,19637,19638,19389
CQUADX4,19786,1,19389,19638,19639,19390
CQUADX4,19787,1,19390,19639,19640,19391
CQUADX4,19788,1,19391,19640,19641,19392
CQUADX4,19789,1,19392,19641,19642,19393
CQUADX4,19790,1,19393,19642,19643,19394
CQUADX4,19791,1,19394,19643,19644,19395
CQUADX4,19792,1,19395,19644,19645,19396
CQUADX4,19793,1,19396,19645,19646,19397
CQUADX4,19794,1,19397,19646,19647,19398
CQUADX4,19795,1,19398,19647,19648,19399
CQUADX4,19796,1,19399,19648,19649,19400
CQUADX4,19797,1,19400,19649,19650,19401
CQUADX4,19798,1,19401,19650,19651,19402
CQUADX4,19799,1,19402,19651,19652,19403
CQUADX4,19800,1,19403,19652,19653,19404
CQUADX4,19801,1,19404,19653,19654,19405
CQUADX4,19802,1,19405,19654,19655,19406
CQUADX4,19803,1,19406,19655,19656,19407
CQUADX4,19804,1,19407,19656,19657,19408
CQUADX4,19805,1,19408,19657,19658,19409
CQUADX4,19806,1,19409,19658,19659,19410
CQUADX4,19807,1,19410,19659,19660,19411
CQUADX4,19808,1,19411,19660,19661,19412
CQUADX4,19809,1,19412,19661,19662,19413
CQUADX4,19810,1,19413,19662,19663,19414
CQUADX4,19811,1,19414,19663,19664,19415
CQUADX4,19812,1,19415,19664,19665,19416
CQUADX4,19813,1,19416,19665,19666,19417
CQUADX4,19814,1,19417,19666,19667,19418
CQUADX4,19815,1,19418,19667,19668,19419
CQUADX4,19816,1,19419,19668,19669,19420
CQUADX4,19817,1,19420,19669,19670,19421
CQUADX4,19818,1,19421,19670,19671,19422
CQUADX4,19819,1,19422,19671,19672,19423
CQUADX4,19820,1,19423,19672,19673,19424
CQUADX4,19821,1,19424,19673,19674,19425
CQUADX4,19822,1,19425,19674,19675,19426
CQUADX4,19823,1,19426,19675,19676,19427
CQUADX4,19824,1,19427,19676,19677,19428
CQUADX4,19825,1,19428,19677,19678,19429
CQUADX4,19826,1,19429,19678,19679,19430
CQUADX4,19827,1,19430,19679,19680,19431
CQUADX4,19828,1,19431,19680,19681,19432
CQUADX4,19829,1,19432,19681,19682,19433
CQUADX4,19830,1,19433,19682,19683,19434
CQUADX4,19831,1,19434,19683,19684,19435
CQUADX4,19832,1,19435,19684,19685,19436
CQUADX4,19833,1,19436,19685,19686,19437
CQUADX4,19834,1,19437,19686,19687,19438
CQUADX4,19835,1,19438,19687,19688,19439
CQUADX4,19836,1,19439,19688,19689,19440
CQUADX4,19837,1,19440,19689,19690,19441
CQUADX4,19838,1,19441,19690,19691,19442
CQUADX4,19839,1,19442,19691,19692,19443
CQUADX4,19840,1,19443,19692,19693,19444
CQUADX4,19841,1,19444,19693,19694,19445
CQUADX4,19842,1,19445,19694,19695,19446
CQUADX4,19843,1,19446,19695,19696,19447
CQUADX4,19844,1,19447,19696,19697,19448
CQUADX4,19845,1,19448,19697,19698,19449
CQUADX4,19846,1,19449,19698,19699,19450
CQUADX4,19847,1,19450,19699,19700,19451
CQUADX4,19848,1,19451,19700,19701,19452
CQUADX4,19849,1,19452,19701,19702,19453
CQUADX4,19850,1,19453,19702,19703,19454
CQUADX4,19851,1,19454,19703,19704,19455
CQUADX4,19852,1,19455,19704,19705,19456
CQUADX4,19853,1,19456,19705,19706,19457
CQUADX4,19854,1,19457,19706,19707,19458
CQUADX4,19855,1,19458,19707,19708,19459
CQUADX4,19856,1,19459,19708,19709,19460
CQUADX4,19857,1,19460,19709,19710,19461
CQUADX4,19858,1,19461,19710,19711,19462
CQUADX4,19859,1,19462,19711,19712,19463
CQUADX4,19860,1,19463,19712,19713,19464
CQUADX4,19861,1,19464,19713,19714,19465
CQUADX4,19862,1,19465,19714,19715,19466
CQUADX4,19863,1,19466,19715,19716,19467
CQUADX4,19864,1,19467,19716,19717,19468
CQUADX4,19865,1,19468,19717,19718,19469
CQUADX4,19866,1,19469,19718,19719,19470
CQUADX4,19867,1,19470,19719,19720,19471
CQUADX4,19868,1,19471,19720,19721,19472
CQUADX4,19869,1,19472,19721,19722,19473
CQUADX4,19870,1,19473,19722,19723,19474
CQUADX4,19871,1,19474,19723,19724,19475
CQUADX4,19872,1,19475,19724,19725,19476
CQUADX4,19873,1,19476,19725,19726,19477
CQUADX4,19874,1,19477,19726,19727,19478
CQUADX4,19875,1,19478,19727,19728,19479
CQUADX4,19876,1,19479,19728,19729,19480
CQUADX4,19877,1,19480,19729,19730,19481
CQUADX4,19878,1,19481,19730,19731,19482
CQUADX4,19879,1,19482,19731,19732,19483
CQUADX4,19880,1,19483,19732,19733,19484
CQUADX4,19881,1,19484,19733,19734,19485
CQUADX4,19882,1,19485,19734,19735,19486
CQUADX4,19883,1,19486,19735,19736,19487
CQUADX4,19884,1,19487,19736,19737,19488
CQUADX4,19885,1,19488,19737,19738,19489
CQUADX4,19886,1,19489,19738,19739,19490
CQUADX4,19887,1,19490,19739,19740,19491
CQUADX4,19888,1,19491,19740,19741,19492
CQUADX4,19889,1,19492,19741,19742,19493
CQUADX4,19890,1,19493,19742,19743,19494
CQUADX4,19891,1,19494,19743,19744,19495
CQUADX4,19892,1,19495,19744,19745,19496
CQUADX4,19893,1,19496,19745,19746,19497
CQUADX4,19894,1,19497,19746,19747,19498
CQUADX4,19895,1,19498,19747,19748,19499
CQUADX4,19896,1,19499,19748,19749,19500
CQUADX4,19897,1,19500,19749,19750,19501
CQUADX4,19898,1,19501,19750,19751,19502
CQUADX4,19899,1,19502,19751,19752,19503
CQUADX4,19900,1,19503,19752,19753,19504
CQUADX4,19901,1,19504,19753,19754,19505
CQUADX4,19902,1,19505,19754,19755,19506
CQUADX4,19903,1,19506,19755,19756,19507
CQUADX4,19904,1,19507,19756,19757,19508
CQUADX4,19905,1,19508,19757,19758,19509
CQUADX4,19906,1,19509,19758,19759,19510
CQUADX4,19907,1,19510,19759,19760,19511
CQUADX4,19908,1,19511,19760,19761,19512
CQUADX4,19909,1,19512,19761,19762,19513
CQUADX4,19910,1,19513,19762,19763,19514
CQUADX4,19911,1,19514,19763,19764,19515
CQUADX4,19912,1,19515,19764,19765,19516
CQUADX4,19913,1,19516,19765,19766,19517
CQUADX4,19914,1,19517,19766,19767,19518
CQUADX4,19915,1,19518,19767,19768,19519
CQUADX4,19916,1,19519,19768,19769,19520
CQUADX4,19917,1,19520,19769,19770,19521
CQUADX4,19918,1,19521,19770,19771,19522
CQUADX4,19919,1,19522,19771,19772,19523
CQUADX4,19920,1,19523,19772,19773,19524
CQUADX4,19921,1,19524,19773,19774,19525
CQUADX4,19922,1,19525,19774,19775,19526
CQUADX4,19923,1,19526,19775,19776,19527
CQUADX4,19924,1,19527,19776,19777,19528
CQUADX4,19925,1,19528,19777,19778,19529
CQUADX4,19926,1,19529,19778,19779,19530
CQUADX4,19927,1,19530,19779,19780,19531
CQUADX4,19928,1,19531,19780,19781,19532
CQUADX4,19929,1,19532,19781,19782,19533
CQUADX4,19930,1,19533,19782,19783,19534
CQUADX4,19931,1,19534,19783,19784,19535
CQUADX4,19932,1,19535,19784,19785,19536
CQUADX4,19933,1,19536,19785,19786,19537
CQUADX4,19934,1,19537,19786,19787,19538
CQUADX4,19935,1,19538,19787,19788,19539
CQUADX4,19936,1,19539,19788,19789,19540
CQUADX4,19937,1,19540,19789,19790,19541
CQUADX4,19938,1,19541,19790,19791,19542
CQUADX4,19939,1,19542,19791,19792,19543
CQUADX4,19940,1,19543,19792,19793,19544
CQUADX4,19941,1,19544,19793,19794,19545
CQUADX4,19942,1,19545,19794,19795,19546
CQUADX4,19943,1,19546,19795,19796,19547
CQUADX4,19944,1,19547,19796,19797,19548
CQUADX4,19945,1,19548,19797,19798,19549
CQUADX4,19946,1,19549,19798,19799,19550
CQUADX4,19947,1,19550,19799,19800,19551
CQUADX4,19948,1,19551,19800,19801,19552
CQUADX4,19949,1,19552,19801,19802,19553
CQUADX4,19950,1,19553,19802,19803,19554
CQUADX4,19951,1,19554,19803,19804,19555
CQUADX4,19952,1,19555,19804,19805,19556
CQUADX4,19953,1,19557,19806,19807,19558
CQUADX4,19954,1,19558,19807,19808,19559
CQUADX4,19955,1,19559,19808,19809,19560
CQUADX4,19956,1,19560,19809,19810,19561
CQUADX4,19957,1,19561,19810,19811,19562
CQUADX4,19958,1,19562,19811,19812,19563
CQUADX4,19959,1,19563,19812,19813,19564
CQUADX4,19960,1,19564,19813,19814,19565
CQUADX4,19961,1,19565,19814,19815,19566
CQUADX4,19962,1,19566,19815,19816,19567
CQUADX4,19963,1,19567,19816,19817,19568
CQUADX4,19964,1,19568,19817,19818,19569
CQUADX4,19965,1,19569,19818,19819,19570
CQUADX4,19966,1,19570,19819,19820,19571
CQUADX4,19967,1,19571,19820,19821,19572
CQUADX4,19968,1,19572,19821,19822,19573
CQUADX4,19969,1,19573,19822,19823,19574
CQUADX4,19970,1,19574,19823,19824,19575
CQUADX4,19971,1,19575,19824,19825,19576
CQUADX4,19972,1,19576,19825,19826,19577
CQUADX4,19973,1,19577,19826,19827,19578
CQUADX4,19974,1,19578,19827,19828,19579
CQUADX4,19975,1,19579,19828,19829,19580
CQUADX4,19976,1,19580,19829,19830,19581
CQUADX4,19977,1,19581,19830,19831,19582
CQUADX4,19978,1,19582,19831,19832,19583
CQUADX4,19979,1,19583,19832,19833,19584
CQUADX4,19980,1,19584,19833,19834,19585
CQUADX4,19981,1,19585,19834,19835,19586
CQUADX4,19982,1,19586,19835,19836,19587
CQUADX4,19983,1,19587,19836,19837,19588
CQUADX4,19984,1,19588,19837,19838,19589
CQUADX4,19985,1,19589,19838,19839,19590
CQUADX4,19986,1,19590,19839,19840,19591
CQUADX4,19987,1,19591,19840,19841,19592
CQUADX4,19988,1,19592,19841,19842,19593
CQUADX4,19989,1,19593,19842,19843,19594
CQUADX4,19990,1,19594,19843,19844,19595
CQUADX4,19991,1,19595,19844,19845,19596
CQUADX4,19992,1,19596,19845,19846,19597
CQUADX4,19993,1,19597,19846,19847,19598
CQUADX4,19994,1,19598,19847,19848,19599
CQUADX4,19995,1,19599,19848,19849,19600
CQUADX4,19996,1,19600,19849,19850,19601
CQUADX4,19997,1,19601,19850,19851,19602
CQUADX4,19998,1,19602,19851,19852,19603
CQUADX4,19999,1,19603,19852,19853,19604
CQUADX4,20000,1,19604,19853,19854,19605
CQUADX4,20001,1,19605,19854,19855,19606
CQUADX4,20002,1,19606,19855,19856,19607
CQUADX4,20003,1,19607,19856,19857,19608
CQUADX4,20004,1,19608,19857,19858,19609
CQUADX4,20005,1,19609,19858,19859,19610
CQUADX4,20006,1,19610,19859,19860,19611
CQUADX4,20007,1,19611,19860,19861,19612
CQUADX4,20008,1,19612,19861,19862,19613
CQUADX4,20009,1,19613,19862,19863,19614
CQUADX4,20010,1,19614,19863,19864,19615
CQUADX4,20011,1,19615,19864,19865,19616
CQUADX4,20012,1,19616,19865,19866,19617
CQUADX4,20013,1,19617,19866,19867,19618
CQUADX4,20014,1,19618,19867,19868,19619
CQUADX4,20015,1,19619,19868,19869,19620
CQUADX4,20016,1,19620,19869,19870,19621
CQUADX4,20017,1,19621,19870,19871,19622
CQUADX4,20018,1,19622,19871,19872,19623
CQUADX4,20019,1,19623,19872,19873,19624
CQUADX4,20020,1,19624,19873,19874,19625
CQUADX4,20021,1,19625,19874,19875,19626
CQUADX4,20022,1,19626,19875,19876,19627
CQUADX4,20023,1,19627,19876,19877,19628
CQUADX4,20024,1,19628,19877,19878,19629
CQUADX4,20025,1,19629,19878,19879,19630
CQUADX4,20026,1,19630,19879,19880,19631
CQUADX4,20027,1,19631,19880,19881,19632
CQUADX4,20028,1,19632,19881,19882,19633
CQUADX4,20029,1,19633,19882,19883,19634
CQUADX4,20030,1,19634,19883,19884,19635
CQUADX4,20031,1,19635,19884,19885,19636
CQUADX4,20032,1,19636,19885,19886,19637
CQUADX4,20033,1,19637,19886,19887,19638
CQUADX4,20034,1,19638,19887,19888,19639
CQUADX4,20035,1,19639,19888,19889,19640
CQUADX4,20036,1,19640,19889,19890,19641
CQUADX4,20037,1,19641,19890,19891,19642
CQUADX4,20038,1,19642,19891,19892,19643
CQUADX4,20039,1,19643,19892,19893,19644
CQUADX4,20040,1,19644,19893,19894,19645
CQUADX4,20041,1,19645,19894,19895,19646
CQUADX4,20042,1,19646,19895,19896,19647
CQUADX4,20043,1,19647,19896,19897,19648
CQUADX4,20044,1,19648,19897,19898,19649
CQUADX4,20045,1,19649,19898,19899,19650
CQUADX4,20046,1,19650,19899,19900,19651
CQUADX4,20047,1,19651,19900,19901,19652
CQUADX4,20048,1,19652,19901,19902,19653
CQUADX4,20049,1,19653,19902,19903,19654
CQUADX4,20050,1,19654,19903,19904,19655
CQUADX4,20051,1,19655,19904,19905,19656
CQUADX4,20052,1,19656,19905,19906,19657
CQUADX4,20053,1,19657,19906,19907,19658
CQUADX4,20054,1,19658,19907,19908,19659
CQUADX4,20055,1,19659,19908,19909,19660
CQUADX4,20056,1,19660,19909,19910,19661
CQUADX4,20057,1,19661,19910,19911,19662
CQUADX4,20058,1,19662,19911,19912,19663
CQUADX4,20059,1,19663,19912,19913,19664
CQUADX4,20060,1,19664,19913,19914,19665
CQUADX4,20061,1,19665,19914,19915,19666
CQUADX4,20062,1,19666,19915,19916,19667
CQUADX4,20063,1,19667,19916,19917,19668
CQUADX4,20064,1,19668,19917,19918,19669
CQUADX4,20065,1,19669,19918,19919,19670
CQUADX4,20066,1,19670,19919,19920,19671
CQUADX4,20067,1,19671,19920,19921,19672
CQUADX4,20068,1,19672,19921,19922,19673
CQUADX4,20069,1,19673,19922,19923,19674
CQUADX4,20070,1,19674,19923,19924,19675
CQUADX4,20071,1,19675,19924,19925,19676
CQUADX4,20072,1,19676,19925,19926,19677
CQUADX4,20073,1,19677,19926,19927,19678
CQUADX4,20074,1,19678,19927,19928,19679
CQUADX4,20075,1,19679,19928,19929,19680
CQUADX4,20076,1,19680,19929,19930,19681
CQUADX4,20077,1,19681,19930,19931,19682
CQUADX4,20078,1,19682,19931,19932,19683
CQUADX4,20079,1,19683,19932,19933,19684
CQUADX4,20080,1,19684,19933,19934,19685
CQUADX4,20081,1,19685,19934,19935,19686
CQUADX4,20082,1,19686,19935,19936,19687
CQUADX4,20083,1,19687,19936,19937,19688
CQUADX4,20084,1,19688,19937,19938,19689
CQUADX4,20085,1,19689,19938,19939,19690
CQUADX4,20086,1,19690,19939,19940,19691
CQUADX4,20087,1,19691,19940,19941,19692
CQUADX4,20088,1,19692,19941,19942,19693
CQUADX4,20089,1,19693,19942,19943,19694
CQUADX4,20090,1,19694,19943,19944,19695
CQUADX4,20091,1,19695,19944,19945,19696
CQUADX4,20092,1,19696,19945,19946,19697
CQUADX4,20093,1,19697,19946,19947,19698
CQUADX4,20094,1,19698,19947,19948,19699
CQUADX4,20095,1,19699,19948,19949,19700
CQUADX4,20096,1,19700,19949,19950,19701
CQUADX4,20097,1,19701,19950,19951,19702
CQUADX4,20098,1,19702,19951,19952,19703
CQUADX4,20099,1,19703,19952,19953,19704
CQUADX4,20100,1,19704,19953,19954,19705
CQUADX4,20101,1,19705,19954,19955,19706
CQUADX4,20102,1,19706,19955,19956,19707
CQUADX4,20103,1,19707,19956,19957,19708
CQUADX4,20104,1,19708,19957,19958,19709
CQUADX4,20105,1,19709,19958,19959,19710
CQUADX4,20106,1,19710,19959,19960,19711
CQUADX4,20107,1,19711,19960,19961,19712
CQUADX4,20108,1,19712,19961,19962,19713
CQUADX4,20109,1,19713,19962,19963,19714
CQUADX4,20110,1,19714,19963,19964,19715
CQUADX4,20111,1,19715,19964,19965,19716
CQUADX4,20112,1,19716,19965,19966,19717
CQUADX4,20113,1,19717,19966,19967,19718
CQUADX4,20114,1,19718,19967,19968,19719
CQUADX4,20115,1,19719,19968,19969,19720
CQUADX4,20116,1,19720,19969,19970,19721
CQUADX4,20117,1,19721,19970,19971,19722
CQUADX4,20118,1,19722,19971,19972,19723
CQUADX4,20119,1,19723,19972,19973,19724
CQUADX4,20120,1,19724,19973,19974,19725
CQUADX4,20121,1,19725,19974,19975,19726
CQUADX4,20122,1,19726,19975,19976,19727
CQUADX4,20123,1,19727,19976,19977,19728
CQUADX4,20124,1,19728,19977,19978,19729
CQUADX4,20125,1,19729,19978,19979,19730
CQUADX4,20126,1,19730,19979,19980,19731
CQUADX4,20127,1,19731,19980,19981,19732
CQUADX4,20128,1,19732,19981,19982,19733
CQUADX4,20129,1,19733,19982,19983,19734
CQUADX4,20130,1,19734,19983,19984,19735
CQUADX4,20131,1,19735,19984,19985,19736
CQUADX4,20132,1,19736,19985,19986,19737
CQUADX4,20133,1,19737,19986,19987,19738
CQUADX4,20134,1,19738,19987,19988,19739
CQUADX4,20135,1,19739,19988,19989,19740
CQUADX4,20136,1,19740,19989,19990,19741
CQUADX4,20137,1,19741,19990,19991,19742
CQUADX4,20138,1,19742,19991,19992,19743
CQUADX4,20139,1,19743,19992,19993,19744
CQUADX4,20140,1,19744,19993,19994,19745
CQUADX4,20141,1,19745,19994,19995,19746
CQUADX4,20142,1,19746,19995,19996,19747
CQUADX4,20143,1,19747,19996,19997,19748
CQUADX4,20144,1,19748,19997,19998,19749
CQUADX4,20145,1,19749,19998,19999,19750
CQUADX4,20146,1,19750,19999,20000,19751
CQUADX4,20147,1,19751,20000,20001,19752
CQUADX4,20148,1,19752,20001,20002,19753
CQUADX4,20149,1,19753,20002,20003,19754
CQUADX4,20150,1,19754,20003,20004,19755
CQUADX4,20151,1,19755,20004,20005,19756
CQUADX4,20152,1,19756,20005,20006,19757
CQUADX4,20153,1,19757,20006,20007,19758
CQUADX4,20154,1,19758,20007,20008,19759
CQUADX4,20155,1,19759,20008,20009,19760
CQUADX4,20156,1,19760,20009,20010,19761
CQUADX4,20157,1,19761,20010,20011,19762
CQUADX4,20158,1,19762,20011,20012,19763
CQUADX4,20159,1,19763,20012,20013,19764
CQUADX4,20160,1,19764,20013,20014,19765
CQUADX4,20161,1,19765,20014,20015,19766
CQUADX4,20162,1,19766,20015,20016,19767
CQUADX4,20163,1,19767,20016,20017,19768
CQUADX4,20164,1,19768,20017,20018,19769
CQUADX4,20165,1,19769,20018,20019,19770
CQUADX4,20166,1,19770,20019,20020,19771
CQUADX4,20167,1,19771,20020,20021,19772
CQUADX4,20168,1,19772,20021,20022,19773
CQUADX4,20169,1,19773,20022,20023,19774
CQUADX4,20170,1,19774,20023,20024,19775
CQUADX4,20171,1,19775,20024,20025,19776
CQUADX4,20172,1,19776,20025,20026,19777
CQUADX4,20173,1,19777,20026,20027,19778
CQUADX4,20174,1,19778,20027,20028,19779
CQUADX4,20175,1,19779,20028,20029,19780
CQUADX4,20176,1,19780,20029,20030,19781
CQUADX4,20177,1,19781,20030,20031,19782
CQUADX4,20178,1,19782,20031,20032,19783
CQUADX4,20179,1,19783,20032,20033,19784
CQUADX4,20180,1,19784,20033,20034,19785
CQUADX4,20181,1,19785,20034,20035,19786
CQUADX4,20182,1,19786,20035,20036,19787
CQUADX4,20183,1,19787,20036,20037,19788
CQUADX4,20184,1,19788,20037,20038,19789
CQUADX4,20185,1,19789,20038,20039,19790
CQUADX4,20186,1,19790,20039,20040,19791
CQUADX4,20187,1,19791,20040,20041,19792
CQUADX4,20188,1,19792,20041,20042,19793
CQUADX4,20189,1,19793,20042,20043,19794
CQUADX4,20190,1,19794,20043,20044,19795
CQUADX4,20191,1,19795,20044,20045,19796
CQUADX4,20192,1,19796,20045,20046,19797
CQUADX4,20193,1,19797,20046,20047,19798
CQUADX4,20194,1,19798,20047,20048,19799
CQUADX4,20195,1,19799,20048,20049,19800
CQUADX4,20196,1,19800,20049,20050,19801
CQUADX4,20197,1,19801,20050,20051,19802
CQUADX4,20198,1,19802,20051,20052,19803
CQUADX4,20199,1,19803,20052,20053,19804
CQUADX4,20200,1,19804,20053,20054,19805
CQUADX4,20201,1,19806,20055,20056,19807
CQUADX4,20202,1,19807,20056,20057,19808
CQUADX4,20203,1,19808,20057,20058,19809
CQUADX4,20204,1,19809,20058,20059,19810
CQUADX4,20205,1,19810,20059,20060,19811
CQUADX4,20206,1,19811,20060,20061,19812
CQUADX4,20207,1,19812,20061,20062,19813
CQUADX4,20208,1,19813,20062,20063,19814
CQUADX4,20209,1,19814,20063,20064,19815
CQUADX4,20210,1,19815,20064,20065,19816
CQUADX4,20211,1,19816,20065,20066,19817
CQUADX4,20212,1,19817,20066,20067,19818
CQUADX4,20213,1,19818,20067,20068,19819
CQUADX4,20214,1,19819,20068,20069,19820
CQUADX4,20215,1,19820,20069,20070,19821
CQUADX4,20216,1,19821,20070,20071,19822
CQUADX4,20217,1,19822,20071,20072,19823
CQUADX4,20218,1,19823,20072,20073,19824
CQUADX4,20219,1,19824,20073,20074,19825
CQUADX4,20220,1,19825,20074,20075,19826
CQUADX4,20221,1,19826,20075,20076,19827
CQUADX4,20222,1,19827,20076,20077,19828
CQUADX4,20223,1,19828,20077,20078,19829
CQUADX4,20224,1,19829,20078,20079,19830
CQUADX4,20225,1,19830,20079,20080,19831
CQUADX4,20226,1,19831,20080,20081,19832
CQUADX4,20227,1,19832,20081,20082,19833
CQUADX4,20228,1,19833,20082,20083,19834
CQUADX4,20229,1,19834,20083,20084,19835
CQUADX4,20230,1,19835,20084,20085,19836
CQUADX4,20231,1,19836,20085,20086,19837
CQUADX4,20232,1,19837,20086,20087,19838
CQUADX4,20233,1,19838,20087,20088,19839
CQUADX4,20234,1,19839,20088,20089,19840
CQUADX4,20235,1,19840,20089,20090,19841
CQUADX4,20236,1,19841,20090,20091,19842
CQUADX4,20237,1,19842,20091,20092,19843
CQUADX4,20238,1,19843,20092,20093,19844
CQUADX4,20239,1,19844,20093,20094,19845
CQUADX4,20240,1,19845,20094,20095,19846
CQUADX4,20241,1,19846,20095,20096,19847
CQUADX4,20242,1,19847,20096,20097,19848
CQUADX4,20243,1,19848,20097,20098,19849
CQUADX4,20244,1,19849,20098,20099,19850
CQUADX4,20245,1,19850,20099,20100,19851
CQUADX4,20246,1,19851,20100,20101,19852
CQUADX4,20247,1,19852,20101,20102,19853
CQUADX4,20248,1,19853,20102,20103,19854
CQUADX4,20249,1,19854,20103,20104,19855
CQUADX4,20250,1,19855,20104,20105,19856
CQUADX4,20251,1,19856,20105,20106,19857
CQUADX4,20252,1,19857,20106,20107,19858
CQUADX4,20253,1,19858,20107,20108,19859
CQUADX4,20254,1,19859,20108,20109,19860
CQUADX4,20255,1,19860,20109,20110,19861
CQUADX4,20256,1,19861,20110,20111,19862
CQUADX4,20257,1,19862,20111,20112,19863
CQUADX4,20258,1,19863,20112,20113,19864
CQUADX4,20259,1,19864,20113,20114,19865
CQUADX4,20260,1,19865,20114,20115,19866
CQUADX4,20261,1,19866,20115,20116,19867
CQUADX4,20262,1,19867,20116,20117,19868
CQUADX4,20263,1,19868,20117,20118,19869
CQUADX4,20264,1,19869,20118,20119,19870
CQUADX4,20265,1,19870,20119,20120,19871
CQUADX4,20266,1,19871,20120,20121,19872
CQUADX4,20267,1,19872,20121,20122,19873
CQUADX4,20268,1,19873,20122,20123,19874
CQUADX4,20269,1,19874,20123,20124,19875
CQUADX4,20270,1,19875,20124,20125,19876
CQUADX4,20271,1,19876,20125,20126,19877
CQUADX4,20272,1,19877,20126,20127,19878
CQUADX4,20273,1,19878,20127,20128,19879
CQUADX4,20274,1,19879,20128,20129,19880
CQUADX4,20275,1,19880,20129,20130,19881
CQUADX4,20276,1,19881,20130,20131,19882
CQUADX4,20277,1,19882,20131,20132,19883
CQUADX4,20278,1,19883,20132,20133,19884
CQUADX4,20279,1,19884,20133,20134,19885
CQUADX4,20280,1,19885,20134,20135,19886
CQUADX4,20281,1,19886,20135,20136,19887
CQUADX4,20282,1,19887,20136,20137,19888
CQUADX4,20283,1,19888,20137,20138,19889
CQUADX4,20284,1,19889,20138,20139,19890
CQUADX4,20285,1,19890,20139,20140,19891
CQUADX4,20286,1,19891,20140,20141,19892
CQUADX4,20287,1,19892,20141,20142,19893
CQUADX4,20288,1,19893,20142,20143,19894
CQUADX4,20289,1,19894,20143,20144,19895
CQUADX4,20290,1,19895,20144,20145,19896
CQUADX4,20291,1,19896,20145,20146,19897
CQUADX4,20292,1,19897,20146,20147,19898
CQUADX4,20293,1,19898,20147,20148,19899
CQUADX4,20294,1,19899,20148,20149,19900
CQUADX4,20295,1,19900,20149,20150,19901
CQUADX4,20296,1,19901,20150,20151,19902
CQUADX4,20297,1,19902,20151,20152,19903
CQUADX4,20298,1,19903,20152,20153,19904
CQUADX4,20299,1,19904,20153,20154,19905
CQUADX4,20300,1,19905,20154,20155,19906
CQUADX4,20301,1,19906,20155,20156,19907
CQUADX4,20302,1,19907,20156,20157,19908
CQUADX4,20303,1,19908,20157,20158,19909
CQUADX4,20304,1,19909,20158,20159,19910
CQUADX4,20305,1,19910,20159,20160,19911
CQUADX4,20306,1,19911,20160,20161,19912
CQUADX4,20307,1,19912,20161,20162,19913
CQUADX4,20308,1,19913,20162,20163,19914
CQUADX4,20309,1,19914,20163,20164,19915
CQUADX4,20310,1,19915,20164,20165,19916
CQUADX4,20311,1,19916,20165,20166,19917
CQUADX4,20312,1,19917,20166,20167,19918
CQUADX4,20313,1,19918,20167,20168,19919
CQUADX4,20314,1,19919,20168,20169,19920
CQUADX4,20315,1,19920,20169,20170,19921
CQUADX4,20316,1,19921,20170,20171,19922
CQUADX4,20317,1,19922,20171,20172,19923
CQUADX4,20318,1,19923,20172,20173,19924
CQUADX4,20319,1,19924,20173,20174,19925
CQUADX4,20320,1,19925,20174,20175,19926
CQUADX4,20321,1,19926,20175,20176,19927
CQUADX4,20322,1,19927,20176,20177,19928
CQUADX4,20323,1,19928,20177,20178,19929
CQUADX4,20324,1,19929,20178,20179,19930
CQUADX4,20325,1,19930,20179,20180,19931
CQUADX4,20326,1,19931,20180,20181,19932
CQUADX4,20327,1,19932,20181,20182,19933
CQUADX4,20328,1,19933,20182,20183,19934
CQUADX4,20329,1,19934,20183,20184,19935
CQUADX4,20330,1,19935,20184,20185,19936
CQUADX4,20331,1,19936,20185,20186,19937
CQUADX4,20332,1,19937,20186,20187,19938
CQUADX4,20333,1,19938,20187,20188,19939
CQUADX4,20334,1,19939,20188,20189,19940
CQUADX4,20335,1,19940,20189,20190,19941
CQUADX4,20336,1,19941,20190,20191,19942
CQUADX4,20337,1,19942,20191,20192,19943
CQUADX4,20338,1,19943,20192,20193,19944
CQUADX4,20339,1,19944,20193,20194,19945
CQUADX4,20340,1,19945,20194,20195,19946
CQUADX4,20341,1,19946,20195,20196,19947
CQUADX4,20342,1,19947,20196,20197,19948
CQUADX4,20343,1,19948,20197,20198,19949
CQUADX4,20344,1,19949,20198,20199,19950
CQUADX4,20345,1,19950,20199,20200,19951
CQUADX4,20346,1,19951,20200,20201,19952
CQUADX4,20347,1,19952,20201,20202,19953
CQUADX4,20348,1,19953,20202,20203,19954
CQUADX4,20349,1,19954,20203,20204,19955
CQUADX4,20350,1,19955,20204,20205,19956
CQUADX4,20351,1,19956,20205,20206,19957
CQUADX4,20352,1,19957,20206,20207,19958
CQUADX4,20353,1,19958,20207,20208,19959
CQUADX4,20354,1,19959,20208,20209,19960
CQUADX4,20355,1,19960,20209,20210,19961
CQUADX4,20356,1,19961,20210,20211,19962
CQUADX4,20357,1,19962,20211,20212,19963
CQUADX4,20358,1,19963,20212,20213,19964
CQUADX4,20359,1,19964,20213,20214,19965
CQUADX4,20360,1,19965,20214,20215,19966
CQUADX4,20361,1,19966,20215,20216,19967
CQUADX4,20362,1,19967,20216,20217,19968
CQUADX4,20363,1,19968,20217,20218,19969
CQUADX4,20364,1,19969,20218,20219,19970
CQUADX4,20365,1,19970,20219,20220,19971
CQUADX4,20366,1,19971,20220,20221,19972
CQUADX4,20367,1,19972,20221,20222,19973
CQUADX4,20368,1,19973,20222,20223,19974
CQUADX4,20369,1,19974,20223,20224,19975
CQUADX4,20370,1,19975,20224,20225,19976
CQUADX4,20371,1,19976,20225,20226,19977
CQUADX4,20372,1,19977,20226,20227,19978
CQUADX4,20373,1,19978,20227,20228,19979
CQUADX4,20374,1,19979,20228,20229,19980
CQUADX4,20375,1,19980,20229,20230,19981
CQUADX4,20376,1,19981,20230,20231,19982
CQUADX4,20377,1,19982,20231,20232,19983
CQUADX4,20378,1,19983,20232,20233,19984
CQUADX4,20379,1,19984,20233,20234,19985
CQUADX4,20380,1,19985,20234,20235,19986
CQUADX4,20381,1,19986,20235,20236,19987
CQUADX4,20382,1,19987,20236,20237,19988
CQUADX4,20383,1,19988,20237,20238,19989
CQUADX4,20384,1,19989,20238,20239,19990
CQUADX4,20385,1,19990,20239,20240,19991
CQUADX4,20386,1,19991,20240,20241,19992
CQUADX4,20387,1,19992,20241,20242,19993
CQUADX4,20388,1,19993,20242,20243,19994
CQUADX4,20389,1,19994,20243,20244,19995
CQUADX4,20390,1,19995,20244,20245,19996
CQUADX4,20391,1,19996,20245,20246,19997
CQUADX4,20392,1,19997,20246,20247,19998
CQUADX4,20393,1,19998,20247,20248,19999
CQUADX4,20394,1,19999,20248,20249,20000
CQUADX4,20395,1,20000,20249,20250,20001
CQUADX4,20396,1,20001,20250,20251,20002
CQUADX4,20397,1,20002,20251,20252,20003
CQUADX4,20398,1,20003,20252,20253,20004
CQUADX4,20399,1,20004,20253,20254,20005
CQUADX4,20400,1,20005,20254,20255,20006
CQUADX4,20401,1,20006,20255,20256,20007
CQUADX4,20402,1,20007,20256,20257,20008
CQUADX4,20403,1,20008,20257,20258,20009
CQUADX4,20404,1,20009,20258,20259,20010
CQUADX4,20405,1,20010,20259,20260,20011
CQUADX4,20406,1,20011,20260,20261,20012
CQUADX4,20407,1,20012,20261,20262,20013
CQUADX4,20408,1,20013,20262,20263,20014
CQUADX4,20409,1,20014,20263,20264,20015
CQUADX4,20410,1,20015,20264,20265,20016
CQUADX4,20411,1,20016,20265,20266,20017
CQUADX4,20412,1,20017,20266,20267,20018
CQUADX4,20413,1,20018,20267,20268,20019
CQUADX4,20414,1,20019,20268,20269,20020
CQUADX4,20415,1,20020,20269,20270,20021
CQUADX4,20416,1,20021,20270,20271,20022
CQUADX4,20417,1,20022,20271,20272,20023
CQUADX4,20418,1,20023,20272,20273,20024
CQUADX4,20419,1,20024,20273,20274,20025
CQUADX4,20420,1,20025,20274,20275,20026
CQUADX4,20421,1,20026,20275,20276,20027
CQUADX4,20422,1,20027,20276,20277,20028
CQUADX4,20423,1,20028,20277,20278,20029
CQUADX4,20424,1,20029,20278,20279,20030
CQUADX4,20425,1,20030,20279,20280,20031
CQUADX4,20426,1,20031,20280,20281,20032
CQUADX4,20427,1,20032,20281,20282,20033
CQUADX4,20428,1,20033,20282,20283,20034
CQUADX4,20429,1,20034,20283,20284,20035
CQUADX4,20430,1,20035,20284,20285,20036
CQUADX4,20431,1,20036,20285,20286,20037
CQUADX4,20432,1,20037,20286,20287,20038
CQUADX4,20433,1,20038,20287,20288,20039
CQUADX4,20434,1,20039,20288,20289,20040
CQUADX4,20435,1,20040,20289,20290,20041
CQUADX4,20436,1,20041,20290,20291,20042
CQUADX4,20437,1,20042,20291,20292,20043
CQUADX4,20438,1,20043,20292,20293,20044
CQUADX4,20439,1,20044,20293,20294,20045
CQUADX4,20440,1,20045,20294,20295,20046
CQUADX4,20441,1,20046,20295,20296,20047
CQUADX4,20442,1,20047,20296,20297,20048
CQUADX4,20443,1,20048,20297,20298,20049
CQUADX4,20444,1,20049,20298,20299,20050
CQUADX4,20445,1,20050,20299,20300,20051
CQUADX4,20446,1,20051,20300,20301,20052
CQUADX4,20447,1,20052,20301,20302,20053
CQUADX4,20448,1,20053,20302,20303,20054
CQUADX4,20449,1,20055,20304,20305,20056
CQUADX4,20450,1,20056,20305,20306,20057
CQUADX4,20451,1,20057,20306,20307,20058
CQUADX4,20452,1,20058,20307,20308,20059
CQUADX4,20453,1,20059,20308,20309,20060
CQUADX4,20454,1,20060,20309,20310,20061
CQUADX4,20455,1,20061,20310,20311,20062
CQUADX4,20456,1,20062,20311,20312,20063
CQUADX4,20457,1,20063,20312,20313,20064
CQUADX4,20458,1,20064,20313,20314,20065
CQUADX4,20459,1,20065,20314,20315,20066
CQUADX4,20460,1,20066,20315,20316,20067
CQUADX4,20461,1,20067,20316,20317,20068
CQUADX4,20462,1,20068,20317,20318,20069
CQUADX4,20463,1,20069,20318,20319,20070
CQUADX4,20464,1,20070,20319,20320,20071
CQUADX4,20465,1,20071,20320,20321,20072
CQUADX4,20466,1,20072,20321,20322,20073
CQUADX4,20467,1,20073,20322,20323,20074
CQUADX4,20468,1,20074,20323,20324,20075
CQUADX4,20469,1,20075,20324,20325,20076
CQUADX4,20470,1,20076,20325,20326,20077
CQUADX4,20471,1,20077,20326,20327,20078
CQUADX4,20472,1,20078,20327,20328,20079
CQUADX4,20473,1,20079,20328,20329,20080
CQUADX4,20474,1,20080,20329,20330,20081
CQUADX4,20475,1,20081,20330,20331,20082
CQUADX4,20476,1,20082,20331,20332,20083
CQUADX4,20477,1,20083,20332,20333,20084
CQUADX4,20478,1,20084,20333,20334,20085
CQUADX4,20479,1,20085,20334,20335,20086
CQUADX4,20480,1,20086,20335,20336,20087
CQUADX4,20481,1,20087,20336,20337,20088
CQUADX4,20482,1,20088,20337,20338,20089
CQUADX4,20483,1,20089,20338,20339,20090
CQUADX4,20484,1,20090,20339,20340,20091
CQUADX4,20485,1,20091,20340,20341,20092
CQUADX4,20486,1,20092,20341,20342,20093
CQUADX4,20487,1,20093,20342,20343,20094
CQUADX4,20488,1,20094,20343,20344,20095
CQUADX4,20489,1,20095,20344,20345,20096
CQUADX4,20490,1,20096,20345,20346,20097
CQUADX4,20491,1,20097,20346,20347,20098
CQUADX4,20492,1,20098,20347,20348,20099
CQUADX4,20493,1,20099,20348,20349,20100
CQUADX4,20494,1,20100,20349,20350,20101
CQUADX4,20495,1,20101,20350,20351,20102
CQUADX4,20496,1,20102,20351,20352,20103
CQUADX4,20497,1,20103,20352,20353,20104
CQUADX4,20498,1,20104,20353,20354,20105
CQUADX4,20499,1,20105,20354,20355,20106
CQUADX4,20500,1,20106,20355,20356,20107
CQUADX4,20501,1,20107,20356,20357,20108
CQUADX4,20502,1,20108,20357,20358,20109
CQUADX4,20503,1,20109,20358,20359,20110
CQUADX4,20504,1,20110,20359,20360,20111
CQUADX4,20505,1,20111,20360,20361,20112
CQUADX4,20506,1,20112,20361,20362,20113
CQUADX4,20507,1,20113,20362,20363,20114
CQUADX4,20508,1,20114,20363,20364,20115
CQUADX4,20509,1,20115,20364,20365,20116
CQUADX4,20510,1,20116,20365,20366,20117
CQUADX4,20511,1,20117,20366,20367,20118
CQUADX4,20512,1,20118,20367,20368,20119
CQUADX4,20513,1,20119,20368,20369,20120
CQUADX4,20514,1,20120,20369,20370,20121
CQUADX4,20515,1,20121,20370,20371,20122
CQUADX4,20516,1,20122,20371,20372,20123
CQUADX4,20517,1,20123,20372,20373,20124
CQUADX4,20518,1,20124,20373,20374,20125
CQUADX4,20519,1,20125,20374,20375,20126
CQUADX4,20520,1,20126,20375,20376,20127
CQUADX4,20521,1,20127,20376,20377,20128
CQUADX4,20522,1,20128,20377,20378,20129
CQUADX4,20523,1,20129,20378,20379,20130
CQUADX4,20524,1,20130,20379,20380,20131
CQUADX4,20525,1,20131,20380,20381,20132
CQUADX4,20526,1,20132,20381,20382,20133
CQUADX4,20527,1,20133,20382,20383,20134
CQUADX4,20528,1,20134,20383,20384,20135
CQUADX4,20529,1,20135,20384,20385,20136
CQUADX4,20530,1,20136,20385,20386,20137
CQUADX4,20531,1,20137,20386,20387,20138
CQUADX4,20532,1,20138,20387,20388,20139
CQUADX4,20533,1,20139,20388,20389,20140
CQUADX4,20534,1,20140,20389,20390,20141
CQUADX4,20535,1,20141,20390,20391,20142
CQUADX4,20536,1,20142,20391,20392,20143
CQUADX4,20537,1,20143,20392,20393,20144
CQUADX4,20538,1,20144,20393,20394,20145
CQUADX4,20539,1,20145,20394,20395,20146
CQUADX4,20540,1,20146,20395,20396,20147
CQUADX4,20541,1,20147,20396,20397,20148
CQUADX4,20542,1,20148,20397,20398,20149
CQUADX4,20543,1,20149,20398,20399,20150
CQUADX4,20544,1,20150,20399,20400,20151
CQUADX4,20545,1,20151,20400,20401,20152
CQUADX4,20546,1,20152,20401,20402,20153
CQUADX4,20547,1,20153,20402,20403,20154
CQUADX4,20548,1,20154,20403,20404,20155
CQUADX4,20549,1,20155,20404,20405,20156
CQUADX4,20550,1,20156,20405,20406,20157
CQUADX4,20551,1,20157,20406,20407,20158
CQUADX4,20552,1,20158,20407,20408,20159
CQUADX4,20553,1,20159,20408,20409,20160
CQUADX4,20554,1,20160,20409,20410,20161
CQUADX4,20555,1,20161,20410,20411,20162
CQUADX4,20556,1,20162,20411,20412,20163
CQUADX4,20557,1,20163,20412,20413,20164
CQUADX4,20558,1,20164,20413,20414,20165
CQUADX4,20559,1,20165,20414,20415,20166
CQUADX4,20560,1,20166,20415,20416,20167
CQUADX4,20561,1,20167,20416,20417,20168
CQUADX4,20562,1,20168,20417,20418,20169
CQUADX4,20563,1,20169,20418,20419,20170
CQUADX4,20564,1,20170,20419,20420,20171
CQUADX4,20565,1,20171,20420,20421,20172
CQUADX4,20566,1,20172,20421,20422,20173
CQUADX4,20567,1,20173,20422,20423,20174
CQUADX4,20568,1,20174,20423,20424,20175
CQUADX4,20569,1,20175,20424,20425,20176
CQUADX4,20570,1,20176,20425,20426,20177
CQUADX4,20571,1,20177,20426,20427,20178
CQUADX4,20572,1,20178,20427,20428,20179
CQUADX4,20573,1,20179,20428,20429,20180
CQUADX4,20574,1,20180,20429,20430,20181
CQUADX4,20575,1,20181,20430,20431,20182
CQUADX4,20576,1,20182,20431,20432,20183
CQUADX4,20577,1,20183,20432,20433,20184
CQUADX4,20578,1,20184,20433,20434,20185
CQUADX4,20579,1,20185,20434,20435,20186
CQUADX4,20580,1,20186,20435,20436,20187
CQUADX4,20581,1,20187,20436,20437,20188
CQUADX4,20582,1,20188,20437,20438,20189
CQUADX4,20583,1,20189,20438,20439,20190
CQUADX4,20584,1,20190,20439,20440,20191
CQUADX4,20585,1,20191,20440,20441,20192
CQUADX4,20586,1,20192,20441,20442,20193
CQUADX4,20587,1,20193,20442,20443,20194
CQUADX4,20588,1,20194,20443,20444,20195
CQUADX4,20589,1,20195,20444,20445,20196
CQUADX4,20590,1,20196,20445,20446,20197
CQUADX4,20591,1,20197,20446,20447,20198
CQUADX4,20592,1,20198,20447,20448,20199
CQUADX4,20593,1,20199,20448,20449,20200
CQUADX4,20594,1,20200,20449,20450,20201
CQUADX4,20595,1,20201,20450,20451,20202
CQUADX4,20596,1,20202,20451,20452,20203
CQUADX4,20597,1,20203,20452,20453,20204
CQUADX4,20598,1,20204,20453,20454,20205
CQUADX4,20599,1,20205,20454,20455,20206
CQUADX4,20600,1,20206,20455,20456,20207
CQUADX4,20601,1,20207,20456,20457,20208
CQUADX4,20602,1,20208,20457,20458,20209
CQUADX4,20603,1,20209,20458,20459,20210
CQUADX4,20604,1,20210,20459,20460,20211
CQUADX4,20605,1,20211,20460,20461,20212
CQUADX4,20606,1,20212,20461,20462,20213
CQUADX4,20607,1,20213,20462,20463,20214
CQUADX4,20608,1,20214,20463,20464,20215
CQUADX4,20609,1,20215,20464,20465,20216
CQUADX4,20610,1,20216,20465,20466,20217
CQUADX4,20611,1,20217,20466,20467,20218
CQUADX4,20612,1,20218,20467,20468,20219
CQUADX4,20613,1,20219,20468,20469,20220
CQUADX4,20614,1,20220,20469,20470,20221
CQUADX4,20615,1,20221,20470,20471,20222
CQUADX4,20616,1,20222,20471,20472,20223
CQUADX4,20617,1,20223,20472,20473,20224
CQUADX4,20618,1,20224,20473,20474,20225
CQUADX4,20619,1,20225,20474,20475,20226
CQUADX4,20620,1,20226,20475,20476,20227
CQUADX4,20621,1,20227,20476,20477,20228
CQUADX4,20622,1,20228,20477,20478,20229
CQUADX4,20623,1,20229,20478,20479,20230
CQUADX4,20624,1,20230,20479,20480,20231
CQUADX4,20625,1,20231,20480,20481,20232
CQUADX4,20626,1,20232,20481,20482,20233
CQUADX4,20627,1,20233,20482,20483,20234
CQUADX4,20628,1,20234,20483,20484,20235
CQUADX4,20629,1,20235,20484,20485,20236
CQUADX4,20630,1,20236,20485,20486,20237
CQUADX4,20631,1,20237,20486,20487,20238
CQUADX4,20632,1,20238,20487,20488,20239
CQUADX4,20633,1,20239,20488,20489,20240
CQUADX4,20634,1,20240,20489,20490,20241
CQUADX4,20635,1,20241,20490,20491,20242
CQUADX4,20636,1,20242,20491,20492,20243
CQUADX4,20637,1,20243,20492,20493,20244
CQUADX4,20638,1,20244,20493,20494,20245
CQUADX4,20639,1,20245,20494,20495,20246
CQUADX4,20640,1,20246,20495,20496,20247
CQUADX4,20641,1,20247,20496,20497,20248
CQUADX4,20642,1,20248,20497,20498,20249
CQUADX4,20643,1,20249,20498,20499,20250
CQUADX4,20644,1,20250,20499,20500,20251
CQUADX4,20645,1,20251,20500,20501,20252
CQUADX4,20646,1,20252,20501,20502,20253
CQUADX4,20647,1,20253,20502,20503,20254
CQUADX4,20648,1,20254,20503,20504,20255
CQUADX4,20649,1,20255,20504,20505,20256
CQUADX4,20650,1,20256,20505,20506,20257
CQUADX4,20651,1,20257,20506,20507,20258
CQUADX4,20652,1,20258,20507,20508,20259
CQUADX4,20653,1,20259,20508,20509,20260
CQUADX4,20654,1,20260,20509,20510,20261
CQUADX4,20655,1,20261,20510,20511,20262
CQUADX4,20656,1,20262,20511,20512,20263
CQUADX4,20657,1,20263,20512,20513,20264
CQUADX4,20658,1,20264,20513,20514,20265
CQUADX4,20659,1,20265,20514,20515,20266
CQUADX4,20660,1,20266,20515,20516,20267
CQUADX4,20661,1,20267,20516,20517,20268
CQUADX4,20662,1,20268,20517,20518,20269
CQUADX4,20663,1,20269,20518,20519,20270
CQUADX4,20664,1,20270,20519,20520,20271
CQUADX4,20665,1,20271,20520,20521,20272
CQUADX4,20666,1,20272,20521,20522,20273
CQUADX4,20667,1,20273,20522,20523,20274
CQUADX4,20668,1,20274,20523,20524,20275
CQUADX4,20669,1,20275,20524,20525,20276
CQUADX4,20670,1,20276,20525,20526,20277
CQUADX4,20671,1,20277,20526,20527,20278
CQUADX4,20672,1,20278,20527,20528,20279
CQUADX4,20673,1,20279,20528,20529,20280
CQUADX4,20674,1,20280,20529,20530,20281
CQUADX4,20675,1,20281,20530,20531,20282
CQUADX4,20676,1,20282,20531,20532,20283
CQUADX4,20677,1,20283,20532,20533,20284
CQUADX4,20678,1,20284,20533,20534,20285
CQUADX4,20679,1,20285,20534,20535,20286
CQUADX4,20680,1,20286,20535,20536,20287
CQUADX4,20681,1,20287,20536,20537,20288
CQUADX4,20682,1,20288,20537,20538,20289
CQUADX4,20683,1,20289,20538,20539,20290
CQUADX4,20684,1,20290,20539,20540,20291
CQUADX4,20685,1,20291,20540,20541,20292
CQUADX4,20686,1,20292,20541,20542,20293
CQUADX4,20687,1,20293,20542,20543,20294
CQUADX4,20688,1,20294,20543,20544,20295
CQUADX4,20689,1,20295,20544,20545,20296
CQUADX4,20690,1,20296,20545,20546,20297
CQUADX4,20691,1,20297,20546,20547,20298
CQUADX4,20692,1,20298,20547,20548,20299
CQUADX4,20693,1,20299,20548,20549,20300
CQUADX4,20694,1,20300,20549,20550,20301
CQUADX4,20695,1,20301,20550,20551,20302
CQUADX4,20696,1,20302,20551,20552,20303
CQUADX4,20697,1,20304,20553,20554,20305
CQUADX4,20698,1,20305,20554,20555,20306
CQUADX4,20699,1,20306,20555,20556,20307
CQUADX4,20700,1,20307,20556,20557,20308
CQUADX4,20701,1,20308,20557,20558,20309
CQUADX4,20702,1,20309,20558,20559,20310
CQUADX4,20703,1,20310,20559,20560,20311
CQUADX4,20704,1,20311,20560,20561,20312
CQUADX4,20705,1,20312,20561,20562,20313
CQUADX4,20706,1,20313,20562,20563,20314
CQUADX4,20707,1,20314,20563,20564,20315
CQUADX4,20708,1,20315,20564,20565,20316
CQUADX4,20709,1,20316,20565,20566,20317
CQUADX4,20710,1,20317,20566,20567,20318
CQUADX4,20711,1,20318,20567,20568,20319
CQUADX4,20712,1,20319,20568,20569,20320
CQUADX4,20713,1,20320,20569,20570,20321
CQUADX4,20714,1,20321,20570,20571,20322
CQUADX4,20715,1,20322,20571,20572,20323
CQUADX4,20716,1,20323,20572,20573,20324
CQUADX4,20717,1,20324,20573,20574,20325
CQUADX4,20718,1,20325,20574,20575,20326
CQUADX4,20719,1,20326,20575,20576,20327
CQUADX4,20720,1,20327,20576,20577,20328
CQUADX4,20721,1,20328,20577,20578,20329
CQUADX4,20722,1,20329,20578,20579,20330
CQUADX4,20723,1,20330,20579,20580,20331
CQUADX4,20724,1,20331,20580,20581,20332
CQUADX4,20725,1,20332,20581,20582,20333
CQUADX4,20726,1,20333,20582,20583,20334
CQUADX4,20727,1,20334,20583,20584,20335
CQUADX4,20728,1,20335,20584,20585,20336
CQUADX4,20729,1,20336,20585,20586,20337
CQUADX4,20730,1,20337,20586,20587,20338
CQUADX4,20731,1,20338,20587,20588,20339
CQUADX4,20732,1,20339,20588,20589,20340
CQUADX4,20733,1,20340,20589,20590,20341
CQUADX4,20734,1,20341,20590,20591,20342
CQUADX4,20735,1,20342,20591,20592,20343
CQUADX4,20736,1,20343,20592,20593,20344
CQUADX4,20737,1,20344,20593,20594,20345
CQUADX4,20738,1,20345,20594,20595,20346
CQUADX4,20739,1,20346,20595,20596,20347
CQUADX4,20740,1,20347,20596,20597,20348
CQUADX4,20741,1,20348,20597,20598,20349
CQUADX4,20742,1,20349,20598,20599,20350
CQUADX4,20743,1,20350,20599,20600,20351
CQUADX4,20744,1,20351,20600,20601,20352
CQUADX4,20745,1,20352,20601,20602,20353
CQUADX4,20746,1,20353,20602,20603,20354
CQUADX4,20747,1,20354,20603,20604,20355
CQUADX4,20748,1,20355,20604,20605,20356
CQUADX4,20749,1,20356,20605,20606,20357
CQUADX4,20750,1,20357,20606,20607,20358
CQUADX4,20751,1,20358,20607,20608,20359
CQUADX4,20752,1,20359,20608,20609,20360
CQUADX4,20753,1,20360,20609,20610,20361
CQUADX4,20754,1,20361,20610,20611,20362
CQUADX4,20755,1,20362,20611,20612,20363
CQUADX4,20756,1,20363,20612,20613,20364
CQUADX4,20757,1,20364,20613,20614,20365
CQUADX4,20758,1,20365,20614,20615,20366
CQUADX4,20759,1,20366,20615,20616,20367
CQUADX4,20760,1,20367,20616,20617,20368
CQUADX4,20761,1,20368,20617,20618,20369
CQUADX4,20762,1,20369,20618,20619,20370
CQUADX4,20763,1,20370,20619,20620,20371
CQUADX4,20764,1,20371,20620,20621,20372
CQUADX4,20765,1,20372,20621,20622,20373
CQUADX4,20766,1,20373,20622,20623,20374
CQUADX4,20767,1,20374,20623,20624,20375
CQUADX4,20768,1,20375,20624,20625,20376
CQUADX4,20769,1,20376,20625,20626,20377
CQUADX4,20770,1,20377,20626,20627,20378
CQUADX4,20771,1,20378,20627,20628,20379
CQUADX4,20772,1,20379,20628,20629,20380
CQUADX4,20773,1,20380,20629,20630,20381
CQUADX4,20774,1,20381,20630,20631,20382
CQUADX4,20775,1,20382,20631,20632,20383
CQUADX4,20776,1,20383,20632,20633,20384
CQUADX4,20777,1,20384,20633,20634,20385
CQUADX4,20778,1,20385,20634,20635,20386
CQUADX4,20779,1,20386,20635,20636,20387
CQUADX4,20780,1,20387,20636,20637,20388
CQUADX4,20781,1,20388,20637,20638,20389
CQUADX4,20782,1,20389,20638,20639,20390
CQUADX4,20783,1,20390,20639,20640,20391
CQUADX4,20784,1,20391,20640,20641,20392
CQUADX4,20785,1,20392,20641,20642,20393
CQUADX4,20786,1,20393,20642,20643,20394
CQUADX4,20787,1,20394,20643,20644,20395
CQUADX4,20788,1,20395,20644,20645,20396
CQUADX4,20789,1,20396,20645,20646,20397
CQUADX4,20790,1,20397,20646,20647,20398
CQUADX4,20791,1,20398,20647,20648,20399
CQUADX4,20792,1,20399,20648,20649,20400
CQUADX4,20793,1,20400,20649,20650,20401
CQUADX4,20794,1,20401,20650,20651,20402
CQUADX4,20795,1,20402,20651,20652,20403
CQUADX4,20796,1,20403,20652,20653,20404
CQUADX4,20797,1,20404,20653,20654,20405
CQUADX4,20798,1,20405,20654,20655,20406
CQUADX4,20799,1,20406,20655,20656,20407
CQUADX4,20800,1,20407,20656,20657,20408
CQUADX4,20801,1,20408,20657,20658,20409
CQUADX4,20802,1,20409,20658,20659,20410
CQUADX4,20803,1,20410,20659,20660,20411
CQUADX4,20804,1,20411,20660,20661,20412
CQUADX4,20805,1,20412,20661,20662,20413
CQUADX4,20806,1,20413,20662,20663,20414
CQUADX4,20807,1,20414,20663,20664,20415
CQUADX4,20808,1,20415,20664,20665,20416
CQUADX4,20809,1,20416,20665,20666,20417
CQUADX4,20810,1,20417,20666,20667,20418
CQUADX4,20811,1,20418,20667,20668,20419
CQUADX4,20812,1,20419,20668,20669,20420
CQUADX4,20813,1,20420,20669,20670,20421
CQUADX4,20814,1,20421,20670,20671,20422
CQUADX4,20815,1,20422,20671,20672,20423
CQUADX4,20816,1,20423,20672,20673,20424
CQUADX4,20817,1,20424,20673,20674,20425
CQUADX4,20818,1,20425,20674,20675,20426
CQUADX4,20819,1,20426,20675,20676,20427
CQUADX4,20820,1,20427,20676,20677,20428
CQUADX4,20821,1,20428,20677,20678,20429
CQUADX4,20822,1,20429,20678,20679,20430
CQUADX4,20823,1,20430,20679,20680,20431
CQUADX4,20824,1,20431,20680,20681,20432
CQUADX4,20825,1,20432,20681,20682,20433
CQUADX4,20826,1,20433,20682,20683,20434
CQUADX4,20827,1,20434,20683,20684,20435
CQUADX4,20828,1,20435,20684,20685,20436
CQUADX4,20829,1,20436,20685,20686,20437
CQUADX4,20830,1,20437,20686,20687,20438
CQUADX4,20831,1,20438,20687,20688,20439
CQUADX4,20832,1,20439,20688,20689,20440
CQUADX4,20833,1,20440,20689,20690,20441
CQUADX4,20834,1,20441,20690,20691,20442
CQUADX4,20835,1,20442,20691,20692,20443
CQUADX4,20836,1,20443,20692,20693,20444
CQUADX4,20837,1,20444,20693,20694,20445
CQUADX4,20838,1,20445,20694,20695,20446
CQUADX4,20839,1,20446,20695,20696,20447
CQUADX4,20840,1,20447,20696,20697,20448
CQUADX4,20841,1,20448,20697,20698,20449
CQUADX4,20842,1,20449,20698,20699,20450
CQUADX4,20843,1,20450,20699,20700,20451
CQUADX4,20844,1,20451,20700,20701,20452
CQUADX4,20845,1,20452,20701,20702,20453
CQUADX4,20846,1,20453,20702,20703,20454
CQUADX4,20847,1,20454,20703,20704,20455
CQUADX4,20848,1,20455,20704,20705,20456
CQUADX4,20849,1,20456,20705,20706,20457
CQUADX4,20850,1,20457,20706,20707,20458
CQUADX4,20851,1,20458,20707,20708,20459
CQUADX4,20852,1,20459,20708,20709,20460
CQUADX4,20853,1,20460,20709,20710,20461
CQUADX4,20854,1,20461,20710,20711,20462
CQUADX4,20855,1,20462,20711,20712,20463
CQUADX4,20856,1,20463,20712,20713,20464
CQUADX4,20857,1,20464,20713,20714,20465
CQUADX4,20858,1,20465,20714,20715,20466
CQUADX4,20859,1,20466,20715,20716,20467
CQUADX4,20860,1,20467,20716,20717,20468
CQUADX4,20861,1,20468,20717,20718,20469
CQUADX4,20862,1,20469,20718,20719,20470
CQUADX4,20863,1,20470,20719,20720,20471
CQUADX4,20864,1,20471,20720,20721,20472
CQUADX4,20865,1,20472,20721,20722,20473
CQUADX4,20866,1,20473,20722,20723,20474
CQUADX4,20867,1,20474,20723,20724,20475
CQUADX4,20868,1,20475,20724,20725,20476
CQUADX4,20869,1,20476,20725,20726,20477
CQUADX4,20870,1,20477,20726,20727,20478
CQUADX4,20871,1,20478,20727,20728,20479
CQUADX4,20872,1,20479,20728,20729,20480
CQUADX4,20873,1,20480,20729,20730,20481
CQUADX4,20874,1,20481,20730,20731,20482
CQUADX4,20875,1,20482,20731,20732,20483
CQUADX4,20876,1,20483,20732,20733,20484
CQUADX4,20877,1,20484,20733,20734,20485
CQUADX4,20878,1,20485,20734,20735,20486
CQUADX4,20879,1,20486,20735,20736,20487
CQUADX4,20880,1,20487,20736,20737,20488
CQUADX4,20881,1,20488,20737,20738,20489
CQUADX4,20882,1,20489,20738,20739,20490
CQUADX4,20883,1,20490,20739,20740,20491
CQUADX4,20884,1,20491,20740,20741,20492
CQUADX4,20885,1,20492,20741,20742,20493
CQUADX4,20886,1,20493,20742,20743,20494
CQUADX4,20887,1,20494,20743,20744,20495
CQUADX4,20888,1,20495,20744,20745,20496
CQUADX4,20889,1,20496,20745,20746,20497
CQUADX4,20890,1,20497,20746,20747,20498
CQUADX4,20891,1,20498,20747,20748,20499
CQUADX4,20892,1,20499,20748,20749,20500
CQUADX4,20893,1,20500,20749,20750,20501
CQUADX4,20894,1,20501,20750,20751,20502
CQUADX4,20895,1,20502,20751,20752,20503
CQUADX4,20896,1,20503,20752,20753,20504
CQUADX4,20897,1,20504,20753,20754,20505
CQUADX4,20898,1,20505,20754,20755,20506
CQUADX4,20899,1,20506,20755,20756,20507
CQUADX4,20900,1,20507,20756,20757,20508
CQUADX4,20901,1,20508,20757,20758,20509
CQUADX4,20902,1,20509,20758,20759,20510
CQUADX4,20903,1,20510,20759,20760,20511
CQUADX4,20904,1,20511,20760,20761,20512
CQUADX4,20905,1,20512,20761,20762,20513
CQUADX4,20906,1,20513,20762,20763,20514
CQUADX4,20907,1,20514,20763,20764,20515
CQUADX4,20908,1,20515,20764,20765,20516
CQUADX4,20909,1,20516,20765,20766,20517
CQUADX4,20910,1,20517,20766,20767,20518
CQUADX4,20911,1,20518,20767,20768,20519
CQUADX4,20912,1,20519,20768,20769,20520
CQUADX4,20913,1,20520,20769,20770,20521
CQUADX4,20914,1,20521,20770,20771,20522
CQUADX4,20915,1,20522,20771,20772,20523
CQUADX4,20916,1,20523,20772,20773,20524
CQUADX4,20917,1,20524,20773,20774,20525
CQUADX4,20918,1,20525,20774,20775,20526
CQUADX4,20919,1,20526,20775,20776,20527
CQUADX4,20920,1,20527,20776,20777,20528
CQUADX4,20921,1,20528,20777,20778,20529
CQUADX4,20922,1,20529,20778,20779,20530
CQUADX4,20923,1,20530,20779,20780,20531
CQUADX4,20924,1,20531,20780,20781,20532
CQUADX4,20925,1,20532,20781,20782,20533
CQUADX4,20926,1,20533,20782,20783,20534
CQUADX4,20927,1,20534,20783,20784,20535
CQUADX4,20928,1,20535,20784,20785,20536
CQUADX4,20929,1,20536,20785,20786,20537
CQUADX4,20930,1,20537,20786,20787,20538
CQUADX4,20931,1,20538,20787,20788,20539
CQUADX4,20932,1,20539,20788,20789,20540
CQUADX4,20933,1,20540,20789,20790,20541
CQUADX4,20934,1,20541,20790,20791,20542
CQUADX4,20935,1,20542,20791,20792,20543
CQUADX4,20936,1,20543,20792,20793,20544
CQUADX4,20937,1,20544,20793,20794,20545
CQUADX4,20938,1,20545,20794,20795,20546
CQUADX4,20939,1,20546,20795,20796,20547
CQUADX4,20940,1,20547,20796,20797,20548
CQUADX4,20941,1,20548,20797,20798,20549
CQUADX4,20942,1,20549,20798,20799,20550
CQUADX4,20943,1,20550,20799,20800,20551
CQUADX4,20944,1,20551,20800,20801,20552
CQUADX4,20945,1,20553,20802,20803,20554
CQUADX4,20946,1,20554,20803,20804,20555
CQUADX4,20947,1,20555,20804,20805,20556
CQUADX4,20948,1,20556,20805,20806,20557
CQUADX4,20949,1,20557,20806,20807,20558
CQUADX4,20950,1,20558,20807,20808,20559
CQUADX4,20951,1,20559,20808,20809,20560
CQUADX4,20952,1,20560,20809,20810,20561
CQUADX4,20953,1,20561,20810,20811,20562
CQUADX4,20954,1,20562,20811,20812,20563
CQUADX4,20955,1,20563,20812,20813,20564
CQUADX4,20956,1,20564,20813,20814,20565
CQUADX4,20957,1,20565,20814,20815,20566
CQUADX4,20958,1,20566,20815,20816,20567
CQUADX4,20959,1,20567,20816,20817,20568
CQUADX4,20960,1,20568,20817,20818,20569
CQUADX4,20961,1,20569,20818,20819,20570
CQUADX4,20962,1,20570,20819,20820,20571
CQUADX4,20963,1,20571,20820,20821,20572
CQUADX4,20964,1,20572,20821,20822,20573
CQUADX4,20965,1,20573,20822,20823,20574
CQUADX4,20966,1,20574,20823,20824,20575
CQUADX4,20967,1,20575,20824,20825,20576
CQUADX4,20968,1,20576,20825,20826,20577
CQUADX4,20969,1,20577,20826,20827,20578
CQUADX4,20970,1,20578,20827,20828,20579
CQUADX4,20971,1,20579,20828,20829,20580
CQUADX4,20972,1,20580,20829,20830,20581
CQUADX4,20973,1,20581,20830,20831,20582
CQUADX4,20974,1,20582,20831,20832,20583
CQUADX4,20975,1,20583,20832,20833,20584
CQUADX4,20976,1,20584,20833,20834,20585
CQUADX4,20977,1,20585,20834,20835,20586
CQUADX4,20978,1,20586,20835,20836,20587
CQUADX4,20979,1,20587,20836,20837,20588
CQUADX4,20980,1,20588,20837,20838,20589
CQUADX4,20981,1,20589,20838,20839,20590
CQUADX4,20982,1,20590,20839,20840,20591
CQUADX4,20983,1,20591,20840,20841,20592
CQUADX4,20984,1,20592,20841,20842,20593
CQUADX4,20985,1,20593,20842,20843,20594
CQUADX4,20986,1,20594,20843,20844,20595
CQUADX4,20987,1,20595,20844,20845,20596
CQUADX4,20988,1,20596,20845,20846,20597
CQUADX4,20989,1,20597,20846,20847,20598
CQUADX4,20990,1,20598,20847,20848,20599
CQUADX4,20991,1,20599,20848,20849,20600
CQUADX4,20992,1,20600,20849,20850,20601
CQUADX4,20993,1,20601,20850,20851,20602
CQUADX4,20994,1,20602,20851,20852,20603
CQUADX4,20995,1,20603,20852,20853,20604
CQUADX4,20996,1,20604,20853,20854,20605
CQUADX4,20997,1,20605,20854,20855,20606
CQUADX4,20998,1,20606,20855,20856,20607
CQUADX4,20999,1,20607,20856,20857,20608
CQUADX4,21000,1,20608,20857,20858,20609
CQUADX4,21001,1,20609,20858,20859,20610
CQUADX4,21002,1,20610,20859,20860,20611
CQUADX4,21003,1,20611,20860,20861,20612
CQUADX4,21004,1,20612,20861,20862,20613
CQUADX4,21005,1,20613,20862,20863,20614
CQUADX4,21006,1,20614,20863,20864,20615
CQUADX4,21007,1,20615,20864,20865,20616
CQUADX4,21008,1,20616,20865,20866,20617
CQUADX4,21009,1,20617,20866,20867,20618
CQUADX4,21010,1,20618,20867,20868,20619
CQUADX4,21011,1,20619,20868,20869,20620
CQUADX4,21012,1,20620,20869,20870,20621
CQUADX4,21013,1,20621,20870,20871,20622
CQUADX4,21014,1,20622,20871,20872,20623
CQUADX4,21015,1,20623,20872,20873,20624
CQUADX4,21016,1,20624,20873,20874,20625
CQUADX4,21017,1,20625,20874,20875,20626
CQUADX4,21018,1,20626,20875,20876,20627
CQUADX4,21019,1,20627,20876,20877,20628
CQUADX4,21020,1,20628,20877,20878,20629
CQUADX4,21021,1,20629,20878,20879,20630
CQUADX4,21022,1,20630,20879,20880,20631
CQUADX4,21023,1,20631,20880,20881,20632
CQUADX4,21024,1,20632,20881,20882,20633
CQUADX4,21025,1,20633,20882,20883,20634
CQUADX4,21026,1,20634,20883,20884,20635
CQUADX4,21027,1,20635,20884,20885,20636
CQUADX4,21028,1,20636,20885,20886,20637
CQUADX4,21029,1,20637,20886,20887,20638
CQUADX4,21030,1,20638,20887,20888,20639
CQUADX4,21031,1,20639,20888,20889,20640
CQUADX4,21032,1,20640,20889,20890,20641
CQUADX4,21033,1,20641,20890,20891,20642
CQUADX4,21034,1,20642,20891,20892,20643
CQUADX4,21035,1,20643,20892,20893,20644
CQUADX4,21036,1,20644,20893,20894,20645
CQUADX4,21037,1,20645,20894,20895,20646
CQUADX4,21038,1,20646,20895,20896,20647
CQUADX4,21039,1,20647,20896,20897,20648
CQUADX4,21040,1,20648,20897,20898,20649
CQUADX4,21041,1,20649,20898,20899,20650
CQUADX4,21042,1,20650,20899,20900,20651
CQUADX4,21043,1,20651,20900,20901,20652
CQUADX4,21044,1,20652,20901,20902,20653
CQUADX4,21045,1,20653,20902,20903,20654
CQUADX4,21046,1,20654,20903,20904,20655
CQUADX4,21047,1,20655,20904,20905,20656
CQUADX4,21048,1,20656,20905,20906,20657
CQUADX4,21049,1,20657,20906,20907,20658
CQUADX4,21050,1,20658,20907,20908,20659
CQUADX4,21051,1,20659,20908,20909,20660
CQUADX4,21052,1,20660,20909,20910,20661
CQUADX4,21053,1,20661,20910,20911,20662
CQUADX4,21054,1,20662,20911,20912,20663
CQUADX4,21055,1,20663,20912,20913,20664
CQUADX4,21056,1,20664,20913,20914,20665
CQUADX4,21057,1,20665,20914,20915,20666
CQUADX4,21058,1,20666,20915,20916,20667
CQUADX4,21059,1,20667,20916,20917,20668
CQUADX4,21060,1,20668,20917,20918,20669
CQUADX4,21061,1,20669,20918,20919,20670
CQUADX4,21062,1,20670,20919,20920,20671
CQUADX4,21063,1,20671,20920,20921,20672
CQUADX4,21064,1,20672,20921,20922,20673
CQUADX4,21065,1,20673,20922,20923,20674
CQUADX4,21066,1,20674,20923,20924,20675
CQUADX4,21067,1,20675,20924,20925,20676
CQUADX4,21068,1,20676,20925,20926,20677
CQUADX4,21069,1,20677,20926,20927,20678
CQUADX4,21070,1,20678,20927,20928,20679
CQUADX4,21071,1,20679,20928,20929,20680
CQUADX4,21072,1,20680,20929,20930,20681
CQUADX4,21073,1,20681,20930,20931,20682
CQUADX4,21074,1,20682,20931,20932,20683
CQUADX4,21075,1,20683,20932,20933,20684
CQUADX4,21076,1,20684,20933,20934,20685
CQUADX4,21077,1,20685,20934,20935,20686
CQUADX4,21078,1,20686,20935,20936,20687
CQUADX4,21079,1,20687,20936,20937,20688
CQUADX4,21080,1,20688,20937,20938,20689
CQUADX4,21081,1,20689,20938,20939,20690
CQUADX4,21082,1,20690,20939,20940,20691
CQUADX4,21083,1,20691,20940,20941,20692
CQUADX4,21084,1,20692,20941,20942,20693
CQUADX4,21085,1,20693,20942,20943,20694
CQUADX4,21086,1,20694,20943,20944,20695
CQUADX4,21087,1,20695,20944,20945,20696
CQUADX4,21088,1,20696,20945,20946,20697
CQUADX4,21089,1,20697,20946,20947,20698
CQUADX4,21090,1,20698,20947,20948,20699
CQUADX4,21091,1,20699,20948,20949,20700
CQUADX4,21092,1,20700,20949,20950,20701
CQUADX4,21093,1,20701,20950,20951,20702
CQUADX4,21094,1,20702,20951,20952,20703
CQUADX4,21095,1,20703,20952,20953,20704
CQUADX4,21096,1,20704,20953,20954,20705
CQUADX4,21097,1,20705,20954,20955,20706
CQUADX4,21098,1,20706,20955,20956,20707
CQUADX4,21099,1,20707,20956,20957,20708
CQUADX4,21100,1,20708,20957,20958,20709
CQUADX4,21101,1,20709,20958,20959,20710
CQUADX4,21102,1,20710,20959,20960,20711
CQUADX4,21103,1,20711,20960,20961,20712
CQUADX4,21104,1,20712,20961,20962,20713
CQUADX4,21105,1,20713,20962,20963,20714
CQUADX4,21106,1,20714,20963,20964,20715
CQUADX4,21107,1,20715,20964,20965,20716
CQUADX4,21108,1,20716,20965,20966,20717
CQUADX4,21109,1,20717,20966,20967,20718
CQUADX4,21110,1,20718,20967,20968,20719
CQUADX4,21111,1,20719,20968,20969,20720
CQUADX4,21112,1,20720,20969,20970,20721
CQUADX4,21113,1,20721,20970,20971,20722
CQUADX4,21114,1,20722,20971,20972,20723
CQUADX4,21115,1,20723,20972,20973,20724
CQUADX4,21116,1,20724,20973,20974,20725
CQUADX4,21117,1,20725,20974,20975,20726
CQUADX4,21118,1,20726,20975,20976,20727
CQUADX4,21119,1,20727,20976,20977,20728
CQUADX4,21120,1,20728,20977,20978,20729
CQUADX4,21121,1,20729,20978,20979,20730
CQUADX4,21122,1,20730,20979,20980,20731
CQUADX4,21123,1,20731,20980,20981,20732
CQUADX4,21124,1,20732,20981,20982,20733
CQUADX4,21125,1,20733,20982,20983,20734
CQUADX4,21126,1,20734,20983,20984,20735
CQUADX4,21127,1,20735,20984,20985,20736
CQUADX4,21128,1,20736,20985,20986,20737
CQUADX4,21129,1,20737,20986,20987,20738
CQUADX4,21130,1,20738,20987,20988,20739
CQUADX4,21131,1,20739,20988,20989,20740
CQUADX4,21132,1,20740,20989,20990,20741
CQUADX4,21133,1,20741,20990,20991,20742
CQUADX4,21134,1,20742,20991,20992,20743
CQUADX4,21135,1,20743,20992,20993,20744
CQUADX4,21136,1,20744,20993,20994,20745
CQUADX4,21137,1,20745,20994,20995,20746
CQUADX4,21138,1,20746,20995,20996,20747
CQUADX4,21139,1,20747,20996,20997,20748
CQUADX4,21140,1,20748,20997,20998,20749
CQUADX4,21141,1,20749,20998,20999,20750
CQUADX4,21142,1,20750,20999,21000,20751
CQUADX4,21143,1,20751,21000,21001,20752
CQUADX4,21144,1,20752,21001,21002,20753
CQUADX4,21145,1,20753,21002,21003,20754
CQUADX4,21146,1,20754,21003,21004,20755
CQUADX4,21147,1,20755,21004,21005,20756
CQUADX4,21148,1,20756,21005,21006,20757
CQUADX4,21149,1,20757,21006,21007,20758
CQUADX4,21150,1,20758,21007,21008,20759
CQUADX4,21151,1,20759,21008,21009,20760
CQUADX4,21152,1,20760,21009,21010,20761
CQUADX4,21153,1,20761,21010,21011,20762
CQUADX4,21154,1,20762,21011,21012,20763
CQUADX4,21155,1,20763,21012,21013,20764
CQUADX4,21156,1,20764,21013,21014,20765
CQUADX4,21157,1,20765,21014,21015,20766
CQUADX4,21158,1,20766,21015,21016,20767
CQUADX4,21159,1,20767,21016,21017,20768
CQUADX4,21160,1,20768,21017,21018,20769
CQUADX4,21161,1,20769,21018,21019,20770
CQUADX4,21162,1,20770,21019,21020,20771
CQUADX4,21163,1,20771,21020,21021,20772
CQUADX4,21164,1,20772,21021,21022,20773
CQUADX4,21165,1,20773,21022,21023,20774
CQUADX4,21166,1,20774,21023,21024,20775
CQUADX4,21167,1,20775,21024,21025,20776
CQUADX4,21168,1,20776,21025,21026,20777
CQUADX4,21169,1,20777,21026,21027,20778
CQUADX4,21170,1,20778,21027,21028,20779
CQUADX4,21171,1,20779,21028,21029,20780
CQUADX4,21172,1,20780,21029,21030,20781
CQUADX4,21173,1,20781,21030,21031,20782
CQUADX4,21174,1,20782,21031,21032,20783
CQUADX4,21175,1,20783,21032,21033,20784
CQUADX4,21176,1,20784,21033,21034,20785
CQUADX4,21177,1,20785,21034,21035,20786
CQUADX4,21178,1,20786,21035,21036,20787
CQUADX4,21179,1,20787,21036,21037,20788
CQUADX4,21180,1,20788,21037,21038,20789
CQUADX4,21181,1,20789,21038,21039,20790
CQUADX4,21182,1,20790,21039,21040,20791
CQUADX4,21183,1,20791,21040,21041,20792
CQUADX4,21184,1,20792,21041,21042,20793
CQUADX4,21185,1,20793,21042,21043,20794
CQUADX4,21186,1,20794,21043,21044,20795
CQUADX4,21187,1,20795,21044,21045,20796
CQUADX4,21188,1,20796,21045,21046,20797
CQUADX4,21189,1,20797,21046,21047,20798
CQUADX4,21190,1,20798,21047,21048,20799
CQUADX4,21191,1,20799,21048,21049,20800
CQUADX4,21192,1,20800,21049,21050,20801
CQUADX4,21193,1,20802,21051,21052,20803
CQUADX4,21194,1,20803,21052,21053,20804
CQUADX4,21195,1,20804,21053,21054,20805
CQUADX4,21196,1,20805,21054,21055,20806
CQUADX4,21197,1,20806,21055,21056,20807
CQUADX4,21198,1,20807,21056,21057,20808
CQUADX4,21199,1,20808,21057,21058,20809
CQUADX4,21200,1,20809,21058,21059,20810
CQUADX4,21201,1,20810,21059,21060,20811
CQUADX4,21202,1,20811,21060,21061,20812
CQUADX4,21203,1,20812,21061,21062,20813
CQUADX4,21204,1,20813,21062,21063,20814
CQUADX4,21205,1,20814,21063,21064,20815
CQUADX4,21206,1,20815,21064,21065,20816
CQUADX4,21207,1,20816,21065,21066,20817
CQUADX4,21208,1,20817,21066,21067,20818
CQUADX4,21209,1,20818,21067,21068,20819
CQUADX4,21210,1,20819,21068,21069,20820
CQUADX4,21211,1,20820,21069,21070,20821
CQUADX4,21212,1,20821,21070,21071,20822
CQUADX4,21213,1,20822,21071,21072,20823
CQUADX4,21214,1,20823,21072,21073,20824
CQUADX4,21215,1,20824,21073,21074,20825
CQUADX4,21216,1,20825,21074,21075,20826
CQUADX4,21217,1,20826,21075,21076,20827
CQUADX4,21218,1,20827,21076,21077,20828
CQUADX4,21219,1,20828,21077,21078,20829
CQUADX4,21220,1,20829,21078,21079,20830
CQUADX4,21221,1,20830,21079,21080,20831
CQUADX4,21222,1,20831,21080,21081,20832
CQUADX4,21223,1,20832,21081,21082,20833
CQUADX4,21224,1,20833,21082,21083,20834
CQUADX4,21225,1,20834,21083,21084,20835
CQUADX4,21226,1,20835,21084,21085,20836
CQUADX4,21227,1,20836,21085,21086,20837
CQUADX4,21228,1,20837,21086,21087,20838
CQUADX4,21229,1,20838,21087,21088,20839
CQUADX4,21230,1,20839,21088,21089,20840
CQUADX4,21231,1,20840,21089,21090,20841
CQUADX4,21232,1,20841,21090,21091,20842
CQUADX4,21233,1,20842,21091,21092,20843
CQUADX4,21234,1,20843,21092,21093,20844
CQUADX4,21235,1,20844,21093,21094,20845
CQUADX4,21236,1,20845,21094,21095,20846
CQUADX4,21237,1,20846,21095,21096,20847
CQUADX4,21238,1,20847,21096,21097,20848
CQUADX4,21239,1,20848,21097,21098,20849
CQUADX4,21240,1,20849,21098,21099,20850
CQUADX4,21241,1,20850,21099,21100,20851
CQUADX4,21242,1,20851,21100,21101,20852
CQUADX4,21243,1,20852,21101,21102,20853
CQUADX4,21244,1,20853,21102,21103,20854
CQUADX4,21245,1,20854,21103,21104,20855
CQUADX4,21246,1,20855,21104,21105,20856
CQUADX4,21247,1,20856,21105,21106,20857
CQUADX4,21248,1,20857,21106,21107,20858
CQUADX4,21249,1,20858,21107,21108,20859
CQUADX4,21250,1,20859,21108,21109,20860
CQUADX4,21251,1,20860,21109,21110,20861
CQUADX4,21252,1,20861,21110,21111,20862
CQUADX4,21253,1,20862,21111,21112,20863
CQUADX4,21254,1,20863,21112,21113,20864
CQUADX4,21255,1,20864,21113,21114,20865
CQUADX4,21256,1,20865,21114,21115,20866
CQUADX4,21257,1,20866,21115,21116,20867
CQUADX4,21258,1,20867,21116,21117,20868
CQUADX4,21259,1,20868,21117,21118,20869
CQUADX4,21260,1,20869,21118,21119,20870
CQUADX4,21261,1,20870,21119,21120,20871
CQUADX4,21262,1,20871,21120,21121,20872
CQUADX4,21263,1,20872,21121,21122,20873
CQUADX4,21264,1,20873,21122,21123,20874
CQUADX4,21265,1,20874,21123,21124,20875
CQUADX4,21266,1,20875,21124,21125,20876
CQUADX4,21267,1,20876,21125,21126,20877
CQUADX4,21268,1,20877,21126,21127,20878
CQUADX4,21269,1,20878,21127,21128,20879
CQUADX4,21270,1,20879,21128,21129,20880
CQUADX4,21271,1,20880,21129,21130,20881
CQUADX4,21272,1,20881,21130,21131,20882
CQUADX4,21273,1,20882,21131,21132,20883
CQUADX4,21274,1,20883,21132,21133,20884
CQUADX4,21275,1,20884,21133,21134,20885
CQUADX4,21276,1,20885,21134,21135,20886
CQUADX4,21277,1,20886,21135,21136,20887
CQUADX4,21278,1,20887,21136,21137,20888
CQUADX4,21279,1,20888,21137,21138,20889
CQUADX4,21280,1,20889,21138,21139,20890
CQUADX4,21281,1,20890,21139,21140,20891
CQUADX4,21282,1,20891,21140,21141,20892
CQUADX4,21283,1,20892,21141,21142,20893
CQUADX4,21284,1,20893,21142,21143,20894
CQUADX4,21285,1,20894,21143,21144,20895
CQUADX4,21286,1,20895,21144,21145,20896
CQUADX4,21287,1,20896,21145,21146,20897
CQUADX4,21288,1,20897,21146,21147,20898
CQUADX4,21289,1,20898,21147,21148,20899
CQUADX4,21290,1,20899,21148,21149,20900
CQUADX4,21291,1,20900,21149,21150,20901
CQUADX4,21292,1,20901,21150,21151,20902
CQUADX4,21293,1,20902,21151,21152,20903
CQUADX4,21294,1,20903,21152,21153,20904
CQUADX4,21295,1,20904,21153,21154,20905
CQUADX4,21296,1,20905,21154,21155,20906
CQUADX4,21297,1,20906,21155,21156,20907
CQUADX4,21298,1,20907,21156,21157,20908
CQUADX4,21299,1,20908,21157,21158,20909
CQUADX4,21300,1,20909,21158,21159,20910
CQUADX4,21301,1,20910,21159,21160,20911
CQUADX4,21302,1,20911,21160,21161,20912
CQUADX4,21303,1,20912,21161,21162,20913
CQUADX4,21304,1,20913,21162,21163,20914
CQUADX4,21305,1,20914,21163,21164,20915
CQUADX4,21306,1,20915,21164,21165,20916
CQUADX4,21307,1,20916,21165,21166,20917
CQUADX4,21308,1,20917,21166,21167,20918
CQUADX4,21309,1,20918,21167,21168,20919
CQUADX4,21310,1,20919,21168,21169,20920
CQUADX4,21311,1,20920,21169,21170,20921
CQUADX4,21312,1,20921,21170,21171,20922
CQUADX4,21313,1,20922,21171,21172,20923
CQUADX4,21314,1,20923,21172,21173,20924
CQUADX4,21315,1,20924,21173,21174,20925
CQUADX4,21316,1,20925,21174,21175,20926
CQUADX4,21317,1,20926,21175,21176,20927
CQUADX4,21318,1,20927,21176,21177,20928
CQUADX4,21319,1,20928,21177,21178,20929
CQUADX4,21320,1,20929,21178,21179,20930
CQUADX4,21321,1,20930,21179,21180,20931
CQUADX4,21322,1,20931,21180,21181,20932
CQUADX4,21323,1,20932,21181,21182,20933
CQUADX4,21324,1,20933,21182,21183,20934
CQUADX4,21325,1,20934,21183,21184,20935
CQUADX4,21326,1,20935,21184,21185,20936
CQUADX4,21327,1,20936,21185,21186,20937
CQUADX4,21328,1,20937,21186,21187,20938
CQUADX4,21329,1,20938,21187,21188,20939
CQUADX4,21330,1,20939,21188,21189,20940
CQUADX4,21331,1,20940,21189,21190,20941
CQUADX4,21332,1,20941,21190,21191,20942
CQUADX4,21333,1,20942,21191,21192,20943
CQUADX4,21334,1,20943,21192,21193,20944
CQUADX4,21335,1,20944,21193,21194,20945
CQUADX4,21336,1,20945,21194,21195,20946
CQUADX4,21337,1,20946,21195,21196,20947
CQUADX4,21338,1,20947,21196,21197,20948
CQUADX4,21339,1,20948,21197,21198,20949
CQUADX4,21340,1,20949,21198,21199,20950
CQUADX4,21341,1,20950,21199,21200,20951
CQUADX4,21342,1,20951,21200,21201,20952
CQUADX4,21343,1,20952,21201,21202,20953
CQUADX4,21344,1,20953,21202,21203,20954
CQUADX4,21345,1,20954,21203,21204,20955
CQUADX4,21346,1,20955,21204,21205,20956
CQUADX4,21347,1,20956,21205,21206,20957
CQUADX4,21348,1,20957,21206,21207,20958
CQUADX4,21349,1,20958,21207,21208,20959
CQUADX4,21350,1,20959,21208,21209,20960
CQUADX4,21351,1,20960,21209,21210,20961
CQUADX4,21352,1,20961,21210,21211,20962
CQUADX4,21353,1,20962,21211,21212,20963
CQUADX4,21354,1,20963,21212,21213,20964
CQUADX4,21355,1,20964,21213,21214,20965
CQUADX4,21356,1,20965,21214,21215,20966
CQUADX4,21357,1,20966,21215,21216,20967
CQUADX4,21358,1,20967,21216,21217,20968
CQUADX4,21359,1,20968,21217,21218,20969
CQUADX4,21360,1,20969,21218,21219,20970
CQUADX4,21361,1,20970,21219,21220,20971
CQUADX4,21362,1,20971,21220,21221,20972
CQUADX4,21363,1,20972,21221,21222,20973
CQUADX4,21364,1,20973,21222,21223,20974
CQUADX4,21365,1,20974,21223,21224,20975
CQUADX4,21366,1,20975,21224,21225,20976
CQUADX4,21367,1,20976,21225,21226,20977
CQUADX4,21368,1,20977,21226,21227,20978
CQUADX4,21369,1,20978,21227,21228,20979
CQUADX4,21370,1,20979,21228,21229,20980
CQUADX4,21371,1,20980,21229,21230,20981
CQUADX4,21372,1,20981,21230,21231,20982
CQUADX4,21373,1,20982,21231,21232,20983
CQUADX4,21374,1,20983,21232,21233,20984
CQUADX4,21375,1,20984,21233,21234,20985
CQUADX4,21376,1,20985,21234,21235,20986
CQUADX4,21377,1,20986,21235,21236,20987
CQUADX4,21378,1,20987,21236,21237,20988
CQUADX4,21379,1,20988,21237,21238,20989
CQUADX4,21380,1,20989,21238,21239,20990
CQUADX4,21381,1,20990,21239,21240,20991
CQUADX4,21382,1,20991,21240,21241,20992
CQUADX4,21383,1,20992,21241,21242,20993
CQUADX4,21384,1,20993,21242,21243,20994
CQUADX4,21385,1,20994,21243,21244,20995
CQUADX4,21386,1,20995,21244,21245,20996
CQUADX4,21387,1,20996,21245,21246,20997
CQUADX4,21388,1,20997,21246,21247,20998
CQUADX4,21389,1,20998,21247,21248,20999
CQUADX4,21390,1,20999,21248,21249,21000
CQUADX4,21391,1,21000,21249,21250,21001
CQUADX4,21392,1,21001,21250,21251,21002
CQUADX4,21393,1,21002,21251,21252,21003
CQUADX4,21394,1,21003,21252,21253,21004
CQUADX4,21395,1,21004,21253,21254,21005
CQUADX4,21396,1,21005,21254,21255,21006
CQUADX4,21397,1,21006,21255,21256,21007
CQUADX4,21398,1,21007,21256,21257,21008
CQUADX4,21399,1,21008,21257,21258,21009
CQUADX4,21400,1,21009,21258,21259,21010
CQUADX4,21401,1,21010,21259,21260,21011
CQUADX4,21402,1,21011,21260,21261,21012
CQUADX4,21403,1,21012,21261,21262,21013
CQUADX4,21404,1,21013,21262,21263,21014
CQUADX4,21405,1,21014,21263,21264,21015
CQUADX4,21406,1,21015,21264,21265,21016
CQUADX4,21407,1,21016,21265,21266,21017
CQUADX4,21408,1,21017,21266,21267,21018
CQUADX4,21409,1,21018,21267,21268,21019
CQUADX4,21410,1,21019,21268,21269,21020
CQUADX4,21411,1,21020,21269,21270,21021
CQUADX4,21412,1,21021,21270,21271,21022
CQUADX4,21413,1,21022,21271,21272,21023
CQUADX4,21414,1,21023,21272,21273,21024
CQUADX4,21415,1,21024,21273,21274,21025
CQUADX4,21416,1,21025,21274,21275,21026
CQUADX4,21417,1,21026,21275,21276,21027
CQUADX4,21418,1,21027,21276,21277,21028
CQUADX4,21419,1,21028,21277,21278,21029
CQUADX4,21420,1,21029,21278,21279,21030
CQUADX4,21421,1,21030,21279,21280,21031
CQUADX4,21422,1,21031,21280,21281,21032
CQUADX4,21423,1,21032,21281,21282,21033
CQUADX4,21424,1,21033,21282,21283,21034
CQUADX4,21425,1,21034,21283,21284,21035
CQUADX4,21426,1,21035,21284,21285,21036
CQUADX4,21427,1,21036,21285,21286,21037
CQUADX4,21428,1,21037,21286,21287,21038
CQUADX4,21429,1,21038,21287,21288,21039
CQUADX4,21430,1,21039,21288,21289,21040
CQUADX4,21431,1,21040,21289,21290,21041
CQUADX4,21432,1,21041,21290,21291,21042
CQUADX4,21433,1,21042,21291,21292,21043
CQUADX4,21434,1,21043,21292,21293,21044
CQUADX4,21435,1,21044,21293,21294,21045
CQUADX4,21436,1,21045,21294,21295,21046
CQUADX4,21437,1,21046,21295,21296,21047
CQUADX4,21438,1,21047,21296,21297,21048
CQUADX4,21439,1,21048,21297,21298,21049
CQUADX4,21440,1,21049,21298,21299,21050
CQUADX4,21441,1,21051,21300,21301,21052
CQUADX4,21442,1,21052,21301,21302,21053
CQUADX4,21443,1,21053,21302,21303,21054
CQUADX4,21444,1,21054,21303,21304,21055
CQUADX4,21445,1,21055,21304,21305,21056
CQUADX4,21446,1,21056,21305,21306,21057
CQUADX4,21447,1,21057,21306,21307,21058
CQUADX4,21448,1,21058,21307,21308,21059
CQUADX4,21449,1,21059,21308,21309,21060
CQUADX4,21450,1,21060,21309,21310,21061
CQUADX4,21451,1,21061,21310,21311,21062
CQUADX4,21452,1,21062,21311,21312,21063
CQUADX4,21453,1,21063,21312,21313,21064
CQUADX4,21454,1,21064,21313,21314,21065
CQUADX4,21455,1,21065,21314,21315,21066
CQUADX4,21456,1,21066,21315,21316,21067
CQUADX4,21457,1,21067,21316,21317,21068
CQUADX4,21458,1,21068,21317,21318,21069
CQUADX4,21459,1,21069,21318,21319,21070
CQUADX4,21460,1,21070,21319,21320,21071
CQUADX4,21461,1,21071,21320,21321,21072
CQUADX4,21462,1,21072,21321,21322,21073
CQUADX4,21463,1,21073,21322,21323,21074
CQUADX4,21464,1,21074,21323,21324,21075
CQUADX4,21465,1,21075,21324,21325,21076
CQUADX4,21466,1,21076,21325,21326,21077
CQUADX4,21467,1,21077,21326,21327,21078
CQUADX4,21468,1,21078,21327,21328,21079
CQUADX4,21469,1,21079,21328,21329,21080
CQUADX4,21470,1,21080,21329,21330,21081
CQUADX4,21471,1,21081,21330,21331,21082
CQUADX4,21472,1,21082,21331,21332,21083
CQUADX4,21473,1,21083,21332,21333,21084
CQUADX4,21474,1,21084,21333,21334,21085
CQUADX4,21475,1,21085,21334,21335,21086
CQUADX4,21476,1,21086,21335,21336,21087
CQUADX4,21477,1,21087,21336,21337,21088
CQUADX4,21478,1,21088,21337,21338,21089
CQUADX4,21479,1,21089,21338,21339,21090
CQUADX4,21480,1,21090,21339,21340,21091
CQUADX4,21481,1,21091,21340,21341,21092
CQUADX4,21482,1,21092,21341,21342,21093
CQUADX4,21483,1,21093,21342,21343,21094
CQUADX4,21484,1,21094,21343,21344,21095
CQUADX4,21485,1,21095,21344,21345,21096
CQUADX4,21486,1,21096,21345,21346,21097
CQUADX4,21487,1,21097,21346,21347,21098
CQUADX4,21488,1,21098,21347,21348,21099
CQUADX4,21489,1,21099,21348,21349,21100
CQUADX4,21490,1,21100,21349,21350,21101
CQUADX4,21491,1,21101,21350,21351,21102
CQUADX4,21492,1,21102,21351,21352,21103
CQUADX4,21493,1,21103,21352,21353,21104
CQUADX4,21494,1,21104,21353,21354,21105
CQUADX4,21495,1,21105,21354,21355,21106
CQUADX4,21496,1,21106,21355,21356,21107
CQUADX4,21497,1,21107,21356,21357,21108
CQUADX4,21498,1,21108,21357,21358,21109
CQUADX4,21499,1,21109,21358,21359,21110
CQUADX4,21500,1,21110,21359,21360,21111
CQUADX4,21501,1,21111,21360,21361,21112
CQUADX4,21502,1,21112,21361,21362,21113
CQUADX4,21503,1,21113,21362,21363,21114
CQUADX4,21504,1,21114,21363,21364,21115
CQUADX4,21505,1,21115,21364,21365,21116
CQUADX4,21506,1,21116,21365,21366,21117
CQUADX4,21507,1,21117,21366,21367,21118
CQUADX4,21508,1,21118,21367,21368,21119
CQUADX4,21509,1,21119,21368,21369,21120
CQUADX4,21510,1,21120,21369,21370,21121
CQUADX4,21511,1,21121,21370,21371,21122
CQUADX4,21512,1,21122,21371,21372,21123
CQUADX4,21513,1,21123,21372,21373,21124
CQUADX4,21514,1,21124,21373,21374,21125
CQUADX4,21515,1,21125,21374,21375,21126
CQUADX4,21516,1,21126,21375,21376,21127
CQUADX4,21517,1,21127,21376,21377,21128
CQUADX4,21518,1,21128,21377,21378,21129
CQUADX4,21519,1,21129,21378,21379,21130
CQUADX4,21520,1,21130,21379,21380,21131
CQUADX4,21521,1,21131,21380,21381,21132
CQUADX4,21522,1,21132,21381,21382,21133
CQUADX4,21523,1,21133,21382,21383,21134
CQUADX4,21524,1,21134,21383,21384,21135
CQUADX4,21525,1,21135,21384,21385,21136
CQUADX4,21526,1,21136,21385,21386,21137
CQUADX4,21527,1,21137,21386,21387,21138
CQUADX4,21528,1,21138,21387,21388,21139
CQUADX4,21529,1,21139,21388,21389,21140
CQUADX4,21530,1,21140,21389,21390,21141
CQUADX4,21531,1,21141,21390,21391,21142
CQUADX4,21532,1,21142,21391,21392,21143
CQUADX4,21533,1,21143,21392,21393,21144
CQUADX4,21534,1,21144,21393,21394,21145
CQUADX4,21535,1,21145,21394,21395,21146
CQUADX4,21536,1,21146,21395,21396,21147
CQUADX4,21537,1,21147,21396,21397,21148
CQUADX4,21538,1,21148,21397,21398,21149
CQUADX4,21539,1,21149,21398,21399,21150
CQUADX4,21540,1,21150,21399,21400,21151
CQUADX4,21541,1,21151,21400,21401,21152
CQUADX4,21542,1,21152,21401,21402,21153
CQUADX4,21543,1,21153,21402,21403,21154
CQUADX4,21544,1,21154,21403,21404,21155
CQUADX4,21545,1,21155,21404,21405,21156
CQUADX4,21546,1,21156,21405,21406,21157
CQUADX4,21547,1,21157,21406,21407,21158
CQUADX4,21548,1,21158,21407,21408,21159
CQUADX4,21549,1,21159,21408,21409,21160
CQUADX4,21550,1,21160,21409,21410,21161
CQUADX4,21551,1,21161,21410,21411,21162
CQUADX4,21552,1,21162,21411,21412,21163
CQUADX4,21553,1,21163,21412,21413,21164
CQUADX4,21554,1,21164,21413,21414,21165
CQUADX4,21555,1,21165,21414,21415,21166
CQUADX4,21556,1,21166,21415,21416,21167
CQUADX4,21557,1,21167,21416,21417,21168
CQUADX4,21558,1,21168,21417,21418,21169
CQUADX4,21559,1,21169,21418,21419,21170
CQUADX4,21560,1,21170,21419,21420,21171
CQUADX4,21561,1,21171,21420,21421,21172
CQUADX4,21562,1,21172,21421,21422,21173
CQUADX4,21563,1,21173,21422,21423,21174
CQUADX4,21564,1,21174,21423,21424,21175
CQUADX4,21565,1,21175,21424,21425,21176
CQUADX4,21566,1,21176,21425,21426,21177
CQUADX4,21567,1,21177,21426,21427,21178
CQUADX4,21568,1,21178,21427,21428,21179
CQUADX4,21569,1,21179,21428,21429,21180
CQUADX4,21570,1,21180,21429,21430,21181
CQUADX4,21571,1,21181,21430,21431,21182
CQUADX4,21572,1,21182,21431,21432,21183
CQUADX4,21573,1,21183,21432,21433,21184
CQUADX4,21574,1,21184,21433,21434,21185
CQUADX4,21575,1,21185,21434,21435,21186
CQUADX4,21576,1,21186,21435,21436,21187
CQUADX4,21577,1,21187,21436,21437,21188
CQUADX4,21578,1,21188,21437,21438,21189
CQUADX4,21579,1,21189,21438,21439,21190
CQUADX4,21580,1,21190,21439,21440,21191
CQUADX4,21581,1,21191,21440,21441,21192
CQUADX4,21582,1,21192,21441,21442,21193
CQUADX4,21583,1,21193,21442,21443,21194
CQUADX4,21584,1,21194,21443,21444,21195
CQUADX4,21585,1,21195,21444,21445,21196
CQUADX4,21586,1,21196,21445,21446,21197
CQUADX4,21587,1,21197,21446,21447,21198
CQUADX4,21588,1,21198,21447,21448,21199
CQUADX4,21589,1,21199,21448,21449,21200
CQUADX4,21590,1,21200,21449,21450,21201
CQUADX4,21591,1,21201,21450,21451,21202
CQUADX4,21592,1,21202,21451,21452,21203
CQUADX4,21593,1,21203,21452,21453,21204
CQUADX4,21594,1,21204,21453,21454,21205
CQUADX4,21595,1,21205,21454,21455,21206
CQUADX4,21596,1,21206,21455,21456,21207
CQUADX4,21597,1,21207,21456,21457,21208
CQUADX4,21598,1,21208,21457,21458,21209
CQUADX4,21599,1,21209,21458,21459,21210
CQUADX4,21600,1,21210,21459,21460,21211
CQUADX4,21601,1,21211,21460,21461,21212
CQUADX4,21602,1,21212,21461,21462,21213
CQUADX4,21603,1,21213,21462,21463,21214
CQUADX4,21604,1,21214,21463,21464,21215
CQUADX4,21605,1,21215,21464,21465,21216
CQUADX4,21606,1,21216,21465,21466,21217
CQUADX4,21607,1,21217,21466,21467,21218
CQUADX4,21608,1,21218,21467,21468,21219
CQUADX4,21609,1,21219,21468,21469,21220
CQUADX4,21610,1,21220,21469,21470,21221
CQUADX4,21611,1,21221,21470,21471,21222
CQUADX4,21612,1,21222,21471,21472,21223
CQUADX4,21613,1,21223,21472,21473,21224
CQUADX4,21614,1,21224,21473,21474,21225
CQUADX4,21615,1,21225,21474,21475,21226
CQUADX4,21616,1,21226,21475,21476,21227
CQUADX4,21617,1,21227,21476,21477,21228
CQUADX4,21618,1,21228,21477,21478,21229
CQUADX4,21619,1,21229,21478,21479,21230
CQUADX4,21620,1,21230,21479,21480,21231
CQUADX4,21621,1,21231,21480,21481,21232
CQUADX4,21622,1,21232,21481,21482,21233
CQUADX4,21623,1,21233,21482,21483,21234
CQUADX4,21624,1,21234,21483,21484,21235
CQUADX4,21625,1,21235,21484,21485,21236
CQUADX4,21626,1,21236,21485,21486,21237
CQUADX4,21627,1,21237,21486,21487,21238
CQUADX4,21628,1,21238,21487,21488,21239
CQUADX4,21629,1,21239,21488,21489,21240
CQUADX4,21630,1,21240,21489,21490,21241
CQUADX4,21631,1,21241,21490,21491,21242
CQUADX4,21632,1,21242,21491,21492,21243
CQUADX4,21633,1,21243,21492,21493,21244
CQUADX4,21634,1,21244,21493,21494,21245
CQUADX4,21635,1,21245,21494,21495,21246
CQUADX4,21636,1,21246,21495,21496,21247
CQUADX4,21637,1,21247,21496,21497,21248
CQUADX4,21638,1,21248,21497,21498,21249
CQUADX4,21639,1,21249,21498,21499,21250
CQUADX4,21640,1,21250,21499,21500,21251
CQUADX4,21641,1,21251,21500,21501,21252
CQUADX4,21642,1,21252,21501,21502,21253
CQUADX4,21643,1,21253,21502,21503,21254
CQUADX4,21644,1,21254,21503,21504,21255
CQUADX4,21645,1,21255,21504,21505,21256
CQUADX4,21646,1,21256,21505,21506,21257
CQUADX4,21647,1,21257,21506,21507,21258
CQUADX4,21648,1,21258,21507,21508,21259
CQUADX4,21649,1,21259,21508,21509,21260
CQUADX4,21650,1,21260,21509,21510,21261
CQUADX4,21651,1,21261,21510,21511,21262
CQUADX4,21652,1,21262,21511,21512,21263
CQUADX4,21653,1,21263,21512,21513,21264
CQUADX4,21654,1,21264,21513,21514,21265
CQUADX4,21655,1,21265,21514,21515,21266
CQUADX4,21656,1,21266,21515,21516,21267
CQUADX4,21657,1,21267,21516,21517,21268
CQUADX4,21658,1,21268,21517,21518,21269
CQUADX4,21659,1,21269,21518,21519,21270
CQUADX4,21660,1,21270,21519,21520,21271
CQUADX4,21661,1,21271,21520,21521,21272
CQUADX4,21662,1,21272,21521,21522,21273
CQUADX4,21663,1,21273,21522,21523,21274
CQUADX4,21664,1,21274,21523,21524,21275
CQUADX4,21665,1,21275,21524,21525,21276
CQUADX4,21666,1,21276,21525,21526,21277
CQUADX4,21667,1,21277,21526,21527,21278
CQUADX4,21668,1,21278,21527,21528,21279
CQUADX4,21669,1,21279,21528,21529,21280
CQUADX4,21670,1,21280,21529,21530,21281
CQUADX4,21671,1,21281,21530,21531,21282
CQUADX4,21672,1,21282,21531,21532,21283
CQUADX4,21673,1,21283,21532,21533,21284
CQUADX4,21674,1,21284,21533,21534,21285
CQUADX4,21675,1,21285,21534,21535,21286
CQUADX4,21676,1,21286,21535,21536,21287
CQUADX4,21677,1,21287,21536,21537,21288
CQUADX4,21678,1,21288,21537,21538,21289
CQUADX4,21679,1,21289,21538,21539,21290
CQUADX4,21680,1,21290,21539,21540,21291
CQUADX4,21681,1,21291,21540,21541,21292
CQUADX4,21682,1,21292,21541,21542,21293
CQUADX4,21683,1,21293,21542,21543,21294
CQUADX4,21684,1,21294,21543,21544,21295
CQUADX4,21685,1,21295,21544,21545,21296
CQUADX4,21686,1,21296,21545,21546,21297
CQUADX4,21687,1,21297,21546,21547,21298
CQUADX4,21688,1,21298,21547,21548,21299
CQUADX4,21689,1,21300,21549,21550,21301
CQUADX4,21690,1,21301,21550,21551,21302
CQUADX4,21691,1,21302,21551,21552,21303
CQUADX4,21692,1,21303,21552,21553,21304
CQUADX4,21693,1,21304,21553,21554,21305
CQUADX4,21694,1,21305,21554,21555,21306
CQUADX4,21695,1,21306,21555,21556,21307
CQUADX4,21696,1,21307,21556,21557,21308
CQUADX4,21697,1,21308,21557,21558,21309
CQUADX4,21698,1,21309,21558,21559,21310
CQUADX4,21699,1,21310,21559,21560,21311
CQUADX4,21700,1,21311,21560,21561,21312
CQUADX4,21701,1,21312,21561,21562,21313
CQUADX4,21702,1,21313,21562,21563,21314
CQUADX4,21703,1,21314,21563,21564,21315
CQUADX4,21704,1,21315,21564,21565,21316
CQUADX4,21705,1,21316,21565,21566,21317
CQUADX4,21706,1,21317,21566,21567,21318
CQUADX4,21707,1,21318,21567,21568,21319
CQUADX4,21708,1,21319,21568,21569,21320
CQUADX4,21709,1,21320,21569,21570,21321
CQUADX4,21710,1,21321,21570,21571,21322
CQUADX4,21711,1,21322,21571,21572,21323
CQUADX4,21712,1,21323,21572,21573,21324
CQUADX4,21713,1,21324,21573,21574,21325
CQUADX4,21714,1,21325,21574,21575,21326
CQUADX4,21715,1,21326,21575,21576,21327
CQUADX4,21716,1,21327,21576,21577,21328
CQUADX4,21717,1,21328,21577,21578,21329
CQUADX4,21718,1,21329,21578,21579,21330
CQUADX4,21719,1,21330,21579,21580,21331
CQUADX4,21720,1,21331,21580,21581,21332
CQUADX4,21721,1,21332,21581,21582,21333
CQUADX4,21722,1,21333,21582,21583,21334
CQUADX4,21723,1,21334,21583,21584,21335
CQUADX4,21724,1,21335,21584,21585,21336
CQUADX4,21725,1,21336,21585,21586,21337
CQUADX4,21726,1,21337,21586,21587,21338
CQUADX4,21727,1,21338,21587,21588,21339
CQUADX4,21728,1,21339,21588,21589,21340
CQUADX4,21729,1,21340,21589,21590,21341
CQUADX4,21730,1,21341,21590,21591,21342
CQUADX4,21731,1,21342,21591,21592,21343
CQUADX4,21732,1,21343,21592,21593,21344
CQUADX4,21733,1,21344,21593,21594,21345
CQUADX4,21734,1,21345,21594,21595,21346
CQUADX4,21735,1,21346,21595,21596,21347
CQUADX4,21736,1,21347,21596,21597,21348
CQUADX4,21737,1,21348,21597,21598,21349
CQUADX4,21738,1,21349,21598,21599,21350
CQUADX4,21739,1,21350,21599,21600,21351
CQUADX4,21740,1,21351,21600,21601,21352
CQUADX4,21741,1,21352,21601,21602,21353
CQUADX4,21742,1,21353,21602,21603,21354
CQUADX4,21743,1,21354,21603,21604,21355
CQUADX4,21744,1,21355,21604,21605,21356
CQUADX4,21745,1,21356,21605,21606,21357
CQUADX4,21746,1,21357,21606,21607,21358
CQUADX4,21747,1,21358,21607,21608,21359
CQUADX4,21748,1,21359,21608,21609,21360
CQUADX4,21749,1,21360,21609,21610,21361
CQUADX4,21750,1,21361,21610,21611,21362
CQUADX4,21751,1,21362,21611,21612,21363
CQUADX4,21752,1,21363,21612,21613,21364
CQUADX4,21753,1,21364,21613,21614,21365
CQUADX4,21754,1,21365,21614,21615,21366
CQUADX4,21755,1,21366,21615,21616,21367
CQUADX4,21756,1,21367,21616,21617,21368
CQUADX4,21757,1,21368,21617,21618,21369
CQUADX4,21758,1,21369,21618,21619,21370
CQUADX4,21759,1,21370,21619,21620,21371
CQUADX4,21760,1,21371,21620,21621,21372
CQUADX4,21761,1,21372,21621,21622,21373
CQUADX4,21762,1,21373,21622,21623,21374
CQUADX4,21763,1,21374,21623,21624,21375
CQUADX4,21764,1,21375,21624,21625,21376
CQUADX4,21765,1,21376,21625,21626,21377
CQUADX4,21766,1,21377,21626,21627,21378
CQUADX4,21767,1,21378,21627,21628,21379
CQUADX4,21768,1,21379,21628,21629,21380
CQUADX4,21769,1,21380,21629,21630,21381
CQUADX4,21770,1,21381,21630,21631,21382
CQUADX4,21771,1,21382,21631,21632,21383
CQUADX4,21772,1,21383,21632,21633,21384
CQUADX4,21773,1,21384,21633,21634,21385
CQUADX4,21774,1,21385,21634,21635,21386
CQUADX4,21775,1,21386,21635,21636,21387
CQUADX4,21776,1,21387,21636,21637,21388
CQUADX4,21777,1,21388,21637,21638,21389
CQUADX4,21778,1,21389,21638,21639,21390
CQUADX4,21779,1,21390,21639,21640,21391
CQUADX4,21780,1,21391,21640,21641,21392
CQUADX4,21781,1,21392,21641,21642,21393
CQUADX4,21782,1,21393,21642,21643,21394
CQUADX4,21783,1,21394,21643,21644,21395
CQUADX4,21784,1,21395,21644,21645,21396
CQUADX4,21785,1,21396,21645,21646,21397
CQUADX4,21786,1,21397,21646,21647,21398
CQUADX4,21787,1,21398,21647,21648,21399
CQUADX4,21788,1,21399,21648,21649,21400
CQUADX4,21789,1,21400,21649,21650,21401
CQUADX4,21790,1,21401,21650,21651,21402
CQUADX4,21791,1,21402,21651,21652,21403
CQUADX4,21792,1,21403,21652,21653,21404
CQUADX4,21793,1,21404,21653,21654,21405
CQUADX4,21794,1,21405,21654,21655,21406
CQUADX4,21795,1,21406,21655,21656,21407
CQUADX4,21796,1,21407,21656,21657,21408
CQUADX4,21797,1,21408,21657,21658,21409
CQUADX4,21798,1,21409,21658,21659,21410
CQUADX4,21799,1,21410,21659,21660,21411
CQUADX4,21800,1,21411,21660,21661,21412
CQUADX4,21801,1,21412,21661,21662,21413
CQUADX4,21802,1,21413,21662,21663,21414
CQUADX4,21803,1,21414,21663,21664,21415
CQUADX4,21804,1,21415,21664,21665,21416
CQUADX4,21805,1,21416,21665,21666,21417
CQUADX4,21806,1,21417,21666,21667,21418
CQUADX4,21807,1,21418,21667,21668,21419
CQUADX4,21808,1,21419,21668,21669,21420
CQUADX4,21809,1,21420,21669,21670,21421
CQUADX4,21810,1,21421,21670,21671,21422
CQUADX4,21811,1,21422,21671,21672,21423
CQUADX4,21812,1,21423,21672,21673,21424
CQUADX4,21813,1,21424,21673,21674,21425
CQUADX4,21814,1,21425,21674,21675,21426
CQUADX4,21815,1,21426,21675,21676,21427
CQUADX4,21816,1,21427,21676,21677,21428
CQUADX4,21817,1,21428,21677,21678,21429
CQUADX4,21818,1,21429,21678,21679,21430
CQUADX4,21819,1,21430,21679,21680,21431
CQUADX4,21820,1,21431,21680,21681,21432
CQUADX4,21821,1,21432,21681,21682,21433
CQUADX4,21822,1,21433,21682,21683,21434
CQUADX4,21823,1,21434,21683,21684,21435
CQUADX4,21824,1,21435,21684,21685,21436
CQUADX4,21825,1,21436,21685,21686,21437
CQUADX4,21826,1,21437,21686,21687,21438
CQUADX4,21827,1,21438,21687,21688,21439
CQUADX4,21828,1,21439,21688,21689,21440
CQUADX4,21829,1,21440,21689,21690,21441
CQUADX4,21830,1,21441,21690,21691,21442
CQUADX4,21831,1,21442,21691,21692,21443
CQUADX4,21832,1,21443,21692,21693,21444
CQUADX4,21833,1,21444,21693,21694,21445
CQUADX4,21834,1,21445,21694,21695,21446
CQUADX4,21835,1,21446,21695,21696,21447
CQUADX4,21836,1,21447,21696,21697,21448
CQUADX4,21837,1,21448,21697,21698,21449
CQUADX4,21838,1,21449,21698,21699,21450
CQUADX4,21839,1,21450,21699,21700,21451
CQUADX4,21840,1,21451,21700,21701,21452
CQUADX4,21841,1,21452,21701,21702,21453
CQUADX4,21842,1,21453,21702,21703,21454
CQUADX4,21843,1,21454,21703,21704,21455
CQUADX4,21844,1,21455,21704,21705,21456
CQUADX4,21845,1,21456,21705,21706,21457
CQUADX4,21846,1,21457,21706,21707,21458
CQUADX4,21847,1,21458,21707,21708,21459
CQUADX4,21848,1,21459,21708,21709,21460
CQUADX4,21849,1,21460,21709,21710,21461
CQUADX4,21850,1,21461,21710,21711,21462
CQUADX4,21851,1,21462,21711,21712,21463
CQUADX4,21852,1,21463,21712,21713,21464
CQUADX4,21853,1,21464,21713,21714,21465
CQUADX4,21854,1,21465,21714,21715,21466
CQUADX4,21855,1,21466,21715,21716,21467
CQUADX4,21856,1,21467,21716,21717,21468
CQUADX4,21857,1,21468,21717,21718,21469
CQUADX4,21858,1,21469,21718,21719,21470
CQUADX4,21859,1,21470,21719,21720,21471
CQUADX4,21860,1,21471,21720,21721,21472
CQUADX4,21861,1,21472,21721,21722,21473
CQUADX4,21862,1,21473,21722,21723,21474
CQUADX4,21863,1,21474,21723,21724,21475
CQUADX4,21864,1,21475,21724,21725,21476
CQUADX4,21865,1,21476,21725,21726,21477
CQUADX4,21866,1,21477,21726,21727,21478
CQUADX4,21867,1,21478,21727,21728,21479
CQUADX4,21868,1,21479,21728,21729,21480
CQUADX4,21869,1,21480,21729,21730,21481
CQUADX4,21870,1,21481,21730,21731,21482
CQUADX4,21871,1,21482,21731,21732,21483
CQUADX4,21872,1,21483,21732,21733,21484
CQUADX4,21873,1,21484,21733,21734,21485
CQUADX4,21874,1,21485,21734,21735,21486
CQUADX4,21875,1,21486,21735,21736,21487
CQUADX4,21876,1,21487,21736,21737,21488
CQUADX4,21877,1,21488,21737,21738,21489
CQUADX4,21878,1,21489,21738,21739,21490
CQUADX4,21879,1,21490,21739,21740,21491
CQUADX4,21880,1,21491,21740,21741,21492
CQUADX4,21881,1,21492,21741,21742,21493
CQUADX4,21882,1,21493,21742,21743,21494
CQUADX4,21883,1,21494,21743,21744,21495
CQUADX4,21884,1,21495,21744,21745,21496
CQUADX4,21885,1,21496,21745,21746,21497
CQUADX4,21886,1,21497,21746,21747,21498
CQUADX4,21887,1,21498,21747,21748,21499
CQUADX4,21888,1,21499,21748,21749,21500
CQUADX4,21889,1,21500,21749,21750,21501
CQUADX4,21890,1,21501,21750,21751,21502
CQUADX4,21891,1,21502,21751,21752,21503
CQUADX4,21892,1,21503,21752,21753,21504
CQUADX4,21893,1,21504,21753,21754,21505
CQUADX4,21894,1,21505,21754,21755,21506
CQUADX4,21895,1,21506,21755,21756,21507
CQUADX4,21896,1,21507,21756,21757,21508
CQUADX4,21897,1,21508,21757,21758,21509
CQUADX4,21898,1,21509,21758,21759,21510
CQUADX4,21899,1,21510,21759,21760,21511
CQUADX4,21900,1,21511,21760,21761,21512
CQUADX4,21901,1,21512,21761,21762,21513
CQUADX4,21902,1,21513,21762,21763,21514
CQUADX4,21903,1,21514,21763,21764,21515
CQUADX4,21904,1,21515,21764,21765,21516
CQUADX4,21905,1,21516,21765,21766,21517
CQUADX4,21906,1,21517,21766,21767,21518
CQUADX4,21907,1,21518,21767,21768,21519
CQUADX4,21908,1,21519,21768,21769,21520
CQUADX4,21909,1,21520,21769,21770,21521
CQUADX4,21910,1,21521,21770,21771,21522
CQUADX4,21911,1,21522,21771,21772,21523
CQUADX4,21912,1,21523,21772,21773,21524
CQUADX4,21913,1,21524,21773,21774,21525
CQUADX4,21914,1,21525,21774,21775,21526
CQUADX4,21915,1,21526,21775,21776,21527
CQUADX4,21916,1,21527,21776,21777,21528
CQUADX4,21917,1,21528,21777,21778,21529
CQUADX4,21918,1,21529,21778,21779,21530
CQUADX4,21919,1,21530,21779,21780,21531
CQUADX4,21920,1,21531,21780,21781,21532
CQUADX4,21921,1,21532,21781,21782,21533
CQUADX4,21922,1,21533,21782,21783,21534
CQUADX4,21923,1,21534,21783,21784,21535
CQUADX4,21924,1,21535,21784,21785,21536
CQUADX4,21925,1,21536,21785,21786,21537
CQUADX4,21926,1,21537,21786,21787,21538
CQUADX4,21927,1,21538,21787,21788,21539
CQUADX4,21928,1,21539,21788,21789,21540
CQUADX4,21929,1,21540,21789,21790,21541
CQUADX4,21930,1,21541,21790,21791,21542
CQUADX4,21931,1,21542,21791,21792,21543
CQUADX4,21932,1,21543,21792,21793,21544
CQUADX4,21933,1,21544,21793,21794,21545
CQUADX4,21934,1,21545,21794,21795,21546
CQUADX4,21935,1,21546,21795,21796,21547
CQUADX4,21936,1,21547,21796,21797,21548
CQUADX4,21937,1,21549,21798,21799,21550
CQUADX4,21938,1,21550,21799,21800,21551
CQUADX4,21939,1,21551,21800,21801,21552
CQUADX4,21940,1,21552,21801,21802,21553
CQUADX4,21941,1,21553,21802,21803,21554
CQUADX4,21942,1,21554,21803,21804,21555
CQUADX4,21943,1,21555,21804,21805,21556
CQUADX4,21944,1,21556,21805,21806,21557
CQUADX4,21945,1,21557,21806,21807,21558
CQUADX4,21946,1,21558,21807,21808,21559
CQUADX4,21947,1,21559,21808,21809,21560
CQUADX4,21948,1,21560,21809,21810,21561
CQUADX4,21949,1,21561,21810,21811,21562
CQUADX4,21950,1,21562,21811,21812,21563
CQUADX4,21951,1,21563,21812,21813,21564
CQUADX4,21952,1,21564,21813,21814,21565
CQUADX4,21953,1,21565,21814,21815,21566
CQUADX4,21954,1,21566,21815,21816,21567
CQUADX4,21955,1,21567,21816,21817,21568
CQUADX4,21956,1,21568,21817,21818,21569
CQUADX4,21957,1,21569,21818,21819,21570
CQUADX4,21958,1,21570,21819,21820,21571
CQUADX4,21959,1,21571,21820,21821,21572
CQUADX4,21960,1,21572,21821,21822,21573
CQUADX4,21961,1,21573,21822,21823,21574
CQUADX4,21962,1,21574,21823,21824,21575
CQUADX4,21963,1,21575,21824,21825,21576
CQUADX4,21964,1,21576,21825,21826,21577
CQUADX4,21965,1,21577,21826,21827,21578
CQUADX4,21966,1,21578,21827,21828,21579
CQUADX4,21967,1,21579,21828,21829,21580
CQUADX4,21968,1,21580,21829,21830,21581
CQUADX4,21969,1,21581,21830,21831,21582
CQUADX4,21970,1,21582,21831,21832,21583
CQUADX4,21971,1,21583,21832,21833,21584
CQUADX4,21972,1,21584,21833,21834,21585
CQUADX4,21973,1,21585,21834,21835,21586
CQUADX4,21974,1,21586,21835,21836,21587
CQUADX4,21975,1,21587,21836,21837,21588
CQUADX4,21976,1,21588,21837,21838,21589
CQUADX4,21977,1,21589,21838,21839,21590
CQUADX4,21978,1,21590,21839,21840,21591
CQUADX4,21979,1,21591,21840,21841,21592
CQUADX4,21980,1,21592,21841,21842,21593
CQUADX4,21981,1,21593,21842,21843,21594
CQUADX4,21982,1,21594,21843,21844,21595
CQUADX4,21983,1,21595,21844,21845,21596
CQUADX4,21984,1,21596,21845,21846,21597
CQUADX4,21985,1,21597,21846,21847,21598
CQUADX4,21986,1,21598,21847,21848,21599
CQUADX4,21987,1,21599,21848,21849,21600
CQUADX4,21988,1,21600,21849,21850,21601
CQUADX4,21989,1,21601,21850,21851,21602
CQUADX4,21990,1,21602,21851,21852,21603
CQUADX4,21991,1,21603,21852,21853,21604
CQUADX4,21992,1,21604,21853,21854,21605
CQUADX4,21993,1,21605,21854,21855,21606
CQUADX4,21994,1,21606,21855,21856,21607
CQUADX4,21995,1,21607,21856,21857,21608
CQUADX4,21996,1,21608,21857,21858,21609
CQUADX4,21997,1,21609,21858,21859,21610
CQUADX4,21998,1,21610,21859,21860,21611
CQUADX4,21999,1,21611,21860,21861,21612
CQUADX4,22000,1,21612,21861,21862,21613
CQUADX4,22001,1,21613,21862,21863,21614
CQUADX4,22002,1,21614,21863,21864,21615
CQUADX4,22003,1,21615,21864,21865,21616
CQUADX4,22004,1,21616,21865,21866,21617
CQUADX4,22005,1,21617,21866,21867,21618
CQUADX4,22006,1,21618,21867,21868,21619
CQUADX4,22007,1,21619,21868,21869,21620
CQUADX4,22008,1,21620,21869,21870,21621
CQUADX4,22009,1,21621,21870,21871,21622
CQUADX4,22010,1,21622,21871,21872,21623
CQUADX4,22011,1,21623,21872,21873,21624
CQUADX4,22012,1,21624,21873,21874,21625
CQUADX4,22013,1,21625,21874,21875,21626
CQUADX4,22014,1,21626,21875,21876,21627
CQUADX4,22015,1,21627,21876,21877,21628
CQUADX4,22016,1,21628,21877,21878,21629
CQUADX4,22017,1,21629,21878,21879,21630
CQUADX4,22018,1,21630,21879,21880,21631
CQUADX4,22019,1,21631,21880,21881,21632
CQUADX4,22020,1,21632,21881,21882,21633
CQUADX4,22021,1,21633,21882,21883,21634
CQUADX4,22022,1,21634,21883,21884,21635
CQUADX4,22023,1,21635,21884,21885,21636
CQUADX4,22024,1,21636,21885,21886,21637
CQUADX4,22025,1,21637,21886,21887,21638
CQUADX4,22026,1,21638,21887,21888,21639
CQUADX4,22027,1,21639,21888,21889,21640
CQUADX4,22028,1,21640,21889,21890,21641
CQUADX4,22029,1,21641,21890,21891,21642
CQUADX4,22030,1,21642,21891,21892,21643
CQUADX4,22031,1,21643,21892,21893,21644
CQUADX4,22032,1,21644,21893,21894,21645
CQUADX4,22033,1,21645,21894,21895,21646
CQUADX4,22034,1,21646,21895,21896,21647
CQUADX4,22035,1,21647,21896,21897,21648
CQUADX4,22036,1,21648,21897,21898,21649
CQUADX4,22037,1,21649,21898,21899,21650
CQUADX4,22038,1,21650,21899,21900,21651
CQUADX4,22039,1,21651,21900,21901,21652
CQUADX4,22040,1,21652,21901,21902,21653
CQUADX4,22041,1,21653,21902,21903,21654
CQUADX4,22042,1,21654,21903,21904,21655
CQUADX4,22043,1,21655,21904,21905,21656
CQUADX4,22044,1,21656,21905,21906,21657
CQUADX4,22045,1,21657,21906,21907,21658
CQUADX4,22046,1,21658,21907,21908,21659
CQUADX4,22047,1,21659,21908,21909,21660
CQUADX4,22048,1,21660,21909,21910,21661
CQUADX4,22049,1,21661,21910,21911,21662
CQUADX4,22050,1,21662,21911,21912,21663
CQUADX4,22051,1,21663,21912,21913,21664
CQUADX4,22052,1,21664,21913,21914,21665
CQUADX4,22053,1,21665,21914,21915,21666
CQUADX4,22054,1,21666,21915,21916,21667
CQUADX4,22055,1,21667,21916,21917,21668
CQUADX4,22056,1,21668,21917,21918,21669
CQUADX4,22057,1,21669,21918,21919,21670
CQUADX4,22058,1,21670,21919,21920,21671
CQUADX4,22059,1,21671,21920,21921,21672
CQUADX4,22060,1,21672,21921,21922,21673
CQUADX4,22061,1,21673,21922,21923,21674
CQUADX4,22062,1,21674,21923,21924,21675
CQUADX4,22063,1,21675,21924,21925,21676
CQUADX4,22064,1,21676,21925,21926,21677
CQUADX4,22065,1,21677,21926,21927,21678
CQUADX4,22066,1,21678,21927,21928,21679
CQUADX4,22067,1,21679,21928,21929,21680
CQUADX4,22068,1,21680,21929,21930,21681
CQUADX4,22069,1,21681,21930,21931,21682
CQUADX4,22070,1,21682,21931,21932,21683
CQUADX4,22071,1,21683,21932,21933,21684
CQUADX4,22072,1,21684,21933,21934,21685
CQUADX4,22073,1,21685,21934,21935,21686
CQUADX4,22074,1,21686,21935,21936,21687
CQUADX4,22075,1,21687,21936,21937,21688
CQUADX4,22076,1,21688,21937,21938,21689
CQUADX4,22077,1,21689,21938,21939,21690
CQUADX4,22078,1,21690,21939,21940,21691
CQUADX4,22079,1,21691,21940,21941,21692
CQUADX4,22080,1,21692,21941,21942,21693
CQUADX4,22081,1,21693,21942,21943,21694
CQUADX4,22082,1,21694,21943,21944,21695
CQUADX4,22083,1,21695,21944,21945,21696
CQUADX4,22084,1,21696,21945,21946,21697
CQUADX4,22085,1,21697,21946,21947,21698
CQUADX4,22086,1,21698,21947,21948,21699
CQUADX4,22087,1,21699,21948,21949,21700
CQUADX4,22088,1,21700,21949,21950,21701
CQUADX4,22089,1,21701,21950,21951,21702
CQUADX4,22090,1,21702,21951,21952,21703
CQUADX4,22091,1,21703,21952,21953,21704
CQUADX4,22092,1,21704,21953,21954,21705
CQUADX4,22093,1,21705,21954,21955,21706
CQUADX4,22094,1,21706,21955,21956,21707
CQUADX4,22095,1,21707,21956,21957,21708
CQUADX4,22096,1,21708,21957,21958,21709
CQUADX4,22097,1,21709,21958,21959,21710
CQUADX4,22098,1,21710,21959,21960,21711
CQUADX4,22099,1,21711,21960,21961,21712
CQUADX4,22100,1,21712,21961,21962,21713
CQUADX4,22101,1,21713,21962,21963,21714
CQUADX4,22102,1,21714,21963,21964,21715
CQUADX4,22103,1,21715,21964,21965,21716
CQUADX4,22104,1,21716,21965,21966,21717
CQUADX4,22105,1,21717,21966,21967,21718
CQUADX4,22106,1,21718,21967,21968,21719
CQUADX4,22107,1,21719,21968,21969,21720
CQUADX4,22108,1,21720,21969,21970,21721
CQUADX4,22109,1,21721,21970,21971,21722
CQUADX4,22110,1,21722,21971,21972,21723
CQUADX4,22111,1,21723,21972,21973,21724
CQUADX4,22112,1,21724,21973,21974,21725
CQUADX4,22113,1,21725,21974,21975,21726
CQUADX4,22114,1,21726,21975,21976,21727
CQUADX4,22115,1,21727,21976,21977,21728
CQUADX4,22116,1,21728,21977,21978,21729
CQUADX4,22117,1,21729,21978,21979,21730
CQUADX4,22118,1,21730,21979,21980,21731
CQUADX4,22119,1,21731,21980,21981,21732
CQUADX4,22120,1,21732,21981,21982,21733
CQUADX4,22121,1,21733,21982,21983,21734
CQUADX4,22122,1,21734,21983,21984,21735
CQUADX4,22123,1,21735,21984,21985,21736
CQUADX4,22124,1,21736,21985,21986,21737
CQUADX4,22125,1,21737,21986,21987,21738
CQUADX4,22126,1,21738,21987,21988,21739
CQUADX4,22127,1,21739,21988,21989,21740
CQUADX4,22128,1,21740,21989,21990,21741
CQUADX4,22129,1,21741,21990,21991,21742
CQUADX4,22130,1,21742,21991,21992,21743
CQUADX4,22131,1,21743,21992,21993,21744
CQUADX4,22132,1,21744,21993,21994,21745
CQUADX4,22133,1,21745,21994,21995,21746
CQUADX4,22134,1,21746,21995,21996,21747
CQUADX4,22135,1,21747,21996,21997,21748
CQUADX4,22136,1,21748,21997,21998,21749
CQUADX4,22137,1,21749,21998,21999,21750
CQUADX4,22138,1,21750,21999,22000,21751
CQUADX4,22139,1,21751,22000,22001,21752
CQUADX4,22140,1,21752,22001,22002,21753
CQUADX4,22141,1,21753,22002,22003,21754
CQUADX4,22142,1,21754,22003,22004,21755
CQUADX4,22143,1,21755,22004,22005,21756
CQUADX4,22144,1,21756,22005,22006,21757
CQUADX4,22145,1,21757,22006,22007,21758
CQUADX4,22146,1,21758,22007,22008,21759
CQUADX4,22147,1,21759,22008,22009,21760
CQUADX4,22148,1,21760,22009,22010,21761
CQUADX4,22149,1,21761,22010,22011,21762
CQUADX4,22150,1,21762,22011,22012,21763
CQUADX4,22151,1,21763,22012,22013,21764
CQUADX4,22152,1,21764,22013,22014,21765
CQUADX4,22153,1,21765,22014,22015,21766
CQUADX4,22154,1,21766,22015,22016,21767
CQUADX4,22155,1,21767,22016,22017,21768
CQUADX4,22156,1,21768,22017,22018,21769
CQUADX4,22157,1,21769,22018,22019,21770
CQUADX4,22158,1,21770,22019,22020,21771
CQUADX4,22159,1,21771,22020,22021,21772
CQUADX4,22160,1,21772,22021,22022,21773
CQUADX4,22161,1,21773,22022,22023,21774
CQUADX4,22162,1,21774,22023,22024,21775
CQUADX4,22163,1,21775,22024,22025,21776
CQUADX4,22164,1,21776,22025,22026,21777
CQUADX4,22165,1,21777,22026,22027,21778
CQUADX4,22166,1,21778,22027,22028,21779
CQUADX4,22167,1,21779,22028,22029,21780
CQUADX4,22168,1,21780,22029,22030,21781
CQUADX4,22169,1,21781,22030,22031,21782
CQUADX4,22170,1,21782,22031,22032,21783
CQUADX4,22171,1,21783,22032,22033,21784
CQUADX4,22172,1,21784,22033,22034,21785
CQUADX4,22173,1,21785,22034,22035,21786
CQUADX4,22174,1,21786,22035,22036,21787
CQUADX4,22175,1,21787,22036,22037,21788
CQUADX4,22176,1,21788,22037,22038,21789
CQUADX4,22177,1,21789,22038,22039,21790
CQUADX4,22178,1,21790,22039,22040,21791
CQUADX4,22179,1,21791,22040,22041,21792
CQUADX4,22180,1,21792,22041,22042,21793
CQUADX4,22181,1,21793,22042,22043,21794
CQUADX4,22182,1,21794,22043,22044,21795
CQUADX4,22183,1,21795,22044,22045,21796
CQUADX4,22184,1,21796,22045,22046,21797
CQUADX4,22185,1,21798,22047,22048,21799
CQUADX4,22186,1,21799,22048,22049,21800
CQUADX4,22187,1,21800,22049,22050,21801
CQUADX4,22188,1,21801,22050,22051,21802
CQUADX4,22189,1,21802,22051,22052,21803
CQUADX4,22190,1,21803,22052,22053,21804
CQUADX4,22191,1,21804,22053,22054,21805
CQUADX4,22192,1,21805,22054,22055,21806
CQUADX4,22193,1,21806,22055,22056,21807
CQUADX4,22194,1,21807,22056,22057,21808
CQUADX4,22195,1,21808,22057,22058,21809
CQUADX4,22196,1,21809,22058,22059,21810
CQUADX4,22197,1,21810,22059,22060,21811
CQUADX4,22198,1,21811,22060,22061,21812
CQUADX4,22199,1,21812,22061,22062,21813
CQUADX4,22200,1,21813,22062,22063,21814
CQUADX4,22201,1,21814,22063,22064,21815
CQUADX4,22202,1,21815,22064,22065,21816
CQUADX4,22203,1,21816,22065,22066,21817
CQUADX4,22204,1,21817,22066,22067,21818
CQUADX4,22205,1,21818,22067,22068,21819
CQUADX4,22206,1,21819,22068,22069,21820
CQUADX4,22207,1,21820,22069,22070,21821
CQUADX4,22208,1,21821,22070,22071,21822
CQUADX4,22209,1,21822,22071,22072,21823
CQUADX4,22210,1,21823,22072,22073,21824
CQUADX4,22211,1,21824,22073,22074,21825
CQUADX4,22212,1,21825,22074,22075,21826
CQUADX4,22213,1,21826,22075,22076,21827
CQUADX4,22214,1,21827,22076,22077,21828
CQUADX4,22215,1,21828,22077,22078,21829
CQUADX4,22216,1,21829,22078,22079,21830
CQUADX4,22217,1,21830,22079,22080,21831
CQUADX4,22218,1,21831,22080,22081,21832
CQUADX4,22219,1,21832,22081,22082,21833
CQUADX4,22220,1,21833,22082,22083,21834
CQUADX4,22221,1,21834,22083,22084,21835
CQUADX4,22222,1,21835,22084,22085,21836
CQUADX4,22223,1,21836,22085,22086,21837
CQUADX4,22224,1,21837,22086,22087,21838
CQUADX4,22225,1,21838,22087,22088,21839
CQUADX4,22226,1,21839,22088,22089,21840
CQUADX4,22227,1,21840,22089,22090,21841
CQUADX4,22228,1,21841,22090,22091,21842
CQUADX4,22229,1,21842,22091,22092,21843
CQUADX4,22230,1,21843,22092,22093,21844
CQUADX4,22231,1,21844,22093,22094,21845
CQUADX4,22232,1,21845,22094,22095,21846
CQUADX4,22233,1,21846,22095,22096,21847
CQUADX4,22234,1,21847,22096,22097,21848
CQUADX4,22235,1,21848,22097,22098,21849
CQUADX4,22236,1,21849,22098,22099,21850
CQUADX4,22237,1,21850,22099,22100,21851
CQUADX4,22238,1,21851,22100,22101,21852
CQUADX4,22239,1,21852,22101,22102,21853
CQUADX4,22240,1,21853,22102,22103,21854
CQUADX4,22241,1,21854,22103,22104,21855
CQUADX4,22242,1,21855,22104,22105,21856
CQUADX4,22243,1,21856,22105,22106,21857
CQUADX4,22244,1,21857,22106,22107,21858
CQUADX4,22245,1,21858,22107,22108,21859
CQUADX4,22246,1,21859,22108,22109,21860
CQUADX4,22247,1,21860,22109,22110,21861
CQUADX4,22248,1,21861,22110,22111,21862
CQUADX4,22249,1,21862,22111,22112,21863
CQUADX4,22250,1,21863,22112,22113,21864
CQUADX4,22251,1,21864,22113,22114,21865
CQUADX4,22252,1,21865,22114,22115,21866
CQUADX4,22253,1,21866,22115,22116,21867
CQUADX4,22254,1,21867,22116,22117,21868
CQUADX4,22255,1,21868,22117,22118,21869
CQUADX4,22256,1,21869,22118,22119,21870
CQUADX4,22257,1,21870,22119,22120,21871
CQUADX4,22258,1,21871,22120,22121,21872
CQUADX4,22259,1,21872,22121,22122,21873
CQUADX4,22260,1,21873,22122,22123,21874
CQUADX4,22261,1,21874,22123,22124,21875
CQUADX4,22262,1,21875,22124,22125,21876
CQUADX4,22263,1,21876,22125,22126,21877
CQUADX4,22264,1,21877,22126,22127,21878
CQUADX4,22265,1,21878,22127,22128,21879
CQUADX4,22266,1,21879,22128,22129,21880
CQUADX4,22267,1,21880,22129,22130,21881
CQUADX4,22268,1,21881,22130,22131,21882
CQUADX4,22269,1,21882,22131,22132,21883
CQUADX4,22270,1,21883,22132,22133,21884
CQUADX4,22271,1,21884,22133,22134,21885
CQUADX4,22272,1,21885,22134,22135,21886
CQUADX4,22273,1,21886,22135,22136,21887
CQUADX4,22274,1,21887,22136,22137,21888
CQUADX4,22275,1,21888,22137,22138,21889
CQUADX4,22276,1,21889,22138,22139,21890
CQUADX4,22277,1,21890,22139,22140,21891
CQUADX4,22278,1,21891,22140,22141,21892
CQUADX4,22279,1,21892,22141,22142,21893
CQUADX4,22280,1,21893,22142,22143,21894
CQUADX4,22281,1,21894,22143,22144,21895
CQUADX4,22282,1,21895,22144,22145,21896
CQUADX4,22283,1,21896,22145,22146,21897
CQUADX4,22284,1,21897,22146,22147,21898
CQUADX4,22285,1,21898,22147,22148,21899
CQUADX4,22286,1,21899,22148,22149,21900
CQUADX4,22287,1,21900,22149,22150,21901
CQUADX4,22288,1,21901,22150,22151,21902
CQUADX4,22289,1,21902,22151,22152,21903
CQUADX4,22290,1,21903,22152,22153,21904
CQUADX4,22291,1,21904,22153,22154,21905
CQUADX4,22292,1,21905,22154,22155,21906
CQUADX4,22293,1,21906,22155,22156,21907
CQUADX4,22294,1,21907,22156,22157,21908
CQUADX4,22295,1,21908,22157,22158,21909
CQUADX4,22296,1,21909,22158,22159,21910
CQUADX4,22297,1,21910,22159,22160,21911
CQUADX4,22298,1,21911,22160,22161,21912
CQUADX4,22299,1,21912,22161,22162,21913
CQUADX4,22300,1,21913,22162,22163,21914
CQUADX4,22301,1,21914,22163,22164,21915
CQUADX4,22302,1,21915,22164,22165,21916
CQUADX4,22303,1,21916,22165,22166,21917
CQUADX4,22304,1,21917,22166,22167,21918
CQUADX4,22305,1,21918,22167,22168,21919
CQUADX4,22306,1,21919,22168,22169,21920
CQUADX4,22307,1,21920,22169,22170,21921
CQUADX4,22308,1,21921,22170,22171,21922
CQUADX4,22309,1,21922,22171,22172,21923
CQUADX4,22310,1,21923,22172,22173,21924
CQUADX4,22311,1,21924,22173,22174,21925
CQUADX4,22312,1,21925,22174,22175,21926
CQUADX4,22313,1,21926,22175,22176,21927
CQUADX4,22314,1,21927,22176,22177,21928
CQUADX4,22315,1,21928,22177,22178,21929
CQUADX4,22316,1,21929,22178,22179,21930
CQUADX4,22317,1,21930,22179,22180,21931
CQUADX4,22318,1,21931,22180,22181,21932
CQUADX4,22319,1,21932,22181,22182,21933
CQUADX4,22320,1,21933,22182,22183,21934
CQUADX4,22321,1,21934,22183,22184,21935
CQUADX4,22322,1,21935,22184,22185,21936
CQUADX4,22323,1,21936,22185,22186,21937
CQUADX4,22324,1,21937,22186,22187,21938
CQUADX4,22325,1,21938,22187,22188,21939
CQUADX4,22326,1,21939,22188,22189,21940
CQUADX4,22327,1,21940,22189,22190,21941
CQUADX4,22328,1,21941,22190,22191,21942
CQUADX4,22329,1,21942,22191,22192,21943
CQUADX4,22330,1,21943,22192,22193,21944
CQUADX4,22331,1,21944,22193,22194,21945
CQUADX4,22332,1,21945,22194,22195,21946
CQUADX4,22333,1,21946,22195,22196,21947
CQUADX4,22334,1,21947,22196,22197,21948
CQUADX4,22335,1,21948,22197,22198,21949
CQUADX4,22336,1,21949,22198,22199,21950
CQUADX4,22337,1,21950,22199,22200,21951
CQUADX4,22338,1,21951,22200,22201,21952
CQUADX4,22339,1,21952,22201,22202,21953
CQUADX4,22340,1,21953,22202,22203,21954
CQUADX4,22341,1,21954,22203,22204,21955
CQUADX4,22342,1,21955,22204,22205,21956
CQUADX4,22343,1,21956,22205,22206,21957
CQUADX4,22344,1,21957,22206,22207,21958
CQUADX4,22345,1,21958,22207,22208,21959
CQUADX4,22346,1,21959,22208,22209,21960
CQUADX4,22347,1,21960,22209,22210,21961
CQUADX4,22348,1,21961,22210,22211,21962
CQUADX4,22349,1,21962,22211,22212,21963
CQUADX4,22350,1,21963,22212,22213,21964
CQUADX4,22351,1,21964,22213,22214,21965
CQUADX4,22352,1,21965,22214,22215,21966
CQUADX4,22353,1,21966,22215,22216,21967
CQUADX4,22354,1,21967,22216,22217,21968
CQUADX4,22355,1,21968,22217,22218,21969
CQUADX4,22356,1,21969,22218,22219,21970
CQUADX4,22357,1,21970,22219,22220,21971
CQUADX4,22358,1,21971,22220,22221,21972
CQUADX4,22359,1,21972,22221,22222,21973
CQUADX4,22360,1,21973,22222,22223,21974
CQUADX4,22361,1,21974,22223,22224,21975
CQUADX4,22362,1,21975,22224,22225,21976
CQUADX4,22363,1,21976,22225,22226,21977
CQUADX4,22364,1,21977,22226,22227,21978
CQUADX4,22365,1,21978,22227,22228,21979
CQUADX4,22366,1,21979,22228,22229,21980
CQUADX4,22367,1,21980,22229,22230,21981
CQUADX4,22368,1,21981,22230,22231,21982
CQUADX4,22369,1,21982,22231,22232,21983
CQUADX4,22370,1,21983,22232,22233,21984
CQUADX4,22371,1,21984,22233,22234,21985
CQUADX4,22372,1,21985,22234,22235,21986
CQUADX4,22373,1,21986,22235,22236,21987
CQUADX4,22374,1,21987,22236,22237,21988
CQUADX4,22375,1,21988,22237,22238,21989
CQUADX4,22376,1,21989,22238,22239,21990
CQUADX4,22377,1,21990,22239,22240,21991
CQUADX4,22378,1,21991,22240,22241,21992
CQUADX4,22379,1,21992,22241,22242,21993
CQUADX4,22380,1,21993,22242,22243,21994
CQUADX4,22381,1,21994,22243,22244,21995
CQUADX4,22382,1,21995,22244,22245,21996
CQUADX4,22383,1,21996,22245,22246,21997
CQUADX4,22384,1,21997,22246,22247,21998
CQUADX4,22385,1,21998,22247,22248,21999
CQUADX4,22386,1,21999,22248,22249,22000
CQUADX4,22387,1,22000,22249,22250,22001
CQUADX4,22388,1,22001,22250,22251,22002
CQUADX4,22389,1,22002,22251,22252,22003
CQUADX4,22390,1,22003,22252,22253,22004
CQUADX4,22391,1,22004,22253,22254,22005
CQUADX4,22392,1,22005,22254,22255,22006
CQUADX4,22393,1,22006,22255,22256,22007
CQUADX4,22394,1,22007,22256,22257,22008
CQUADX4,22395,1,22008,22257,22258,22009
CQUADX4,22396,1,22009,22258,22259,22010
CQUADX4,22397,1,22010,22259,22260,22011
CQUADX4,22398,1,22011,22260,22261,22012
CQUADX4,22399,1,22012,22261,22262,22013
CQUADX4,22400,1,22013,22262,22263,22014
CQUADX4,22401,1,22014,22263,22264,22015
CQUADX4,22402,1,22015,22264,22265,22016
CQUADX4,22403,1,22016,22265,22266,22017
CQUADX4,22404,1,22017,22266,22267,22018
CQUADX4,22405,1,22018,22267,22268,22019
CQUADX4,22406,1,22019,22268,22269,22020
CQUADX4,22407,1,22020,22269,22270,22021
CQUADX4,22408,1,22021,22270,22271,22022
CQUADX4,22409,1,22022,22271,22272,22023
CQUADX4,22410,1,22023,22272,22273,22024
CQUADX4,22411,1,22024,22273,22274,22025
CQUADX4,22412,1,22025,22274,22275,22026
CQUADX4,22413,1,22026,22275,22276,22027
CQUADX4,22414,1,22027,22276,22277,22028
CQUADX4,22415,1,22028,22277,22278,22029
CQUADX4,22416,1,22029,22278,22279,22030
CQUADX4,22417,1,22030,22279,22280,22031
CQUADX4,22418,1,22031,22280,22281,22032
CQUADX4,22419,1,22032,22281,22282,22033
CQUADX4,22420,1,22033,22282,22283,22034
CQUADX4,22421,1,22034,22283,22284,22035
CQUADX4,22422,1,22035,22284,22285,22036
CQUADX4,22423,1,22036,22285,22286,22037
CQUADX4,22424,1,22037,22286,22287,22038
CQUADX4,22425,1,22038,22287,22288,22039
CQUADX4,22426,1,22039,22288,22289,22040
CQUADX4,22427,1,22040,22289,22290,22041
CQUADX4,22428,1,22041,22290,22291,22042
CQUADX4,22429,1,22042,22291,22292,22043
CQUADX4,22430,1,22043,22292,22293,22044
CQUADX4,22431,1,22044,22293,22294,22045
CQUADX4,22432,1,22045,22294,22295,22046
CQUADX4,22433,1,22047,22296,22297,22048
CQUADX4,22434,1,22048,22297,22298,22049
CQUADX4,22435,1,22049,22298,22299,22050
CQUADX4,22436,1,22050,22299,22300,22051
CQUADX4,22437,1,22051,22300,22301,22052
CQUADX4,22438,1,22052,22301,22302,22053
CQUADX4,22439,1,22053,22302,22303,22054
CQUADX4,22440,1,22054,22303,22304,22055
CQUADX4,22441,1,22055,22304,22305,22056
CQUADX4,22442,1,22056,22305,22306,22057
CQUADX4,22443,1,22057,22306,22307,22058
CQUADX4,22444,1,22058,22307,22308,22059
CQUADX4,22445,1,22059,22308,22309,22060
CQUADX4,22446,1,22060,22309,22310,22061
CQUADX4,22447,1,22061,22310,22311,22062
CQUADX4,22448,1,22062,22311,22312,22063
CQUADX4,22449,1,22063,22312,22313,22064
CQUADX4,22450,1,22064,22313,22314,22065
CQUADX4,22451,1,22065,22314,22315,22066
CQUADX4,22452,1,22066,22315,22316,22067
CQUADX4,22453,1,22067,22316,22317,22068
CQUADX4,22454,1,22068,22317,22318,22069
CQUADX4,22455,1,22069,22318,22319,22070
CQUADX4,22456,1,22070,22319,22320,22071
CQUADX4,22457,1,22071,22320,22321,22072
CQUADX4,22458,1,22072,22321,22322,22073
CQUADX4,22459,1,22073,22322,22323,22074
CQUADX4,22460,1,22074,22323,22324,22075
CQUADX4,22461,1,22075,22324,22325,22076
CQUADX4,22462,1,22076,22325,22326,22077
CQUADX4,22463,1,22077,22326,22327,22078
CQUADX4,22464,1,22078,22327,22328,22079
CQUADX4,22465,1,22079,22328,22329,22080
CQUADX4,22466,1,22080,22329,22330,22081
CQUADX4,22467,1,22081,22330,22331,22082
CQUADX4,22468,1,22082,22331,22332,22083
CQUADX4,22469,1,22083,22332,22333,22084
CQUADX4,22470,1,22084,22333,22334,22085
CQUADX4,22471,1,22085,22334,22335,22086
CQUADX4,22472,1,22086,22335,22336,22087
CQUADX4,22473,1,22087,22336,22337,22088
CQUADX4,22474,1,22088,22337,22338,22089
CQUADX4,22475,1,22089,22338,22339,22090
CQUADX4,22476,1,22090,22339,22340,22091
CQUADX4,22477,1,22091,22340,22341,22092
CQUADX4,22478,1,22092,22341,22342,22093
CQUADX4,22479,1,22093,22342,22343,22094
CQUADX4,22480,1,22094,22343,22344,22095
CQUADX4,22481,1,22095,22344,22345,22096
CQUADX4,22482,1,22096,22345,22346,22097
CQUADX4,22483,1,22097,22346,22347,22098
CQUADX4,22484,1,22098,22347,22348,22099
CQUADX4,22485,1,22099,22348,22349,22100
CQUADX4,22486,1,22100,22349,22350,22101
CQUADX4,22487,1,22101,22350,22351,22102
CQUADX4,22488,1,22102,22351,22352,22103
CQUADX4,22489,1,22103,22352,22353,22104
CQUADX4,22490,1,22104,22353,22354,22105
CQUADX4,22491,1,22105,22354,22355,22106
CQUADX4,22492,1,22106,22355,22356,22107
CQUADX4,22493,1,22107,22356,22357,22108
CQUADX4,22494,1,22108,22357,22358,22109
CQUADX4,22495,1,22109,22358,22359,22110
CQUADX4,22496,1,22110,22359,22360,22111
CQUADX4,22497,1,22111,22360,22361,22112
CQUADX4,22498,1,22112,22361,22362,22113
CQUADX4,22499,1,22113,22362,22363,22114
CQUADX4,22500,1,22114,22363,22364,22115
CQUADX4,22501,1,22115,22364,22365,22116
CQUADX4,22502,1,22116,22365,22366,22117
CQUADX4,22503,1,22117,22366,22367,22118
CQUADX4,22504,1,22118,22367,22368,22119
CQUADX4,22505,1,22119,22368,22369,22120
CQUADX4,22506,1,22120,22369,22370,22121
CQUADX4,22507,1,22121,22370,22371,22122
CQUADX4,22508,1,22122,22371,22372,22123
CQUADX4,22509,1,22123,22372,22373,22124
CQUADX4,22510,1,22124,22373,22374,22125
CQUADX4,22511,1,22125,22374,22375,22126
CQUADX4,22512,1,22126,22375,22376,22127
CQUADX4,22513,1,22127,22376,22377,22128
CQUADX4,22514,1,22128,22377,22378,22129
CQUADX4,22515,1,22129,22378,22379,22130
CQUADX4,22516,1,22130,22379,22380,22131
CQUADX4,22517,1,22131,22380,22381,22132
CQUADX4,22518,1,22132,22381,22382,22133
CQUADX4,22519,1,22133,22382,22383,22134
CQUADX4,22520,1,22134,22383,22384,22135
CQUADX4,22521,1,22135,22384,22385,22136
CQUADX4,22522,1,22136,22385,22386,22137
CQUADX4,22523,1,22137,22386,22387,22138
CQUADX4,22524,1,22138,22387,22388,22139
CQUADX4,22525,1,22139,22388,22389,22140
CQUADX4,22526,1,22140,22389,22390,22141
CQUADX4,22527,1,22141,22390,22391,22142
CQUADX4,22528,1,22142,22391,22392,22143
CQUADX4,22529,1,22143,22392,22393,22144
CQUADX4,22530,1,22144,22393,22394,22145
CQUADX4,22531,1,22145,22394,22395,22146
CQUADX4,22532,1,22146,22395,22396,22147
CQUADX4,22533,1,22147,22396,22397,22148
CQUADX4,22534,1,22148,22397,22398,22149
CQUADX4,22535,1,22149,22398,22399,22150
CQUADX4,22536,1,22150,22399,22400,22151
CQUADX4,22537,1,22151,22400,22401,22152
CQUADX4,22538,1,22152,22401,22402,22153
CQUADX4,22539,1,22153,22402,22403,22154
CQUADX4,22540,1,22154,22403,22404,22155
CQUADX4,22541,1,22155,22404,22405,22156
CQUADX4,22542,1,22156,22405,22406,22157
CQUADX4,22543,1,22157,22406,22407,22158
CQUADX4,22544,1,22158,22407,22408,22159
CQUADX4,22545,1,22159,22408,22409,22160
CQUADX4,22546,1,22160,22409,22410,22161
CQUADX4,22547,1,22161,22410,22411,22162
CQUADX4,22548,1,22162,22411,22412,22163
CQUADX4,22549,1,22163,22412,22413,22164
CQUADX4,22550,1,22164,22413,22414,22165
CQUADX4,22551,1,22165,22414,22415,22166
CQUADX4,22552,1,22166,22415,22416,22167
CQUADX4,22553,1,22167,22416,22417,22168
CQUADX4,22554,1,22168,22417,22418,22169
CQUADX4,22555,1,22169,22418,22419,22170
CQUADX4,22556,1,22170,22419,22420,22171
CQUADX4,22557,1,22171,22420,22421,22172
CQUADX4,22558,1,22172,22421,22422,22173
CQUADX4,22559,1,22173,22422,22423,22174
CQUADX4,22560,1,22174,22423,22424,22175
CQUADX4,22561,1,22175,22424,22425,22176
CQUADX4,22562,1,22176,22425,22426,22177
CQUADX4,22563,1,22177,22426,22427,22178
CQUADX4,22564,1,22178,22427,22428,22179
CQUADX4,22565,1,22179,22428,22429,22180
CQUADX4,22566,1,22180,22429,22430,22181
CQUADX4,22567,1,22181,22430,22431,22182
CQUADX4,22568,1,22182,22431,22432,22183
CQUADX4,22569,1,22183,22432,22433,22184
CQUADX4,22570,1,22184,22433,22434,22185
CQUADX4,22571,1,22185,22434,22435,22186
CQUADX4,22572,1,22186,22435,22436,22187
CQUADX4,22573,1,22187,22436,22437,22188
CQUADX4,22574,1,22188,22437,22438,22189
CQUADX4,22575,1,22189,22438,22439,22190
CQUADX4,22576,1,22190,22439,22440,22191
CQUADX4,22577,1,22191,22440,22441,22192
CQUADX4,22578,1,22192,22441,22442,22193
CQUADX4,22579,1,22193,22442,22443,22194
CQUADX4,22580,1,22194,22443,22444,22195
CQUADX4,22581,1,22195,22444,22445,22196
CQUADX4,22582,1,22196,22445,22446,22197
CQUADX4,22583,1,22197,22446,22447,22198
CQUADX4,22584,1,22198,22447,22448,22199
CQUADX4,22585,1,22199,22448,22449,22200
CQUADX4,22586,1,22200,22449,22450,22201
CQUADX4,22587,1,22201,22450,22451,22202
CQUADX4,22588,1,22202,22451,22452,22203
CQUADX4,22589,1,22203,22452,22453,22204
CQUADX4,22590,1,22204,22453,22454,22205
CQUADX4,22591,1,22205,22454,22455,22206
CQUADX4,22592,1,22206,22455,22456,22207
CQUADX4,22593,1,22207,22456,22457,22208
CQUADX4,22594,1,22208,22457,22458,22209
CQUADX4,22595,1,22209,22458,22459,22210
CQUADX4,22596,1,22210,22459,22460,22211
CQUADX4,22597,1,22211,22460,22461,22212
CQUADX4,22598,1,22212,22461,22462,22213
CQUADX4,22599,1,22213,22462,22463,22214
CQUADX4,22600,1,22214,22463,22464,22215
CQUADX4,22601,1,22215,22464,22465,22216
CQUADX4,22602,1,22216,22465,22466,22217
CQUADX4,22603,1,22217,22466,22467,22218
CQUADX4,22604,1,22218,22467,22468,22219
CQUADX4,22605,1,22219,22468,22469,22220
CQUADX4,22606,1,22220,22469,22470,22221
CQUADX4,22607,1,22221,22470,22471,22222
CQUADX4,22608,1,22222,22471,22472,22223
CQUADX4,22609,1,22223,22472,22473,22224
CQUADX4,22610,1,22224,22473,22474,22225
CQUADX4,22611,1,22225,22474,22475,22226
CQUADX4,22612,1,22226,22475,22476,22227
CQUADX4,22613,1,22227,22476,22477,22228
CQUADX4,22614,1,22228,22477,22478,22229
CQUADX4,22615,1,22229,22478,22479,22230
CQUADX4,22616,1,22230,22479,22480,22231
CQUADX4,22617,1,22231,22480,22481,22232
CQUADX4,22618,1,22232,22481,22482,22233
CQUADX4,22619,1,22233,22482,22483,22234
CQUADX4,22620,1,22234,22483,22484,22235
CQUADX4,22621,1,22235,22484,22485,22236
CQUADX4,22622,1,22236,22485,22486,22237
CQUADX4,22623,1,22237,22486,22487,22238
CQUADX4,22624,1,22238,22487,22488,22239
CQUADX4,22625,1,22239,22488,22489,22240
CQUADX4,22626,1,22240,22489,22490,22241
CQUADX4,22627,1,22241,22490,22491,22242
CQUADX4,22628,1,22242,22491,22492,22243
CQUADX4,22629,1,22243,22492,22493,22244
CQUADX4,22630,1,22244,22493,22494,22245
CQUADX4,22631,1,22245,22494,22495,22246
CQUADX4,22632,1,22246,22495,22496,22247
CQUADX4,22633,1,22247,22496,22497,22248
CQUADX4,22634,1,22248,22497,22498,22249
CQUADX4,22635,1,22249,22498,22499,22250
CQUADX4,22636,1,22250,22499,22500,22251
CQUADX4,22637,1,22251,22500,22501,22252
CQUADX4,22638,1,22252,22501,22502,22253
CQUADX4,22639,1,22253,22502,22503,22254
CQUADX4,22640,1,22254,22503,22504,22255
CQUADX4,22641,1,22255,22504,22505,22256
CQUADX4,22642,1,22256,22505,22506,22257
CQUADX4,22643,1,22257,22506,22507,22258
CQUADX4,22644,1,22258,22507,22508,22259
CQUADX4,22645,1,22259,22508,22509,22260
CQUADX4,22646,1,22260,22509,22510,22261
CQUADX4,22647,1,22261,22510,22511,22262
CQUADX4,22648,1,22262,22511,22512,22263
CQUADX4,22649,1,22263,22512,22513,22264
CQUADX4,22650,1,22264,22513,22514,22265
CQUADX4,22651,1,22265,22514,22515,22266
CQUADX4,22652,1,22266,22515,22516,22267
CQUADX4,22653,1,22267,22516,22517,22268
CQUADX4,22654,1,22268,22517,22518,22269
CQUADX4,22655,1,22269,22518,22519,22270
CQUADX4,22656,1,22270,22519,22520,22271
CQUADX4,22657,1,22271,22520,22521,22272
CQUADX4,22658,1,22272,22521,22522,22273
CQUADX4,22659,1,22273,22522,22523,22274
CQUADX4,22660,1,22274,22523,22524,22275
CQUADX4,22661,1,22275,22524,22525,22276
CQUADX4,22662,1,22276,22525,22526,22277
CQUADX4,22663,1,22277,22526,22527,22278
CQUADX4,22664,1,22278,22527,22528,22279
CQUADX4,22665,1,22279,22528,22529,22280
CQUADX4,22666,1,22280,22529,22530,22281
CQUADX4,22667,1,22281,22530,22531,22282
CQUADX4,22668,1,22282,22531,22532,22283
CQUADX4,22669,1,22283,22532,22533,22284
CQUADX4,22670,1,22284,22533,22534,22285
CQUADX4,22671,1,22285,22534,22535,22286
CQUADX4,22672,1,22286,22535,22536,22287
CQUADX4,22673,1,22287,22536,22537,22288
CQUADX4,22674,1,22288,22537,22538,22289
CQUADX4,22675,1,22289,22538,22539,22290
CQUADX4,22676,1,22290,22539,22540,22291
CQUADX4,22677,1,22291,22540,22541,22292
CQUADX4,22678,1,22292,22541,22542,22293
CQUADX4,22679,1,22293,22542,22543,22294
CQUADX4,22680,1,22294,22543,22544,22295
CQUADX4,22681,1,22296,22545,22546,22297
CQUADX4,22682,1,22297,22546,22547,22298
CQUADX4,22683,1,22298,22547,22548,22299
CQUADX4,22684,1,22299,22548,22549,22300
CQUADX4,22685,1,22300,22549,22550,22301
CQUADX4,22686,1,22301,22550,22551,22302
CQUADX4,22687,1,22302,22551,22552,22303
CQUADX4,22688,1,22303,22552,22553,22304
CQUADX4,22689,1,22304,22553,22554,22305
CQUADX4,22690,1,22305,22554,22555,22306
CQUADX4,22691,1,22306,22555,22556,22307
CQUADX4,22692,1,22307,22556,22557,22308
CQUADX4,22693,1,22308,22557,22558,22309
CQUADX4,22694,1,22309,22558,22559,22310
CQUADX4,22695,1,22310,22559,22560,22311
CQUADX4,22696,1,22311,22560,22561,22312
CQUADX4,22697,1,22312,22561,22562,22313
CQUADX4,22698,1,22313,22562,22563,22314
CQUADX4,22699,1,22314,22563,22564,22315
CQUADX4,22700,1,22315,22564,22565,22316
CQUADX4,22701,1,22316,22565,22566,22317
CQUADX4,22702,1,22317,22566,22567,22318
CQUADX4,22703,1,22318,22567,22568,22319
CQUADX4,22704,1,22319,22568,22569,22320
CQUADX4,22705,1,22320,22569,22570,22321
CQUADX4,22706,1,22321,22570,22571,22322
CQUADX4,22707,1,22322,22571,22572,22323
CQUADX4,22708,1,22323,22572,22573,22324
CQUADX4,22709,1,22324,22573,22574,22325
CQUADX4,22710,1,22325,22574,22575,22326
CQUADX4,22711,1,22326,22575,22576,22327
CQUADX4,22712,1,22327,22576,22577,22328
CQUADX4,22713,1,22328,22577,22578,22329
CQUADX4,22714,1,22329,22578,22579,22330
CQUADX4,22715,1,22330,22579,22580,22331
CQUADX4,22716,1,22331,22580,22581,22332
CQUADX4,22717,1,22332,22581,22582,22333
CQUADX4,22718,1,22333,22582,22583,22334
CQUADX4,22719,1,22334,22583,22584,22335
CQUADX4,22720,1,22335,22584,22585,22336
CQUADX4,22721,1,22336,22585,22586,22337
CQUADX4,22722,1,22337,22586,22587,22338
CQUADX4,22723,1,22338,22587,22588,22339
CQUADX4,22724,1,22339,22588,22589,22340
CQUADX4,22725,1,22340,22589,22590,22341
CQUADX4,22726,1,22341,22590,22591,22342
CQUADX4,22727,1,22342,22591,22592,22343
CQUADX4,22728,1,22343,22592,22593,22344
CQUADX4,22729,1,22344,22593,22594,22345
CQUADX4,22730,1,22345,22594,22595,22346
CQUADX4,22731,1,22346,22595,22596,22347
CQUADX4,22732,1,22347,22596,22597,22348
CQUADX4,22733,1,22348,22597,22598,22349
CQUADX4,22734,1,22349,22598,22599,22350
CQUADX4,22735,1,22350,22599,22600,22351
CQUADX4,22736,1,22351,22600,22601,22352
CQUADX4,22737,1,22352,22601,22602,22353
CQUADX4,22738,1,22353,22602,22603,22354
CQUADX4,22739,1,22354,22603,22604,22355
CQUADX4,22740,1,22355,22604,22605,22356
CQUADX4,22741,1,22356,22605,22606,22357
CQUADX4,22742,1,22357,22606,22607,22358
CQUADX4,22743,1,22358,22607,22608,22359
CQUADX4,22744,1,22359,22608,22609,22360
CQUADX4,22745,1,22360,22609,22610,22361
CQUADX4,22746,1,22361,22610,22611,22362
CQUADX4,22747,1,22362,22611,22612,22363
CQUADX4,22748,1,22363,22612,22613,22364
CQUADX4,22749,1,22364,22613,22614,22365
CQUADX4,22750,1,22365,22614,22615,22366
CQUADX4,22751,1,22366,22615,22616,22367
CQUADX4,22752,1,22367,22616,22617,22368
CQUADX4,22753,1,22368,22617,22618,22369
CQUADX4,22754,1,22369,22618,22619,22370
CQUADX4,22755,1,22370,22619,22620,22371
CQUADX4,22756,1,22371,22620,22621,22372
CQUADX4,22757,1,22372,22621,22622,22373
CQUADX4,22758,1,22373,22622,22623,22374
CQUADX4,22759,1,22374,22623,22624,22375
CQUADX4,22760,1,22375,22624,22625,22376
CQUADX4,22761,1,22376,22625,22626,22377
CQUADX4,22762,1,22377,22626,22627,22378
CQUADX4,22763,1,22378,22627,22628,22379
CQUADX4,22764,1,22379,22628,22629,22380
CQUADX4,22765,1,22380,22629,22630,22381
CQUADX4,22766,1,22381,22630,22631,22382
CQUADX4,22767,1,22382,22631,22632,22383
CQUADX4,22768,1,22383,22632,22633,22384
CQUADX4,22769,1,22384,22633,22634,22385
CQUADX4,22770,1,22385,22634,22635,22386
CQUADX4,22771,1,22386,22635,22636,22387
CQUADX4,22772,1,22387,22636,22637,22388
CQUADX4,22773,1,22388,22637,22638,22389
CQUADX4,22774,1,22389,22638,22639,22390
CQUADX4,22775,1,22390,22639,22640,22391
CQUADX4,22776,1,22391,22640,22641,22392
CQUADX4,22777,1,22392,22641,22642,22393
CQUADX4,22778,1,22393,22642,22643,22394
CQUADX4,22779,1,22394,22643,22644,22395
CQUADX4,22780,1,22395,22644,22645,22396
CQUADX4,22781,1,22396,22645,22646,22397
CQUADX4,22782,1,22397,22646,22647,22398
CQUADX4,22783,1,22398,22647,22648,22399
CQUADX4,22784,1,22399,22648,22649,22400
CQUADX4,22785,1,22400,22649,22650,22401
CQUADX4,22786,1,22401,22650,22651,22402
CQUADX4,22787,1,22402,22651,22652,22403
CQUADX4,22788,1,22403,22652,22653,22404
CQUADX4,22789,1,22404,22653,22654,22405
CQUADX4,22790,1,22405,22654,22655,22406
CQUADX4,22791,1,22406,22655,22656,22407
CQUADX4,22792,1,22407,22656,22657,22408
CQUADX4,22793,1,22408,22657,22658,22409
CQUADX4,22794,1,22409,22658,22659,22410
CQUADX4,22795,1,22410,22659,22660,22411
CQUADX4,22796,1,22411,22660,22661,22412
CQUADX4,22797,1,22412,22661,22662,22413
CQUADX4,22798,1,22413,22662,22663,22414
CQUADX4,22799,1,22414,22663,22664,22415
CQUADX4,22800,1,22415,22664,22665,22416
CQUADX4,22801,1,22416,22665,22666,22417
CQUADX4,22802,1,22417,22666,22667,22418
CQUADX4,22803,1,22418,22667,22668,22419
CQUADX4,22804,1,22419,22668,22669,22420
CQUADX4,22805,1,22420,22669,22670,22421
CQUADX4,22806,1,22421,22670,22671,22422
CQUADX4,22807,1,22422,22671,22672,22423
CQUADX4,22808,1,22423,22672,22673,22424
CQUADX4,22809,1,22424,22673,22674,22425
CQUADX4,22810,1,22425,22674,22675,22426
CQUADX4,22811,1,22426,22675,22676,22427
CQUADX4,22812,1,22427,22676,22677,22428
CQUADX4,22813,1,22428,22677,22678,22429
CQUADX4,22814,1,22429,22678,22679,22430
CQUADX4,22815,1,22430,22679,22680,22431
CQUADX4,22816,1,22431,22680,22681,22432
CQUADX4,22817,1,22432,22681,22682,22433
CQUADX4,22818,1,22433,22682,22683,22434
CQUADX4,22819,1,22434,22683,22684,22435
CQUADX4,22820,1,22435,22684,22685,22436
CQUADX4,22821,1,22436,22685,22686,22437
CQUADX4,22822,1,22437,22686,22687,22438
CQUADX4,22823,1,22438,22687,22688,22439
CQUADX4,22824,1,22439,22688,22689,22440
CQUADX4,22825,1,22440,22689,22690,22441
CQUADX4,22826,1,22441,22690,22691,22442
CQUADX4,22827,1,22442,22691,22692,22443
CQUADX4,22828,1,22443,22692,22693,22444
CQUADX4,22829,1,22444,22693,22694,22445
CQUADX4,22830,1,22445,22694,22695,22446
CQUADX4,22831,1,22446,22695,22696,22447
CQUADX4,22832,1,22447,22696,22697,22448
CQUADX4,22833,1,22448,22697,22698,22449
CQUADX4,22834,1,22449,22698,22699,22450
CQUADX4,22835,1,22450,22699,22700,22451
CQUADX4,22836,1,22451,22700,22701,22452
CQUADX4,22837,1,22452,22701,22702,22453
CQUADX4,22838,1,22453,22702,22703,22454
CQUADX4,22839,1,22454,22703,22704,22455
CQUADX4,22840,1,22455,22704,22705,22456
CQUADX4,22841,1,22456,22705,22706,22457
CQUADX4,22842,1,22457,22706,22707,22458
CQUADX4,22843,1,22458,22707,22708,22459
CQUADX4,22844,1,22459,22708,22709,22460
CQUADX4,22845,1,22460,22709,22710,22461
CQUADX4,22846,1,22461,22710,22711,22462
CQUADX4,22847,1,22462,22711,22712,22463
CQUADX4,22848,1,22463,22712,22713,22464
CQUADX4,22849,1,22464,22713,22714,22465
CQUADX4,22850,1,22465,22714,22715,22466
CQUADX4,22851,1,22466,22715,22716,22467
CQUADX4,22852,1,22467,22716,22717,22468
CQUADX4,22853,1,22468,22717,22718,22469
CQUADX4,22854,1,22469,22718,22719,22470
CQUADX4,22855,1,22470,22719,22720,22471
CQUADX4,22856,1,22471,22720,22721,22472
CQUADX4,22857,1,22472,22721,22722,22473
CQUADX4,22858,1,22473,22722,22723,22474
CQUADX4,22859,1,22474,22723,22724,22475
CQUADX4,22860,1,22475,22724,22725,22476
CQUADX4,22861,1,22476,22725,22726,22477
CQUADX4,22862,1,22477,22726,22727,22478
CQUADX4,22863,1,22478,22727,22728,22479
CQUADX4,22864,1,22479,22728,22729,22480
CQUADX4,22865,1,22480,22729,22730,22481
CQUADX4,22866,1,22481,22730,22731,22482
CQUADX4,22867,1,22482,22731,22732,22483
CQUADX4,22868,1,22483,22732,22733,22484
CQUADX4,22869,1,22484,22733,22734,22485
CQUADX4,22870,1,22485,22734,22735,22486
CQUADX4,22871,1,22486,22735,22736,22487
CQUADX4,22872,1,22487,22736,22737,22488
CQUADX4,22873,1,22488,22737,22738,22489
CQUADX4,22874,1,22489,22738,22739,22490
CQUADX4,22875,1,22490,22739,22740,22491
CQUADX4,22876,1,22491,22740,22741,22492
CQUADX4,22877,1,22492,22741,22742,22493
CQUADX4,22878,1,22493,22742,22743,22494
CQUADX4,22879,1,22494,22743,22744,22495
CQUADX4,22880,1,22495,22744,22745,22496
CQUADX4,22881,1,22496,22745,22746,22497
CQUADX4,22882,1,22497,22746,22747,22498
CQUADX4,22883,1,22498,22747,22748,22499
CQUADX4,22884,1,22499,22748,22749,22500
CQUADX4,22885,1,22500,22749,22750,22501
CQUADX4,22886,1,22501,22750,22751,22502
CQUADX4,22887,1,22502,22751,22752,22503
CQUADX4,22888,1,22503,22752,22753,22504
CQUADX4,22889,1,22504,22753,22754,22505
CQUADX4,22890,1,22505,22754,22755,22506
CQUADX4,22891,1,22506,22755,22756,22507
CQUADX4,22892,1,22507,22756,22757,22508
CQUADX4,22893,1,22508,22757,22758,22509
CQUADX4,22894,1,22509,22758,22759,22510
CQUADX4,22895,1,22510,22759,22760,22511
CQUADX4,22896,1,22511,22760,22761,22512
CQUADX4,22897,1,22512,22761,22762,22513
CQUADX4,22898,1,22513,22762,22763,22514
CQUADX4,22899,1,22514,22763,22764,22515
CQUADX4,22900,1,22515,22764,22765,22516
CQUADX4,22901,1,22516,22765,22766,22517
CQUADX4,22902,1,22517,22766,22767,22518
CQUADX4,22903,1,22518,22767,22768,22519
CQUADX4,22904,1,22519,22768,22769,22520
CQUADX4,22905,1,22520,22769,22770,22521
CQUADX4,22906,1,22521,22770,22771,22522
CQUADX4,22907,1,22522,22771,22772,22523
CQUADX4,22908,1,22523,22772,22773,22524
CQUADX4,22909,1,22524,22773,22774,22525
CQUADX4,22910,1,22525,22774,22775,22526
CQUADX4,22911,1,22526,22775,22776,22527
CQUADX4,22912,1,22527,22776,22777,22528
CQUADX4,22913,1,22528,22777,22778,22529
CQUADX4,22914,1,22529,22778,22779,22530
CQUADX4,22915,1,22530,22779,22780,22531
CQUADX4,22916,1,22531,22780,22781,22532
CQUADX4,22917,1,22532,22781,22782,22533
CQUADX4,22918,1,22533,22782,22783,22534
CQUADX4,22919,1,22534,22783,22784,22535
CQUADX4,22920,1,22535,22784,22785,22536
CQUADX4,22921,1,22536,22785,22786,22537
CQUADX4,22922,1,22537,22786,22787,22538
CQUADX4,22923,1,22538,22787,22788,22539
CQUADX4,22924,1,22539,22788,22789,22540
CQUADX4,22925,1,22540,22789,22790,22541
CQUADX4,22926,1,22541,22790,22791,22542
CQUADX4,22927,1,22542,22791,22792,22543
CQUADX4,22928,1,22543,22792,22793,22544
CQUADX4,22929,1,22545,22794,22795,22546
CQUADX4,22930,1,22546,22795,22796,22547
CQUADX4,22931,1,22547,22796,22797,22548
CQUADX4,22932,1,22548,22797,22798,22549
CQUADX4,22933,1,22549,22798,22799,22550
CQUADX4,22934,1,22550,22799,22800,22551
CQUADX4,22935,1,22551,22800,22801,22552
CQUADX4,22936,1,22552,22801,22802,22553
CQUADX4,22937,1,22553,22802,22803,22554
CQUADX4,22938,1,22554,22803,22804,22555
CQUADX4,22939,1,22555,22804,22805,22556
CQUADX4,22940,1,22556,22805,22806,22557
CQUADX4,22941,1,22557,22806,22807,22558
CQUADX4,22942,1,22558,22807,22808,22559
CQUADX4,22943,1,22559,22808,22809,22560
CQUADX4,22944,1,22560,22809,22810,22561
CQUADX4,22945,1,22561,22810,22811,22562
CQUADX4,22946,1,22562,22811,22812,22563
CQUADX4,22947,1,22563,22812,22813,22564
CQUADX4,22948,1,22564,22813,22814,22565
CQUADX4,22949,1,22565,22814,22815,22566
CQUADX4,22950,1,22566,22815,22816,22567
CQUADX4,22951,1,22567,22816,22817,22568
CQUADX4,22952,1,22568,22817,22818,22569
CQUADX4,22953,1,22569,22818,22819,22570
CQUADX4,22954,1,22570,22819,22820,22571
CQUADX4,22955,1,22571,22820,22821,22572
CQUADX4,22956,1,22572,22821,22822,22573
CQUADX4,22957,1,22573,22822,22823,22574
CQUADX4,22958,1,22574,22823,22824,22575
CQUADX4,22959,1,22575,22824,22825,22576
CQUADX4,22960,1,22576,22825,22826,22577
CQUADX4,22961,1,22577,22826,22827,22578
CQUADX4,22962,1,22578,22827,22828,22579
CQUADX4,22963,1,22579,22828,22829,22580
CQUADX4,22964,1,22580,22829,22830,22581
CQUADX4,22965,1,22581,22830,22831,22582
CQUADX4,22966,1,22582,22831,22832,22583
CQUADX4,22967,1,22583,22832,22833,22584
CQUADX4,22968,1,22584,22833,22834,22585
CQUADX4,22969,1,22585,22834,22835,22586
CQUADX4,22970,1,22586,22835,22836,22587
CQUADX4,22971,1,22587,22836,22837,22588
CQUADX4,22972,1,22588,22837,22838,22589
CQUADX4,22973,1,22589,22838,22839,22590
CQUADX4,22974,1,22590,22839,22840,22591
CQUADX4,22975,1,22591,22840,22841,22592
CQUADX4,22976,1,22592,22841,22842,22593
CQUADX4,22977,1,22593,22842,22843,22594
CQUADX4,22978,1,22594,22843,22844,22595
CQUADX4,22979,1,22595,22844,22845,22596
CQUADX4,22980,1,22596,22845,22846,22597
CQUADX4,22981,1,22597,22846,22847,22598
CQUADX4,22982,1,22598,22847,22848,22599
CQUADX4,22983,1,22599,22848,22849,22600
CQUADX4,22984,1,22600,22849,22850,22601
CQUADX4,22985,1,22601,22850,22851,22602
CQUADX4,22986,1,22602,22851,22852,22603
CQUADX4,22987,1,22603,22852,22853,22604
CQUADX4,22988,1,22604,22853,22854,22605
CQUADX4,22989,1,22605,22854,22855,22606
CQUADX4,22990,1,22606,22855,22856,22607
CQUADX4,22991,1,22607,22856,22857,22608
CQUADX4,22992,1,22608,22857,22858,22609
CQUADX4,22993,1,22609,22858,22859,22610
CQUADX4,22994,1,22610,22859,22860,22611
CQUADX4,22995,1,22611,22860,22861,22612
CQUADX4,22996,1,22612,22861,22862,22613
CQUADX4,22997,1,22613,22862,22863,22614
CQUADX4,22998,1,22614,22863,22864,22615
CQUADX4,22999,1,22615,22864,22865,22616
CQUADX4,23000,1,22616,22865,22866,22617
CQUADX4,23001,1,22617,22866,22867,22618
CQUADX4,23002,1,22618,22867,22868,22619
CQUADX4,23003,1,22619,22868,22869,22620
CQUADX4,23004,1,22620,22869,22870,22621
CQUADX4,23005,1,22621,22870,22871,22622
CQUADX4,23006,1,22622,22871,22872,22623
CQUADX4,23007,1,22623,22872,22873,22624
CQUADX4,23008,1,22624,22873,22874,22625
CQUADX4,23009,1,22625,22874,22875,22626
CQUADX4,23010,1,22626,22875,22876,22627
CQUADX4,23011,1,22627,22876,22877,22628
CQUADX4,23012,1,22628,22877,22878,22629
CQUADX4,23013,1,22629,22878,22879,22630
CQUADX4,23014,1,22630,22879,22880,22631
CQUADX4,23015,1,22631,22880,22881,22632
CQUADX4,23016,1,22632,22881,22882,22633
CQUADX4,23017,1,22633,22882,22883,22634
CQUADX4,23018,1,22634,22883,22884,22635
CQUADX4,23019,1,22635,22884,22885,22636
CQUADX4,23020,1,22636,22885,22886,22637
CQUADX4,23021,1,22637,22886,22887,22638
CQUADX4,23022,1,22638,22887,22888,22639
CQUADX4,23023,1,22639,22888,22889,22640
CQUADX4,23024,1,22640,22889,22890,22641
CQUADX4,23025,1,22641,22890,22891,22642
CQUADX4,23026,1,22642,22891,22892,22643
CQUADX4,23027,1,22643,22892,22893,22644
CQUADX4,23028,1,22644,22893,22894,22645
CQUADX4,23029,1,22645,22894,22895,22646
CQUADX4,23030,1,22646,22895,22896,22647
CQUADX4,23031,1,22647,22896,22897,22648
CQUADX4,23032,1,22648,22897,22898,22649
CQUADX4,23033,1,22649,22898,22899,22650
CQUADX4,23034,1,22650,22899,22900,22651
CQUADX4,23035,1,22651,22900,22901,22652
CQUADX4,23036,1,22652,22901,22902,22653
CQUADX4,23037,1,22653,22902,22903,22654
CQUADX4,23038,1,22654,22903,22904,22655
CQUADX4,23039,1,22655,22904,22905,22656
CQUADX4,23040,1,22656,22905,22906,22657
CQUADX4,23041,1,22657,22906,22907,22658
CQUADX4,23042,1,22658,22907,22908,22659
CQUADX4,23043,1,22659,22908,22909,22660
CQUADX4,23044,1,22660,22909,22910,22661
CQUADX4,23045,1,22661,22910,22911,22662
CQUADX4,23046,1,22662,22911,22912,22663
CQUADX4,23047,1,22663,22912,22913,22664
CQUADX4,23048,1,22664,22913,22914,22665
CQUADX4,23049,1,22665,22914,22915,22666
CQUADX4,23050,1,22666,22915,22916,22667
CQUADX4,23051,1,22667,22916,22917,22668
CQUADX4,23052,1,22668,22917,22918,22669
CQUADX4,23053,1,22669,22918,22919,22670
CQUADX4,23054,1,22670,22919,22920,22671
CQUADX4,23055,1,22671,22920,22921,22672
CQUADX4,23056,1,22672,22921,22922,22673
CQUADX4,23057,1,22673,22922,22923,22674
CQUADX4,23058,1,22674,22923,22924,22675
CQUADX4,23059,1,22675,22924,22925,22676
CQUADX4,23060,1,22676,22925,22926,22677
CQUADX4,23061,1,22677,22926,22927,22678
CQUADX4,23062,1,22678,22927,22928,22679
CQUADX4,23063,1,22679,22928,22929,22680
CQUADX4,23064,1,22680,22929,22930,22681
CQUADX4,23065,1,22681,22930,22931,22682
CQUADX4,23066,1,22682,22931,22932,22683
CQUADX4,23067,1,22683,22932,22933,22684
CQUADX4,23068,1,22684,22933,22934,22685
CQUADX4,23069,1,22685,22934,22935,22686
CQUADX4,23070,1,22686,22935,22936,22687
CQUADX4,23071,1,22687,22936,22937,22688
CQUADX4,23072,1,22688,22937,22938,22689
CQUADX4,23073,1,22689,22938,22939,22690
CQUADX4,23074,1,22690,22939,22940,22691
CQUADX4,23075,1,22691,22940,22941,22692
CQUADX4,23076,1,22692,22941,22942,22693
CQUADX4,23077,1,22693,22942,22943,22694
CQUADX4,23078,1,22694,22943,22944,22695
CQUADX4,23079,1,22695,22944,22945,22696
CQUADX4,23080,1,22696,22945,22946,22697
CQUADX4,23081,1,22697,22946,22947,22698
CQUADX4,23082,1,22698,22947,22948,22699
CQUADX4,23083,1,22699,22948,22949,22700
CQUADX4,23084,1,22700,22949,22950,22701
CQUADX4,23085,1,22701,22950,22951,22702
CQUADX4,23086,1,22702,22951,22952,22703
CQUADX4,23087,1,22703,22952,22953,22704
CQUADX4,23088,1,22704,22953,22954,22705
CQUADX4,23089,1,22705,22954,22955,22706
CQUADX4,23090,1,22706,22955,22956,22707
CQUADX4,23091,1,22707,22956,22957,22708
CQUADX4,23092,1,22708,22957,22958,22709
CQUADX4,23093,1,22709,22958,22959,22710
CQUADX4,23094,1,22710,22959,22960,22711
CQUADX4,23095,1,22711,22960,22961,22712
CQUADX4,23096,1,22712,22961,22962,22713
CQUADX4,23097,1,22713,22962,22963,22714
CQUADX4,23098,1,22714,22963,22964,22715
CQUADX4,23099,1,22715,22964,22965,22716
CQUADX4,23100,1,22716,22965,22966,22717
CQUADX4,23101,1,22717,22966,22967,22718
CQUADX4,23102,1,22718,22967,22968,22719
CQUADX4,23103,1,22719,22968,22969,22720
CQUADX4,23104,1,22720,22969,22970,22721
CQUADX4,23105,1,22721,22970,22971,22722
CQUADX4,23106,1,22722,22971,22972,22723
CQUADX4,23107,1,22723,22972,22973,22724
CQUADX4,23108,1,22724,22973,22974,22725
CQUADX4,23109,1,22725,22974,22975,22726
CQUADX4,23110,1,22726,22975,22976,22727
CQUADX4,23111,1,22727,22976,22977,22728
CQUADX4,23112,1,22728,22977,22978,22729
CQUADX4,23113,1,22729,22978,22979,22730
CQUADX4,23114,1,22730,22979,22980,22731
CQUADX4,23115,1,22731,22980,22981,22732
CQUADX4,23116,1,22732,22981,22982,22733
CQUADX4,23117,1,22733,22982,22983,22734
CQUADX4,23118,1,22734,22983,22984,22735
CQUADX4,23119,1,22735,22984,22985,22736
CQUADX4,23120,1,22736,22985,22986,22737
CQUADX4,23121,1,22737,22986,22987,22738
CQUADX4,23122,1,22738,22987,22988,22739
CQUADX4,23123,1,22739,22988,22989,22740
CQUADX4,23124,1,22740,22989,22990,22741
CQUADX4,23125,1,22741,22990,22991,22742
CQUADX4,23126,1,22742,22991,22992,22743
CQUADX4,23127,1,22743,22992,22993,22744
CQUADX4,23128,1,22744,22993,22994,22745
CQUADX4,23129,1,22745,22994,22995,22746
CQUADX4,23130,1,22746,22995,22996,22747
CQUADX4,23131,1,22747,22996,22997,22748
CQUADX4,23132,1,22748,22997,22998,22749
CQUADX4,23133,1,22749,22998,22999,22750
CQUADX4,23134,1,22750,22999,23000,22751
CQUADX4,23135,1,22751,23000,23001,22752
CQUADX4,23136,1,22752,23001,23002,22753
CQUADX4,23137,1,22753,23002,23003,22754
CQUADX4,23138,1,22754,23003,23004,22755
CQUADX4,23139,1,22755,23004,23005,22756
CQUADX4,23140,1,22756,23005,23006,22757
CQUADX4,23141,1,22757,23006,23007,22758
CQUADX4,23142,1,22758,23007,23008,22759
CQUADX4,23143,1,22759,23008,23009,22760
CQUADX4,23144,1,22760,23009,23010,22761
CQUADX4,23145,1,22761,23010,23011,22762
CQUADX4,23146,1,22762,23011,23012,22763
CQUADX4,23147,1,22763,23012,23013,22764
CQUADX4,23148,1,22764,23013,23014,22765
CQUADX4,23149,1,22765,23014,23015,22766
CQUADX4,23150,1,22766,23015,23016,22767
CQUADX4,23151,1,22767,23016,23017,22768
CQUADX4,23152,1,22768,23017,23018,22769
CQUADX4,23153,1,22769,23018,23019,22770
CQUADX4,23154,1,22770,23019,23020,22771
CQUADX4,23155,1,22771,23020,23021,22772
CQUADX4,23156,1,22772,23021,23022,22773
CQUADX4,23157,1,22773,23022,23023,22774
CQUADX4,23158,1,22774,23023,23024,22775
CQUADX4,23159,1,22775,23024,23025,22776
CQUADX4,23160,1,22776,23025,23026,22777
CQUADX4,23161,1,22777,23026,23027,22778
CQUADX4,23162,1,22778,23027,23028,22779
CQUADX4,23163,1,22779,23028,23029,22780
CQUADX4,23164,1,22780,23029,23030,22781
CQUADX4,23165,1,22781,23030,23031,22782
CQUADX4,23166,1,22782,23031,23032,22783
CQUADX4,23167,1,22783,23032,23033,22784
CQUADX4,23168,1,22784,23033,23034,22785
CQUADX4,23169,1,22785,23034,23035,22786
CQUADX4,23170,1,22786,23035,23036,22787
CQUADX4,23171,1,22787,23036,23037,22788
CQUADX4,23172,1,22788,23037,23038,22789
CQUADX4,23173,1,22789,23038,23039,22790
CQUADX4,23174,1,22790,23039,23040,22791
CQUADX4,23175,1,22791,23040,23041,22792
CQUADX4,23176,1,22792,23041,23042,22793
CQUADX4,23177,1,22794,23043,23044,22795
CQUADX4,23178,1,22795,23044,23045,22796
CQUADX4,23179,1,22796,23045,23046,22797
CQUADX4,23180,1,22797,23046,23047,22798
CQUADX4,23181,1,22798,23047,23048,22799
CQUADX4,23182,1,22799,23048,23049,22800
CQUADX4,23183,1,22800,23049,23050,22801
CQUADX4,23184,1,22801,23050,23051,22802
CQUADX4,23185,1,22802,23051,23052,22803
CQUADX4,23186,1,22803,23052,23053,22804
CQUADX4,23187,1,22804,23053,23054,22805
CQUADX4,23188,1,22805,23054,23055,22806
CQUADX4,23189,1,22806,23055,23056,22807
CQUADX4,23190,1,22807,23056,23057,22808
CQUADX4,23191,1,22808,23057,23058,22809
CQUADX4,23192,1,22809,23058,23059,22810
CQUADX4,23193,1,22810,23059,23060,22811
CQUADX4,23194,1,22811,23060,23061,22812
CQUADX4,23195,1,22812,23061,23062,22813
CQUADX4,23196,1,22813,23062,23063,22814
CQUADX4,23197,1,22814,23063,23064,22815
CQUADX4,23198,1,22815,23064,23065,22816
CQUADX4,23199,1,22816,23065,23066,22817
CQUADX4,23200,1,22817,23066,23067,22818
CQUADX4,23201,1,22818,23067,23068,22819
CQUADX4,23202,1,22819,23068,23069,22820
CQUADX4,23203,1,22820,23069,23070,22821
CQUADX4,23204,1,22821,23070,23071,22822
CQUADX4,23205,1,22822,23071,23072,22823
CQUADX4,23206,1,22823,23072,23073,22824
CQUADX4,23207,1,22824,23073,23074,22825
CQUADX4,23208,1,22825,23074,23075,22826
CQUADX4,23209,1,22826,23075,23076,22827
CQUADX4,23210,1,22827,23076,23077,22828
CQUADX4,23211,1,22828,23077,23078,22829
CQUADX4,23212,1,22829,23078,23079,22830
CQUADX4,23213,1,22830,23079,23080,22831
CQUADX4,23214,1,22831,23080,23081,22832
CQUADX4,23215,1,22832,23081,23082,22833
CQUADX4,23216,1,22833,23082,23083,22834
CQUADX4,23217,1,22834,23083,23084,22835
CQUADX4,23218,1,22835,23084,23085,22836
CQUADX4,23219,1,22836,23085,23086,22837
CQUADX4,23220,1,22837,23086,23087,22838
CQUADX4,23221,1,22838,23087,23088,22839
CQUADX4,23222,1,22839,23088,23089,22840
CQUADX4,23223,1,22840,23089,23090,22841
CQUADX4,23224,1,22841,23090,23091,22842
CQUADX4,23225,1,22842,23091,23092,22843
CQUADX4,23226,1,22843,23092,23093,22844
CQUADX4,23227,1,22844,23093,23094,22845
CQUADX4,23228,1,22845,23094,23095,22846
CQUADX4,23229,1,22846,23095,23096,22847
CQUADX4,23230,1,22847,23096,23097,22848
CQUADX4,23231,1,22848,23097,23098,22849
CQUADX4,23232,1,22849,23098,23099,22850
CQUADX4,23233,1,22850,23099,23100,22851
CQUADX4,23234,1,22851,23100,23101,22852
CQUADX4,23235,1,22852,23101,23102,22853
CQUADX4,23236,1,22853,23102,23103,22854
CQUADX4,23237,1,22854,23103,23104,22855
CQUADX4,23238,1,22855,23104,23105,22856
CQUADX4,23239,1,22856,23105,23106,22857
CQUADX4,23240,1,22857,23106,23107,22858
CQUADX4,23241,1,22858,23107,23108,22859
CQUADX4,23242,1,22859,23108,23109,22860
CQUADX4,23243,1,22860,23109,23110,22861
CQUADX4,23244,1,22861,23110,23111,22862
CQUADX4,23245,1,22862,23111,23112,22863
CQUADX4,23246,1,22863,23112,23113,22864
CQUADX4,23247,1,22864,23113,23114,22865
CQUADX4,23248,1,22865,23114,23115,22866
CQUADX4,23249,1,22866,23115,23116,22867
CQUADX4,23250,1,22867,23116,23117,22868
CQUADX4,23251,1,22868,23117,23118,22869
CQUADX4,23252,1,22869,23118,23119,22870
CQUADX4,23253,1,22870,23119,23120,22871
CQUADX4,23254,1,22871,23120,23121,22872
CQUADX4,23255,1,22872,23121,23122,22873
CQUADX4,23256,1,22873,23122,23123,22874
CQUADX4,23257,1,22874,23123,23124,22875
CQUADX4,23258,1,22875,23124,23125,22876
CQUADX4,23259,1,22876,23125,23126,22877
CQUADX4,23260,1,22877,23126,23127,22878
CQUADX4,23261,1,22878,23127,23128,22879
CQUADX4,23262,1,22879,23128,23129,22880
CQUADX4,23263,1,22880,23129,23130,22881
CQUADX4,23264,1,22881,23130,23131,22882
CQUADX4,23265,1,22882,23131,23132,22883
CQUADX4,23266,1,22883,23132,23133,22884
CQUADX4,23267,1,22884,23133,23134,22885
CQUADX4,23268,1,22885,23134,23135,22886
CQUADX4,23269,1,22886,23135,23136,22887
CQUADX4,23270,1,22887,23136,23137,22888
CQUADX4,23271,1,22888,23137,23138,22889
CQUADX4,23272,1,22889,23138,23139,22890
CQUADX4,23273,1,22890,23139,23140,22891
CQUADX4,23274,1,22891,23140,23141,22892
CQUADX4,23275,1,22892,23141,23142,22893
CQUADX4,23276,1,22893,23142,23143,22894
CQUADX4,23277,1,22894,23143,23144,22895
CQUADX4,23278,1,22895,23144,23145,22896
CQUADX4,23279,1,22896,23145,23146,22897
CQUADX4,23280,1,22897,23146,23147,22898
CQUADX4,23281,1,22898,23147,23148,22899
CQUADX4,23282,1,22899,23148,23149,22900
CQUADX4,23283,1,22900,23149,23150,22901
CQUADX4,23284,1,22901,23150,23151,22902
CQUADX4,23285,1,22902,23151,23152,22903
CQUADX4,23286,1,22903,23152,23153,22904
CQUADX4,23287,1,22904,23153,23154,22905
CQUADX4,23288,1,22905,23154,23155,22906
CQUADX4,23289,1,22906,23155,23156,22907
CQUADX4,23290,1,22907,23156,23157,22908
CQUADX4,23291,1,22908,23157,23158,22909
CQUADX4,23292,1,22909,23158,23159,22910
CQUADX4,23293,1,22910,23159,23160,22911
CQUADX4,23294,1,22911,23160,23161,22912
CQUADX4,23295,1,22912,23161,23162,22913
CQUADX4,23296,1,22913,23162,23163,22914
CQUADX4,23297,1,22914,23163,23164,22915
CQUADX4,23298,1,22915,23164,23165,22916
CQUADX4,23299,1,22916,23165,23166,22917
CQUADX4,23300,1,22917,23166,23167,22918
CQUADX4,23301,1,22918,23167,23168,22919
CQUADX4,23302,1,22919,23168,23169,22920
CQUADX4,23303,1,22920,23169,23170,22921
CQUADX4,23304,1,22921,23170,23171,22922
CQUADX4,23305,1,22922,23171,23172,22923
CQUADX4,23306,1,22923,23172,23173,22924
CQUADX4,23307,1,22924,23173,23174,22925
CQUADX4,23308,1,22925,23174,23175,22926
CQUADX4,23309,1,22926,23175,23176,22927
CQUADX4,23310,1,22927,23176,23177,22928
CQUADX4,23311,1,22928,23177,23178,22929
CQUADX4,23312,1,22929,23178,23179,22930
CQUADX4,23313,1,22930,23179,23180,22931
CQUADX4,23314,1,22931,23180,23181,22932
CQUADX4,23315,1,22932,23181,23182,22933
CQUADX4,23316,1,22933,23182,23183,22934
CQUADX4,23317,1,22934,23183,23184,22935
CQUADX4,23318,1,22935,23184,23185,22936
CQUADX4,23319,1,22936,23185,23186,22937
CQUADX4,23320,1,22937,23186,23187,22938
CQUADX4,23321,1,22938,23187,23188,22939
CQUADX4,23322,1,22939,23188,23189,22940
CQUADX4,23323,1,22940,23189,23190,22941
CQUADX4,23324,1,22941,23190,23191,22942
CQUADX4,23325,1,22942,23191,23192,22943
CQUADX4,23326,1,22943,23192,23193,22944
CQUADX4,23327,1,22944,23193,23194,22945
CQUADX4,23328,1,22945,23194,23195,22946
CQUADX4,23329,1,22946,23195,23196,22947
CQUADX4,23330,1,22947,23196,23197,22948
CQUADX4,23331,1,22948,23197,23198,22949
CQUADX4,23332,1,22949,23198,23199,22950
CQUADX4,23333,1,22950,23199,23200,22951
CQUADX4,23334,1,22951,23200,23201,22952
CQUADX4,23335,1,22952,23201,23202,22953
CQUADX4,23336,1,22953,23202,23203,22954
CQUADX4,23337,1,22954,23203,23204,22955
CQUADX4,23338,1,22955,23204,23205,22956
CQUADX4,23339,1,22956,23205,23206,22957
CQUADX4,23340,1,22957,23206,23207,22958
CQUADX4,23341,1,22958,23207,23208,22959
CQUADX4,23342,1,22959,23208,23209,22960
CQUADX4,23343,1,22960,23209,23210,22961
CQUADX4,23344,1,22961,23210,23211,22962
CQUADX4,23345,1,22962,23211,23212,22963
CQUADX4,23346,1,22963,23212,23213,22964
CQUADX4,23347,1,22964,23213,23214,22965
CQUADX4,23348,1,22965,23214,23215,22966
CQUADX4,23349,1,22966,23215,23216,22967
CQUADX4,23350,1,22967,23216,23217,22968
CQUADX4,23351,1,22968,23217,23218,22969
CQUADX4,23352,1,22969,23218,23219,22970
CQUADX4,23353,1,22970,23219,23220,22971
CQUADX4,23354,1,22971,23220,23221,22972
CQUADX4,23355,1,22972,23221,23222,22973
CQUADX4,23356,1,22973,23222,23223,22974
CQUADX4,23357,1,22974,23223,23224,22975
CQUADX4,23358,1,22975,23224,23225,22976
CQUADX4,23359,1,22976,23225,23226,22977
CQUADX4,23360,1,22977,23226,23227,22978
CQUADX4,23361,1,22978,23227,23228,22979
CQUADX4,23362,1,22979,23228,23229,22980
CQUADX4,23363,1,22980,23229,23230,22981
CQUADX4,23364,1,22981,23230,23231,22982
CQUADX4,23365,1,22982,23231,23232,22983
CQUADX4,23366,1,22983,23232,23233,22984
CQUADX4,23367,1,22984,23233,23234,22985
CQUADX4,23368,1,22985,23234,23235,22986
CQUADX4,23369,1,22986,23235,23236,22987
CQUADX4,23370,1,22987,23236,23237,22988
CQUADX4,23371,1,22988,23237,23238,22989
CQUADX4,23372,1,22989,23238,23239,22990
CQUADX4,23373,1,22990,23239,23240,22991
CQUADX4,23374,1,22991,23240,23241,22992
CQUADX4,23375,1,22992,23241,23242,22993
CQUADX4,23376,1,22993,23242,23243,22994
CQUADX4,23377,1,22994,23243,23244,22995
CQUADX4,23378,1,22995,23244,23245,22996
CQUADX4,23379,1,22996,23245,23246,22997
CQUADX4,23380,1,22997,23246,23247,22998
CQUADX4,23381,1,22998,23247,23248,22999
CQUADX4,23382,1,22999,23248,23249,23000
CQUADX4,23383,1,23000,23249,23250,23001
CQUADX4,23384,1,23001,23250,23251,23002
CQUADX4,23385,1,23002,23251,23252,23003
CQUADX4,23386,1,23003,23252,23253,23004
CQUADX4,23387,1,23004,23253,23254,23005
CQUADX4,23388,1,23005,23254,23255,23006
CQUADX4,23389,1,23006,23255,23256,23007
CQUADX4,23390,1,23007,23256,23257,23008
CQUADX4,23391,1,23008,23257,23258,23009
CQUADX4,23392,1,23009,23258,23259,23010
CQUADX4,23393,1,23010,23259,23260,23011
CQUADX4,23394,1,23011,23260,23261,23012
CQUADX4,23395,1,23012,23261,23262,23013
CQUADX4,23396,1,23013,23262,23263,23014
CQUADX4,23397,1,23014,23263,23264,23015
CQUADX4,23398,1,23015,23264,23265,23016
CQUADX4,23399,1,23016,23265,23266,23017
CQUADX4,23400,1,23017,23266,23267,23018
CQUADX4,23401,1,23018,23267,23268,23019
CQUADX4,23402,1,23019,23268,23269,23020
CQUADX4,23403,1,23020,23269,23270,23021
CQUADX4,23404,1,23021,23270,23271,23022
CQUADX4,23405,1,23022,23271,23272,23023
CQUADX4,23406,1,23023,23272,23273,23024
CQUADX4,23407,1,23024,23273,23274,23025
CQUADX4,23408,1,23025,23274,23275,23026
CQUADX4,23409,1,23026,23275,23276,23027
CQUADX4,23410,1,23027,23276,23277,23028
CQUADX4,23411,1,23028,23277,23278,23029
CQUADX4,23412,1,23029,23278,23279,23030
CQUADX4,23413,1,23030,23279,23280,23031
CQUADX4,23414,1,23031,23280,23281,23032
CQUADX4,23415,1,23032,23281,23282,23033
CQUADX4,23416,1,23033,23282,23283,23034
CQUADX4,23417,1,23034,23283,23284,23035
CQUADX4,23418,1,23035,23284,23285,23036
CQUADX4,23419,1,23036,23285,23286,23037
CQUADX4,23420,1,23037,23286,23287,23038
CQUADX4,23421,1,23038,23287,23288,23039
CQUADX4,23422,1,23039,23288,23289,23040
CQUADX4,23423,1,23040,23289,23290,23041
CQUADX4,23424,1,23041,23290,23291,23042
CQUADX4,23425,1,23043,23292,23293,23044
CQUADX4,23426,1,23044,23293,23294,23045
CQUADX4,23427,1,23045,23294,23295,23046
CQUADX4,23428,1,23046,23295,23296,23047
CQUADX4,23429,1,23047,23296,23297,23048
CQUADX4,23430,1,23048,23297,23298,23049
CQUADX4,23431,1,23049,23298,23299,23050
CQUADX4,23432,1,23050,23299,23300,23051
CQUADX4,23433,1,23051,23300,23301,23052
CQUADX4,23434,1,23052,23301,23302,23053
CQUADX4,23435,1,23053,23302,23303,23054
CQUADX4,23436,1,23054,23303,23304,23055
CQUADX4,23437,1,23055,23304,23305,23056
CQUADX4,23438,1,23056,23305,23306,23057
CQUADX4,23439,1,23057,23306,23307,23058
CQUADX4,23440,1,23058,23307,23308,23059
CQUADX4,23441,1,23059,23308,23309,23060
CQUADX4,23442,1,23060,23309,23310,23061
CQUADX4,23443,1,23061,23310,23311,23062
CQUADX4,23444,1,23062,23311,23312,23063
CQUADX4,23445,1,23063,23312,23313,23064
CQUADX4,23446,1,23064,23313,23314,23065
CQUADX4,23447,1,23065,23314,23315,23066
CQUADX4,23448,1,23066,23315,23316,23067
CQUADX4,23449,1,23067,23316,23317,23068
CQUADX4,23450,1,23068,23317,23318,23069
CQUADX4,23451,1,23069,23318,23319,23070
CQUADX4,23452,1,23070,23319,23320,23071
CQUADX4,23453,1,23071,23320,23321,23072
CQUADX4,23454,1,23072,23321,23322,23073
CQUADX4,23455,1,23073,23322,23323,23074
CQUADX4,23456,1,23074,23323,23324,23075
CQUADX4,23457,1,23075,23324,23325,23076
CQUADX4,23458,1,23076,23325,23326,23077
CQUADX4,23459,1,23077,23326,23327,23078
CQUADX4,23460,1,23078,23327,23328,23079
CQUADX4,23461,1,23079,23328,23329,23080
CQUADX4,23462,1,23080,23329,23330,23081
CQUADX4,23463,1,23081,23330,23331,23082
CQUADX4,23464,1,23082,23331,23332,23083
CQUADX4,23465,1,23083,23332,23333,23084
CQUADX4,23466,1,23084,23333,23334,23085
CQUADX4,23467,1,23085,23334,23335,23086
CQUADX4,23468,1,23086,23335,23336,23087
CQUADX4,23469,1,23087,23336,23337,23088
CQUADX4,23470,1,23088,23337,23338,23089
CQUADX4,23471,1,23089,23338,23339,23090
CQUADX4,23472,1,23090,23339,23340,23091
CQUADX4,23473,1,23091,23340,23341,23092
CQUADX4,23474,1,23092,23341,23342,23093
CQUADX4,23475,1,23093,23342,23343,23094
CQUADX4,23476,1,23094,23343,23344,23095
CQUADX4,23477,1,23095,23344,23345,23096
CQUADX4,23478,1,23096,23345,23346,23097
CQUADX4,23479,1,23097,23346,23347,23098
CQUADX4,23480,1,23098,23347,23348,23099
CQUADX4,23481,1,23099,23348,23349,23100
CQUADX4,23482,1,23100,23349,23350,23101
CQUADX4,23483,1,23101,23350,23351,23102
CQUADX4,23484,1,23102,23351,23352,23103
CQUADX4,23485,1,23103,23352,23353,23104
CQUADX4,23486,1,23104,23353,23354,23105
CQUADX4,23487,1,23105,23354,23355,23106
CQUADX4,23488,1,23106,23355,23356,23107
CQUADX4,23489,1,23107,23356,23357,23108
CQUADX4,23490,1,23108,23357,23358,23109
CQUADX4,23491,1,23109,23358,23359,23110
CQUADX4,23492,1,23110,23359,23360,23111
CQUADX4,23493,1,23111,23360,23361,23112
CQUADX4,23494,1,23112,23361,23362,23113
CQUADX4,23495,1,23113,23362,23363,23114
CQUADX4,23496,1,23114,23363,23364,23115
CQUADX4,23497,1,23115,23364,23365,23116
CQUADX4,23498,1,23116,23365,23366,23117
CQUADX4,23499,1,23117,23366,23367,23118
CQUADX4,23500,1,23118,23367,23368,23119
CQUADX4,23501,1,23119,23368,23369,23120
CQUADX4,23502,1,23120,23369,23370,23121
CQUADX4,23503,1,23121,23370,23371,23122
CQUADX4,23504,1,23122,23371,23372,23123
CQUADX4,23505,1,23123,23372,23373,23124
CQUADX4,23506,1,23124,23373,23374,23125
CQUADX4,23507,1,23125,23374,23375,23126
CQUADX4,23508,1,23126,23375,23376,23127
CQUADX4,23509,1,23127,23376,23377,23128
CQUADX4,23510,1,23128,23377,23378,23129
CQUADX4,23511,1,23129,23378,23379,23130
CQUADX4,23512,1,23130,23379,23380,23131
CQUADX4,23513,1,23131,23380,23381,23132
CQUADX4,23514,1,23132,23381,23382,23133
CQUADX4,23515,1,23133,23382,23383,23134
CQUADX4,23516,1,23134,23383,23384,23135
CQUADX4,23517,1,23135,23384,23385,23136
CQUADX4,23518,1,23136,23385,23386,23137
CQUADX4,23519,1,23137,23386,23387,23138
CQUADX4,23520,1,23138,23387,23388,23139
CQUADX4,23521,1,23139,23388,23389,23140
CQUADX4,23522,1,23140,23389,23390,23141
CQUADX4,23523,1,23141,23390,23391,23142
CQUADX4,23524,1,23142,23391,23392,23143
CQUADX4,23525,1,23143,23392,23393,23144
CQUADX4,23526,1,23144,23393,23394,23145
CQUADX4,23527,1,23145,23394,23395,23146
CQUADX4,23528,1,23146,23395,23396,23147
CQUADX4,23529,1,23147,23396,23397,23148
CQUADX4,23530,1,23148,23397,23398,23149
CQUADX4,23531,1,23149,23398,23399,23150
CQUADX4,23532,1,23150,23399,23400,23151
CQUADX4,23533,1,23151,23400,23401,23152
CQUADX4,23534,1,23152,23401,23402,23153
CQUADX4,23535,1,23153,23402,23403,23154
CQUADX4,23536,1,23154,23403,23404,23155
CQUADX4,23537,1,23155,23404,23405,23156
CQUADX4,23538,1,23156,23405,23406,23157
CQUADX4,23539,1,23157,23406,23407,23158
CQUADX4,23540,1,23158,23407,23408,23159
CQUADX4,23541,1,23159,23408,23409,23160
CQUADX4,23542,1,23160,23409,23410,23161
CQUADX4,23543,1,23161,23410,23411,23162
CQUADX4,23544,1,23162,23411,23412,23163
CQUADX4,23545,1,23163,23412,23413,23164
CQUADX4,23546,1,23164,23413,23414,23165
CQUADX4,23547,1,23165,23414,23415,23166
CQUADX4,23548,1,23166,23415,23416,23167
CQUADX4,23549,1,23167,23416,23417,23168
CQUADX4,23550,1,23168,23417,23418,23169
CQUADX4,23551,1,23169,23418,23419,23170
CQUADX4,23552,1,23170,23419,23420,23171
CQUADX4,23553,1,23171,23420,23421,23172
CQUADX4,23554,1,23172,23421,23422,23173
CQUADX4,23555,1,23173,23422,23423,23174
CQUADX4,23556,1,23174,23423,23424,23175
CQUADX4,23557,1,23175,23424,23425,23176
CQUADX4,23558,1,23176,23425,23426,23177
CQUADX4,23559,1,23177,23426,23427,23178
CQUADX4,23560,1,23178,23427,23428,23179
CQUADX4,23561,1,23179,23428,23429,23180
CQUADX4,23562,1,23180,23429,23430,23181
CQUADX4,23563,1,23181,23430,23431,23182
CQUADX4,23564,1,23182,23431,23432,23183
CQUADX4,23565,1,23183,23432,23433,23184
CQUADX4,23566,1,23184,23433,23434,23185
CQUADX4,23567,1,23185,23434,23435,23186
CQUADX4,23568,1,23186,23435,23436,23187
CQUADX4,23569,1,23187,23436,23437,23188
CQUADX4,23570,1,23188,23437,23438,23189
CQUADX4,23571,1,23189,23438,23439,23190
CQUADX4,23572,1,23190,23439,23440,23191
CQUADX4,23573,1,23191,23440,23441,23192
CQUADX4,23574,1,23192,23441,23442,23193
CQUADX4,23575,1,23193,23442,23443,23194
CQUADX4,23576,1,23194,23443,23444,23195
CQUADX4,23577,1,23195,23444,23445,23196
CQUADX4,23578,1,23196,23445,23446,23197
CQUADX4,23579,1,23197,23446,23447,23198
CQUADX4,23580,1,23198,23447,23448,23199
CQUADX4,23581,1,23199,23448,23449,23200
CQUADX4,23582,1,23200,23449,23450,23201
CQUADX4,23583,1,23201,23450,23451,23202
CQUADX4,23584,1,23202,23451,23452,23203
CQUADX4,23585,1,23203,23452,23453,23204
CQUADX4,23586,1,23204,23453,23454,23205
CQUADX4,23587,1,23205,23454,23455,23206
CQUADX4,23588,1,23206,23455,23456,23207
CQUADX4,23589,1,23207,23456,23457,23208
CQUADX4,23590,1,23208,23457,23458,23209
CQUADX4,23591,1,23209,23458,23459,23210
CQUADX4,23592,1,23210,23459,23460,23211
CQUADX4,23593,1,23211,23460,23461,23212
CQUADX4,23594,1,23212,23461,23462,23213
CQUADX4,23595,1,23213,23462,23463,23214
CQUADX4,23596,1,23214,23463,23464,23215
CQUADX4,23597,1,23215,23464,23465,23216
CQUADX4,23598,1,23216,23465,23466,23217
CQUADX4,23599,1,23217,23466,23467,23218
CQUADX4,23600,1,23218,23467,23468,23219
CQUADX4,23601,1,23219,23468,23469,23220
CQUADX4,23602,1,23220,23469,23470,23221
CQUADX4,23603,1,23221,23470,23471,23222
CQUADX4,23604,1,23222,23471,23472,23223
CQUADX4,23605,1,23223,23472,23473,23224
CQUADX4,23606,1,23224,23473,23474,23225
CQUADX4,23607,1,23225,23474,23475,23226
CQUADX4,23608,1,23226,23475,23476,23227
CQUADX4,23609,1,23227,23476,23477,23228
CQUADX4,23610,1,23228,23477,23478,23229
CQUADX4,23611,1,23229,23478,23479,23230
CQUADX4,23612,1,23230,23479,23480,23231
CQUADX4,23613,1,23231,23480,23481,23232
CQUADX4,23614,1,23232,23481,23482,23233
CQUADX4,23615,1,23233,23482,23483,23234
CQUADX4,23616,1,23234,23483,23484,23235
CQUADX4,23617,1,23235,23484,23485,23236
CQUADX4,23618,1,23236,23485,23486,23237
CQUADX4,23619,1,23237,23486,23487,23238
CQUADX4,23620,1,23238,23487,23488,23239
CQUADX4,23621,1,23239,23488,23489,23240
CQUADX4,23622,1,23240,23489,23490,23241
CQUADX4,23623,1,23241,23490,23491,23242
CQUADX4,23624,1,23242,23491,23492,23243
CQUADX4,23625,1,23243,23492,23493,23244
CQUADX4,23626,1,23244,23493,23494,23245
CQUADX4,23627,1,23245,23494,23495,23246
CQUADX4,23628,1,23246,23495,23496,23247
CQUADX4,23629,1,23247,23496,23497,23248
CQUADX4,23630,1,23248,23497,23498,23249
CQUADX4,23631,1,23249,23498,23499,23250
CQUADX4,23632,1,23250,23499,23500,23251
CQUADX4,23633,1,23251,23500,23501,23252
CQUADX4,23634,1,23252,23501,23502,23253
CQUADX4,23635,1,23253,23502,23503,23254
CQUADX4,23636,1,23254,23503,23504,23255
CQUADX4,23637,1,23255,23504,23505,23256
CQUADX4,23638,1,23256,23505,23506,23257
CQUADX4,23639,1,23257,23506,23507,23258
CQUADX4,23640,1,23258,23507,23508,23259
CQUADX4,23641,1,23259,23508,23509,23260
CQUADX4,23642,1,23260,23509,23510,23261
CQUADX4,23643,1,23261,23510,23511,23262
CQUADX4,23644,1,23262,23511,23512,23263
CQUADX4,23645,1,23263,23512,23513,23264
CQUADX4,23646,1,23264,23513,23514,23265
CQUADX4,23647,1,23265,23514,23515,23266
CQUADX4,23648,1,23266,23515,23516,23267
CQUADX4,23649,1,23267,23516,23517,23268
CQUADX4,23650,1,23268,23517,23518,23269
CQUADX4,23651,1,23269,23518,23519,23270
CQUADX4,23652,1,23270,23519,23520,23271
CQUADX4,23653,1,23271,23520,23521,23272
CQUADX4,23654,1,23272,23521,23522,23273
CQUADX4,23655,1,23273,23522,23523,23274
CQUADX4,23656,1,23274,23523,23524,23275
CQUADX4,23657,1,23275,23524,23525,23276
CQUADX4,23658,1,23276,23525,23526,23277
CQUADX4,23659,1,23277,23526,23527,23278
CQUADX4,23660,1,23278,23527,23528,23279
CQUADX4,23661,1,23279,23528,23529,23280
CQUADX4,23662,1,23280,23529,23530,23281
CQUADX4,23663,1,23281,23530,23531,23282
CQUADX4,23664,1,23282,23531,23532,23283
CQUADX4,23665,1,23283,23532,23533,23284
CQUADX4,23666,1,23284,23533,23534,23285
CQUADX4,23667,1,23285,23534,23535,23286
CQUADX4,23668,1,23286,23535,23536,23287
CQUADX4,23669,1,23287,23536,23537,23288
CQUADX4,23670,1,23288,23537,23538,23289
CQUADX4,23671,1,23289,23538,23539,23290
CQUADX4,23672,1,23290,23539,23540,23291
CQUADX4,23673,1,23292,23541,23542,23293
CQUADX4,23674,1,23293,23542,23543,23294
CQUADX4,23675,1,23294,23543,23544,23295
CQUADX4,23676,1,23295,23544,23545,23296
CQUADX4,23677,1,23296,23545,23546,23297
CQUADX4,23678,1,23297,23546,23547,23298
CQUADX4,23679,1,23298,23547,23548,23299
CQUADX4,23680,1,23299,23548,23549,23300
CQUADX4,23681,1,23300,23549,23550,23301
CQUADX4,23682,1,23301,23550,23551,23302
CQUADX4,23683,1,23302,23551,23552,23303
CQUADX4,23684,1,23303,23552,23553,23304
CQUADX4,23685,1,23304,23553,23554,23305
CQUADX4,23686,1,23305,23554,23555,23306
CQUADX4,23687,1,23306,23555,23556,23307
CQUADX4,23688,1,23307,23556,23557,23308
CQUADX4,23689,1,23308,23557,23558,23309
CQUADX4,23690,1,23309,23558,23559,23310
CQUADX4,23691,1,23310,23559,23560,23311
CQUADX4,23692,1,23311,23560,23561,23312
CQUADX4,23693,1,23312,23561,23562,23313
CQUADX4,23694,1,23313,23562,23563,23314
CQUADX4,23695,1,23314,23563,23564,23315
CQUADX4,23696,1,23315,23564,23565,23316
CQUADX4,23697,1,23316,23565,23566,23317
CQUADX4,23698,1,23317,23566,23567,23318
CQUADX4,23699,1,23318,23567,23568,23319
CQUADX4,23700,1,23319,23568,23569,23320
CQUADX4,23701,1,23320,23569,23570,23321
CQUADX4,23702,1,23321,23570,23571,23322
CQUADX4,23703,1,23322,23571,23572,23323
CQUADX4,23704,1,23323,23572,23573,23324
CQUADX4,23705,1,23324,23573,23574,23325
CQUADX4,23706,1,23325,23574,23575,23326
CQUADX4,23707,1,23326,23575,23576,23327
CQUADX4,23708,1,23327,23576,23577,23328
CQUADX4,23709,1,23328,23577,23578,23329
CQUADX4,23710,1,23329,23578,23579,23330
CQUADX4,23711,1,23330,23579,23580,23331
CQUADX4,23712,1,23331,23580,23581,23332
CQUADX4,23713,1,23332,23581,23582,23333
CQUADX4,23714,1,23333,23582,23583,23334
CQUADX4,23715,1,23334,23583,23584,23335
CQUADX4,23716,1,23335,23584,23585,23336
CQUADX4,23717,1,23336,23585,23586,23337
CQUADX4,23718,1,23337,23586,23587,23338
CQUADX4,23719,1,23338,23587,23588,23339
CQUADX4,23720,1,23339,23588,23589,23340
CQUADX4,23721,1,23340,23589,23590,23341
CQUADX4,23722,1,23341,23590,23591,23342
CQUADX4,23723,1,23342,23591,23592,23343
CQUADX4,23724,1,23343,23592,23593,23344
CQUADX4,23725,1,23344,23593,23594,23345
CQUADX4,23726,1,23345,23594,23595,23346
CQUADX4,23727,1,23346,23595,23596,23347
CQUADX4,23728,1,23347,23596,23597,23348
CQUADX4,23729,1,23348,23597,23598,23349
CQUADX4,23730,1,23349,23598,23599,23350
CQUADX4,23731,1,23350,23599,23600,23351
CQUADX4,23732,1,23351,23600,23601,23352
CQUADX4,23733,1,23352,23601,23602,23353
CQUADX4,23734,1,23353,23602,23603,23354
CQUADX4,23735,1,23354,23603,23604,23355
CQUADX4,23736,1,23355,23604,23605,23356
CQUADX4,23737,1,23356,23605,23606,23357
CQUADX4,23738,1,23357,23606,23607,23358
CQUADX4,23739,1,23358,23607,23608,23359
CQUADX4,23740,1,23359,23608,23609,23360
CQUADX4,23741,1,23360,23609,23610,23361
CQUADX4,23742,1,23361,23610,23611,23362
CQUADX4,23743,1,23362,23611,23612,23363
CQUADX4,23744,1,23363,23612,23613,23364
CQUADX4,23745,1,23364,23613,23614,23365
CQUADX4,23746,1,23365,23614,23615,23366
CQUADX4,23747,1,23366,23615,23616,23367
CQUADX4,23748,1,23367,23616,23617,23368
CQUADX4,23749,1,23368,23617,23618,23369
CQUADX4,23750,1,23369,23618,23619,23370
CQUADX4,23751,1,23370,23619,23620,23371
CQUADX4,23752,1,23371,23620,23621,23372
CQUADX4,23753,1,23372,23621,23622,23373
CQUADX4,23754,1,23373,23622,23623,23374
CQUADX4,23755,1,23374,23623,23624,23375
CQUADX4,23756,1,23375,23624,23625,23376
CQUADX4,23757,1,23376,23625,23626,23377
CQUADX4,23758,1,23377,23626,23627,23378
CQUADX4,23759,1,23378,23627,23628,23379
CQUADX4,23760,1,23379,23628,23629,23380
CQUADX4,23761,1,23380,23629,23630,23381
CQUADX4,23762,1,23381,23630,23631,23382
CQUADX4,23763,1,23382,23631,23632,23383
CQUADX4,23764,1,23383,23632,23633,23384
CQUADX4,23765,1,23384,23633,23634,23385
CQUADX4,23766,1,23385,23634,23635,23386
CQUADX4,23767,1,23386,23635,23636,23387
CQUADX4,23768,1,23387,23636,23637,23388
CQUADX4,23769,1,23388,23637,23638,23389
CQUADX4,23770,1,23389,23638,23639,23390
CQUADX4,23771,1,23390,23639,23640,23391
CQUADX4,23772,1,23391,23640,23641,23392
CQUADX4,23773,1,23392,23641,23642,23393
CQUADX4,23774,1,23393,23642,23643,23394
CQUADX4,23775,1,23394,23643,23644,23395
CQUADX4,23776,1,23395,23644,23645,23396
CQUADX4,23777,1,23396,23645,23646,23397
CQUADX4,23778,1,23397,23646,23647,23398
CQUADX4,23779,1,23398,23647,23648,23399
CQUADX4,23780,1,23399,23648,23649,23400
CQUADX4,23781,1,23400,23649,23650,23401
CQUADX4,23782,1,23401,23650,23651,23402
CQUADX4,23783,1,23402,23651,23652,23403
CQUADX4,23784,1,23403,23652,23653,23404
CQUADX4,23785,1,23404,23653,23654,23405
CQUADX4,23786,1,23405,23654,23655,23406
CQUADX4,23787,1,23406,23655,23656,23407
CQUADX4,23788,1,23407,23656,23657,23408
CQUADX4,23789,1,23408,23657,23658,23409
CQUADX4,23790,1,23409,23658,23659,23410
CQUADX4,23791,1,23410,23659,23660,23411
CQUADX4,23792,1,23411,23660,23661,23412
CQUADX4,23793,1,23412,23661,23662,23413
CQUADX4,23794,1,23413,23662,23663,23414
CQUADX4,23795,1,23414,23663,23664,23415
CQUADX4,23796,1,23415,23664,23665,23416
CQUADX4,23797,1,23416,23665,23666,23417
CQUADX4,23798,1,23417,23666,23667,23418
CQUADX4,23799,1,23418,23667,23668,23419
CQUADX4,23800,1,23419,23668,23669,23420
CQUADX4,23801,1,23420,23669,23670,23421
CQUADX4,23802,1,23421,23670,23671,23422
CQUADX4,23803,1,23422,23671,23672,23423
CQUADX4,23804,1,23423,23672,23673,23424
CQUADX4,23805,1,23424,23673,23674,23425
CQUADX4,23806,1,23425,23674,23675,23426
CQUADX4,23807,1,23426,23675,23676,23427
CQUADX4,23808,1,23427,23676,23677,23428
CQUADX4,23809,1,23428,23677,23678,23429
CQUADX4,23810,1,23429,23678,23679,23430
CQUADX4,23811,1,23430,23679,23680,23431
CQUADX4,23812,1,23431,23680,23681,23432
CQUADX4,23813,1,23432,23681,23682,23433
CQUADX4,23814,1,23433,23682,23683,23434
CQUADX4,23815,1,23434,23683,23684,23435
CQUADX4,23816,1,23435,23684,23685,23436
CQUADX4,23817,1,23436,23685,23686,23437
CQUADX4,23818,1,23437,23686,23687,23438
CQUADX4,23819,1,23438,23687,23688,23439
CQUADX4,23820,1,23439,23688,23689,23440
CQUADX4,23821,1,23440,23689,23690,23441
CQUADX4,23822,1,23441,23690,23691,23442
CQUADX4,23823,1,23442,23691,23692,23443
CQUADX4,23824,1,23443,23692,23693,23444
CQUADX4,23825,1,23444,23693,23694,23445
CQUADX4,23826,1,23445,23694,23695,23446
CQUADX4,23827,1,23446,23695,23696,23447
CQUADX4,23828,1,23447,23696,23697,23448
CQUADX4,23829,1,23448,23697,23698,23449
CQUADX4,23830,1,23449,23698,23699,23450
CQUADX4,23831,1,23450,23699,23700,23451
CQUADX4,23832,1,23451,23700,23701,23452
CQUADX4,23833,1,23452,23701,23702,23453
CQUADX4,23834,1,23453,23702,23703,23454
CQUADX4,23835,1,23454,23703,23704,23455
CQUADX4,23836,1,23455,23704,23705,23456
CQUADX4,23837,1,23456,23705,23706,23457
CQUADX4,23838,1,23457,23706,23707,23458
CQUADX4,23839,1,23458,23707,23708,23459
CQUADX4,23840,1,23459,23708,23709,23460
CQUADX4,23841,1,23460,23709,23710,23461
CQUADX4,23842,1,23461,23710,23711,23462
CQUADX4,23843,1,23462,23711,23712,23463
CQUADX4,23844,1,23463,23712,23713,23464
CQUADX4,23845,1,23464,23713,23714,23465
CQUADX4,23846,1,23465,23714,23715,23466
CQUADX4,23847,1,23466,23715,23716,23467
CQUADX4,23848,1,23467,23716,23717,23468
CQUADX4,23849,1,23468,23717,23718,23469
CQUADX4,23850,1,23469,23718,23719,23470
CQUADX4,23851,1,23470,23719,23720,23471
CQUADX4,23852,1,23471,23720,23721,23472
CQUADX4,23853,1,23472,23721,23722,23473
CQUADX4,23854,1,23473,23722,23723,23474
CQUADX4,23855,1,23474,23723,23724,23475
CQUADX4,23856,1,23475,23724,23725,23476
CQUADX4,23857,1,23476,23725,23726,23477
CQUADX4,23858,1,23477,23726,23727,23478
CQUADX4,23859,1,23478,23727,23728,23479
CQUADX4,23860,1,23479,23728,23729,23480
CQUADX4,23861,1,23480,23729,23730,23481
CQUADX4,23862,1,23481,23730,23731,23482
CQUADX4,23863,1,23482,23731,23732,23483
CQUADX4,23864,1,23483,23732,23733,23484
CQUADX4,23865,1,23484,23733,23734,23485
CQUADX4,23866,1,23485,23734,23735,23486
CQUADX4,23867,1,23486,23735,23736,23487
CQUADX4,23868,1,23487,23736,23737,23488
CQUADX4,23869,1,23488,23737,23738,23489
CQUADX4,23870,1,23489,23738,23739,23490
CQUADX4,23871,1,23490,23739,23740,23491
CQUADX4,23872,1,23491,23740,23741,23492
CQUADX4,23873,1,23492,23741,23742,23493
CQUADX4,23874,1,23493,23742,23743,23494
CQUADX4,23875,1,23494,23743,23744,23495
CQUADX4,23876,1,23495,23744,23745,23496
CQUADX4,23877,1,23496,23745,23746,23497
CQUADX4,23878,1,23497,23746,23747,23498
CQUADX4,23879,1,23498,23747,23748,23499
CQUADX4,23880,1,23499,23748,23749,23500
CQUADX4,23881,1,23500,23749,23750,23501
CQUADX4,23882,1,23501,23750,23751,23502
CQUADX4,23883,1,23502,23751,23752,23503
CQUADX4,23884,1,23503,23752,23753,23504
CQUADX4,23885,1,23504,23753,23754,23505
CQUADX4,23886,1,23505,23754,23755,23506
CQUADX4,23887,1,23506,23755,23756,23507
CQUADX4,23888,1,23507,23756,23757,23508
CQUADX4,23889,1,23508,23757,23758,23509
CQUADX4,23890,1,23509,23758,23759,23510
CQUADX4,23891,1,23510,23759,23760,23511
CQUADX4,23892,1,23511,23760,23761,23512
CQUADX4,23893,1,23512,23761,23762,23513
CQUADX4,23894,1,23513,23762,23763,23514
CQUADX4,23895,1,23514,23763,23764,23515
CQUADX4,23896,1,23515,23764,23765,23516
CQUADX4,23897,1,23516,23765,23766,23517
CQUADX4,23898,1,23517,23766,23767,23518
CQUADX4,23899,1,23518,23767,23768,23519
CQUADX4,23900,1,23519,23768,23769,23520
CQUADX4,23901,1,23520,23769,23770,23521
CQUADX4,23902,1,23521,23770,23771,23522
CQUADX4,23903,1,23522,23771,23772,23523
CQUADX4,23904,1,23523,23772,23773,23524
CQUADX4,23905,1,23524,23773,23774,23525
CQUADX4,23906,1,23525,23774,23775,23526
CQUADX4,23907,1,23526,23775,23776,23527
CQUADX4,23908,1,23527,23776,23777,23528
CQUADX4,23909,1,23528,23777,23778,23529
CQUADX4,23910,1,23529,23778,23779,23530
CQUADX4,23911,1,23530,23779,23780,23531
CQUADX4,23912,1,23531,23780,23781,23532
CQUADX4,23913,1,23532,23781,23782,23533
CQUADX4,23914,1,23533,23782,23783,23534
CQUADX4,23915,1,23534,23783,23784,23535
CQUADX4,23916,1,23535,23784,23785,23536
CQUADX4,23917,1,23536,23785,23786,23537
CQUADX4,23918,1,23537,23786,23787,23538
CQUADX4,23919,1,23538,23787,23788,23539
CQUADX4,23920,1,23539,23788,23789,23540
CQUADX4,23921,1,23541,23790,23791,23542
CQUADX4,23922,1,23542,23791,23792,23543
CQUADX4,23923,1,23543,23792,23793,23544
CQUADX4,23924,1,23544,23793,23794,23545
CQUADX4,23925,1,23545,23794,23795,23546
CQUADX4,23926,1,23546,23795,23796,23547
CQUADX4,23927,1,23547,23796,23797,23548
CQUADX4,23928,1,23548,23797,23798,23549
CQUADX4,23929,1,23549,23798,23799,23550
CQUADX4,23930,1,23550,23799,23800,23551
CQUADX4,23931,1,23551,23800,23801,23552
CQUADX4,23932,1,23552,23801,23802,23553
CQUADX4,23933,1,23553,23802,23803,23554
CQUADX4,23934,1,23554,23803,23804,23555
CQUADX4,23935,1,23555,23804,23805,23556
CQUADX4,23936,1,23556,23805,23806,23557
CQUADX4,23937,1,23557,23806,23807,23558
CQUADX4,23938,1,23558,23807,23808,23559
CQUADX4,23939,1,23559,23808,23809,23560
CQUADX4,23940,1,23560,23809,23810,23561
CQUADX4,23941,1,23561,23810,23811,23562
CQUADX4,23942,1,23562,23811,23812,23563
CQUADX4,23943,1,23563,23812,23813,23564
CQUADX4,23944,1,23564,23813,23814,23565
CQUADX4,23945,1,23565,23814,23815,23566
CQUADX4,23946,1,23566,23815,23816,23567
CQUADX4,23947,1,23567,23816,23817,23568
CQUADX4,23948,1,23568,23817,23818,23569
CQUADX4,23949,1,23569,23818,23819,23570
CQUADX4,23950,1,23570,23819,23820,23571
CQUADX4,23951,1,23571,23820,23821,23572
CQUADX4,23952,1,23572,23821,23822,23573
CQUADX4,23953,1,23573,23822,23823,23574
CQUADX4,23954,1,23574,23823,23824,23575
CQUADX4,23955,1,23575,23824,23825,23576
CQUADX4,23956,1,23576,23825,23826,23577
CQUADX4,23957,1,23577,23826,23827,23578
CQUADX4,23958,1,23578,23827,23828,23579
CQUADX4,23959,1,23579,23828,23829,23580
CQUADX4,23960,1,23580,23829,23830,23581
CQUADX4,23961,1,23581,23830,23831,23582
CQUADX4,23962,1,23582,23831,23832,23583
CQUADX4,23963,1,23583,23832,23833,23584
CQUADX4,23964,1,23584,23833,23834,23585
CQUADX4,23965,1,23585,23834,23835,23586
CQUADX4,23966,1,23586,23835,23836,23587
CQUADX4,23967,1,23587,23836,23837,23588
CQUADX4,23968,1,23588,23837,23838,23589
CQUADX4,23969,1,23589,23838,23839,23590
CQUADX4,23970,1,23590,23839,23840,23591
CQUADX4,23971,1,23591,23840,23841,23592
CQUADX4,23972,1,23592,23841,23842,23593
CQUADX4,23973,1,23593,23842,23843,23594
CQUADX4,23974,1,23594,23843,23844,23595
CQUADX4,23975,1,23595,23844,23845,23596
CQUADX4,23976,1,23596,23845,23846,23597
CQUADX4,23977,1,23597,23846,23847,23598
CQUADX4,23978,1,23598,23847,23848,23599
CQUADX4,23979,1,23599,23848,23849,23600
CQUADX4,23980,1,23600,23849,23850,23601
CQUADX4,23981,1,23601,23850,23851,23602
CQUADX4,23982,1,23602,23851,23852,23603
CQUADX4,23983,1,23603,23852,23853,23604
CQUADX4,23984,1,23604,23853,23854,23605
CQUADX4,23985,1,23605,23854,23855,23606
CQUADX4,23986,1,23606,23855,23856,23607
CQUADX4,23987,1,23607,23856,23857,23608
CQUADX4,23988,1,23608,23857,23858,23609
CQUADX4,23989,1,23609,23858,23859,23610
CQUADX4,23990,1,23610,23859,23860,23611
CQUADX4,23991,1,23611,23860,23861,23612
CQUADX4,23992,1,23612,23861,23862,23613
CQUADX4,23993,1,23613,23862,23863,23614
CQUADX4,23994,1,23614,23863,23864,23615
CQUADX4,23995,1,23615,23864,23865,23616
CQUADX4,23996,1,23616,23865,23866,23617
CQUADX4,23997,1,23617,23866,23867,23618
CQUADX4,23998,1,23618,23867,23868,23619
CQUADX4,23999,1,23619,23868,23869,23620
CQUADX4,24000,1,23620,23869,23870,23621
CQUADX4,24001,1,23621,23870,23871,23622
CQUADX4,24002,1,23622,23871,23872,23623
CQUADX4,24003,1,23623,23872,23873,23624
CQUADX4,24004,1,23624,23873,23874,23625
CQUADX4,24005,1,23625,23874,23875,23626
CQUADX4,24006,1,23626,23875,23876,23627
CQUADX4,24007,1,23627,23876,23877,23628
CQUADX4,24008,1,23628,23877,23878,23629
CQUADX4,24009,1,23629,23878,23879,23630
CQUADX4,24010,1,23630,23879,23880,23631
CQUADX4,24011,1,23631,23880,23881,23632
CQUADX4,24012,1,23632,23881,23882,23633
CQUADX4,24013,1,23633,23882,23883,23634
CQUADX4,24014,1,23634,23883,23884,23635
CQUADX4,24015,1,23635,23884,23885,23636
CQUADX4,24016,1,23636,23885,23886,23637
CQUADX4,24017,1,23637,23886,23887,23638
CQUADX4,24018,1,23638,23887,23888,23639
CQUADX4,24019,1,23639,23888,23889,23640
CQUADX4,24020,1,23640,23889,23890,23641
CQUADX4,24021,1,23641,23890,23891,23642
CQUADX4,24022,1,23642,23891,23892,23643
CQUADX4,24023,1,23643,23892,23893,23644
CQUADX4,24024,1,23644,23893,23894,23645
CQUADX4,24025,1,23645,23894,23895,23646
CQUADX4,24026,1,23646,23895,23896,23647
CQUADX4,24027,1,23647,23896,23897,23648
CQUADX4,24028,1,23648,23897,23898,23649
CQUADX4,24029,1,23649,23898,23899,23650
CQUADX4,24030,1,23650,23899,23900,23651
CQUADX4,24031,1,23651,23900,23901,23652
CQUADX4,24032,1,23652,23901,23902,23653
CQUADX4,24033,1,23653,23902,23903,23654
CQUADX4,24034,1,23654,23903,23904,23655
CQUADX4,24035,1,23655,23904,23905,23656
CQUADX4,24036,1,23656,23905,23906,23657
CQUADX4,24037,1,23657,23906,23907,23658
CQUADX4,24038,1,23658,23907,23908,23659
CQUADX4,24039,1,23659,23908,23909,23660
CQUADX4,24040,1,23660,23909,23910,23661
CQUADX4,24041,1,23661,23910,23911,23662
CQUADX4,24042,1,23662,23911,23912,23663
CQUADX4,24043,1,23663,23912,23913,23664
CQUADX4,24044,1,23664,23913,23914,23665
CQUADX4,24045,1,23665,23914,23915,23666
CQUADX4,24046,1,23666,23915,23916,23667
CQUADX4,24047,1,23667,23916,23917,23668
CQUADX4,24048,1,23668,23917,23918,23669
CQUADX4,24049,1,23669,23918,23919,23670
CQUADX4,24050,1,23670,23919,23920,23671
CQUADX4,24051,1,23671,23920,23921,23672
CQUADX4,24052,1,23672,23921,23922,23673
CQUADX4,24053,1,23673,23922,23923,23674
CQUADX4,24054,1,23674,23923,23924,23675
CQUADX4,24055,1,23675,23924,23925,23676
CQUADX4,24056,1,23676,23925,23926,23677
CQUADX4,24057,1,23677,23926,23927,23678
CQUADX4,24058,1,23678,23927,23928,23679
CQUADX4,24059,1,23679,23928,23929,23680
CQUADX4,24060,1,23680,23929,23930,23681
CQUADX4,24061,1,23681,23930,23931,23682
CQUADX4,24062,1,23682,23931,23932,23683
CQUADX4,24063,1,23683,23932,23933,23684
CQUADX4,24064,1,23684,23933,23934,23685
CQUADX4,24065,1,23685,23934,23935,23686
CQUADX4,24066,1,23686,23935,23936,23687
CQUADX4,24067,1,23687,23936,23937,23688
CQUADX4,24068,1,23688,23937,23938,23689
CQUADX4,24069,1,23689,23938,23939,23690
CQUADX4,24070,1,23690,23939,23940,23691
CQUADX4,24071,1,23691,23940,23941,23692
CQUADX4,24072,1,23692,23941,23942,23693
CQUADX4,24073,1,23693,23942,23943,23694
CQUADX4,24074,1,23694,23943,23944,23695
CQUADX4,24075,1,23695,23944,23945,23696
CQUADX4,24076,1,23696,23945,23946,23697
CQUADX4,24077,1,23697,23946,23947,23698
CQUADX4,24078,1,23698,23947,23948,23699
CQUADX4,24079,1,23699,23948,23949,23700
CQUADX4,24080,1,23700,23949,23950,23701
CQUADX4,24081,1,23701,23950,23951,23702
CQUADX4,24082,1,23702,23951,23952,23703
CQUADX4,24083,1,23703,23952,23953,23704
CQUADX4,24084,1,23704,23953,23954,23705
CQUADX4,24085,1,23705,23954,23955,23706
CQUADX4,24086,1,23706,23955,23956,23707
CQUADX4,24087,1,23707,23956,23957,23708
CQUADX4,24088,1,23708,23957,23958,23709
CQUADX4,24089,1,23709,23958,23959,23710
CQUADX4,24090,1,23710,23959,23960,23711
CQUADX4,24091,1,23711,23960,23961,23712
CQUADX4,24092,1,23712,23961,23962,23713
CQUADX4,24093,1,23713,23962,23963,23714
CQUADX4,24094,1,23714,23963,23964,23715
CQUADX4,24095,1,23715,23964,23965,23716
CQUADX4,24096,1,23716,23965,23966,23717
CQUADX4,24097,1,23717,23966,23967,23718
CQUADX4,24098,1,23718,23967,23968,23719
CQUADX4,24099,1,23719,23968,23969,23720
CQUADX4,24100,1,23720,23969,23970,23721
CQUADX4,24101,1,23721,23970,23971,23722
CQUADX4,24102,1,23722,23971,23972,23723
CQUADX4,24103,1,23723,23972,23973,23724
CQUADX4,24104,1,23724,23973,23974,23725
CQUADX4,24105,1,23725,23974,23975,23726
CQUADX4,24106,1,23726,23975,23976,23727
CQUADX4,24107,1,23727,23976,23977,23728
CQUADX4,24108,1,23728,23977,23978,23729
CQUADX4,24109,1,23729,23978,23979,23730
CQUADX4,24110,1,23730,23979,23980,23731
CQUADX4,24111,1,23731,23980,23981,23732
CQUADX4,24112,1,23732,23981,23982,23733
CQUADX4,24113,1,23733,23982,23983,23734
CQUADX4,24114,1,23734,23983,23984,23735
CQUADX4,24115,1,23735,23984,23985,23736
CQUADX4,24116,1,23736,23985,23986,23737
CQUADX4,24117,1,23737,23986,23987,23738
CQUADX4,24118,1,23738,23987,23988,23739
CQUADX4,24119,1,23739,23988,23989,23740
CQUADX4,24120,1,23740,23989,23990,23741
CQUADX4,24121,1,23741,23990,23991,23742
CQUADX4,24122,1,23742,23991,23992,23743
CQUADX4,24123,1,23743,23992,23993,23744
CQUADX4,24124,1,23744,23993,23994,23745
CQUADX4,24125,1,23745,23994,23995,23746
CQUADX4,24126,1,23746,23995,23996,23747
CQUADX4,24127,1,23747,23996,23997,23748
CQUADX4,24128,1,23748,23997,23998,23749
CQUADX4,24129,1,23749,23998,23999,23750
CQUADX4,24130,1,23750,23999,24000,23751
CQUADX4,24131,1,23751,24000,24001,23752
CQUADX4,24132,1,23752,24001,24002,23753
CQUADX4,24133,1,23753,24002,24003,23754
CQUADX4,24134,1,23754,24003,24004,23755
CQUADX4,24135,1,23755,24004,24005,23756
CQUADX4,24136,1,23756,24005,24006,23757
CQUADX4,24137,1,23757,24006,24007,23758
CQUADX4,24138,1,23758,24007,24008,23759
CQUADX4,24139,1,23759,24008,24009,23760
CQUADX4,24140,1,23760,24009,24010,23761
CQUADX4,24141,1,23761,24010,24011,23762
CQUADX4,24142,1,23762,24011,24012,23763
CQUADX4,24143,1,23763,24012,24013,23764
CQUADX4,24144,1,23764,24013,24014,23765
CQUADX4,24145,1,23765,24014,24015,23766
CQUADX4,24146,1,23766,24015,24016,23767
CQUADX4,24147,1,23767,24016,24017,23768
CQUADX4,24148,1,23768,24017,24018,23769
CQUADX4,24149,1,23769,24018,24019,23770
CQUADX4,24150,1,23770,24019,24020,23771
CQUADX4,24151,1,23771,24020,24021,23772
CQUADX4,24152,1,23772,24021,24022,23773
CQUADX4,24153,1,23773,24022,24023,23774
CQUADX4,24154,1,23774,24023,24024,23775
CQUADX4,24155,1,23775,24024,24025,23776
CQUADX4,24156,1,23776,24025,24026,23777
CQUADX4,24157,1,23777,24026,24027,23778
CQUADX4,24158,1,23778,24027,24028,23779
CQUADX4,24159,1,23779,24028,24029,23780
CQUADX4,24160,1,23780,24029,24030,23781
CQUADX4,24161,1,23781,24030,24031,23782
CQUADX4,24162,1,23782,24031,24032,23783
CQUADX4,24163,1,23783,24032,24033,23784
CQUADX4,24164,1,23784,24033,24034,23785
CQUADX4,24165,1,23785,24034,24035,23786
CQUADX4,24166,1,23786,24035,24036,23787
CQUADX4,24167,1,23787,24036,24037,23788
CQUADX4,24168,1,23788,24037,24038,23789
CQUADX4,24169,1,23790,24039,24040,23791
CQUADX4,24170,1,23791,24040,24041,23792
CQUADX4,24171,1,23792,24041,24042,23793
CQUADX4,24172,1,23793,24042,24043,23794
CQUADX4,24173,1,23794,24043,24044,23795
CQUADX4,24174,1,23795,24044,24045,23796
CQUADX4,24175,1,23796,24045,24046,23797
CQUADX4,24176,1,23797,24046,24047,23798
CQUADX4,24177,1,23798,24047,24048,23799
CQUADX4,24178,1,23799,24048,24049,23800
CQUADX4,24179,1,23800,24049,24050,23801
CQUADX4,24180,1,23801,24050,24051,23802
CQUADX4,24181,1,23802,24051,24052,23803
CQUADX4,24182,1,23803,24052,24053,23804
CQUADX4,24183,1,23804,24053,24054,23805
CQUADX4,24184,1,23805,24054,24055,23806
CQUADX4,24185,1,23806,24055,24056,23807
CQUADX4,24186,1,23807,24056,24057,23808
CQUADX4,24187,1,23808,24057,24058,23809
CQUADX4,24188,1,23809,24058,24059,23810
CQUADX4,24189,1,23810,24059,24060,23811
CQUADX4,24190,1,23811,24060,24061,23812
CQUADX4,24191,1,23812,24061,24062,23813
CQUADX4,24192,1,23813,24062,24063,23814
CQUADX4,24193,1,23814,24063,24064,23815
CQUADX4,24194,1,23815,24064,24065,23816
CQUADX4,24195,1,23816,24065,24066,23817
CQUADX4,24196,1,23817,24066,24067,23818
CQUADX4,24197,1,23818,24067,24068,23819
CQUADX4,24198,1,23819,24068,24069,23820
CQUADX4,24199,1,23820,24069,24070,23821
CQUADX4,24200,1,23821,24070,24071,23822
CQUADX4,24201,1,23822,24071,24072,23823
CQUADX4,24202,1,23823,24072,24073,23824
CQUADX4,24203,1,23824,24073,24074,23825
CQUADX4,24204,1,23825,24074,24075,23826
CQUADX4,24205,1,23826,24075,24076,23827
CQUADX4,24206,1,23827,24076,24077,23828
CQUADX4,24207,1,23828,24077,24078,23829
CQUADX4,24208,1,23829,24078,24079,23830
CQUADX4,24209,1,23830,24079,24080,23831
CQUADX4,24210,1,23831,24080,24081,23832
CQUADX4,24211,1,23832,24081,24082,23833
CQUADX4,24212,1,23833,24082,24083,23834
CQUADX4,24213,1,23834,24083,24084,23835
CQUADX4,24214,1,23835,24084,24085,23836
CQUADX4,24215,1,23836,24085,24086,23837
CQUADX4,24216,1,23837,24086,24087,23838
CQUADX4,24217,1,23838,24087,24088,23839
CQUADX4,24218,1,23839,24088,24089,23840
CQUADX4,24219,1,23840,24089,24090,23841
CQUADX4,24220,1,23841,24090,24091,23842
CQUADX4,24221,1,23842,24091,24092,23843
CQUADX4,24222,1,23843,24092,24093,23844
CQUADX4,24223,1,23844,24093,24094,23845
CQUADX4,24224,1,23845,24094,24095,23846
CQUADX4,24225,1,23846,24095,24096,23847
CQUADX4,24226,1,23847,24096,24097,23848
CQUADX4,24227,1,23848,24097,24098,23849
CQUADX4,24228,1,23849,24098,24099,23850
CQUADX4,24229,1,23850,24099,24100,23851
CQUADX4,24230,1,23851,24100,24101,23852
CQUADX4,24231,1,23852,24101,24102,23853
CQUADX4,24232,1,23853,24102,24103,23854
CQUADX4,24233,1,23854,24103,24104,23855
CQUADX4,24234,1,23855,24104,24105,23856
CQUADX4,24235,1,23856,24105,24106,23857
CQUADX4,24236,1,23857,24106,24107,23858
CQUADX4,24237,1,23858,24107,24108,23859
CQUADX4,24238,1,23859,24108,24109,23860
CQUADX4,24239,1,23860,24109,24110,23861
CQUADX4,24240,1,23861,24110,24111,23862
CQUADX4,24241,1,23862,24111,24112,23863
CQUADX4,24242,1,23863,24112,24113,23864
CQUADX4,24243,1,23864,24113,24114,23865
CQUADX4,24244,1,23865,24114,24115,23866
CQUADX4,24245,1,23866,24115,24116,23867
CQUADX4,24246,1,23867,24116,24117,23868
CQUADX4,24247,1,23868,24117,24118,23869
CQUADX4,24248,1,23869,24118,24119,23870
CQUADX4,24249,1,23870,24119,24120,23871
CQUADX4,24250,1,23871,24120,24121,23872
CQUADX4,24251,1,23872,24121,24122,23873
CQUADX4,24252,1,23873,24122,24123,23874
CQUADX4,24253,1,23874,24123,24124,23875
CQUADX4,24254,1,23875,24124,24125,23876
CQUADX4,24255,1,23876,24125,24126,23877
CQUADX4,24256,1,23877,24126,24127,23878
CQUADX4,24257,1,23878,24127,24128,23879
CQUADX4,24258,1,23879,24128,24129,23880
CQUADX4,24259,1,23880,24129,24130,23881
CQUADX4,24260,1,23881,24130,24131,23882
CQUADX4,24261,1,23882,24131,24132,23883
CQUADX4,24262,1,23883,24132,24133,23884
CQUADX4,24263,1,23884,24133,24134,23885
CQUADX4,24264,1,23885,24134,24135,23886
CQUADX4,24265,1,23886,24135,24136,23887
CQUADX4,24266,1,23887,24136,24137,23888
CQUADX4,24267,1,23888,24137,24138,23889
CQUADX4,24268,1,23889,24138,24139,23890
CQUADX4,24269,1,23890,24139,24140,23891
CQUADX4,24270,1,23891,24140,24141,23892
CQUADX4,24271,1,23892,24141,24142,23893
CQUADX4,24272,1,23893,24142,24143,23894
CQUADX4,24273,1,23894,24143,24144,23895
CQUADX4,24274,1,23895,24144,24145,23896
CQUADX4,24275,1,23896,24145,24146,23897
CQUADX4,24276,1,23897,24146,24147,23898
CQUADX4,24277,1,23898,24147,24148,23899
CQUADX4,24278,1,23899,24148,24149,23900
CQUADX4,24279,1,23900,24149,24150,23901
CQUADX4,24280,1,23901,24150,24151,23902
CQUADX4,24281,1,23902,24151,24152,23903
CQUADX4,24282,1,23903,24152,24153,23904
CQUADX4,24283,1,23904,24153,24154,23905
CQUADX4,24284,1,23905,24154,24155,23906
CQUADX4,24285,1,23906,24155,24156,23907
CQUADX4,24286,1,23907,24156,24157,23908
CQUADX4,24287,1,23908,24157,24158,23909
CQUADX4,24288,1,23909,24158,24159,23910
CQUADX4,24289,1,23910,24159,24160,23911
CQUADX4,24290,1,23911,24160,24161,23912
CQUADX4,24291,1,23912,24161,24162,23913
CQUADX4,24292,1,23913,24162,24163,23914
CQUADX4,24293,1,23914,24163,24164,23915
CQUADX4,24294,1,23915,24164,24165,23916
CQUADX4,24295,1,23916,24165,24166,23917
CQUADX4,24296,1,23917,24166,24167,23918
CQUADX4,24297,1,23918,24167,24168,23919
CQUADX4,24298,1,23919,24168,24169,23920
CQUADX4,24299,1,23920,24169,24170,23921
CQUADX4,24300,1,23921,24170,24171,23922
CQUADX4,24301,1,23922,24171,24172,23923
CQUADX4,24302,1,23923,24172,24173,23924
CQUADX4,24303,1,23924,24173,24174,23925
CQUADX4,24304,1,23925,24174,24175,23926
CQUADX4,24305,1,23926,24175,24176,23927
CQUADX4,24306,1,23927,24176,24177,23928
CQUADX4,24307,1,23928,24177,24178,23929
CQUADX4,24308,1,23929,24178,24179,23930
CQUADX4,24309,1,23930,24179,24180,23931
CQUADX4,24310,1,23931,24180,24181,23932
CQUADX4,24311,1,23932,24181,24182,23933
CQUADX4,24312,1,23933,24182,24183,23934
CQUADX4,24313,1,23934,24183,24184,23935
CQUADX4,24314,1,23935,24184,24185,23936
CQUADX4,24315,1,23936,24185,24186,23937
CQUADX4,24316,1,23937,24186,24187,23938
CQUADX4,24317,1,23938,24187,24188,23939
CQUADX4,24318,1,23939,24188,24189,23940
CQUADX4,24319,1,23940,24189,24190,23941
CQUADX4,24320,1,23941,24190,24191,23942
CQUADX4,24321,1,23942,24191,24192,23943
CQUADX4,24322,1,23943,24192,24193,23944
CQUADX4,24323,1,23944,24193,24194,23945
CQUADX4,24324,1,23945,24194,24195,23946
CQUADX4,24325,1,23946,24195,24196,23947
CQUADX4,24326,1,23947,24196,24197,23948
CQUADX4,24327,1,23948,24197,24198,23949
CQUADX4,24328,1,23949,24198,24199,23950
CQUADX4,24329,1,23950,24199,24200,23951
CQUADX4,24330,1,23951,24200,24201,23952
CQUADX4,24331,1,23952,24201,24202,23953
CQUADX4,24332,1,23953,24202,24203,23954
CQUADX4,24333,1,23954,24203,24204,23955
CQUADX4,24334,1,23955,24204,24205,23956
CQUADX4,24335,1,23956,24205,24206,23957
CQUADX4,24336,1,23957,24206,24207,23958
CQUADX4,24337,1,23958,24207,24208,23959
CQUADX4,24338,1,23959,24208,24209,23960
CQUADX4,24339,1,23960,24209,24210,23961
CQUADX4,24340,1,23961,24210,24211,23962
CQUADX4,24341,1,23962,24211,24212,23963
CQUADX4,24342,1,23963,24212,24213,23964
CQUADX4,24343,1,23964,24213,24214,23965
CQUADX4,24344,1,23965,24214,24215,23966
CQUADX4,24345,1,23966,24215,24216,23967
CQUADX4,24346,1,23967,24216,24217,23968
CQUADX4,24347,1,23968,24217,24218,23969
CQUADX4,24348,1,23969,24218,24219,23970
CQUADX4,24349,1,23970,24219,24220,23971
CQUADX4,24350,1,23971,24220,24221,23972
CQUADX4,24351,1,23972,24221,24222,23973
CQUADX4,24352,1,23973,24222,24223,23974
CQUADX4,24353,1,23974,24223,24224,23975
CQUADX4,24354,1,23975,24224,24225,23976
CQUADX4,24355,1,23976,24225,24226,23977
CQUADX4,24356,1,23977,24226,24227,23978
CQUADX4,24357,1,23978,24227,24228,23979
CQUADX4,24358,1,23979,24228,24229,23980
CQUADX4,24359,1,23980,24229,24230,23981
CQUADX4,24360,1,23981,24230,24231,23982
CQUADX4,24361,1,23982,24231,24232,23983
CQUADX4,24362,1,23983,24232,24233,23984
CQUADX4,24363,1,23984,24233,24234,23985
CQUADX4,24364,1,23985,24234,24235,23986
CQUADX4,24365,1,23986,24235,24236,23987
CQUADX4,24366,1,23987,24236,24237,23988
CQUADX4,24367,1,23988,24237,24238,23989
CQUADX4,24368,1,23989,24238,24239,23990
CQUADX4,24369,1,23990,24239,24240,23991
CQUADX4,24370,1,23991,24240,24241,23992
CQUADX4,24371,1,23992,24241,24242,23993
CQUADX4,24372,1,23993,24242,24243,23994
CQUADX4,24373,1,23994,24243,24244,23995
CQUADX4,24374,1,23995,24244,24245,23996
CQUADX4,24375,1,23996,24245,24246,23997
CQUADX4,24376,1,23997,24246,24247,23998
CQUADX4,24377,1,23998,24247,24248,23999
CQUADX4,24378,1,23999,24248,24249,24000
CQUADX4,24379,1,24000,24249,24250,24001
CQUADX4,24380,1,24001,24250,24251,24002
CQUADX4,24381,1,24002,24251,24252,24003
CQUADX4,24382,1,24003,24252,24253,24004
CQUADX4,24383,1,24004,24253,24254,24005
CQUADX4,24384,1,24005,24254,24255,24006
CQUADX4,24385,1,24006,24255,24256,24007
CQUADX4,24386,1,24007,24256,24257,24008
CQUADX4,24387,1,24008,24257,24258,24009
CQUADX4,24388,1,24009,24258,24259,24010
CQUADX4,24389,1,24010,24259,24260,24011
CQUADX4,24390,1,24011,24260,24261,24012
CQUADX4,24391,1,24012,24261,24262,24013
CQUADX4,24392,1,24013,24262,24263,24014
CQUADX4,24393,1,24014,24263,24264,24015
CQUADX4,24394,1,24015,24264,24265,24016
CQUADX4,24395,1,24016,24265,24266,24017
CQUADX4,24396,1,24017,24266,24267,24018
CQUADX4,24397,1,24018,24267,24268,24019
CQUADX4,24398,1,24019,24268,24269,24020
CQUADX4,24399,1,24020,24269,24270,24021
CQUADX4,24400,1,24021,24270,24271,24022
CQUADX4,24401,1,24022,24271,24272,24023
CQUADX4,24402,1,24023,24272,24273,24024
CQUADX4,24403,1,24024,24273,24274,24025
CQUADX4,24404,1,24025,24274,24275,24026
CQUADX4,24405,1,24026,24275,24276,24027
CQUADX4,24406,1,24027,24276,24277,24028
CQUADX4,24407,1,24028,24277,24278,24029
CQUADX4,24408,1,24029,24278,24279,24030
CQUADX4,24409,1,24030,24279,24280,24031
CQUADX4,24410,1,24031,24280,24281,24032
CQUADX4,24411,1,24032,24281,24282,24033
CQUADX4,24412,1,24033,24282,24283,24034
CQUADX4,24413,1,24034,24283,24284,24035
CQUADX4,24414,1,24035,24284,24285,24036
CQUADX4,24415,1,24036,24285,24286,24037
CQUADX4,24416,1,24037,24286,24287,24038
CQUADX4,24417,1,24039,24288,24289,24040
CQUADX4,24418,1,24040,24289,24290,24041
CQUADX4,24419,1,24041,24290,24291,24042
CQUADX4,24420,1,24042,24291,24292,24043
CQUADX4,24421,1,24043,24292,24293,24044
CQUADX4,24422,1,24044,24293,24294,24045
CQUADX4,24423,1,24045,24294,24295,24046
CQUADX4,24424,1,24046,24295,24296,24047
CQUADX4,24425,1,24047,24296,24297,24048
CQUADX4,24426,1,24048,24297,24298,24049
CQUADX4,24427,1,24049,24298,24299,24050
CQUADX4,24428,1,24050,24299,24300,24051
CQUADX4,24429,1,24051,24300,24301,24052
CQUADX4,24430,1,24052,24301,24302,24053
CQUADX4,24431,1,24053,24302,24303,24054
CQUADX4,24432,1,24054,24303,24304,24055
CQUADX4,24433,1,24055,24304,24305,24056
CQUADX4,24434,1,24056,24305,24306,24057
CQUADX4,24435,1,24057,24306,24307,24058
CQUADX4,24436,1,24058,24307,24308,24059
CQUADX4,24437,1,24059,24308,24309,24060
CQUADX4,24438,1,24060,24309,24310,24061
CQUADX4,24439,1,24061,24310,24311,24062
CQUADX4,24440,1,24062,24311,24312,24063
CQUADX4,24441,1,24063,24312,24313,24064
CQUADX4,24442,1,24064,24313,24314,24065
CQUADX4,24443,1,24065,24314,24315,24066
CQUADX4,24444,1,24066,24315,24316,24067
CQUADX4,24445,1,24067,24316,24317,24068
CQUADX4,24446,1,24068,24317,24318,24069
CQUADX4,24447,1,24069,24318,24319,24070
CQUADX4,24448,1,24070,24319,24320,24071
CQUADX4,24449,1,24071,24320,24321,24072
CQUADX4,24450,1,24072,24321,24322,24073
CQUADX4,24451,1,24073,24322,24323,24074
CQUADX4,24452,1,24074,24323,24324,24075
CQUADX4,24453,1,24075,24324,24325,24076
CQUADX4,24454,1,24076,24325,24326,24077
CQUADX4,24455,1,24077,24326,24327,24078
CQUADX4,24456,1,24078,24327,24328,24079
CQUADX4,24457,1,24079,24328,24329,24080
CQUADX4,24458,1,24080,24329,24330,24081
CQUADX4,24459,1,24081,24330,24331,24082
CQUADX4,24460,1,24082,24331,24332,24083
CQUADX4,24461,1,24083,24332,24333,24084
CQUADX4,24462,1,24084,24333,24334,24085
CQUADX4,24463,1,24085,24334,24335,24086
CQUADX4,24464,1,24086,24335,24336,24087
CQUADX4,24465,1,24087,24336,24337,24088
CQUADX4,24466,1,24088,24337,24338,24089
CQUADX4,24467,1,24089,24338,24339,24090
CQUADX4,24468,1,24090,24339,24340,24091
CQUADX4,24469,1,24091,24340,24341,24092
CQUADX4,24470,1,24092,24341,24342,24093
CQUADX4,24471,1,24093,24342,24343,24094
CQUADX4,24472,1,24094,24343,24344,24095
CQUADX4,24473,1,24095,24344,24345,24096
CQUADX4,24474,1,24096,24345,24346,24097
CQUADX4,24475,1,24097,24346,24347,24098
CQUADX4,24476,1,24098,24347,24348,24099
CQUADX4,24477,1,24099,24348,24349,24100
CQUADX4,24478,1,24100,24349,24350,24101
CQUADX4,24479,1,24101,24350,24351,24102
CQUADX4,24480,1,24102,24351,24352,24103
CQUADX4,24481,1,24103,24352,24353,24104
CQUADX4,24482,1,24104,24353,24354,24105
CQUADX4,24483,1,24105,24354,24355,24106
CQUADX4,24484,1,24106,24355,24356,24107
CQUADX4,24485,1,24107,24356,24357,24108
CQUADX4,24486,1,24108,24357,24358,24109
CQUADX4,24487,1,24109,24358,24359,24110
CQUADX4,24488,1,24110,24359,24360,24111
CQUADX4,24489,1,24111,24360,24361,24112
CQUADX4,24490,1,24112,24361,24362,24113
CQUADX4,24491,1,24113,24362,24363,24114
CQUADX4,24492,1,24114,24363,24364,24115
CQUADX4,24493,1,24115,24364,24365,24116
CQUADX4,24494,1,24116,24365,24366,24117
CQUADX4,24495,1,24117,24366,24367,24118
CQUADX4,24496,1,24118,24367,24368,24119
CQUADX4,24497,1,24119,24368,24369,24120
CQUADX4,24498,1,24120,24369,24370,24121
CQUADX4,24499,1,24121,24370,24371,24122
CQUADX4,24500,1,24122,24371,24372,24123
CQUADX4,24501,1,24123,24372,24373,24124
CQUADX4,24502,1,24124,24373,24374,24125
CQUADX4,24503,1,24125,24374,24375,24126
CQUADX4,24504,1,24126,24375,24376,24127
CQUADX4,24505,1,24127,24376,24377,24128
CQUADX4,24506,1,24128,24377,24378,24129
CQUADX4,24507,1,24129,24378,24379,24130
CQUADX4,24508,1,24130,24379,24380,24131
CQUADX4,24509,1,24131,24380,24381,24132
CQUADX4,24510,1,24132,24381,24382,24133
CQUADX4,24511,1,24133,24382,24383,24134
CQUADX4,24512,1,24134,24383,24384,24135
CQUADX4,24513,1,24135,24384,24385,24136
CQUADX4,24514,1,24136,24385,24386,24137
CQUADX4,24515,1,24137,24386,24387,24138
CQUADX4,24516,1,24138,24387,24388,24139
CQUADX4,24517,1,24139,24388,24389,24140
CQUADX4,24518,1,24140,24389,24390,24141
CQUADX4,24519,1,24141,24390,24391,24142
CQUADX4,24520,1,24142,24391,24392,24143
CQUADX4,24521,1,24143,24392,24393,24144
CQUADX4,24522,1,24144,24393,24394,24145
CQUADX4,24523,1,24145,24394,24395,24146
CQUADX4,24524,1,24146,24395,24396,24147
CQUADX4,24525,1,24147,24396,24397,24148
CQUADX4,24526,1,24148,24397,24398,24149
CQUADX4,24527,1,24149,24398,24399,24150
CQUADX4,24528,1,24150,24399,24400,24151
CQUADX4,24529,1,24151,24400,24401,24152
CQUADX4,24530,1,24152,24401,24402,24153
CQUADX4,24531,1,24153,24402,24403,24154
CQUADX4,24532,1,24154,24403,24404,24155
CQUADX4,24533,1,24155,24404,24405,24156
CQUADX4,24534,1,24156,24405,24406,24157
CQUADX4,24535,1,24157,24406,24407,24158
CQUADX4,24536,1,24158,24407,24408,24159
CQUADX4,24537,1,24159,24408,24409,24160
CQUADX4,24538,1,24160,24409,24410,24161
CQUADX4,24539,1,24161,24410,24411,24162
CQUADX4,24540,1,24162,24411,24412,24163
CQUADX4,24541,1,24163,24412,24413,24164
CQUADX4,24542,1,24164,24413,24414,24165
CQUADX4,24543,1,24165,24414,24415,24166
CQUADX4,24544,1,24166,24415,24416,24167
CQUADX4,24545,1,24167,24416,24417,24168
CQUADX4,24546,1,24168,24417,24418,24169
CQUADX4,24547,1,24169,24418,24419,24170
CQUADX4,24548,1,24170,24419,24420,24171
CQUADX4,24549,1,24171,24420,24421,24172
CQUADX4,24550,1,24172,24421,24422,24173
CQUADX4,24551,1,24173,24422,24423,24174
CQUADX4,24552,1,24174,24423,24424,24175
CQUADX4,24553,1,24175,24424,24425,24176
CQUADX4,24554,1,24176,24425,24426,24177
CQUADX4,24555,1,24177,24426,24427,24178
CQUADX4,24556,1,24178,24427,24428,24179
CQUADX4,24557,1,24179,24428,24429,24180
CQUADX4,24558,1,24180,24429,24430,24181
CQUADX4,24559,1,24181,24430,24431,24182
CQUADX4,24560,1,24182,24431,24432,24183
CQUADX4,24561,1,24183,24432,24433,24184
CQUADX4,24562,1,24184,24433,24434,24185
CQUADX4,24563,1,24185,24434,24435,24186
CQUADX4,24564,1,24186,24435,24436,24187
CQUADX4,24565,1,24187,24436,24437,24188
CQUADX4,24566,1,24188,24437,24438,24189
CQUADX4,24567,1,24189,24438,24439,24190
CQUADX4,24568,1,24190,24439,24440,24191
CQUADX4,24569,1,24191,24440,24441,24192
CQUADX4,24570,1,24192,24441,24442,24193
CQUADX4,24571,1,24193,24442,24443,24194
CQUADX4,24572,1,24194,24443,24444,24195
CQUADX4,24573,1,24195,24444,24445,24196
CQUADX4,24574,1,24196,24445,24446,24197
CQUADX4,24575,1,24197,24446,24447,24198
CQUADX4,24576,1,24198,24447,24448,24199
CQUADX4,24577,1,24199,24448,24449,24200
CQUADX4,24578,1,24200,24449,24450,24201
CQUADX4,24579,1,24201,24450,24451,24202
CQUADX4,24580,1,24202,24451,24452,24203
CQUADX4,24581,1,24203,24452,24453,24204
CQUADX4,24582,1,24204,24453,24454,24205
CQUADX4,24583,1,24205,24454,24455,24206
CQUADX4,24584,1,24206,24455,24456,24207
CQUADX4,24585,1,24207,24456,24457,24208
CQUADX4,24586,1,24208,24457,24458,24209
CQUADX4,24587,1,24209,24458,24459,24210
CQUADX4,24588,1,24210,24459,24460,24211
CQUADX4,24589,1,24211,24460,24461,24212
CQUADX4,24590,1,24212,24461,24462,24213
CQUADX4,24591,1,24213,24462,24463,24214
CQUADX4,24592,1,24214,24463,24464,24215
CQUADX4,24593,1,24215,24464,24465,24216
CQUADX4,24594,1,24216,24465,24466,24217
CQUADX4,24595,1,24217,24466,24467,24218
CQUADX4,24596,1,24218,24467,24468,24219
CQUADX4,24597,1,24219,24468,24469,24220
CQUADX4,24598,1,24220,24469,24470,24221
CQUADX4,24599,1,24221,24470,24471,24222
CQUADX4,24600,1,24222,24471,24472,24223
CQUADX4,24601,1,24223,24472,24473,24224
CQUADX4,24602,1,24224,24473,24474,24225
CQUADX4,24603,1,24225,24474,24475,24226
CQUADX4,24604,1,24226,24475,24476,24227
CQUADX4,24605,1,24227,24476,24477,24228
CQUADX4,24606,1,24228,24477,24478,24229
CQUADX4,24607,1,24229,24478,24479,24230
CQUADX4,24608,1,24230,24479,24480,24231
CQUADX4,24609,1,24231,24480,24481,24232
CQUADX4,24610,1,24232,24481,24482,24233
CQUADX4,24611,1,24233,24482,24483,24234
CQUADX4,24612,1,24234,24483,24484,24235
CQUADX4,24613,1,24235,24484,24485,24236
CQUADX4,24614,1,24236,24485,24486,24237
CQUADX4,24615,1,24237,24486,24487,24238
CQUADX4,24616,1,24238,24487,24488,24239
CQUADX4,24617,1,24239,24488,24489,24240
CQUADX4,24618,1,24240,24489,24490,24241
CQUADX4,24619,1,24241,24490,24491,24242
CQUADX4,24620,1,24242,24491,24492,24243
CQUADX4,24621,1,24243,24492,24493,24244
CQUADX4,24622,1,24244,24493,24494,24245
CQUADX4,24623,1,24245,24494,24495,24246
CQUADX4,24624,1,24246,24495,24496,24247
CQUADX4,24625,1,24247,24496,24497,24248
CQUADX4,24626,1,24248,24497,24498,24249
CQUADX4,24627,1,24249,24498,24499,24250
CQUADX4,24628,1,24250,24499,24500,24251
CQUADX4,24629,1,24251,24500,24501,24252
CQUADX4,24630,1,24252,24501,24502,24253
CQUADX4,24631,1,24253,24502,24503,24254
CQUADX4,24632,1,24254,24503,24504,24255
CQUADX4,24633,1,24255,24504,24505,24256
CQUADX4,24634,1,24256,24505,24506,24257
CQUADX4,24635,1,24257,24506,24507,24258
CQUADX4,24636,1,24258,24507,24508,24259
CQUADX4,24637,1,24259,24508,24509,24260
CQUADX4,24638,1,24260,24509,24510,24261
CQUADX4,24639,1,24261,24510,24511,24262
CQUADX4,24640,1,24262,24511,24512,24263
CQUADX4,24641,1,24263,24512,24513,24264
CQUADX4,24642,1,24264,24513,24514,24265
CQUADX4,24643,1,24265,24514,24515,24266
CQUADX4,24644,1,24266,24515,24516,24267
CQUADX4,24645,1,24267,24516,24517,24268
CQUADX4,24646,1,24268,24517,24518,24269
CQUADX4,24647,1,24269,24518,24519,24270
CQUADX4,24648,1,24270,24519,24520,24271
CQUADX4,24649,1,24271,24520,24521,24272
CQUADX4,24650,1,24272,24521,24522,24273
CQUADX4,24651,1,24273,24522,24523,24274
CQUADX4,24652,1,24274,24523,24524,24275
CQUADX4,24653,1,24275,24524,24525,24276
CQUADX4,24654,1,24276,24525,24526,24277
CQUADX4,24655,1,24277,24526,24527,24278
CQUADX4,24656,1,24278,24527,24528,24279
CQUADX4,24657,1,24279,24528,24529,24280
CQUADX4,24658,1,24280,24529,24530,24281
CQUADX4,24659,1,24281,24530,24531,24282
CQUADX4,24660,1,24282,24531,24532,24283
CQUADX4,24661,1,24283,24532,24533,24284
CQUADX4,24662,1,24284,24533,24534,24285
CQUADX4,24663,1,24285,24534,24535,24286
CQUADX4,24664,1,24286,24535,24536,24287
CQUADX4,24665,1,24288,24537,24538,24289
CQUADX4,24666,1,24289,24538,24539,24290
CQUADX4,24667,1,24290,24539,24540,24291
CQUADX4,24668,1,24291,24540,24541,24292
CQUADX4,24669,1,24292,24541,24542,24293
CQUADX4,24670,1,24293,24542,24543,24294
CQUADX4,24671,1,24294,24543,24544,24295
CQUADX4,24672,1,24295,24544,24545,24296
CQUADX4,24673,1,24296,24545,24546,24297
CQUADX4,24674,1,24297,24546,24547,24298
CQUADX4,24675,1,24298,24547,24548,24299
CQUADX4,24676,1,24299,24548,24549,24300
CQUADX4,24677,1,24300,24549,24550,24301
CQUADX4,24678,1,24301,24550,24551,24302
CQUADX4,24679,1,24302,24551,24552,24303
CQUADX4,24680,1,24303,24552,24553,24304
CQUADX4,24681,1,24304,24553,24554,24305
CQUADX4,24682,1,24305,24554,24555,24306
CQUADX4,24683,1,24306,24555,24556,24307
CQUADX4,24684,1,24307,24556,24557,24308
CQUADX4,24685,1,24308,24557,24558,24309
CQUADX4,24686,1,24309,24558,24559,24310
CQUADX4,24687,1,24310,24559,24560,24311
CQUADX4,24688,1,24311,24560,24561,24312
CQUADX4,24689,1,24312,24561,24562,24313
CQUADX4,24690,1,24313,24562,24563,24314
CQUADX4,24691,1,24314,24563,24564,24315
CQUADX4,24692,1,24315,24564,24565,24316
CQUADX4,24693,1,24316,24565,24566,24317
CQUADX4,24694,1,24317,24566,24567,24318
CQUADX4,24695,1,24318,24567,24568,24319
CQUADX4,24696,1,24319,24568,24569,24320
CQUADX4,24697,1,24320,24569,24570,24321
CQUADX4,24698,1,24321,24570,24571,24322
CQUADX4,24699,1,24322,24571,24572,24323
CQUADX4,24700,1,24323,24572,24573,24324
CQUADX4,24701,1,24324,24573,24574,24325
CQUADX4,24702,1,24325,24574,24575,24326
CQUADX4,24703,1,24326,24575,24576,24327
CQUADX4,24704,1,24327,24576,24577,24328
CQUADX4,24705,1,24328,24577,24578,24329
CQUADX4,24706,1,24329,24578,24579,24330
CQUADX4,24707,1,24330,24579,24580,24331
CQUADX4,24708,1,24331,24580,24581,24332
CQUADX4,24709,1,24332,24581,24582,24333
CQUADX4,24710,1,24333,24582,24583,24334
CQUADX4,24711,1,24334,24583,24584,24335
CQUADX4,24712,1,24335,24584,24585,24336
CQUADX4,24713,1,24336,24585,24586,24337
CQUADX4,24714,1,24337,24586,24587,24338
CQUADX4,24715,1,24338,24587,24588,24339
CQUADX4,24716,1,24339,24588,24589,24340
CQUADX4,24717,1,24340,24589,24590,24341
CQUADX4,24718,1,24341,24590,24591,24342
CQUADX4,24719,1,24342,24591,24592,24343
CQUADX4,24720,1,24343,24592,24593,24344
CQUADX4,24721,1,24344,24593,24594,24345
CQUADX4,24722,1,24345,24594,24595,24346
CQUADX4,24723,1,24346,24595,24596,24347
CQUADX4,24724,1,24347,24596,24597,24348
CQUADX4,24725,1,24348,24597,24598,24349
CQUADX4,24726,1,24349,24598,24599,24350
CQUADX4,24727,1,24350,24599,24600,24351
CQUADX4,24728,1,24351,24600,24601,24352
CQUADX4,24729,1,24352,24601,24602,24353
CQUADX4,24730,1,24353,24602,24603,24354
CQUADX4,24731,1,24354,24603,24604,24355
CQUADX4,24732,1,24355,24604,24605,24356
CQUADX4,24733,1,24356,24605,24606,24357
CQUADX4,24734,1,24357,24606,24607,24358
CQUADX4,24735,1,24358,24607,24608,24359
CQUADX4,24736,1,24359,24608,24609,24360
CQUADX4,24737,1,24360,24609,24610,24361
CQUADX4,24738,1,24361,24610,24611,24362
CQUADX4,24739,1,24362,24611,24612,24363
CQUADX4,24740,1,24363,24612,24613,24364
CQUADX4,24741,1,24364,24613,24614,24365
CQUADX4,24742,1,24365,24614,24615,24366
CQUADX4,24743,1,24366,24615,24616,24367
CQUADX4,24744,1,24367,24616,24617,24368
CQUADX4,24745,1,24368,24617,24618,24369
CQUADX4,24746,1,24369,24618,24619,24370
CQUADX4,24747,1,24370,24619,24620,24371
CQUADX4,24748,1,24371,24620,24621,24372
CQUADX4,24749,1,24372,24621,24622,24373
CQUADX4,24750,1,24373,24622,24623,24374
CQUADX4,24751,1,24374,24623,24624,24375
CQUADX4,24752,1,24375,24624,24625,24376
CQUADX4,24753,1,24376,24625,24626,24377
CQUADX4,24754,1,24377,24626,24627,24378
CQUADX4,24755,1,24378,24627,24628,24379
CQUADX4,24756,1,24379,24628,24629,24380
CQUADX4,24757,1,24380,24629,24630,24381
CQUADX4,24758,1,24381,24630,24631,24382
CQUADX4,24759,1,24382,24631,24632,24383
CQUADX4,24760,1,24383,24632,24633,24384
CQUADX4,24761,1,24384,24633,24634,24385
CQUADX4,24762,1,24385,24634,24635,24386
CQUADX4,24763,1,24386,24635,24636,24387
CQUADX4,24764,1,24387,24636,24637,24388
CQUADX4,24765,1,24388,24637,24638,24389
CQUADX4,24766,1,24389,24638,24639,24390
CQUADX4,24767,1,24390,24639,24640,24391
CQUADX4,24768,1,24391,24640,24641,24392
CQUADX4,24769,1,24392,24641,24642,24393
CQUADX4,24770,1,24393,24642,24643,24394
CQUADX4,24771,1,24394,24643,24644,24395
CQUADX4,24772,1,24395,24644,24645,24396
CQUADX4,24773,1,24396,24645,24646,24397
CQUADX4,24774,1,24397,24646,24647,24398
CQUADX4,24775,1,24398,24647,24648,24399
CQUADX4,24776,1,24399,24648,24649,24400
CQUADX4,24777,1,24400,24649,24650,24401
CQUADX4,24778,1,24401,24650,24651,24402
CQUADX4,24779,1,24402,24651,24652,24403
CQUADX4,24780,1,24403,24652,24653,24404
CQUADX4,24781,1,24404,24653,24654,24405
CQUADX4,24782,1,24405,24654,24655,24406
CQUADX4,24783,1,24406,24655,24656,24407
CQUADX4,24784,1,24407,24656,24657,24408
CQUADX4,24785,1,24408,24657,24658,24409
CQUADX4,24786,1,24409,24658,24659,24410
CQUADX4,24787,1,24410,24659,24660,24411
CQUADX4,24788,1,24411,24660,24661,24412
CQUADX4,24789,1,24412,24661,24662,24413
CQUADX4,24790,1,24413,24662,24663,24414
CQUADX4,24791,1,24414,24663,24664,24415
CQUADX4,24792,1,24415,24664,24665,24416
CQUADX4,24793,1,24416,24665,24666,24417
CQUADX4,24794,1,24417,24666,24667,24418
CQUADX4,24795,1,24418,24667,24668,24419
CQUADX4,24796,1,24419,24668,24669,24420
CQUADX4,24797,1,24420,24669,24670,24421
CQUADX4,24798,1,24421,24670,24671,24422
CQUADX4,24799,1,24422,24671,24672,24423
CQUADX4,24800,1,24423,24672,24673,24424
CQUADX4,24801,1,24424,24673,24674,24425
CQUADX4,24802,1,24425,24674,24675,24426
CQUADX4,24803,1,24426,24675,24676,24427
CQUADX4,24804,1,24427,24676,24677,24428
CQUADX4,24805,1,24428,24677,24678,24429
CQUADX4,24806,1,24429,24678,24679,24430
CQUADX4,24807,1,24430,24679,24680,24431
CQUADX4,24808,1,24431,24680,24681,24432
CQUADX4,24809,1,24432,24681,24682,24433
CQUADX4,24810,1,24433,24682,24683,24434
CQUADX4,24811,1,24434,24683,24684,24435
CQUADX4,24812,1,24435,24684,24685,24436
CQUADX4,24813,1,24436,24685,24686,24437
CQUADX4,24814,1,24437,24686,24687,24438
CQUADX4,24815,1,24438,24687,24688,24439
CQUADX4,24816,1,24439,24688,24689,24440
CQUADX4,24817,1,24440,24689,24690,24441
CQUADX4,24818,1,24441,24690,24691,24442
CQUADX4,24819,1,24442,24691,24692,24443
CQUADX4,24820,1,24443,24692,24693,24444
CQUADX4,24821,1,24444,24693,24694,24445
CQUADX4,24822,1,24445,24694,24695,24446
CQUADX4,24823,1,24446,24695,24696,24447
CQUADX4,24824,1,24447,24696,24697,24448
CQUADX4,24825,1,24448,24697,24698,24449
CQUADX4,24826,1,24449,24698,24699,24450
CQUADX4,24827,1,24450,24699,24700,24451
CQUADX4,24828,1,24451,24700,24701,24452
CQUADX4,24829,1,24452,24701,24702,24453
CQUADX4,24830,1,24453,24702,24703,24454
CQUADX4,24831,1,24454,24703,24704,24455
CQUADX4,24832,1,24455,24704,24705,24456
CQUADX4,24833,1,24456,24705,24706,24457
CQUADX4,24834,1,24457,24706,24707,24458
CQUADX4,24835,1,24458,24707,24708,24459
CQUADX4,24836,1,24459,24708,24709,24460
CQUADX4,24837,1,24460,24709,24710,24461
CQUADX4,24838,1,24461,24710,24711,24462
CQUADX4,24839,1,24462,24711,24712,24463
CQUADX4,24840,1,24463,24712,24713,24464
CQUADX4,24841,1,24464,24713,24714,24465
CQUADX4,24842,1,24465,24714,24715,24466
CQUADX4,24843,1,24466,24715,24716,24467
CQUADX4,24844,1,24467,24716,24717,24468
CQUADX4,24845,1,24468,24717,24718,24469
CQUADX4,24846,1,24469,24718,24719,24470
CQUADX4,24847,1,24470,24719,24720,24471
CQUADX4,24848,1,24471,24720,24721,24472
CQUADX4,24849,1,24472,24721,24722,24473
CQUADX4,24850,1,24473,24722,24723,24474
CQUADX4,24851,1,24474,24723,24724,24475
CQUADX4,24852,1,24475,24724,24725,24476
CQUADX4,24853,1,24476,24725,24726,24477
CQUADX4,24854,1,24477,24726,24727,24478
CQUADX4,24855,1,24478,24727,24728,24479
CQUADX4,24856,1,24479,24728,24729,24480
CQUADX4,24857,1,24480,24729,24730,24481
CQUADX4,24858,1,24481,24730,24731,24482
CQUADX4,24859,1,24482,24731,24732,24483
CQUADX4,24860,1,24483,24732,24733,24484
CQUADX4,24861,1,24484,24733,24734,24485
CQUADX4,24862,1,24485,24734,24735,24486
CQUADX4,24863,1,24486,24735,24736,24487
CQUADX4,24864,1,24487,24736,24737,24488
CQUADX4,24865,1,24488,24737,24738,24489
CQUADX4,24866,1,24489,24738,24739,24490
CQUADX4,24867,1,24490,24739,24740,24491
CQUADX4,24868,1,24491,24740,24741,24492
CQUADX4,24869,1,24492,24741,24742,24493
CQUADX4,24870,1,24493,24742,24743,24494
CQUADX4,24871,1,24494,24743,24744,24495
CQUADX4,24872,1,24495,24744,24745,24496
CQUADX4,24873,1,24496,24745,24746,24497
CQUADX4,24874,1,24497,24746,24747,24498
CQUADX4,24875,1,24498,24747,24748,24499
CQUADX4,24876,1,24499,24748,24749,24500
CQUADX4,24877,1,24500,24749,24750,24501
CQUADX4,24878,1,24501,24750,24751,24502
CQUADX4,24879,1,24502,24751,24752,24503
CQUADX4,24880,1,24503,24752,24753,24504
CQUADX4,24881,1,24504,24753,24754,24505
CQUADX4,24882,1,24505,24754,24755,24506
CQUADX4,24883,1,24506,24755,24756,24507
CQUADX4,24884,1,24507,24756,24757,24508
CQUADX4,24885,1,24508,24757,24758,24509
CQUADX4,24886,1,24509,24758,24759,24510
CQUADX4,24887,1,24510,24759,24760,24511
CQUADX4,24888,1,24511,24760,24761,24512
CQUADX4,24889,1,24512,24761,24762,24513
CQUADX4,24890,1,24513,24762,24763,24514
CQUADX4,24891,1,24514,24763,24764,24515
CQUADX4,24892,1,24515,24764,24765,24516
CQUADX4,24893,1,24516,24765,24766,24517
CQUADX4,24894,1,24517,24766,24767,24518
CQUADX4,24895,1,24518,24767,24768,24519
CQUADX4,24896,1,24519,24768,24769,24520
CQUADX4,24897,1,24520,24769,24770,24521
CQUADX4,24898,1,24521,24770,24771,24522
CQUADX4,24899,1,24522,24771,24772,24523
CQUADX4,24900,1,24523,24772,24773,24524
CQUADX4,24901,1,24524,24773,24774,24525
CQUADX4,24902,1,24525,24774,24775,24526
CQUADX4,24903,1,24526,24775,24776,24527
CQUADX4,24904,1,24527,24776,24777,24528
CQUADX4,24905,1,24528,24777,24778,24529
CQUADX4,24906,1,24529,24778,24779,24530
CQUADX4,24907,1,24530,24779,24780,24531
CQUADX4,24908,1,24531,24780,24781,24532
CQUADX4,24909,1,24532,24781,24782,24533
CQUADX4,24910,1,24533,24782,24783,24534
CQUADX4,24911,1,24534,24783,24784,24535
CQUADX4,24912,1,24535,24784,24785,24536
CQUADX4,24913,1,24537,24786,24787,24538
CQUADX4,24914,1,24538,24787,24788,24539
CQUADX4,24915,1,24539,24788,24789,24540
CQUADX4,24916,1,24540,24789,24790,24541
CQUADX4,24917,1,24541,24790,24791,24542
CQUADX4,24918,1,24542,24791,24792,24543
CQUADX4,24919,1,24543,24792,24793,24544
CQUADX4,24920,1,24544,24793,24794,24545
CQUADX4,24921,1,24545,24794,24795,24546
CQUADX4,24922,1,24546,24795,24796,24547
CQUADX4,24923,1,24547,24796,24797,24548
CQUADX4,24924,1,24548,24797,24798,24549
CQUADX4,24925,1,24549,24798,24799,24550
CQUADX4,24926,1,24550,24799,24800,24551
CQUADX4,24927,1,24551,24800,24801,24552
CQUADX4,24928,1,24552,24801,24802,24553
CQUADX4,24929,1,24553,24802,24803,24554
CQUADX4,24930,1,24554,24803,24804,24555
CQUADX4,24931,1,24555,24804,24805,24556
CQUADX4,24932,1,24556,24805,24806,24557
CQUADX4,24933,1,24557,24806,24807,24558
CQUADX4,24934,1,24558,24807,24808,24559
CQUADX4,24935,1,24559,24808,24809,24560
CQUADX4,24936,1,24560,24809,24810,24561
CQUADX4,24937,1,24561,24810,24811,24562
CQUADX4,24938,1,24562,24811,24812,24563
CQUADX4,24939,1,24563,24812,24813,24564
CQUADX4,24940,1,24564,24813,24814,24565
CQUADX4,24941,1,24565,24814,24815,24566
CQUADX4,24942,1,24566,24815,24816,24567
CQUADX4,24943,1,24567,24816,24817,24568
CQUADX4,24944,1,24568,24817,24818,24569
CQUADX4,24945,1,24569,24818,24819,24570
CQUADX4,24946,1,24570,24819,24820,24571
CQUADX4,24947,1,24571,24820,24821,24572
CQUADX4,24948,1,24572,24821,24822,24573
CQUADX4,24949,1,24573,24822,24823,24574
CQUADX4,24950,1,24574,24823,24824,24575
CQUADX4,24951,1,24575,24824,24825,24576
CQUADX4,24952,1,24576,24825,24826,24577
CQUADX4,24953,1,24577,24826,24827,24578
CQUADX4,24954,1,24578,24827,24828,24579
CQUADX4,24955,1,24579,24828,24829,24580
CQUADX4,24956,1,24580,24829,24830,24581
CQUADX4,24957,1,24581,24830,24831,24582
CQUADX4,24958,1,24582,24831,24832,24583
CQUADX4,24959,1,24583,24832,24833,24584
CQUADX4,24960,1,24584,24833,24834,24585
CQUADX4,24961,1,24585,24834,24835,24586
CQUADX4,24962,1,24586,24835,24836,24587
CQUADX4,24963,1,24587,24836,24837,24588
CQUADX4,24964,1,24588,24837,24838,24589
CQUADX4,24965,1,24589,24838,24839,24590
CQUADX4,24966,1,24590,24839,24840,24591
CQUADX4,24967,1,24591,24840,24841,24592
CQUADX4,24968,1,24592,24841,24842,24593
CQUADX4,24969,1,24593,24842,24843,24594
CQUADX4,24970,1,24594,24843,24844,24595
CQUADX4,24971,1,24595,24844,24845,24596
CQUADX4,24972,1,24596,24845,24846,24597
CQUADX4,24973,1,24597,24846,24847,24598
CQUADX4,24974,1,24598,24847,24848,24599
CQUADX4,24975,1,24599,24848,24849,24600
CQUADX4,24976,1,24600,24849,24850,24601
CQUADX4,24977,1,24601,24850,24851,24602
CQUADX4,24978,1,24602,24851,24852,24603
CQUADX4,24979,1,24603,24852,24853,24604
CQUADX4,24980,1,24604,24853,24854,24605
CQUADX4,24981,1,24605,24854,24855,24606
CQUADX4,24982,1,24606,24855,24856,24607
CQUADX4,24983,1,24607,24856,24857,24608
CQUADX4,24984,1,24608,24857,24858,24609
CQUADX4,24985,1,24609,24858,24859,24610
CQUADX4,24986,1,24610,24859,24860,24611
CQUADX4,24987,1,24611,24860,24861,24612
CQUADX4,24988,1,24612,24861,24862,24613
CQUADX4,24989,1,24613,24862,24863,24614
CQUADX4,24990,1,24614,24863,24864,24615
CQUADX4,24991,1,24615,24864,24865,24616
CQUADX4,24992,1,24616,24865,24866,24617
CQUADX4,24993,1,24617,24866,24867,24618
CQUADX4,24994,1,24618,24867,24868,24619
CQUADX4,24995,1,24619,24868,24869,24620
CQUADX4,24996,1,24620,24869,24870,24621
CQUADX4,24997,1,24621,24870,24871,24622
CQUADX4,24998,1,24622,24871,24872,24623
CQUADX4,24999,1,24623,24872,24873,24624
CQUADX4,25000,1,24624,24873,24874,24625
CQUADX4,25001,1,24625,24874,24875,24626
CQUADX4,25002,1,24626,24875,24876,24627
CQUADX4,25003,1,24627,24876,24877,24628
CQUADX4,25004,1,24628,24877,24878,24629
CQUADX4,25005,1,24629,24878,24879,24630
CQUADX4,25006,1,24630,24879,24880,24631
CQUADX4,25007,1,24631,24880,24881,24632
CQUADX4,25008,1,24632,24881,24882,24633
CQUADX4,25009,1,24633,24882,24883,24634
CQUADX4,25010,1,24634,24883,24884,24635
CQUADX4,25011,1,24635,24884,24885,24636
CQUADX4,25012,1,24636,24885,24886,24637
CQUADX4,25013,1,24637,24886,24887,24638
CQUADX4,25014,1,24638,24887,24888,24639
CQUADX4,25015,1,24639,24888,24889,24640
CQUADX4,25016,1,24640,24889,24890,24641
CQUADX4,25017,1,24641,24890,24891,24642
CQUADX4,25018,1,24642,24891,24892,24643
CQUADX4,25019,1,24643,24892,24893,24644
CQUADX4,25020,1,24644,24893,24894,24645
CQUADX4,25021,1,24645,24894,24895,24646
CQUADX4,25022,1,24646,24895,24896,24647
CQUADX4,25023,1,24647,24896,24897,24648
CQUADX4,25024,1,24648,24897,24898,24649
CQUADX4,25025,1,24649,24898,24899,24650
CQUADX4,25026,1,24650,24899,24900,24651
CQUADX4,25027,1,24651,24900,24901,24652
CQUADX4,25028,1,24652,24901,24902,24653
CQUADX4,25029,1,24653,24902,24903,24654
CQUADX4,25030,1,24654,24903,24904,24655
CQUADX4,25031,1,24655,24904,24905,24656
CQUADX4,25032,1,24656,24905,24906,24657
CQUADX4,25033,1,24657,24906,24907,24658
CQUADX4,25034,1,24658,24907,24908,24659
CQUADX4,25035,1,24659,24908,24909,24660
CQUADX4,25036,1,24660,24909,24910,24661
CQUADX4,25037,1,24661,24910,24911,24662
CQUADX4,25038,1,24662,24911,24912,24663
CQUADX4,25039,1,24663,24912,24913,24664
CQUADX4,25040,1,24664,24913,24914,24665
CQUADX4,25041,1,24665,24914,24915,24666
CQUADX4,25042,1,24666,24915,24916,24667
CQUADX4,25043,1,24667,24916,24917,24668
CQUADX4,25044,1,24668,24917,24918,24669
CQUADX4,25045,1,24669,24918,24919,24670
CQUADX4,25046,1,24670,24919,24920,24671
CQUADX4,25047,1,24671,24920,24921,24672
CQUADX4,25048,1,24672,24921,24922,24673
CQUADX4,25049,1,24673,24922,24923,24674
CQUADX4,25050,1,24674,24923,24924,24675
CQUADX4,25051,1,24675,24924,24925,24676
CQUADX4,25052,1,24676,24925,24926,24677
CQUADX4,25053,1,24677,24926,24927,24678
CQUADX4,25054,1,24678,24927,24928,24679
CQUADX4,25055,1,24679,24928,24929,24680
CQUADX4,25056,1,24680,24929,24930,24681
CQUADX4,25057,1,24681,24930,24931,24682
CQUADX4,25058,1,24682,24931,24932,24683
CQUADX4,25059,1,24683,24932,24933,24684
CQUADX4,25060,1,24684,24933,24934,24685
CQUADX4,25061,1,24685,24934,24935,24686
CQUADX4,25062,1,24686,24935,24936,24687
CQUADX4,25063,1,24687,24936,24937,24688
CQUADX4,25064,1,24688,24937,24938,24689
CQUADX4,25065,1,24689,24938,24939,24690
CQUADX4,25066,1,24690,24939,24940,24691
CQUADX4,25067,1,24691,24940,24941,24692
CQUADX4,25068,1,24692,24941,24942,24693
CQUADX4,25069,1,24693,24942,24943,24694
CQUADX4,25070,1,24694,24943,24944,24695
CQUADX4,25071,1,24695,24944,24945,24696
CQUADX4,25072,1,24696,24945,24946,24697
CQUADX4,25073,1,24697,24946,24947,24698
CQUADX4,25074,1,24698,24947,24948,24699
CQUADX4,25075,1,24699,24948,24949,24700
CQUADX4,25076,1,24700,24949,24950,24701
CQUADX4,25077,1,24701,24950,24951,24702
CQUADX4,25078,1,24702,24951,24952,24703
CQUADX4,25079,1,24703,24952,24953,24704
CQUADX4,25080,1,24704,24953,24954,24705
CQUADX4,25081,1,24705,24954,24955,24706
CQUADX4,25082,1,24706,24955,24956,24707
CQUADX4,25083,1,24707,24956,24957,24708
CQUADX4,25084,1,24708,24957,24958,24709
CQUADX4,25085,1,24709,24958,24959,24710
CQUADX4,25086,1,24710,24959,24960,24711
CQUADX4,25087,1,24711,24960,24961,24712
CQUADX4,25088,1,24712,24961,24962,24713
CQUADX4,25089,1,24713,24962,24963,24714
CQUADX4,25090,1,24714,24963,24964,24715
CQUADX4,25091,1,24715,24964,24965,24716
CQUADX4,25092,1,24716,24965,24966,24717
CQUADX4,25093,1,24717,24966,24967,24718
CQUADX4,25094,1,24718,24967,24968,24719
CQUADX4,25095,1,24719,24968,24969,24720
CQUADX4,25096,1,24720,24969,24970,24721
CQUADX4,25097,1,24721,24970,24971,24722
CQUADX4,25098,1,24722,24971,24972,24723
CQUADX4,25099,1,24723,24972,24973,24724
CQUADX4,25100,1,24724,24973,24974,24725
CQUADX4,25101,1,24725,24974,24975,24726
CQUADX4,25102,1,24726,24975,24976,24727
CQUADX4,25103,1,24727,24976,24977,24728
CQUADX4,25104,1,24728,24977,24978,24729
CQUADX4,25105,1,24729,24978,24979,24730
CQUADX4,25106,1,24730,24979,24980,24731
CQUADX4,25107,1,24731,24980,24981,24732
CQUADX4,25108,1,24732,24981,24982,24733
CQUADX4,25109,1,24733,24982,24983,24734
CQUADX4,25110,1,24734,24983,24984,24735
CQUADX4,25111,1,24735,24984,24985,24736
CQUADX4,25112,1,24736,24985,24986,24737
CQUADX4,25113,1,24737,24986,24987,24738
CQUADX4,25114,1,24738,24987,24988,24739
CQUADX4,25115,1,24739,24988,24989,24740
CQUADX4,25116,1,24740,24989,24990,24741
CQUADX4,25117,1,24741,24990,24991,24742
CQUADX4,25118,1,24742,24991,24992,24743
CQUADX4,25119,1,24743,24992,24993,24744
CQUADX4,25120,1,24744,24993,24994,24745
CQUADX4,25121,1,24745,24994,24995,24746
CQUADX4,25122,1,24746,24995,24996,24747
CQUADX4,25123,1,24747,24996,24997,24748
CQUADX4,25124,1,24748,24997,24998,24749
CQUADX4,25125,1,24749,24998,24999,24750
CQUADX4,25126,1,24750,24999,25000,24751
CQUADX4,25127,1,24751,25000,25001,24752
CQUADX4,25128,1,24752,25001,25002,24753
CQUADX4,25129,1,24753,25002,25003,24754
CQUADX4,25130,1,24754,25003,25004,24755
CQUADX4,25131,1,24755,25004,25005,24756
CQUADX4,25132,1,24756,25005,25006,24757
CQUADX4,25133,1,24757,25006,25007,24758
CQUADX4,25134,1,24758,25007,25008,24759
CQUADX4,25135,1,24759,25008,25009,24760
CQUADX4,25136,1,24760,25009,25010,24761
CQUADX4,25137,1,24761,25010,25011,24762
CQUADX4,25138,1,24762,25011,25012,24763
CQUADX4,25139,1,24763,25012,25013,24764
CQUADX4,25140,1,24764,25013,25014,24765
CQUADX4,25141,1,24765,25014,25015,24766
CQUADX4,25142,1,24766,25015,25016,24767
CQUADX4,25143,1,24767,25016,25017,24768
CQUADX4,25144,1,24768,25017,25018,24769
CQUADX4,25145,1,24769,25018,25019,24770
CQUADX4,25146,1,24770,25019,25020,24771
CQUADX4,25147,1,24771,25020,25021,24772
CQUADX4,25148,1,24772,25021,25022,24773
CQUADX4,25149,1,24773,25022,25023,24774
CQUADX4,25150,1,24774,25023,25024,24775
CQUADX4,25151,1,24775,25024,25025,24776
CQUADX4,25152,1,24776,25025,25026,24777
CQUADX4,25153,1,24777,25026,25027,24778
CQUADX4,25154,1,24778,25027,25028,24779
CQUADX4,25155,1,24779,25028,25029,24780
CQUADX4,25156,1,24780,25029,25030,24781
CQUADX4,25157,1,24781,25030,25031,24782
CQUADX4,25158,1,24782,25031,25032,24783
CQUADX4,25159,1,24783,25032,25033,24784
CQUADX4,25160,1,24784,25033,25034,24785
CQUADX4,25161,1,24786,25035,25036,24787
CQUADX4,25162,1,24787,25036,25037,24788
CQUADX4,25163,1,24788,25037,25038,24789
CQUADX4,25164,1,24789,25038,25039,24790
CQUADX4,25165,1,24790,25039,25040,24791
CQUADX4,25166,1,24791,25040,25041,24792
CQUADX4,25167,1,24792,25041,25042,24793
CQUADX4,25168,1,24793,25042,25043,24794
CQUADX4,25169,1,24794,25043,25044,24795
CQUADX4,25170,1,24795,25044,25045,24796
CQUADX4,25171,1,24796,25045,25046,24797
CQUADX4,25172,1,24797,25046,25047,24798
CQUADX4,25173,1,24798,25047,25048,24799
CQUADX4,25174,1,24799,25048,25049,24800
CQUADX4,25175,1,24800,25049,25050,24801
CQUADX4,25176,1,24801,25050,25051,24802
CQUADX4,25177,1,24802,25051,25052,24803
CQUADX4,25178,1,24803,25052,25053,24804
CQUADX4,25179,1,24804,25053,25054,24805
CQUADX4,25180,1,24805,25054,25055,24806
CQUADX4,25181,1,24806,25055,25056,24807
CQUADX4,25182,1,24807,25056,25057,24808
CQUADX4,25183,1,24808,25057,25058,24809
CQUADX4,25184,1,24809,25058,25059,24810
CQUADX4,25185,1,24810,25059,25060,24811
CQUADX4,25186,1,24811,25060,25061,24812
CQUADX4,25187,1,24812,25061,25062,24813
CQUADX4,25188,1,24813,25062,25063,24814
CQUADX4,25189,1,24814,25063,25064,24815
CQUADX4,25190,1,24815,25064,25065,24816
CQUADX4,25191,1,24816,25065,25066,24817
CQUADX4,25192,1,24817,25066,25067,24818
CQUADX4,25193,1,24818,25067,25068,24819
CQUADX4,25194,1,24819,25068,25069,24820
CQUADX4,25195,1,24820,25069,25070,24821
CQUADX4,25196,1,24821,25070,25071,24822
CQUADX4,25197,1,24822,25071,25072,24823
CQUADX4,25198,1,24823,25072,25073,24824
CQUADX4,25199,1,24824,25073,25074,24825
CQUADX4,25200,1,24825,25074,25075,24826
CQUADX4,25201,1,24826,25075,25076,24827
CQUADX4,25202,1,24827,25076,25077,24828
CQUADX4,25203,1,24828,25077,25078,24829
CQUADX4,25204,1,24829,25078,25079,24830
CQUADX4,25205,1,24830,25079,25080,24831
CQUADX4,25206,1,24831,25080,25081,24832
CQUADX4,25207,1,24832,25081,25082,24833
CQUADX4,25208,1,24833,25082,25083,24834
CQUADX4,25209,1,24834,25083,25084,24835
CQUADX4,25210,1,24835,25084,25085,24836
CQUADX4,25211,1,24836,25085,25086,24837
CQUADX4,25212,1,24837,25086,25087,24838
CQUADX4,25213,1,24838,25087,25088,24839
CQUADX4,25214,1,24839,25088,25089,24840
CQUADX4,25215,1,24840,25089,25090,24841
CQUADX4,25216,1,24841,25090,25091,24842
CQUADX4,25217,1,24842,25091,25092,24843
CQUADX4,25218,1,24843,25092,25093,24844
CQUADX4,25219,1,24844,25093,25094,24845
CQUADX4,25220,1,24845,25094,25095,24846
CQUADX4,25221,1,24846,25095,25096,24847
CQUADX4,25222,1,24847,25096,25097,24848
CQUADX4,25223,1,24848,25097,25098,24849
CQUADX4,25224,1,24849,25098,25099,24850
CQUADX4,25225,1,24850,25099,25100,24851
CQUADX4,25226,1,24851,25100,25101,24852
CQUADX4,25227,1,24852,25101,25102,24853
CQUADX4,25228,1,24853,25102,25103,24854
CQUADX4,25229,1,24854,25103,25104,24855
CQUADX4,25230,1,24855,25104,25105,24856
CQUADX4,25231,1,24856,25105,25106,24857
CQUADX4,25232,1,24857,25106,25107,24858
CQUADX4,25233,1,24858,25107,25108,24859
CQUADX4,25234,1,24859,25108,25109,24860
CQUADX4,25235,1,24860,25109,25110,24861
CQUADX4,25236,1,24861,25110,25111,24862
CQUADX4,25237,1,24862,25111,25112,24863
CQUADX4,25238,1,24863,25112,25113,24864
CQUADX4,25239,1,24864,25113,25114,24865
CQUADX4,25240,1,24865,25114,25115,24866
CQUADX4,25241,1,24866,25115,25116,24867
CQUADX4,25242,1,24867,25116,25117,24868
CQUADX4,25243,1,24868,25117,25118,24869
CQUADX4,25244,1,24869,25118,25119,24870
CQUADX4,25245,1,24870,25119,25120,24871
CQUADX4,25246,1,24871,25120,25121,24872
CQUADX4,25247,1,24872,25121,25122,24873
CQUADX4,25248,1,24873,25122,25123,24874
CQUADX4,25249,1,24874,25123,25124,24875
CQUADX4,25250,1,24875,25124,25125,24876
CQUADX4,25251,1,24876,25125,25126,24877
CQUADX4,25252,1,24877,25126,25127,24878
CQUADX4,25253,1,24878,25127,25128,24879
CQUADX4,25254,1,24879,25128,25129,24880
CQUADX4,25255,1,24880,25129,25130,24881
CQUADX4,25256,1,24881,25130,25131,24882
CQUADX4,25257,1,24882,25131,25132,24883
CQUADX4,25258,1,24883,25132,25133,24884
CQUADX4,25259,1,24884,25133,25134,24885
CQUADX4,25260,1,24885,25134,25135,24886
CQUADX4,25261,1,24886,25135,25136,24887
CQUADX4,25262,1,24887,25136,25137,24888
CQUADX4,25263,1,24888,25137,25138,24889
CQUADX4,25264,1,24889,25138,25139,24890
CQUADX4,25265,1,24890,25139,25140,24891
CQUADX4,25266,1,24891,25140,25141,24892
CQUADX4,25267,1,24892,25141,25142,24893
CQUADX4,25268,1,24893,25142,25143,24894
CQUADX4,25269,1,24894,25143,25144,24895
CQUADX4,25270,1,24895,25144,25145,24896
CQUADX4,25271,1,24896,25145,25146,24897
CQUADX4,25272,1,24897,25146,25147,24898
CQUADX4,25273,1,24898,25147,25148,24899
CQUADX4,25274,1,24899,25148,25149,24900
CQUADX4,25275,1,24900,25149,25150,24901
CQUADX4,25276,1,24901,25150,25151,24902
CQUADX4,25277,1,24902,25151,25152,24903
CQUADX4,25278,1,24903,25152,25153,24904
CQUADX4,25279,1,24904,25153,25154,24905
CQUADX4,25280,1,24905,25154,25155,24906
CQUADX4,25281,1,24906,25155,25156,24907
CQUADX4,25282,1,24907,25156,25157,24908
CQUADX4,25283,1,24908,25157,25158,24909
CQUADX4,25284,1,24909,25158,25159,24910
CQUADX4,25285,1,24910,25159,25160,24911
CQUADX4,25286,1,24911,25160,25161,24912
CQUADX4,25287,1,24912,25161,25162,24913
CQUADX4,25288,1,24913,25162,25163,24914
CQUADX4,25289,1,24914,25163,25164,24915
CQUADX4,25290,1,24915,25164,25165,24916
CQUADX4,25291,1,24916,25165,25166,24917
CQUADX4,25292,1,24917,25166,25167,24918
CQUADX4,25293,1,24918,25167,25168,24919
CQUADX4,25294,1,24919,25168,25169,24920
CQUADX4,25295,1,24920,25169,25170,24921
CQUADX4,25296,1,24921,25170,25171,24922
CQUADX4,25297,1,24922,25171,25172,24923
CQUADX4,25298,1,24923,25172,25173,24924
CQUADX4,25299,1,24924,25173,25174,24925
CQUADX4,25300,1,24925,25174,25175,24926
CQUADX4,25301,1,24926,25175,25176,24927
CQUADX4,25302,1,24927,25176,25177,24928
CQUADX4,25303,1,24928,25177,25178,24929
CQUADX4,25304,1,24929,25178,25179,24930
CQUADX4,25305,1,24930,25179,25180,24931
CQUADX4,25306,1,24931,25180,25181,24932
CQUADX4,25307,1,24932,25181,25182,24933
CQUADX4,25308,1,24933,25182,25183,24934
CQUADX4,25309,1,24934,25183,25184,24935
CQUADX4,25310,1,24935,25184,25185,24936
CQUADX4,25311,1,24936,25185,25186,24937
CQUADX4,25312,1,24937,25186,25187,24938
CQUADX4,25313,1,24938,25187,25188,24939
CQUADX4,25314,1,24939,25188,25189,24940
CQUADX4,25315,1,24940,25189,25190,24941
CQUADX4,25316,1,24941,25190,25191,24942
CQUADX4,25317,1,24942,25191,25192,24943
CQUADX4,25318,1,24943,25192,25193,24944
CQUADX4,25319,1,24944,25193,25194,24945
CQUADX4,25320,1,24945,25194,25195,24946
CQUADX4,25321,1,24946,25195,25196,24947
CQUADX4,25322,1,24947,25196,25197,24948
CQUADX4,25323,1,24948,25197,25198,24949
CQUADX4,25324,1,24949,25198,25199,24950
CQUADX4,25325,1,24950,25199,25200,24951
CQUADX4,25326,1,24951,25200,25201,24952
CQUADX4,25327,1,24952,25201,25202,24953
CQUADX4,25328,1,24953,25202,25203,24954
CQUADX4,25329,1,24954,25203,25204,24955
CQUADX4,25330,1,24955,25204,25205,24956
CQUADX4,25331,1,24956,25205,25206,24957
CQUADX4,25332,1,24957,25206,25207,24958
CQUADX4,25333,1,24958,25207,25208,24959
CQUADX4,25334,1,24959,25208,25209,24960
CQUADX4,25335,1,24960,25209,25210,24961
CQUADX4,25336,1,24961,25210,25211,24962
CQUADX4,25337,1,24962,25211,25212,24963
CQUADX4,25338,1,24963,25212,25213,24964
CQUADX4,25339,1,24964,25213,25214,24965
CQUADX4,25340,1,24965,25214,25215,24966
CQUADX4,25341,1,24966,25215,25216,24967
CQUADX4,25342,1,24967,25216,25217,24968
CQUADX4,25343,1,24968,25217,25218,24969
CQUADX4,25344,1,24969,25218,25219,24970
CQUADX4,25345,1,24970,25219,25220,24971
CQUADX4,25346,1,24971,25220,25221,24972
CQUADX4,25347,1,24972,25221,25222,24973
CQUADX4,25348,1,24973,25222,25223,24974
CQUADX4,25349,1,24974,25223,25224,24975
CQUADX4,25350,1,24975,25224,25225,24976
CQUADX4,25351,1,24976,25225,25226,24977
CQUADX4,25352,1,24977,25226,25227,24978
CQUADX4,25353,1,24978,25227,25228,24979
CQUADX4,25354,1,24979,25228,25229,24980
CQUADX4,25355,1,24980,25229,25230,24981
CQUADX4,25356,1,24981,25230,25231,24982
CQUADX4,25357,1,24982,25231,25232,24983
CQUADX4,25358,1,24983,25232,25233,24984
CQUADX4,25359,1,24984,25233,25234,24985
CQUADX4,25360,1,24985,25234,25235,24986
CQUADX4,25361,1,24986,25235,25236,24987
CQUADX4,25362,1,24987,25236,25237,24988
CQUADX4,25363,1,24988,25237,25238,24989
CQUADX4,25364,1,24989,25238,25239,24990
CQUADX4,25365,1,24990,25239,25240,24991
CQUADX4,25366,1,24991,25240,25241,24992
CQUADX4,25367,1,24992,25241,25242,24993
CQUADX4,25368,1,24993,25242,25243,24994
CQUADX4,25369,1,24994,25243,25244,24995
CQUADX4,25370,1,24995,25244,25245,24996
CQUADX4,25371,1,24996,25245,25246,24997
CQUADX4,25372,1,24997,25246,25247,24998
CQUADX4,25373,1,24998,25247,25248,24999
CQUADX4,25374,1,24999,25248,25249,25000
CQUADX4,25375,1,25000,25249,25250,25001
CQUADX4,25376,1,25001,25250,25251,25002
CQUADX4,25377,1,25002,25251,25252,25003
CQUADX4,25378,1,25003,25252,25253,25004
CQUADX4,25379,1,25004,25253,25254,25005
CQUADX4,25380,1,25005,25254,25255,25006
CQUADX4,25381,1,25006,25255,25256,25007
CQUADX4,25382,1,25007,25256,25257,25008
CQUADX4,25383,1,25008,25257,25258,25009
CQUADX4,25384,1,25009,25258,25259,25010
CQUADX4,25385,1,25010,25259,25260,25011
CQUADX4,25386,1,25011,25260,25261,25012
CQUADX4,25387,1,25012,25261,25262,25013
CQUADX4,25388,1,25013,25262,25263,25014
CQUADX4,25389,1,25014,25263,25264,25015
CQUADX4,25390,1,25015,25264,25265,25016
CQUADX4,25391,1,25016,25265,25266,25017
CQUADX4,25392,1,25017,25266,25267,25018
CQUADX4,25393,1,25018,25267,25268,25019
CQUADX4,25394,1,25019,25268,25269,25020
CQUADX4,25395,1,25020,25269,25270,25021
CQUADX4,25396,1,25021,25270,25271,25022
CQUADX4,25397,1,25022,25271,25272,25023
CQUADX4,25398,1,25023,25272,25273,25024
CQUADX4,25399,1,25024,25273,25274,25025
CQUADX4,25400,1,25025,25274,25275,25026
CQUADX4,25401,1,25026,25275,25276,25027
CQUADX4,25402,1,25027,25276,25277,25028
CQUADX4,25403,1,25028,25277,25278,25029
CQUADX4,25404,1,25029,25278,25279,25030
CQUADX4,25405,1,25030,25279,25280,25031
CQUADX4,25406,1,25031,25280,25281,25032
CQUADX4,25407,1,25032,25281,25282,25033
CQUADX4,25408,1,25033,25282,25283,25034
CQUADX4,25409,1,25035,25284,25285,25036
CQUADX4,25410,1,25036,25285,25286,25037
CQUADX4,25411,1,25037,25286,25287,25038
CQUADX4,25412,1,25038,25287,25288,25039
CQUADX4,25413,1,25039,25288,25289,25040
CQUADX4,25414,1,25040,25289,25290,25041
CQUADX4,25415,1,25041,25290,25291,25042
CQUADX4,25416,1,25042,25291,25292,25043
CQUADX4,25417,1,25043,25292,25293,25044
CQUADX4,25418,1,25044,25293,25294,25045
CQUADX4,25419,1,25045,25294,25295,25046
CQUADX4,25420,1,25046,25295,25296,25047
CQUADX4,25421,1,25047,25296,25297,25048
CQUADX4,25422,1,25048,25297,25298,25049
CQUADX4,25423,1,25049,25298,25299,25050
CQUADX4,25424,1,25050,25299,25300,25051
CQUADX4,25425,1,25051,25300,25301,25052
CQUADX4,25426,1,25052,25301,25302,25053
CQUADX4,25427,1,25053,25302,25303,25054
CQUADX4,25428,1,25054,25303,25304,25055
CQUADX4,25429,1,25055,25304,25305,25056
CQUADX4,25430,1,25056,25305,25306,25057
CQUADX4,25431,1,25057,25306,25307,25058
CQUADX4,25432,1,25058,25307,25308,25059
CQUADX4,25433,1,25059,25308,25309,25060
CQUADX4,25434,1,25060,25309,25310,25061
CQUADX4,25435,1,25061,25310,25311,25062
CQUADX4,25436,1,25062,25311,25312,25063
CQUADX4,25437,1,25063,25312,25313,25064
CQUADX4,25438,1,25064,25313,25314,25065
CQUADX4,25439,1,25065,25314,25315,25066
CQUADX4,25440,1,25066,25315,25316,25067
CQUADX4,25441,1,25067,25316,25317,25068
CQUADX4,25442,1,25068,25317,25318,25069
CQUADX4,25443,1,25069,25318,25319,25070
CQUADX4,25444,1,25070,25319,25320,25071
CQUADX4,25445,1,25071,25320,25321,25072
CQUADX4,25446,1,25072,25321,25322,25073
CQUADX4,25447,1,25073,25322,25323,25074
CQUADX4,25448,1,25074,25323,25324,25075
CQUADX4,25449,1,25075,25324,25325,25076
CQUADX4,25450,1,25076,25325,25326,25077
CQUADX4,25451,1,25077,25326,25327,25078
CQUADX4,25452,1,25078,25327,25328,25079
CQUADX4,25453,1,25079,25328,25329,25080
CQUADX4,25454,1,25080,25329,25330,25081
CQUADX4,25455,1,25081,25330,25331,25082
CQUADX4,25456,1,25082,25331,25332,25083
CQUADX4,25457,1,25083,25332,25333,25084
CQUADX4,25458,1,25084,25333,25334,25085
CQUADX4,25459,1,25085,25334,25335,25086
CQUADX4,25460,1,25086,25335,25336,25087
CQUADX4,25461,1,25087,25336,25337,25088
CQUADX4,25462,1,25088,25337,25338,25089
CQUADX4,25463,1,25089,25338,25339,25090
CQUADX4,25464,1,25090,25339,25340,25091
CQUADX4,25465,1,25091,25340,25341,25092
CQUADX4,25466,1,25092,25341,25342,25093
CQUADX4,25467,1,25093,25342,25343,25094
CQUADX4,25468,1,25094,25343,25344,25095
CQUADX4,25469,1,25095,25344,25345,25096
CQUADX4,25470,1,25096,25345,25346,25097
CQUADX4,25471,1,25097,25346,25347,25098
CQUADX4,25472,1,25098,25347,25348,25099
CQUADX4,25473,1,25099,25348,25349,25100
CQUADX4,25474,1,25100,25349,25350,25101
CQUADX4,25475,1,25101,25350,25351,25102
CQUADX4,25476,1,25102,25351,25352,25103
CQUADX4,25477,1,25103,25352,25353,25104
CQUADX4,25478,1,25104,25353,25354,25105
CQUADX4,25479,1,25105,25354,25355,25106
CQUADX4,25480,1,25106,25355,25356,25107
CQUADX4,25481,1,25107,25356,25357,25108
CQUADX4,25482,1,25108,25357,25358,25109
CQUADX4,25483,1,25109,25358,25359,25110
CQUADX4,25484,1,25110,25359,25360,25111
CQUADX4,25485,1,25111,25360,25361,25112
CQUADX4,25486,1,25112,25361,25362,25113
CQUADX4,25487,1,25113,25362,25363,25114
CQUADX4,25488,1,25114,25363,25364,25115
CQUADX4,25489,1,25115,25364,25365,25116
CQUADX4,25490,1,25116,25365,25366,25117
CQUADX4,25491,1,25117,25366,25367,25118
CQUADX4,25492,1,25118,25367,25368,25119
CQUADX4,25493,1,25119,25368,25369,25120
CQUADX4,25494,1,25120,25369,25370,25121
CQUADX4,25495,1,25121,25370,25371,25122
CQUADX4,25496,1,25122,25371,25372,25123
CQUADX4,25497,1,25123,25372,25373,25124
CQUADX4,25498,1,25124,25373,25374,25125
CQUADX4,25499,1,25125,25374,25375,25126
CQUADX4,25500,1,25126,25375,25376,25127
CQUADX4,25501,1,25127,25376,25377,25128
CQUADX4,25502,1,25128,25377,25378,25129
CQUADX4,25503,1,25129,25378,25379,25130
CQUADX4,25504,1,25130,25379,25380,25131
CQUADX4,25505,1,25131,25380,25381,25132
CQUADX4,25506,1,25132,25381,25382,25133
CQUADX4,25507,1,25133,25382,25383,25134
CQUADX4,25508,1,25134,25383,25384,25135
CQUADX4,25509,1,25135,25384,25385,25136
CQUADX4,25510,1,25136,25385,25386,25137
CQUADX4,25511,1,25137,25386,25387,25138
CQUADX4,25512,1,25138,25387,25388,25139
CQUADX4,25513,1,25139,25388,25389,25140
CQUADX4,25514,1,25140,25389,25390,25141
CQUADX4,25515,1,25141,25390,25391,25142
CQUADX4,25516,1,25142,25391,25392,25143
CQUADX4,25517,1,25143,25392,25393,25144
CQUADX4,25518,1,25144,25393,25394,25145
CQUADX4,25519,1,25145,25394,25395,25146
CQUADX4,25520,1,25146,25395,25396,25147
CQUADX4,25521,1,25147,25396,25397,25148
CQUADX4,25522,1,25148,25397,25398,25149
CQUADX4,25523,1,25149,25398,25399,25150
CQUADX4,25524,1,25150,25399,25400,25151
CQUADX4,25525,1,25151,25400,25401,25152
CQUADX4,25526,1,25152,25401,25402,25153
CQUADX4,25527,1,25153,25402,25403,25154
CQUADX4,25528,1,25154,25403,25404,25155
CQUADX4,25529,1,25155,25404,25405,25156
CQUADX4,25530,1,25156,25405,25406,25157
CQUADX4,25531,1,25157,25406,25407,25158
CQUADX4,25532,1,25158,25407,25408,25159
CQUADX4,25533,1,25159,25408,25409,25160
CQUADX4,25534,1,25160,25409,25410,25161
CQUADX4,25535,1,25161,25410,25411,25162
CQUADX4,25536,1,25162,25411,25412,25163
CQUADX4,25537,1,25163,25412,25413,25164
CQUADX4,25538,1,25164,25413,25414,25165
CQUADX4,25539,1,25165,25414,25415,25166
CQUADX4,25540,1,25166,25415,25416,25167
CQUADX4,25541,1,25167,25416,25417,25168
CQUADX4,25542,1,25168,25417,25418,25169
CQUADX4,25543,1,25169,25418,25419,25170
CQUADX4,25544,1,25170,25419,25420,25171
CQUADX4,25545,1,25171,25420,25421,25172
CQUADX4,25546,1,25172,25421,25422,25173
CQUADX4,25547,1,25173,25422,25423,25174
CQUADX4,25548,1,25174,25423,25424,25175
CQUADX4,25549,1,25175,25424,25425,25176
CQUADX4,25550,1,25176,25425,25426,25177
CQUADX4,25551,1,25177,25426,25427,25178
CQUADX4,25552,1,25178,25427,25428,25179
CQUADX4,25553,1,25179,25428,25429,25180
CQUADX4,25554,1,25180,25429,25430,25181
CQUADX4,25555,1,25181,25430,25431,25182
CQUADX4,25556,1,25182,25431,25432,25183
CQUADX4,25557,1,25183,25432,25433,25184
CQUADX4,25558,1,25184,25433,25434,25185
CQUADX4,25559,1,25185,25434,25435,25186
CQUADX4,25560,1,25186,25435,25436,25187
CQUADX4,25561,1,25187,25436,25437,25188
CQUADX4,25562,1,25188,25437,25438,25189
CQUADX4,25563,1,25189,25438,25439,25190
CQUADX4,25564,1,25190,25439,25440,25191
CQUADX4,25565,1,25191,25440,25441,25192
CQUADX4,25566,1,25192,25441,25442,25193
CQUADX4,25567,1,25193,25442,25443,25194
CQUADX4,25568,1,25194,25443,25444,25195
CQUADX4,25569,1,25195,25444,25445,25196
CQUADX4,25570,1,25196,25445,25446,25197
CQUADX4,25571,1,25197,25446,25447,25198
CQUADX4,25572,1,25198,25447,25448,25199
CQUADX4,25573,1,25199,25448,25449,25200
CQUADX4,25574,1,25200,25449,25450,25201
CQUADX4,25575,1,25201,25450,25451,25202
CQUADX4,25576,1,25202,25451,25452,25203
CQUADX4,25577,1,25203,25452,25453,25204
CQUADX4,25578,1,25204,25453,25454,25205
CQUADX4,25579,1,25205,25454,25455,25206
CQUADX4,25580,1,25206,25455,25456,25207
CQUADX4,25581,1,25207,25456,25457,25208
CQUADX4,25582,1,25208,25457,25458,25209
CQUADX4,25583,1,25209,25458,25459,25210
CQUADX4,25584,1,25210,25459,25460,25211
CQUADX4,25585,1,25211,25460,25461,25212
CQUADX4,25586,1,25212,25461,25462,25213
CQUADX4,25587,1,25213,25462,25463,25214
CQUADX4,25588,1,25214,25463,25464,25215
CQUADX4,25589,1,25215,25464,25465,25216
CQUADX4,25590,1,25216,25465,25466,25217
CQUADX4,25591,1,25217,25466,25467,25218
CQUADX4,25592,1,25218,25467,25468,25219
CQUADX4,25593,1,25219,25468,25469,25220
CQUADX4,25594,1,25220,25469,25470,25221
CQUADX4,25595,1,25221,25470,25471,25222
CQUADX4,25596,1,25222,25471,25472,25223
CQUADX4,25597,1,25223,25472,25473,25224
CQUADX4,25598,1,25224,25473,25474,25225
CQUADX4,25599,1,25225,25474,25475,25226
CQUADX4,25600,1,25226,25475,25476,25227
CQUADX4,25601,1,25227,25476,25477,25228
CQUADX4,25602,1,25228,25477,25478,25229
CQUADX4,25603,1,25229,25478,25479,25230
CQUADX4,25604,1,25230,25479,25480,25231
CQUADX4,25605,1,25231,25480,25481,25232
CQUADX4,25606,1,25232,25481,25482,25233
CQUADX4,25607,1,25233,25482,25483,25234
CQUADX4,25608,1,25234,25483,25484,25235
CQUADX4,25609,1,25235,25484,25485,25236
CQUADX4,25610,1,25236,25485,25486,25237
CQUADX4,25611,1,25237,25486,25487,25238
CQUADX4,25612,1,25238,25487,25488,25239
CQUADX4,25613,1,25239,25488,25489,25240
CQUADX4,25614,1,25240,25489,25490,25241
CQUADX4,25615,1,25241,25490,25491,25242
CQUADX4,25616,1,25242,25491,25492,25243
CQUADX4,25617,1,25243,25492,25493,25244
CQUADX4,25618,1,25244,25493,25494,25245
CQUADX4,25619,1,25245,25494,25495,25246
CQUADX4,25620,1,25246,25495,25496,25247
CQUADX4,25621,1,25247,25496,25497,25248
CQUADX4,25622,1,25248,25497,25498,25249
CQUADX4,25623,1,25249,25498,25499,25250
CQUADX4,25624,1,25250,25499,25500,25251
CQUADX4,25625,1,25251,25500,25501,25252
CQUADX4,25626,1,25252,25501,25502,25253
CQUADX4,25627,1,25253,25502,25503,25254
CQUADX4,25628,1,25254,25503,25504,25255
CQUADX4,25629,1,25255,25504,25505,25256
CQUADX4,25630,1,25256,25505,25506,25257
CQUADX4,25631,1,25257,25506,25507,25258
CQUADX4,25632,1,25258,25507,25508,25259
CQUADX4,25633,1,25259,25508,25509,25260
CQUADX4,25634,1,25260,25509,25510,25261
CQUADX4,25635,1,25261,25510,25511,25262
CQUADX4,25636,1,25262,25511,25512,25263
CQUADX4,25637,1,25263,25512,25513,25264
CQUADX4,25638,1,25264,25513,25514,25265
CQUADX4,25639,1,25265,25514,25515,25266
CQUADX4,25640,1,25266,25515,25516,25267
CQUADX4,25641,1,25267,25516,25517,25268
CQUADX4,25642,1,25268,25517,25518,25269
CQUADX4,25643,1,25269,25518,25519,25270
CQUADX4,25644,1,25270,25519,25520,25271
CQUADX4,25645,1,25271,25520,25521,25272
CQUADX4,25646,1,25272,25521,25522,25273
CQUADX4,25647,1,25273,25522,25523,25274
CQUADX4,25648,1,25274,25523,25524,25275
CQUADX4,25649,1,25275,25524,25525,25276
CQUADX4,25650,1,25276,25525,25526,25277
CQUADX4,25651,1,25277,25526,25527,25278
CQUADX4,25652,1,25278,25527,25528,25279
CQUADX4,25653,1,25279,25528,25529,25280
CQUADX4,25654,1,25280,25529,25530,25281
CQUADX4,25655,1,25281,25530,25531,25282
CQUADX4,25656,1,25282,25531,25532,25283
CQUADX4,25657,1,25284,25533,25534,25285
CQUADX4,25658,1,25285,25534,25535,25286
CQUADX4,25659,1,25286,25535,25536,25287
CQUADX4,25660,1,25287,25536,25537,25288
CQUADX4,25661,1,25288,25537,25538,25289
CQUADX4,25662,1,25289,25538,25539,25290
CQUADX4,25663,1,25290,25539,25540,25291
CQUADX4,25664,1,25291,25540,25541,25292
CQUADX4,25665,1,25292,25541,25542,25293
CQUADX4,25666,1,25293,25542,25543,25294
CQUADX4,25667,1,25294,25543,25544,25295
CQUADX4,25668,1,25295,25544,25545,25296
CQUADX4,25669,1,25296,25545,25546,25297
CQUADX4,25670,1,25297,25546,25547,25298
CQUADX4,25671,1,25298,25547,25548,25299
CQUADX4,25672,1,25299,25548,25549,25300
CQUADX4,25673,1,25300,25549,25550,25301
CQUADX4,25674,1,25301,25550,25551,25302
CQUADX4,25675,1,25302,25551,25552,25303
CQUADX4,25676,1,25303,25552,25553,25304
CQUADX4,25677,1,25304,25553,25554,25305
CQUADX4,25678,1,25305,25554,25555,25306
CQUADX4,25679,1,25306,25555,25556,25307
CQUADX4,25680,1,25307,25556,25557,25308
CQUADX4,25681,1,25308,25557,25558,25309
CQUADX4,25682,1,25309,25558,25559,25310
CQUADX4,25683,1,25310,25559,25560,25311
CQUADX4,25684,1,25311,25560,25561,25312
CQUADX4,25685,1,25312,25561,25562,25313
CQUADX4,25686,1,25313,25562,25563,25314
CQUADX4,25687,1,25314,25563,25564,25315
CQUADX4,25688,1,25315,25564,25565,25316
CQUADX4,25689,1,25316,25565,25566,25317
CQUADX4,25690,1,25317,25566,25567,25318
CQUADX4,25691,1,25318,25567,25568,25319
CQUADX4,25692,1,25319,25568,25569,25320
CQUADX4,25693,1,25320,25569,25570,25321
CQUADX4,25694,1,25321,25570,25571,25322
CQUADX4,25695,1,25322,25571,25572,25323
CQUADX4,25696,1,25323,25572,25573,25324
CQUADX4,25697,1,25324,25573,25574,25325
CQUADX4,25698,1,25325,25574,25575,25326
CQUADX4,25699,1,25326,25575,25576,25327
CQUADX4,25700,1,25327,25576,25577,25328
CQUADX4,25701,1,25328,25577,25578,25329
CQUADX4,25702,1,25329,25578,25579,25330
CQUADX4,25703,1,25330,25579,25580,25331
CQUADX4,25704,1,25331,25580,25581,25332
CQUADX4,25705,1,25332,25581,25582,25333
CQUADX4,25706,1,25333,25582,25583,25334
CQUADX4,25707,1,25334,25583,25584,25335
CQUADX4,25708,1,25335,25584,25585,25336
CQUADX4,25709,1,25336,25585,25586,25337
CQUADX4,25710,1,25337,25586,25587,25338
CQUADX4,25711,1,25338,25587,25588,25339
CQUADX4,25712,1,25339,25588,25589,25340
CQUADX4,25713,1,25340,25589,25590,25341
CQUADX4,25714,1,25341,25590,25591,25342
CQUADX4,25715,1,25342,25591,25592,25343
CQUADX4,25716,1,25343,25592,25593,25344
CQUADX4,25717,1,25344,25593,25594,25345
CQUADX4,25718,1,25345,25594,25595,25346
CQUADX4,25719,1,25346,25595,25596,25347
CQUADX4,25720,1,25347,25596,25597,25348
CQUADX4,25721,1,25348,25597,25598,25349
CQUADX4,25722,1,25349,25598,25599,25350
CQUADX4,25723,1,25350,25599,25600,25351
CQUADX4,25724,1,25351,25600,25601,25352
CQUADX4,25725,1,25352,25601,25602,25353
CQUADX4,25726,1,25353,25602,25603,25354
CQUADX4,25727,1,25354,25603,25604,25355
CQUADX4,25728,1,25355,25604,25605,25356
CQUADX4,25729,1,25356,25605,25606,25357
CQUADX4,25730,1,25357,25606,25607,25358
CQUADX4,25731,1,25358,25607,25608,25359
CQUADX4,25732,1,25359,25608,25609,25360
CQUADX4,25733,1,25360,25609,25610,25361
CQUADX4,25734,1,25361,25610,25611,25362
CQUADX4,25735,1,25362,25611,25612,25363
CQUADX4,25736,1,25363,25612,25613,25364
CQUADX4,25737,1,25364,25613,25614,25365
CQUADX4,25738,1,25365,25614,25615,25366
CQUADX4,25739,1,25366,25615,25616,25367
CQUADX4,25740,1,25367,25616,25617,25368
CQUADX4,25741,1,25368,25617,25618,25369
CQUADX4,25742,1,25369,25618,25619,25370
CQUADX4,25743,1,25370,25619,25620,25371
CQUADX4,25744,1,25371,25620,25621,25372
CQUADX4,25745,1,25372,25621,25622,25373
CQUADX4,25746,1,25373,25622,25623,25374
CQUADX4,25747,1,25374,25623,25624,25375
CQUADX4,25748,1,25375,25624,25625,25376
CQUADX4,25749,1,25376,25625,25626,25377
CQUADX4,25750,1,25377,25626,25627,25378
CQUADX4,25751,1,25378,25627,25628,25379
CQUADX4,25752,1,25379,25628,25629,25380
CQUADX4,25753,1,25380,25629,25630,25381
CQUADX4,25754,1,25381,25630,25631,25382
CQUADX4,25755,1,25382,25631,25632,25383
CQUADX4,25756,1,25383,25632,25633,25384
CQUADX4,25757,1,25384,25633,25634,25385
CQUADX4,25758,1,25385,25634,25635,25386
CQUADX4,25759,1,25386,25635,25636,25387
CQUADX4,25760,1,25387,25636,25637,25388
CQUADX4,25761,1,25388,25637,25638,25389
CQUADX4,25762,1,25389,25638,25639,25390
CQUADX4,25763,1,25390,25639,25640,25391
CQUADX4,25764,1,25391,25640,25641,25392
CQUADX4,25765,1,25392,25641,25642,25393
CQUADX4,25766,1,25393,25642,25643,25394
CQUADX4,25767,1,25394,25643,25644,25395
CQUADX4,25768,1,25395,25644,25645,25396
CQUADX4,25769,1,25396,25645,25646,25397
CQUADX4,25770,1,25397,25646,25647,25398
CQUADX4,25771,1,25398,25647,25648,25399
CQUADX4,25772,1,25399,25648,25649,25400
CQUADX4,25773,1,25400,25649,25650,25401
CQUADX4,25774,1,25401,25650,25651,25402
CQUADX4,25775,1,25402,25651,25652,25403
CQUADX4,25776,1,25403,25652,25653,25404
CQUADX4,25777,1,25404,25653,25654,25405
CQUADX4,25778,1,25405,25654,25655,25406
CQUADX4,25779,1,25406,25655,25656,25407
CQUADX4,25780,1,25407,25656,25657,25408
CQUADX4,25781,1,25408,25657,25658,25409
CQUADX4,25782,1,25409,25658,25659,25410
CQUADX4,25783,1,25410,25659,25660,25411
CQUADX4,25784,1,25411,25660,25661,25412
CQUADX4,25785,1,25412,25661,25662,25413
CQUADX4,25786,1,25413,25662,25663,25414
CQUADX4,25787,1,25414,25663,25664,25415
CQUADX4,25788,1,25415,25664,25665,25416
CQUADX4,25789,1,25416,25665,25666,25417
CQUADX4,25790,1,25417,25666,25667,25418
CQUADX4,25791,1,25418,25667,25668,25419
CQUADX4,25792,1,25419,25668,25669,25420
CQUADX4,25793,1,25420,25669,25670,25421
CQUADX4,25794,1,25421,25670,25671,25422
CQUADX4,25795,1,25422,25671,25672,25423
CQUADX4,25796,1,25423,25672,25673,25424
CQUADX4,25797,1,25424,25673,25674,25425
CQUADX4,25798,1,25425,25674,25675,25426
CQUADX4,25799,1,25426,25675,25676,25427
CQUADX4,25800,1,25427,25676,25677,25428
CQUADX4,25801,1,25428,25677,25678,25429
CQUADX4,25802,1,25429,25678,25679,25430
CQUADX4,25803,1,25430,25679,25680,25431
CQUADX4,25804,1,25431,25680,25681,25432
CQUADX4,25805,1,25432,25681,25682,25433
CQUADX4,25806,1,25433,25682,25683,25434
CQUADX4,25807,1,25434,25683,25684,25435
CQUADX4,25808,1,25435,25684,25685,25436
CQUADX4,25809,1,25436,25685,25686,25437
CQUADX4,25810,1,25437,25686,25687,25438
CQUADX4,25811,1,25438,25687,25688,25439
CQUADX4,25812,1,25439,25688,25689,25440
CQUADX4,25813,1,25440,25689,25690,25441
CQUADX4,25814,1,25441,25690,25691,25442
CQUADX4,25815,1,25442,25691,25692,25443
CQUADX4,25816,1,25443,25692,25693,25444
CQUADX4,25817,1,25444,25693,25694,25445
CQUADX4,25818,1,25445,25694,25695,25446
CQUADX4,25819,1,25446,25695,25696,25447
CQUADX4,25820,1,25447,25696,25697,25448
CQUADX4,25821,1,25448,25697,25698,25449
CQUADX4,25822,1,25449,25698,25699,25450
CQUADX4,25823,1,25450,25699,25700,25451
CQUADX4,25824,1,25451,25700,25701,25452
CQUADX4,25825,1,25452,25701,25702,25453
CQUADX4,25826,1,25453,25702,25703,25454
CQUADX4,25827,1,25454,25703,25704,25455
CQUADX4,25828,1,25455,25704,25705,25456
CQUADX4,25829,1,25456,25705,25706,25457
CQUADX4,25830,1,25457,25706,25707,25458
CQUADX4,25831,1,25458,25707,25708,25459
CQUADX4,25832,1,25459,25708,25709,25460
CQUADX4,25833,1,25460,25709,25710,25461
CQUADX4,25834,1,25461,25710,25711,25462
CQUADX4,25835,1,25462,25711,25712,25463
CQUADX4,25836,1,25463,25712,25713,25464
CQUADX4,25837,1,25464,25713,25714,25465
CQUADX4,25838,1,25465,25714,25715,25466
CQUADX4,25839,1,25466,25715,25716,25467
CQUADX4,25840,1,25467,25716,25717,25468
CQUADX4,25841,1,25468,25717,25718,25469
CQUADX4,25842,1,25469,25718,25719,25470
CQUADX4,25843,1,25470,25719,25720,25471
CQUADX4,25844,1,25471,25720,25721,25472
CQUADX4,25845,1,25472,25721,25722,25473
CQUADX4,25846,1,25473,25722,25723,25474
CQUADX4,25847,1,25474,25723,25724,25475
CQUADX4,25848,1,25475,25724,25725,25476
CQUADX4,25849,1,25476,25725,25726,25477
CQUADX4,25850,1,25477,25726,25727,25478
CQUADX4,25851,1,25478,25727,25728,25479
CQUADX4,25852,1,25479,25728,25729,25480
CQUADX4,25853,1,25480,25729,25730,25481
CQUADX4,25854,1,25481,25730,25731,25482
CQUADX4,25855,1,25482,25731,25732,25483
CQUADX4,25856,1,25483,25732,25733,25484
CQUADX4,25857,1,25484,25733,25734,25485
CQUADX4,25858,1,25485,25734,25735,25486
CQUADX4,25859,1,25486,25735,25736,25487
CQUADX4,25860,1,25487,25736,25737,25488
CQUADX4,25861,1,25488,25737,25738,25489
CQUADX4,25862,1,25489,25738,25739,25490
CQUADX4,25863,1,25490,25739,25740,25491
CQUADX4,25864,1,25491,25740,25741,25492
CQUADX4,25865,1,25492,25741,25742,25493
CQUADX4,25866,1,25493,25742,25743,25494
CQUADX4,25867,1,25494,25743,25744,25495
CQUADX4,25868,1,25495,25744,25745,25496
CQUADX4,25869,1,25496,25745,25746,25497
CQUADX4,25870,1,25497,25746,25747,25498
CQUADX4,25871,1,25498,25747,25748,25499
CQUADX4,25872,1,25499,25748,25749,25500
CQUADX4,25873,1,25500,25749,25750,25501
CQUADX4,25874,1,25501,25750,25751,25502
CQUADX4,25875,1,25502,25751,25752,25503
CQUADX4,25876,1,25503,25752,25753,25504
CQUADX4,25877,1,25504,25753,25754,25505
CQUADX4,25878,1,25505,25754,25755,25506
CQUADX4,25879,1,25506,25755,25756,25507
CQUADX4,25880,1,25507,25756,25757,25508
CQUADX4,25881,1,25508,25757,25758,25509
CQUADX4,25882,1,25509,25758,25759,25510
CQUADX4,25883,1,25510,25759,25760,25511
CQUADX4,25884,1,25511,25760,25761,25512
CQUADX4,25885,1,25512,25761,25762,25513
CQUADX4,25886,1,25513,25762,25763,25514
CQUADX4,25887,1,25514,25763,25764,25515
CQUADX4,25888,1,25515,25764,25765,25516
CQUADX4,25889,1,25516,25765,25766,25517
CQUADX4,25890,1,25517,25766,25767,25518
CQUADX4,25891,1,25518,25767,25768,25519
CQUADX4,25892,1,25519,25768,25769,25520
CQUADX4,25893,1,25520,25769,25770,25521
CQUADX4,25894,1,25521,25770,25771,25522
CQUADX4,25895,1,25522,25771,25772,25523
CQUADX4,25896,1,25523,25772,25773,25524
CQUADX4,25897,1,25524,25773,25774,25525
CQUADX4,25898,1,25525,25774,25775,25526
CQUADX4,25899,1,25526,25775,25776,25527
CQUADX4,25900,1,25527,25776,25777,25528
CQUADX4,25901,1,25528,25777,25778,25529
CQUADX4,25902,1,25529,25778,25779,25530
CQUADX4,25903,1,25530,25779,25780,25531
CQUADX4,25904,1,25531,25780,25781,25532
CQUADX4,25905,1,25533,25782,25783,25534
CQUADX4,25906,1,25534,25783,25784,25535
CQUADX4,25907,1,25535,25784,25785,25536
CQUADX4,25908,1,25536,25785,25786,25537
CQUADX4,25909,1,25537,25786,25787,25538
CQUADX4,25910,1,25538,25787,25788,25539
CQUADX4,25911,1,25539,25788,25789,25540
CQUADX4,25912,1,25540,25789,25790,25541
CQUADX4,25913,1,25541,25790,25791,25542
CQUADX4,25914,1,25542,25791,25792,25543
CQUADX4,25915,1,25543,25792,25793,25544
CQUADX4,25916,1,25544,25793,25794,25545
CQUADX4,25917,1,25545,25794,25795,25546
CQUADX4,25918,1,25546,25795,25796,25547
CQUADX4,25919,1,25547,25796,25797,25548
CQUADX4,25920,1,25548,25797,25798,25549
CQUADX4,25921,1,25549,25798,25799,25550
CQUADX4,25922,1,25550,25799,25800,25551
CQUADX4,25923,1,25551,25800,25801,25552
CQUADX4,25924,1,25552,25801,25802,25553
CQUADX4,25925,1,25553,25802,25803,25554
CQUADX4,25926,1,25554,25803,25804,25555
CQUADX4,25927,1,25555,25804,25805,25556
CQUADX4,25928,1,25556,25805,25806,25557
CQUADX4,25929,1,25557,25806,25807,25558
CQUADX4,25930,1,25558,25807,25808,25559
CQUADX4,25931,1,25559,25808,25809,25560
CQUADX4,25932,1,25560,25809,25810,25561
CQUADX4,25933,1,25561,25810,25811,25562
CQUADX4,25934,1,25562,25811,25812,25563
CQUADX4,25935,1,25563,25812,25813,25564
CQUADX4,25936,1,25564,25813,25814,25565
CQUADX4,25937,1,25565,25814,25815,25566
CQUADX4,25938,1,25566,25815,25816,25567
CQUADX4,25939,1,25567,25816,25817,25568
CQUADX4,25940,1,25568,25817,25818,25569
CQUADX4,25941,1,25569,25818,25819,25570
CQUADX4,25942,1,25570,25819,25820,25571
CQUADX4,25943,1,25571,25820,25821,25572
CQUADX4,25944,1,25572,25821,25822,25573
CQUADX4,25945,1,25573,25822,25823,25574
CQUADX4,25946,1,25574,25823,25824,25575
CQUADX4,25947,1,25575,25824,25825,25576
CQUADX4,25948,1,25576,25825,25826,25577
CQUADX4,25949,1,25577,25826,25827,25578
CQUADX4,25950,1,25578,25827,25828,25579
CQUADX4,25951,1,25579,25828,25829,25580
CQUADX4,25952,1,25580,25829,25830,25581
CQUADX4,25953,1,25581,25830,25831,25582
CQUADX4,25954,1,25582,25831,25832,25583
CQUADX4,25955,1,25583,25832,25833,25584
CQUADX4,25956,1,25584,25833,25834,25585
CQUADX4,25957,1,25585,25834,25835,25586
CQUADX4,25958,1,25586,25835,25836,25587
CQUADX4,25959,1,25587,25836,25837,25588
CQUADX4,25960,1,25588,25837,25838,25589
CQUADX4,25961,1,25589,25838,25839,25590
CQUADX4,25962,1,25590,25839,25840,25591
CQUADX4,25963,1,25591,25840,25841,25592
CQUADX4,25964,1,25592,25841,25842,25593
CQUADX4,25965,1,25593,25842,25843,25594
CQUADX4,25966,1,25594,25843,25844,25595
CQUADX4,25967,1,25595,25844,25845,25596
CQUADX4,25968,1,25596,25845,25846,25597
CQUADX4,25969,1,25597,25846,25847,25598
CQUADX4,25970,1,25598,25847,25848,25599
CQUADX4,25971,1,25599,25848,25849,25600
CQUADX4,25972,1,25600,25849,25850,25601
CQUADX4,25973,1,25601,25850,25851,25602
CQUADX4,25974,1,25602,25851,25852,25603
CQUADX4,25975,1,25603,25852,25853,25604
CQUADX4,25976,1,25604,25853,25854,25605
CQUADX4,25977,1,25605,25854,25855,25606
CQUADX4,25978,1,25606,25855,25856,25607
CQUADX4,25979,1,25607,25856,25857,25608
CQUADX4,25980,1,25608,25857,25858,25609
CQUADX4,25981,1,25609,25858,25859,25610
CQUADX4,25982,1,25610,25859,25860,25611
CQUADX4,25983,1,25611,25860,25861,25612
CQUADX4,25984,1,25612,25861,25862,25613
CQUADX4,25985,1,25613,25862,25863,25614
CQUADX4,25986,1,25614,25863,25864,25615
CQUADX4,25987,1,25615,25864,25865,25616
CQUADX4,25988,1,25616,25865,25866,25617
CQUADX4,25989,1,25617,25866,25867,25618
CQUADX4,25990,1,25618,25867,25868,25619
CQUADX4,25991,1,25619,25868,25869,25620
CQUADX4,25992,1,25620,25869,25870,25621
CQUADX4,25993,1,25621,25870,25871,25622
CQUADX4,25994,1,25622,25871,25872,25623
CQUADX4,25995,1,25623,25872,25873,25624
CQUADX4,25996,1,25624,25873,25874,25625
CQUADX4,25997,1,25625,25874,25875,25626
CQUADX4,25998,1,25626,25875,25876,25627
CQUADX4,25999,1,25627,25876,25877,25628
CQUADX4,26000,1,25628,25877,25878,25629
CQUADX4,26001,1,25629,25878,25879,25630
CQUADX4,26002,1,25630,25879,25880,25631
CQUADX4,26003,1,25631,25880,25881,25632
CQUADX4,26004,1,25632,25881,25882,25633
CQUADX4,26005,1,25633,25882,25883,25634
CQUADX4,26006,1,25634,25883,25884,25635
CQUADX4,26007,1,25635,25884,25885,25636
CQUADX4,26008,1,25636,25885,25886,25637
CQUADX4,26009,1,25637,25886,25887,25638
CQUADX4,26010,1,25638,25887,25888,25639
CQUADX4,26011,1,25639,25888,25889,25640
CQUADX4,26012,1,25640,25889,25890,25641
CQUADX4,26013,1,25641,25890,25891,25642
CQUADX4,26014,1,25642,25891,25892,25643
CQUADX4,26015,1,25643,25892,25893,25644
CQUADX4,26016,1,25644,25893,25894,25645
CQUADX4,26017,1,25645,25894,25895,25646
CQUADX4,26018,1,25646,25895,25896,25647
CQUADX4,26019,1,25647,25896,25897,25648
CQUADX4,26020,1,25648,25897,25898,25649
CQUADX4,26021,1,25649,25898,25899,25650
CQUADX4,26022,1,25650,25899,25900,25651
CQUADX4,26023,1,25651,25900,25901,25652
CQUADX4,26024,1,25652,25901,25902,25653
CQUADX4,26025,1,25653,25902,25903,25654
CQUADX4,26026,1,25654,25903,25904,25655
CQUADX4,26027,1,25655,25904,25905,25656
CQUADX4,26028,1,25656,25905,25906,25657
CQUADX4,26029,1,25657,25906,25907,25658
CQUADX4,26030,1,25658,25907,25908,25659
CQUADX4,26031,1,25659,25908,25909,25660
CQUADX4,26032,1,25660,25909,25910,25661
CQUADX4,26033,1,25661,25910,25911,25662
CQUADX4,26034,1,25662,25911,25912,25663
CQUADX4,26035,1,25663,25912,25913,25664
CQUADX4,26036,1,25664,25913,25914,25665
CQUADX4,26037,1,25665,25914,25915,25666
CQUADX4,26038,1,25666,25915,25916,25667
CQUADX4,26039,1,25667,25916,25917,25668
CQUADX4,26040,1,25668,25917,25918,25669
CQUADX4,26041,1,25669,25918,25919,25670
CQUADX4,26042,1,25670,25919,25920,25671
CQUADX4,26043,1,25671,25920,25921,25672
CQUADX4,26044,1,25672,25921,25922,25673
CQUADX4,26045,1,25673,25922,25923,25674
CQUADX4,26046,1,25674,25923,25924,25675
CQUADX4,26047,1,25675,25924,25925,25676
CQUADX4,26048,1,25676,25925,25926,25677
CQUADX4,26049,1,25677,25926,25927,25678
CQUADX4,26050,1,25678,25927,25928,25679
CQUADX4,26051,1,25679,25928,25929,25680
CQUADX4,26052,1,25680,25929,25930,25681
CQUADX4,26053,1,25681,25930,25931,25682
CQUADX4,26054,1,25682,25931,25932,25683
CQUADX4,26055,1,25683,25932,25933,25684
CQUADX4,26056,1,25684,25933,25934,25685
CQUADX4,26057,1,25685,25934,25935,25686
CQUADX4,26058,1,25686,25935,25936,25687
CQUADX4,26059,1,25687,25936,25937,25688
CQUADX4,26060,1,25688,25937,25938,25689
CQUADX4,26061,1,25689,25938,25939,25690
CQUADX4,26062,1,25690,25939,25940,25691
CQUADX4,26063,1,25691,25940,25941,25692
CQUADX4,26064,1,25692,25941,25942,25693
CQUADX4,26065,1,25693,25942,25943,25694
CQUADX4,26066,1,25694,25943,25944,25695
CQUADX4,26067,1,25695,25944,25945,25696
CQUADX4,26068,1,25696,25945,25946,25697
CQUADX4,26069,1,25697,25946,25947,25698
CQUADX4,26070,1,25698,25947,25948,25699
CQUADX4,26071,1,25699,25948,25949,25700
CQUADX4,26072,1,25700,25949,25950,25701
CQUADX4,26073,1,25701,25950,25951,25702
CQUADX4,26074,1,25702,25951,25952,25703
CQUADX4,26075,1,25703,25952,25953,25704
CQUADX4,26076,1,25704,25953,25954,25705
CQUADX4,26077,1,25705,25954,25955,25706
CQUADX4,26078,1,25706,25955,25956,25707
CQUADX4,26079,1,25707,25956,25957,25708
CQUADX4,26080,1,25708,25957,25958,25709
CQUADX4,26081,1,25709,25958,25959,25710
CQUADX4,26082,1,25710,25959,25960,25711
CQUADX4,26083,1,25711,25960,25961,25712
CQUADX4,26084,1,25712,25961,25962,25713
CQUADX4,26085,1,25713,25962,25963,25714
CQUADX4,26086,1,25714,25963,25964,25715
CQUADX4,26087,1,25715,25964,25965,25716
CQUADX4,26088,1,25716,25965,25966,25717
CQUADX4,26089,1,25717,25966,25967,25718
CQUADX4,26090,1,25718,25967,25968,25719
CQUADX4,26091,1,25719,25968,25969,25720
CQUADX4,26092,1,25720,25969,25970,25721
CQUADX4,26093,1,25721,25970,25971,25722
CQUADX4,26094,1,25722,25971,25972,25723
CQUADX4,26095,1,25723,25972,25973,25724
CQUADX4,26096,1,25724,25973,25974,25725
CQUADX4,26097,1,25725,25974,25975,25726
CQUADX4,26098,1,25726,25975,25976,25727
CQUADX4,26099,1,25727,25976,25977,25728
CQUADX4,26100,1,25728,25977,25978,25729
CQUADX4,26101,1,25729,25978,25979,25730
CQUADX4,26102,1,25730,25979,25980,25731
CQUADX4,26103,1,25731,25980,25981,25732
CQUADX4,26104,1,25732,25981,25982,25733
CQUADX4,26105,1,25733,25982,25983,25734
CQUADX4,26106,1,25734,25983,25984,25735
CQUADX4,26107,1,25735,25984,25985,25736
CQUADX4,26108,1,25736,25985,25986,25737
CQUADX4,26109,1,25737,25986,25987,25738
CQUADX4,26110,1,25738,25987,25988,25739
CQUADX4,26111,1,25739,25988,25989,25740
CQUADX4,26112,1,25740,25989,25990,25741
CQUADX4,26113,1,25741,25990,25991,25742
CQUADX4,26114,1,25742,25991,25992,25743
CQUADX4,26115,1,25743,25992,25993,25744
CQUADX4,26116,1,25744,25993,25994,25745
CQUADX4,26117,1,25745,25994,25995,25746
CQUADX4,26118,1,25746,25995,25996,25747
CQUADX4,26119,1,25747,25996,25997,25748
CQUADX4,26120,1,25748,25997,25998,25749
CQUADX4,26121,1,25749,25998,25999,25750
CQUADX4,26122,1,25750,25999,26000,25751
CQUADX4,26123,1,25751,26000,26001,25752
CQUADX4,26124,1,25752,26001,26002,25753
CQUADX4,26125,1,25753,26002,26003,25754
CQUADX4,26126,1,25754,26003,26004,25755
CQUADX4,26127,1,25755,26004,26005,25756
CQUADX4,26128,1,25756,26005,26006,25757
CQUADX4,26129,1,25757,26006,26007,25758
CQUADX4,26130,1,25758,26007,26008,25759
CQUADX4,26131,1,25759,26008,26009,25760
CQUADX4,26132,1,25760,26009,26010,25761
CQUADX4,26133,1,25761,26010,26011,25762
CQUADX4,26134,1,25762,26011,26012,25763
CQUADX4,26135,1,25763,26012,26013,25764
CQUADX4,26136,1,25764,26013,26014,25765
CQUADX4,26137,1,25765,26014,26015,25766
CQUADX4,26138,1,25766,26015,26016,25767
CQUADX4,26139,1,25767,26016,26017,25768
CQUADX4,26140,1,25768,26017,26018,25769
CQUADX4,26141,1,25769,26018,26019,25770
CQUADX4,26142,1,25770,26019,26020,25771
CQUADX4,26143,1,25771,26020,26021,25772
CQUADX4,26144,1,25772,26021,26022,25773
CQUADX4,26145,1,25773,26022,26023,25774
CQUADX4,26146,1,25774,26023,26024,25775
CQUADX4,26147,1,25775,26024,26025,25776
CQUADX4,26148,1,25776,26025,26026,25777
CQUADX4,26149,1,25777,26026,26027,25778
CQUADX4,26150,1,25778,26027,26028,25779
CQUADX4,26151,1,25779,26028,26029,25780
CQUADX4,26152,1,25780,26029,26030,25781
CQUADX4,26153,1,25782,26031,26032,25783
CQUADX4,26154,1,25783,26032,26033,25784
CQUADX4,26155,1,25784,26033,26034,25785
CQUADX4,26156,1,25785,26034,26035,25786
CQUADX4,26157,1,25786,26035,26036,25787
CQUADX4,26158,1,25787,26036,26037,25788
CQUADX4,26159,1,25788,26037,26038,25789
CQUADX4,26160,1,25789,26038,26039,25790
CQUADX4,26161,1,25790,26039,26040,25791
CQUADX4,26162,1,25791,26040,26041,25792
CQUADX4,26163,1,25792,26041,26042,25793
CQUADX4,26164,1,25793,26042,26043,25794
CQUADX4,26165,1,25794,26043,26044,25795
CQUADX4,26166,1,25795,26044,26045,25796
CQUADX4,26167,1,25796,26045,26046,25797
CQUADX4,26168,1,25797,26046,26047,25798
CQUADX4,26169,1,25798,26047,26048,25799
CQUADX4,26170,1,25799,26048,26049,25800
CQUADX4,26171,1,25800,26049,26050,25801
CQUADX4,26172,1,25801,26050,26051,25802
CQUADX4,26173,1,25802,26051,26052,25803
CQUADX4,26174,1,25803,26052,26053,25804
CQUADX4,26175,1,25804,26053,26054,25805
CQUADX4,26176,1,25805,26054,26055,25806
CQUADX4,26177,1,25806,26055,26056,25807
CQUADX4,26178,1,25807,26056,26057,25808
CQUADX4,26179,1,25808,26057,26058,25809
CQUADX4,26180,1,25809,26058,26059,25810
CQUADX4,26181,1,25810,26059,26060,25811
CQUADX4,26182,1,25811,26060,26061,25812
CQUADX4,26183,1,25812,26061,26062,25813
CQUADX4,26184,1,25813,26062,26063,25814
CQUADX4,26185,1,25814,26063,26064,25815
CQUADX4,26186,1,25815,26064,26065,25816
CQUADX4,26187,1,25816,26065,26066,25817
CQUADX4,26188,1,25817,26066,26067,25818
CQUADX4,26189,1,25818,26067,26068,25819
CQUADX4,26190,1,25819,26068,26069,25820
CQUADX4,26191,1,25820,26069,26070,25821
CQUADX4,26192,1,25821,26070,26071,25822
CQUADX4,26193,1,25822,26071,26072,25823
CQUADX4,26194,1,25823,26072,26073,25824
CQUADX4,26195,1,25824,26073,26074,25825
CQUADX4,26196,1,25825,26074,26075,25826
CQUADX4,26197,1,25826,26075,26076,25827
CQUADX4,26198,1,25827,26076,26077,25828
CQUADX4,26199,1,25828,26077,26078,25829
CQUADX4,26200,1,25829,26078,26079,25830
CQUADX4,26201,1,25830,26079,26080,25831
CQUADX4,26202,1,25831,26080,26081,25832
CQUADX4,26203,1,25832,26081,26082,25833
CQUADX4,26204,1,25833,26082,26083,25834
CQUADX4,26205,1,25834,26083,26084,25835
CQUADX4,26206,1,25835,26084,26085,25836
CQUADX4,26207,1,25836,26085,26086,25837
CQUADX4,26208,1,25837,26086,26087,25838
CQUADX4,26209,1,25838,26087,26088,25839
CQUADX4,26210,1,25839,26088,26089,25840
CQUADX4,26211,1,25840,26089,26090,25841
CQUADX4,26212,1,25841,26090,26091,25842
CQUADX4,26213,1,25842,26091,26092,25843
CQUADX4,26214,1,25843,26092,26093,25844
CQUADX4,26215,1,25844,26093,26094,25845
CQUADX4,26216,1,25845,26094,26095,25846
CQUADX4,26217,1,25846,26095,26096,25847
CQUADX4,26218,1,25847,26096,26097,25848
CQUADX4,26219,1,25848,26097,26098,25849
CQUADX4,26220,1,25849,26098,26099,25850
CQUADX4,26221,1,25850,26099,26100,25851
CQUADX4,26222,1,25851,26100,26101,25852
CQUADX4,26223,1,25852,26101,26102,25853
CQUADX4,26224,1,25853,26102,26103,25854
CQUADX4,26225,1,25854,26103,26104,25855
CQUADX4,26226,1,25855,26104,26105,25856
CQUADX4,26227,1,25856,26105,26106,25857
CQUADX4,26228,1,25857,26106,26107,25858
CQUADX4,26229,1,25858,26107,26108,25859
CQUADX4,26230,1,25859,26108,26109,25860
CQUADX4,26231,1,25860,26109,26110,25861
CQUADX4,26232,1,25861,26110,26111,25862
CQUADX4,26233,1,25862,26111,26112,25863
CQUADX4,26234,1,25863,26112,26113,25864
CQUADX4,26235,1,25864,26113,26114,25865
CQUADX4,26236,1,25865,26114,26115,25866
CQUADX4,26237,1,25866,26115,26116,25867
CQUADX4,26238,1,25867,26116,26117,25868
CQUADX4,26239,1,25868,26117,26118,25869
CQUADX4,26240,1,25869,26118,26119,25870
CQUADX4,26241,1,25870,26119,26120,25871
CQUADX4,26242,1,25871,26120,26121,25872
CQUADX4,26243,1,25872,26121,26122,25873
CQUADX4,26244,1,25873,26122,26123,25874
CQUADX4,26245,1,25874,26123,26124,25875
CQUADX4,26246,1,25875,26124,26125,25876
CQUADX4,26247,1,25876,26125,26126,25877
CQUADX4,26248,1,25877,26126,26127,25878
CQUADX4,26249,1,25878,26127,26128,25879
CQUADX4,26250,1,25879,26128,26129,25880
CQUADX4,26251,1,25880,26129,26130,25881
CQUADX4,26252,1,25881,26130,26131,25882
CQUADX4,26253,1,25882,26131,26132,25883
CQUADX4,26254,1,25883,26132,26133,25884
CQUADX4,26255,1,25884,26133,26134,25885
CQUADX4,26256,1,25885,26134,26135,25886
CQUADX4,26257,1,25886,26135,26136,25887
CQUADX4,26258,1,25887,26136,26137,25888
CQUADX4,26259,1,25888,26137,26138,25889
CQUADX4,26260,1,25889,26138,26139,25890
CQUADX4,26261,1,25890,26139,26140,25891
CQUADX4,26262,1,25891,26140,26141,25892
CQUADX4,26263,1,25892,26141,26142,25893
CQUADX4,26264,1,25893,26142,26143,25894
CQUADX4,26265,1,25894,26143,26144,25895
CQUADX4,26266,1,25895,26144,26145,25896
CQUADX4,26267,1,25896,26145,26146,25897
CQUADX4,26268,1,25897,26146,26147,25898
CQUADX4,26269,1,25898,26147,26148,25899
CQUADX4,26270,1,25899,26148,26149,25900
CQUADX4,26271,1,25900,26149,26150,25901
CQUADX4,26272,1,25901,26150,26151,25902
CQUADX4,26273,1,25902,26151,26152,25903
CQUADX4,26274,1,25903,26152,26153,25904
CQUADX4,26275,1,25904,26153,26154,25905
CQUADX4,26276,1,25905,26154,26155,25906
CQUADX4,26277,1,25906,26155,26156,25907
CQUADX4,26278,1,25907,26156,26157,25908
CQUADX4,26279,1,25908,26157,26158,25909
CQUADX4,26280,1,25909,26158,26159,25910
CQUADX4,26281,1,25910,26159,26160,25911
CQUADX4,26282,1,25911,26160,26161,25912
CQUADX4,26283,1,25912,26161,26162,25913
CQUADX4,26284,1,25913,26162,26163,25914
CQUADX4,26285,1,25914,26163,26164,25915
CQUADX4,26286,1,25915,26164,26165,25916
CQUADX4,26287,1,25916,26165,26166,25917
CQUADX4,26288,1,25917,26166,26167,25918
CQUADX4,26289,1,25918,26167,26168,25919
CQUADX4,26290,1,25919,26168,26169,25920
CQUADX4,26291,1,25920,26169,26170,25921
CQUADX4,26292,1,25921,26170,26171,25922
CQUADX4,26293,1,25922,26171,26172,25923
CQUADX4,26294,1,25923,26172,26173,25924
CQUADX4,26295,1,25924,26173,26174,25925
CQUADX4,26296,1,25925,26174,26175,25926
CQUADX4,26297,1,25926,26175,26176,25927
CQUADX4,26298,1,25927,26176,26177,25928
CQUADX4,26299,1,25928,26177,26178,25929
CQUADX4,26300,1,25929,26178,26179,25930
CQUADX4,26301,1,25930,26179,26180,25931
CQUADX4,26302,1,25931,26180,26181,25932
CQUADX4,26303,1,25932,26181,26182,25933
CQUADX4,26304,1,25933,26182,26183,25934
CQUADX4,26305,1,25934,26183,26184,25935
CQUADX4,26306,1,25935,26184,26185,25936
CQUADX4,26307,1,25936,26185,26186,25937
CQUADX4,26308,1,25937,26186,26187,25938
CQUADX4,26309,1,25938,26187,26188,25939
CQUADX4,26310,1,25939,26188,26189,25940
CQUADX4,26311,1,25940,26189,26190,25941
CQUADX4,26312,1,25941,26190,26191,25942
CQUADX4,26313,1,25942,26191,26192,25943
CQUADX4,26314,1,25943,26192,26193,25944
CQUADX4,26315,1,25944,26193,26194,25945
CQUADX4,26316,1,25945,26194,26195,25946
CQUADX4,26317,1,25946,26195,26196,25947
CQUADX4,26318,1,25947,26196,26197,25948
CQUADX4,26319,1,25948,26197,26198,25949
CQUADX4,26320,1,25949,26198,26199,25950
CQUADX4,26321,1,25950,26199,26200,25951
CQUADX4,26322,1,25951,26200,26201,25952
CQUADX4,26323,1,25952,26201,26202,25953
CQUADX4,26324,1,25953,26202,26203,25954
CQUADX4,26325,1,25954,26203,26204,25955
CQUADX4,26326,1,25955,26204,26205,25956
CQUADX4,26327,1,25956,26205,26206,25957
CQUADX4,26328,1,25957,26206,26207,25958
CQUADX4,26329,1,25958,26207,26208,25959
CQUADX4,26330,1,25959,26208,26209,25960
CQUADX4,26331,1,25960,26209,26210,25961
CQUADX4,26332,1,25961,26210,26211,25962
CQUADX4,26333,1,25962,26211,26212,25963
CQUADX4,26334,1,25963,26212,26213,25964
CQUADX4,26335,1,25964,26213,26214,25965
CQUADX4,26336,1,25965,26214,26215,25966
CQUADX4,26337,1,25966,26215,26216,25967
CQUADX4,26338,1,25967,26216,26217,25968
CQUADX4,26339,1,25968,26217,26218,25969
CQUADX4,26340,1,25969,26218,26219,25970
CQUADX4,26341,1,25970,26219,26220,25971
CQUADX4,26342,1,25971,26220,26221,25972
CQUADX4,26343,1,25972,26221,26222,25973
CQUADX4,26344,1,25973,26222,26223,25974
CQUADX4,26345,1,25974,26223,26224,25975
CQUADX4,26346,1,25975,26224,26225,25976
CQUADX4,26347,1,25976,26225,26226,25977
CQUADX4,26348,1,25977,26226,26227,25978
CQUADX4,26349,1,25978,26227,26228,25979
CQUADX4,26350,1,25979,26228,26229,25980
CQUADX4,26351,1,25980,26229,26230,25981
CQUADX4,26352,1,25981,26230,26231,25982
CQUADX4,26353,1,25982,26231,26232,25983
CQUADX4,26354,1,25983,26232,26233,25984
CQUADX4,26355,1,25984,26233,26234,25985
CQUADX4,26356,1,25985,26234,26235,25986
CQUADX4,26357,1,25986,26235,26236,25987
CQUADX4,26358,1,25987,26236,26237,25988
CQUADX4,26359,1,25988,26237,26238,25989
CQUADX4,26360,1,25989,26238,26239,25990
CQUADX4,26361,1,25990,26239,26240,25991
CQUADX4,26362,1,25991,26240,26241,25992
CQUADX4,26363,1,25992,26241,26242,25993
CQUADX4,26364,1,25993,26242,26243,25994
CQUADX4,26365,1,25994,26243,26244,25995
CQUADX4,26366,1,25995,26244,26245,25996
CQUADX4,26367,1,25996,26245,26246,25997
CQUADX4,26368,1,25997,26246,26247,25998
CQUADX4,26369,1,25998,26247,26248,25999
CQUADX4,26370,1,25999,26248,26249,26000
CQUADX4,26371,1,26000,26249,26250,26001
CQUADX4,26372,1,26001,26250,26251,26002
CQUADX4,26373,1,26002,26251,26252,26003
CQUADX4,26374,1,26003,26252,26253,26004
CQUADX4,26375,1,26004,26253,26254,26005
CQUADX4,26376,1,26005,26254,26255,26006
CQUADX4,26377,1,26006,26255,26256,26007
CQUADX4,26378,1,26007,26256,26257,26008
CQUADX4,26379,1,26008,26257,26258,26009
CQUADX4,26380,1,26009,26258,26259,26010
CQUADX4,26381,1,26010,26259,26260,26011
CQUADX4,26382,1,26011,26260,26261,26012
CQUADX4,26383,1,26012,26261,26262,26013
CQUADX4,26384,1,26013,26262,26263,26014
CQUADX4,26385,1,26014,26263,26264,26015
CQUADX4,26386,1,26015,26264,26265,26016
CQUADX4,26387,1,26016,26265,26266,26017
CQUADX4,26388,1,26017,26266,26267,26018
CQUADX4,26389,1,26018,26267,26268,26019
CQUADX4,26390,1,26019,26268,26269,26020
CQUADX4,26391,1,26020,26269,26270,26021
CQUADX4,26392,1,26021,26270,26271,26022
CQUADX4,26393,1,26022,26271,26272,26023
CQUADX4,26394,1,26023,26272,26273,26024
CQUADX4,26395,1,26024,26273,26274,26025
CQUADX4,26396,1,26025,26274,26275,26026
CQUADX4,26397,1,26026,26275,26276,26027
CQUADX4,26398,1,26027,26276,26277,26028
CQUADX4,26399,1,26028,26277,26278,26029
CQUADX4,26400,1,26029,26278,26279,26030
CQUADX4,26401,1,26031,26280,26281,26032
CQUADX4,26402,1,26032,26281,26282,26033
CQUADX4,26403,1,26033,26282,26283,26034
CQUADX4,26404,1,26034,26283,26284,26035
CQUADX4,26405,1,26035,26284,26285,26036
CQUADX4,26406,1,26036,26285,26286,26037
CQUADX4,26407,1,26037,26286,26287,26038
CQUADX4,26408,1,26038,26287,26288,26039
CQUADX4,26409,1,26039,26288,26289,26040
CQUADX4,26410,1,26040,26289,26290,26041
CQUADX4,26411,1,26041,26290,26291,26042
CQUADX4,26412,1,26042,26291,26292,26043
CQUADX4,26413,1,26043,26292,26293,26044
CQUADX4,26414,1,26044,26293,26294,26045
CQUADX4,26415,1,26045,26294,26295,26046
CQUADX4,26416,1,26046,26295,26296,26047
CQUADX4,26417,1,26047,26296,26297,26048
CQUADX4,26418,1,26048,26297,26298,26049
CQUADX4,26419,1,26049,26298,26299,26050
CQUADX4,26420,1,26050,26299,26300,26051
CQUADX4,26421,1,26051,26300,26301,26052
CQUADX4,26422,1,26052,26301,26302,26053
CQUADX4,26423,1,26053,26302,26303,26054
CQUADX4,26424,1,26054,26303,26304,26055
CQUADX4,26425,1,26055,26304,26305,26056
CQUADX4,26426,1,26056,26305,26306,26057
CQUADX4,26427,1,26057,26306,26307,26058
CQUADX4,26428,1,26058,26307,26308,26059
CQUADX4,26429,1,26059,26308,26309,26060
CQUADX4,26430,1,26060,26309,26310,26061
CQUADX4,26431,1,26061,26310,26311,26062
CQUADX4,26432,1,26062,26311,26312,26063
CQUADX4,26433,1,26063,26312,26313,26064
CQUADX4,26434,1,26064,26313,26314,26065
CQUADX4,26435,1,26065,26314,26315,26066
CQUADX4,26436,1,26066,26315,26316,26067
CQUADX4,26437,1,26067,26316,26317,26068
CQUADX4,26438,1,26068,26317,26318,26069
CQUADX4,26439,1,26069,26318,26319,26070
CQUADX4,26440,1,26070,26319,26320,26071
CQUADX4,26441,1,26071,26320,26321,26072
CQUADX4,26442,1,26072,26321,26322,26073
CQUADX4,26443,1,26073,26322,26323,26074
CQUADX4,26444,1,26074,26323,26324,26075
CQUADX4,26445,1,26075,26324,26325,26076
CQUADX4,26446,1,26076,26325,26326,26077
CQUADX4,26447,1,26077,26326,26327,26078
CQUADX4,26448,1,26078,26327,26328,26079
CQUADX4,26449,1,26079,26328,26329,26080
CQUADX4,26450,1,26080,26329,26330,26081
CQUADX4,26451,1,26081,26330,26331,26082
CQUADX4,26452,1,26082,26331,26332,26083
CQUADX4,26453,1,26083,26332,26333,26084
CQUADX4,26454,1,26084,26333,26334,26085
CQUADX4,26455,1,26085,26334,26335,26086
CQUADX4,26456,1,26086,26335,26336,26087
CQUADX4,26457,1,26087,26336,26337,26088
CQUADX4,26458,1,26088,26337,26338,26089
CQUADX4,26459,1,26089,26338,26339,26090
CQUADX4,26460,1,26090,26339,26340,26091
CQUADX4,26461,1,26091,26340,26341,26092
CQUADX4,26462,1,26092,26341,26342,26093
CQUADX4,26463,1,26093,26342,26343,26094
CQUADX4,26464,1,26094,26343,26344,26095
CQUADX4,26465,1,26095,26344,26345,26096
CQUADX4,26466,1,26096,26345,26346,26097
CQUADX4,26467,1,26097,26346,26347,26098
CQUADX4,26468,1,26098,26347,26348,26099
CQUADX4,26469,1,26099,26348,26349,26100
CQUADX4,26470,1,26100,26349,26350,26101
CQUADX4,26471,1,26101,26350,26351,26102
CQUADX4,26472,1,26102,26351,26352,26103
CQUADX4,26473,1,26103,26352,26353,26104
CQUADX4,26474,1,26104,26353,26354,26105
CQUADX4,26475,1,26105,26354,26355,26106
CQUADX4,26476,1,26106,26355,26356,26107
CQUADX4,26477,1,26107,26356,26357,26108
CQUADX4,26478,1,26108,26357,26358,26109
CQUADX4,26479,1,26109,26358,26359,26110
CQUADX4,26480,1,26110,26359,26360,26111
CQUADX4,26481,1,26111,26360,26361,26112
CQUADX4,26482,1,26112,26361,26362,26113
CQUADX4,26483,1,26113,26362,26363,26114
CQUADX4,26484,1,26114,26363,26364,26115
CQUADX4,26485,1,26115,26364,26365,26116
CQUADX4,26486,1,26116,26365,26366,26117
CQUADX4,26487,1,26117,26366,26367,26118
CQUADX4,26488,1,26118,26367,26368,26119
CQUADX4,26489,1,26119,26368,26369,26120
CQUADX4,26490,1,26120,26369,26370,26121
CQUADX4,26491,1,26121,26370,26371,26122
CQUADX4,26492,1,26122,26371,26372,26123
CQUADX4,26493,1,26123,26372,26373,26124
CQUADX4,26494,1,26124,26373,26374,26125
CQUADX4,26495,1,26125,26374,26375,26126
CQUADX4,26496,1,26126,26375,26376,26127
CQUADX4,26497,1,26127,26376,26377,26128
CQUADX4,26498,1,26128,26377,26378,26129
CQUADX4,26499,1,26129,26378,26379,26130
CQUADX4,26500,1,26130,26379,26380,26131
CQUADX4,26501,1,26131,26380,26381,26132
CQUADX4,26502,1,26132,26381,26382,26133
CQUADX4,26503,1,26133,26382,26383,26134
CQUADX4,26504,1,26134,26383,26384,26135
CQUADX4,26505,1,26135,26384,26385,26136
CQUADX4,26506,1,26136,26385,26386,26137
CQUADX4,26507,1,26137,26386,26387,26138
CQUADX4,26508,1,26138,26387,26388,26139
CQUADX4,26509,1,26139,26388,26389,26140
CQUADX4,26510,1,26140,26389,26390,26141
CQUADX4,26511,1,26141,26390,26391,26142
CQUADX4,26512,1,26142,26391,26392,26143
CQUADX4,26513,1,26143,26392,26393,26144
CQUADX4,26514,1,26144,26393,26394,26145
CQUADX4,26515,1,26145,26394,26395,26146
CQUADX4,26516,1,26146,26395,26396,26147
CQUADX4,26517,1,26147,26396,26397,26148
CQUADX4,26518,1,26148,26397,26398,26149
CQUADX4,26519,1,26149,26398,26399,26150
CQUADX4,26520,1,26150,26399,26400,26151
CQUADX4,26521,1,26151,26400,26401,26152
CQUADX4,26522,1,26152,26401,26402,26153
CQUADX4,26523,1,26153,26402,26403,26154
CQUADX4,26524,1,26154,26403,26404,26155
CQUADX4,26525,1,26155,26404,26405,26156
CQUADX4,26526,1,26156,26405,26406,26157
CQUADX4,26527,1,26157,26406,26407,26158
CQUADX4,26528,1,26158,26407,26408,26159
CQUADX4,26529,1,26159,26408,26409,26160
CQUADX4,26530,1,26160,26409,26410,26161
CQUADX4,26531,1,26161,26410,26411,26162
CQUADX4,26532,1,26162,26411,26412,26163
CQUADX4,26533,1,26163,26412,26413,26164
CQUADX4,26534,1,26164,26413,26414,26165
CQUADX4,26535,1,26165,26414,26415,26166
CQUADX4,26536,1,26166,26415,26416,26167
CQUADX4,26537,1,26167,26416,26417,26168
CQUADX4,26538,1,26168,26417,26418,26169
CQUADX4,26539,1,26169,26418,26419,26170
CQUADX4,26540,1,26170,26419,26420,26171
CQUADX4,26541,1,26171,26420,26421,26172
CQUADX4,26542,1,26172,26421,26422,26173
CQUADX4,26543,1,26173,26422,26423,26174
CQUADX4,26544,1,26174,26423,26424,26175
CQUADX4,26545,1,26175,26424,26425,26176
CQUADX4,26546,1,26176,26425,26426,26177
CQUADX4,26547,1,26177,26426,26427,26178
CQUADX4,26548,1,26178,26427,26428,26179
CQUADX4,26549,1,26179,26428,26429,26180
CQUADX4,26550,1,26180,26429,26430,26181
CQUADX4,26551,1,26181,26430,26431,26182
CQUADX4,26552,1,26182,26431,26432,26183
CQUADX4,26553,1,26183,26432,26433,26184
CQUADX4,26554,1,26184,26433,26434,26185
CQUADX4,26555,1,26185,26434,26435,26186
CQUADX4,26556,1,26186,26435,26436,26187
CQUADX4,26557,1,26187,26436,26437,26188
CQUADX4,26558,1,26188,26437,26438,26189
CQUADX4,26559,1,26189,26438,26439,26190
CQUADX4,26560,1,26190,26439,26440,26191
CQUADX4,26561,1,26191,26440,26441,26192
CQUADX4,26562,1,26192,26441,26442,26193
CQUADX4,26563,1,26193,26442,26443,26194
CQUADX4,26564,1,26194,26443,26444,26195
CQUADX4,26565,1,26195,26444,26445,26196
CQUADX4,26566,1,26196,26445,26446,26197
CQUADX4,26567,1,26197,26446,26447,26198
CQUADX4,26568,1,26198,26447,26448,26199
CQUADX4,26569,1,26199,26448,26449,26200
CQUADX4,26570,1,26200,26449,26450,26201
CQUADX4,26571,1,26201,26450,26451,26202
CQUADX4,26572,1,26202,26451,26452,26203
CQUADX4,26573,1,26203,26452,26453,26204
CQUADX4,26574,1,26204,26453,26454,26205
CQUADX4,26575,1,26205,26454,26455,26206
CQUADX4,26576,1,26206,26455,26456,26207
CQUADX4,26577,1,26207,26456,26457,26208
CQUADX4,26578,1,26208,26457,26458,26209
CQUADX4,26579,1,26209,26458,26459,26210
CQUADX4,26580,1,26210,26459,26460,26211
CQUADX4,26581,1,26211,26460,26461,26212
CQUADX4,26582,1,26212,26461,26462,26213
CQUADX4,26583,1,26213,26462,26463,26214
CQUADX4,26584,1,26214,26463,26464,26215
CQUADX4,26585,1,26215,26464,26465,26216
CQUADX4,26586,1,26216,26465,26466,26217
CQUADX4,26587,1,26217,26466,26467,26218
CQUADX4,26588,1,26218,26467,26468,26219
CQUADX4,26589,1,26219,26468,26469,26220
CQUADX4,26590,1,26220,26469,26470,26221
CQUADX4,26591,1,26221,26470,26471,26222
CQUADX4,26592,1,26222,26471,26472,26223
CQUADX4,26593,1,26223,26472,26473,26224
CQUADX4,26594,1,26224,26473,26474,26225
CQUADX4,26595,1,26225,26474,26475,26226
CQUADX4,26596,1,26226,26475,26476,26227
CQUADX4,26597,1,26227,26476,26477,26228
CQUADX4,26598,1,26228,26477,26478,26229
CQUADX4,26599,1,26229,26478,26479,26230
CQUADX4,26600,1,26230,26479,26480,26231
CQUADX4,26601,1,26231,26480,26481,26232
CQUADX4,26602,1,26232,26481,26482,26233
CQUADX4,26603,1,26233,26482,26483,26234
CQUADX4,26604,1,26234,26483,26484,26235
CQUADX4,26605,1,26235,26484,26485,26236
CQUADX4,26606,1,26236,26485,26486,26237
CQUADX4,26607,1,26237,26486,26487,26238
CQUADX4,26608,1,26238,26487,26488,26239
CQUADX4,26609,1,26239,26488,26489,26240
CQUADX4,26610,1,26240,26489,26490,26241
CQUADX4,26611,1,26241,26490,26491,26242
CQUADX4,26612,1,26242,26491,26492,26243
CQUADX4,26613,1,26243,26492,26493,26244
CQUADX4,26614,1,26244,26493,26494,26245
CQUADX4,26615,1,26245,26494,26495,26246
CQUADX4,26616,1,26246,26495,26496,26247
CQUADX4,26617,1,26247,26496,26497,26248
CQUADX4,26618,1,26248,26497,26498,26249
CQUADX4,26619,1,26249,26498,26499,26250
CQUADX4,26620,1,26250,26499,26500,26251
CQUADX4,26621,1,26251,26500,26501,26252
CQUADX4,26622,1,26252,26501,26502,26253
CQUADX4,26623,1,26253,26502,26503,26254
CQUADX4,26624,1,26254,26503,26504,26255
CQUADX4,26625,1,26255,26504,26505,26256
CQUADX4,26626,1,26256,26505,26506,26257
CQUADX4,26627,1,26257,26506,26507,26258
CQUADX4,26628,1,26258,26507,26508,26259
CQUADX4,26629,1,26259,26508,26509,26260
CQUADX4,26630,1,26260,26509,26510,26261
CQUADX4,26631,1,26261,26510,26511,26262
CQUADX4,26632,1,26262,26511,26512,26263
CQUADX4,26633,1,26263,26512,26513,26264
CQUADX4,26634,1,26264,26513,26514,26265
CQUADX4,26635,1,26265,26514,26515,26266
CQUADX4,26636,1,26266,26515,26516,26267
CQUADX4,26637,1,26267,26516,26517,26268
CQUADX4,26638,1,26268,26517,26518,26269
CQUADX4,26639,1,26269,26518,26519,26270
CQUADX4,26640,1,26270,26519,26520,26271
CQUADX4,26641,1,26271,26520,26521,26272
CQUADX4,26642,1,26272,26521,26522,26273
CQUADX4,26643,1,26273,26522,26523,26274
CQUADX4,26644,1,26274,26523,26524,26275
CQUADX4,26645,1,26275,26524,26525,26276
CQUADX4,26646,1,26276,26525,26526,26277
CQUADX4,26647,1,26277,26526,26527,26278
CQUADX4,26648,1,26278,26527,26528,26279
CQUADX4,26649,1,26280,26529,26530,26281
CQUADX4,26650,1,26281,26530,26531,26282
CQUADX4,26651,1,26282,26531,26532,26283
CQUADX4,26652,1,26283,26532,26533,26284
CQUADX4,26653,1,26284,26533,26534,26285
CQUADX4,26654,1,26285,26534,26535,26286
CQUADX4,26655,1,26286,26535,26536,26287
CQUADX4,26656,1,26287,26536,26537,26288
CQUADX4,26657,1,26288,26537,26538,26289
CQUADX4,26658,1,26289,26538,26539,26290
CQUADX4,26659,1,26290,26539,26540,26291
CQUADX4,26660,1,26291,26540,26541,26292
CQUADX4,26661,1,26292,26541,26542,26293
CQUADX4,26662,1,26293,26542,26543,26294
CQUADX4,26663,1,26294,26543,26544,26295
CQUADX4,26664,1,26295,26544,26545,26296
CQUADX4,26665,1,26296,26545,26546,26297
CQUADX4,26666,1,26297,26546,26547,26298
CQUADX4,26667,1,26298,26547,26548,26299
CQUADX4,26668,1,26299,26548,26549,26300
CQUADX4,26669,1,26300,26549,26550,26301
CQUADX4,26670,1,26301,26550,26551,26302
CQUADX4,26671,1,26302,26551,26552,26303
CQUADX4,26672,1,26303,26552,26553,26304
CQUADX4,26673,1,26304,26553,26554,26305
CQUADX4,26674,1,26305,26554,26555,26306
CQUADX4,26675,1,26306,26555,26556,26307
CQUADX4,26676,1,26307,26556,26557,26308
CQUADX4,26677,1,26308,26557,26558,26309
CQUADX4,26678,1,26309,26558,26559,26310
CQUADX4,26679,1,26310,26559,26560,26311
CQUADX4,26680,1,26311,26560,26561,26312
CQUADX4,26681,1,26312,26561,26562,26313
CQUADX4,26682,1,26313,26562,26563,26314
CQUADX4,26683,1,26314,26563,26564,26315
CQUADX4,26684,1,26315,26564,26565,26316
CQUADX4,26685,1,26316,26565,26566,26317
CQUADX4,26686,1,26317,26566,26567,26318
CQUADX4,26687,1,26318,26567,26568,26319
CQUADX4,26688,1,26319,26568,26569,26320
CQUADX4,26689,1,26320,26569,26570,26321
CQUADX4,26690,1,26321,26570,26571,26322
CQUADX4,26691,1,26322,26571,26572,26323
CQUADX4,26692,1,26323,26572,26573,26324
CQUADX4,26693,1,26324,26573,26574,26325
CQUADX4,26694,1,26325,26574,26575,26326
CQUADX4,26695,1,26326,26575,26576,26327
CQUADX4,26696,1,26327,26576,26577,26328
CQUADX4,26697,1,26328,26577,26578,26329
CQUADX4,26698,1,26329,26578,26579,26330
CQUADX4,26699,1,26330,26579,26580,26331
CQUADX4,26700,1,26331,26580,26581,26332
CQUADX4,26701,1,26332,26581,26582,26333
CQUADX4,26702,1,26333,26582,26583,26334
CQUADX4,26703,1,26334,26583,26584,26335
CQUADX4,26704,1,26335,26584,26585,26336
CQUADX4,26705,1,26336,26585,26586,26337
CQUADX4,26706,1,26337,26586,26587,26338
CQUADX4,26707,1,26338,26587,26588,26339
CQUADX4,26708,1,26339,26588,26589,26340
CQUADX4,26709,1,26340,26589,26590,26341
CQUADX4,26710,1,26341,26590,26591,26342
CQUADX4,26711,1,26342,26591,26592,26343
CQUADX4,26712,1,26343,26592,26593,26344
CQUADX4,26713,1,26344,26593,26594,26345
CQUADX4,26714,1,26345,26594,26595,26346
CQUADX4,26715,1,26346,26595,26596,26347
CQUADX4,26716,1,26347,26596,26597,26348
CQUADX4,26717,1,26348,26597,26598,26349
CQUADX4,26718,1,26349,26598,26599,26350
CQUADX4,26719,1,26350,26599,26600,26351
CQUADX4,26720,1,26351,26600,26601,26352
CQUADX4,26721,1,26352,26601,26602,26353
CQUADX4,26722,1,26353,26602,26603,26354
CQUADX4,26723,1,26354,26603,26604,26355
CQUADX4,26724,1,26355,26604,26605,26356
CQUADX4,26725,1,26356,26605,26606,26357
CQUADX4,26726,1,26357,26606,26607,26358
CQUADX4,26727,1,26358,26607,26608,26359
CQUADX4,26728,1,26359,26608,26609,26360
CQUADX4,26729,1,26360,26609,26610,26361
CQUADX4,26730,1,26361,26610,26611,26362
CQUADX4,26731,1,26362,26611,26612,26363
CQUADX4,26732,1,26363,26612,26613,26364
CQUADX4,26733,1,26364,26613,26614,26365
CQUADX4,26734,1,26365,26614,26615,26366
CQUADX4,26735,1,26366,26615,26616,26367
CQUADX4,26736,1,26367,26616,26617,26368
CQUADX4,26737,1,26368,26617,26618,26369
CQUADX4,26738,1,26369,26618,26619,26370
CQUADX4,26739,1,26370,26619,26620,26371
CQUADX4,26740,1,26371,26620,26621,26372
CQUADX4,26741,1,26372,26621,26622,26373
CQUADX4,26742,1,26373,26622,26623,26374
CQUADX4,26743,1,26374,26623,26624,26375
CQUADX4,26744,1,26375,26624,26625,26376
CQUADX4,26745,1,26376,26625,26626,26377
CQUADX4,26746,1,26377,26626,26627,26378
CQUADX4,26747,1,26378,26627,26628,26379
CQUADX4,26748,1,26379,26628,26629,26380
CQUADX4,26749,1,26380,26629,26630,26381
CQUADX4,26750,1,26381,26630,26631,26382
CQUADX4,26751,1,26382,26631,26632,26383
CQUADX4,26752,1,26383,26632,26633,26384
CQUADX4,26753,1,26384,26633,26634,26385
CQUADX4,26754,1,26385,26634,26635,26386
CQUADX4,26755,1,26386,26635,26636,26387
CQUADX4,26756,1,26387,26636,26637,26388
CQUADX4,26757,1,26388,26637,26638,26389
CQUADX4,26758,1,26389,26638,26639,26390
CQUADX4,26759,1,26390,26639,26640,26391
CQUADX4,26760,1,26391,26640,26641,26392
CQUADX4,26761,1,26392,26641,26642,26393
CQUADX4,26762,1,26393,26642,26643,26394
CQUADX4,26763,1,26394,26643,26644,26395
CQUADX4,26764,1,26395,26644,26645,26396
CQUADX4,26765,1,26396,26645,26646,26397
CQUADX4,26766,1,26397,26646,26647,26398
CQUADX4,26767,1,26398,26647,26648,26399
CQUADX4,26768,1,26399,26648,26649,26400
CQUADX4,26769,1,26400,26649,26650,26401
CQUADX4,26770,1,26401,26650,26651,26402
CQUADX4,26771,1,26402,26651,26652,26403
CQUADX4,26772,1,26403,26652,26653,26404
CQUADX4,26773,1,26404,26653,26654,26405
CQUADX4,26774,1,26405,26654,26655,26406
CQUADX4,26775,1,26406,26655,26656,26407
CQUADX4,26776,1,26407,26656,26657,26408
CQUADX4,26777,1,26408,26657,26658,26409
CQUADX4,26778,1,26409,26658,26659,26410
CQUADX4,26779,1,26410,26659,26660,26411
CQUADX4,26780,1,26411,26660,26661,26412
CQUADX4,26781,1,26412,26661,26662,26413
CQUADX4,26782,1,26413,26662,26663,26414
CQUADX4,26783,1,26414,26663,26664,26415
CQUADX4,26784,1,26415,26664,26665,26416
CQUADX4,26785,1,26416,26665,26666,26417
CQUADX4,26786,1,26417,26666,26667,26418
CQUADX4,26787,1,26418,26667,26668,26419
CQUADX4,26788,1,26419,26668,26669,26420
CQUADX4,26789,1,26420,26669,26670,26421
CQUADX4,26790,1,26421,26670,26671,26422
CQUADX4,26791,1,26422,26671,26672,26423
CQUADX4,26792,1,26423,26672,26673,26424
CQUADX4,26793,1,26424,26673,26674,26425
CQUADX4,26794,1,26425,26674,26675,26426
CQUADX4,26795,1,26426,26675,26676,26427
CQUADX4,26796,1,26427,26676,26677,26428
CQUADX4,26797,1,26428,26677,26678,26429
CQUADX4,26798,1,26429,26678,26679,26430
CQUADX4,26799,1,26430,26679,26680,26431
CQUADX4,26800,1,26431,26680,26681,26432
CQUADX4,26801,1,26432,26681,26682,26433
CQUADX4,26802,1,26433,26682,26683,26434
CQUADX4,26803,1,26434,26683,26684,26435
CQUADX4,26804,1,26435,26684,26685,26436
CQUADX4,26805,1,26436,26685,26686,26437
CQUADX4,26806,1,26437,26686,26687,26438
CQUADX4,26807,1,26438,26687,26688,26439
CQUADX4,26808,1,26439,26688,26689,26440
CQUADX4,26809,1,26440,26689,26690,26441
CQUADX4,26810,1,26441,26690,26691,26442
CQUADX4,26811,1,26442,26691,26692,26443
CQUADX4,26812,1,26443,26692,26693,26444
CQUADX4,26813,1,26444,26693,26694,26445
CQUADX4,26814,1,26445,26694,26695,26446
CQUADX4,26815,1,26446,26695,26696,26447
CQUADX4,26816,1,26447,26696,26697,26448
CQUADX4,26817,1,26448,26697,26698,26449
CQUADX4,26818,1,26449,26698,26699,26450
CQUADX4,26819,1,26450,26699,26700,26451
CQUADX4,26820,1,26451,26700,26701,26452
CQUADX4,26821,1,26452,26701,26702,26453
CQUADX4,26822,1,26453,26702,26703,26454
CQUADX4,26823,1,26454,26703,26704,26455
CQUADX4,26824,1,26455,26704,26705,26456
CQUADX4,26825,1,26456,26705,26706,26457
CQUADX4,26826,1,26457,26706,26707,26458
CQUADX4,26827,1,26458,26707,26708,26459
CQUADX4,26828,1,26459,26708,26709,26460
CQUADX4,26829,1,26460,26709,26710,26461
CQUADX4,26830,1,26461,26710,26711,26462
CQUADX4,26831,1,26462,26711,26712,26463
CQUADX4,26832,1,26463,26712,26713,26464
CQUADX4,26833,1,26464,26713,26714,26465
CQUADX4,26834,1,26465,26714,26715,26466
CQUADX4,26835,1,26466,26715,26716,26467
CQUADX4,26836,1,26467,26716,26717,26468
CQUADX4,26837,1,26468,26717,26718,26469
CQUADX4,26838,1,26469,26718,26719,26470
CQUADX4,26839,1,26470,26719,26720,26471
CQUADX4,26840,1,26471,26720,26721,26472
CQUADX4,26841,1,26472,26721,26722,26473
CQUADX4,26842,1,26473,26722,26723,26474
CQUADX4,26843,1,26474,26723,26724,26475
CQUADX4,26844,1,26475,26724,26725,26476
CQUADX4,26845,1,26476,26725,26726,26477
CQUADX4,26846,1,26477,26726,26727,26478
CQUADX4,26847,1,26478,26727,26728,26479
CQUADX4,26848,1,26479,26728,26729,26480
CQUADX4,26849,1,26480,26729,26730,26481
CQUADX4,26850,1,26481,26730,26731,26482
CQUADX4,26851,1,26482,26731,26732,26483
CQUADX4,26852,1,26483,26732,26733,26484
CQUADX4,26853,1,26484,26733,26734,26485
CQUADX4,26854,1,26485,26734,26735,26486
CQUADX4,26855,1,26486,26735,26736,26487
CQUADX4,26856,1,26487,26736,26737,26488
CQUADX4,26857,1,26488,26737,26738,26489
CQUADX4,26858,1,26489,26738,26739,26490
CQUADX4,26859,1,26490,26739,26740,26491
CQUADX4,26860,1,26491,26740,26741,26492
CQUADX4,26861,1,26492,26741,26742,26493
CQUADX4,26862,1,26493,26742,26743,26494
CQUADX4,26863,1,26494,26743,26744,26495
CQUADX4,26864,1,26495,26744,26745,26496
CQUADX4,26865,1,26496,26745,26746,26497
CQUADX4,26866,1,26497,26746,26747,26498
CQUADX4,26867,1,26498,26747,26748,26499
CQUADX4,26868,1,26499,26748,26749,26500
CQUADX4,26869,1,26500,26749,26750,26501
CQUADX4,26870,1,26501,26750,26751,26502
CQUADX4,26871,1,26502,26751,26752,26503
CQUADX4,26872,1,26503,26752,26753,26504
CQUADX4,26873,1,26504,26753,26754,26505
CQUADX4,26874,1,26505,26754,26755,26506
CQUADX4,26875,1,26506,26755,26756,26507
CQUADX4,26876,1,26507,26756,26757,26508
CQUADX4,26877,1,26508,26757,26758,26509
CQUADX4,26878,1,26509,26758,26759,26510
CQUADX4,26879,1,26510,26759,26760,26511
CQUADX4,26880,1,26511,26760,26761,26512
CQUADX4,26881,1,26512,26761,26762,26513
CQUADX4,26882,1,26513,26762,26763,26514
CQUADX4,26883,1,26514,26763,26764,26515
CQUADX4,26884,1,26515,26764,26765,26516
CQUADX4,26885,1,26516,26765,26766,26517
CQUADX4,26886,1,26517,26766,26767,26518
CQUADX4,26887,1,26518,26767,26768,26519
CQUADX4,26888,1,26519,26768,26769,26520
CQUADX4,26889,1,26520,26769,26770,26521
CQUADX4,26890,1,26521,26770,26771,26522
CQUADX4,26891,1,26522,26771,26772,26523
CQUADX4,26892,1,26523,26772,26773,26524
CQUADX4,26893,1,26524,26773,26774,26525
CQUADX4,26894,1,26525,26774,26775,26526
CQUADX4,26895,1,26526,26775,26776,26527
CQUADX4,26896,1,26527,26776,26777,26528
CQUADX4,26897,1,26529,26778,26779,26530
CQUADX4,26898,1,26530,26779,26780,26531
CQUADX4,26899,1,26531,26780,26781,26532
CQUADX4,26900,1,26532,26781,26782,26533
CQUADX4,26901,1,26533,26782,26783,26534
CQUADX4,26902,1,26534,26783,26784,26535
CQUADX4,26903,1,26535,26784,26785,26536
CQUADX4,26904,1,26536,26785,26786,26537
CQUADX4,26905,1,26537,26786,26787,26538
CQUADX4,26906,1,26538,26787,26788,26539
CQUADX4,26907,1,26539,26788,26789,26540
CQUADX4,26908,1,26540,26789,26790,26541
CQUADX4,26909,1,26541,26790,26791,26542
CQUADX4,26910,1,26542,26791,26792,26543
CQUADX4,26911,1,26543,26792,26793,26544
CQUADX4,26912,1,26544,26793,26794,26545
CQUADX4,26913,1,26545,26794,26795,26546
CQUADX4,26914,1,26546,26795,26796,26547
CQUADX4,26915,1,26547,26796,26797,26548
CQUADX4,26916,1,26548,26797,26798,26549
CQUADX4,26917,1,26549,26798,26799,26550
CQUADX4,26918,1,26550,26799,26800,26551
CQUADX4,26919,1,26551,26800,26801,26552
CQUADX4,26920,1,26552,26801,26802,26553
CQUADX4,26921,1,26553,26802,26803,26554
CQUADX4,26922,1,26554,26803,26804,26555
CQUADX4,26923,1,26555,26804,26805,26556
CQUADX4,26924,1,26556,26805,26806,26557
CQUADX4,26925,1,26557,26806,26807,26558
CQUADX4,26926,1,26558,26807,26808,26559
CQUADX4,26927,1,26559,26808,26809,26560
CQUADX4,26928,1,26560,26809,26810,26561
CQUADX4,26929,1,26561,26810,26811,26562
CQUADX4,26930,1,26562,26811,26812,26563
CQUADX4,26931,1,26563,26812,26813,26564
CQUADX4,26932,1,26564,26813,26814,26565
CQUADX4,26933,1,26565,26814,26815,26566
CQUADX4,26934,1,26566,26815,26816,26567
CQUADX4,26935,1,26567,26816,26817,26568
CQUADX4,26936,1,26568,26817,26818,26569
CQUADX4,26937,1,26569,26818,26819,26570
CQUADX4,26938,1,26570,26819,26820,26571
CQUADX4,26939,1,26571,26820,26821,26572
CQUADX4,26940,1,26572,26821,26822,26573
CQUADX4,26941,1,26573,26822,26823,26574
CQUADX4,26942,1,26574,26823,26824,26575
CQUADX4,26943,1,26575,26824,26825,26576
CQUADX4,26944,1,26576,26825,26826,26577
CQUADX4,26945,1,26577,26826,26827,26578
CQUADX4,26946,1,26578,26827,26828,26579
CQUADX4,26947,1,26579,26828,26829,26580
CQUADX4,26948,1,26580,26829,26830,26581
CQUADX4,26949,1,26581,26830,26831,26582
CQUADX4,26950,1,26582,26831,26832,26583
CQUADX4,26951,1,26583,26832,26833,26584
CQUADX4,26952,1,26584,26833,26834,26585
CQUADX4,26953,1,26585,26834,26835,26586
CQUADX4,26954,1,26586,26835,26836,26587
CQUADX4,26955,1,26587,26836,26837,26588
CQUADX4,26956,1,26588,26837,26838,26589
CQUADX4,26957,1,26589,26838,26839,26590
CQUADX4,26958,1,26590,26839,26840,26591
CQUADX4,26959,1,26591,26840,26841,26592
CQUADX4,26960,1,26592,26841,26842,26593
CQUADX4,26961,1,26593,26842,26843,26594
CQUADX4,26962,1,26594,26843,26844,26595
CQUADX4,26963,1,26595,26844,26845,26596
CQUADX4,26964,1,26596,26845,26846,26597
CQUADX4,26965,1,26597,26846,26847,26598
CQUADX4,26966,1,26598,26847,26848,26599
CQUADX4,26967,1,26599,26848,26849,26600
CQUADX4,26968,1,26600,26849,26850,26601
CQUADX4,26969,1,26601,26850,26851,26602
CQUADX4,26970,1,26602,26851,26852,26603
CQUADX4,26971,1,26603,26852,26853,26604
CQUADX4,26972,1,26604,26853,26854,26605
CQUADX4,26973,1,26605,26854,26855,26606
CQUADX4,26974,1,26606,26855,26856,26607
CQUADX4,26975,1,26607,26856,26857,26608
CQUADX4,26976,1,26608,26857,26858,26609
CQUADX4,26977,1,26609,26858,26859,26610
CQUADX4,26978,1,26610,26859,26860,26611
CQUADX4,26979,1,26611,26860,26861,26612
CQUADX4,26980,1,26612,26861,26862,26613
CQUADX4,26981,1,26613,26862,26863,26614
CQUADX4,26982,1,26614,26863,26864,26615
CQUADX4,26983,1,26615,26864,26865,26616
CQUADX4,26984,1,26616,26865,26866,26617
CQUADX4,26985,1,26617,26866,26867,26618
CQUADX4,26986,1,26618,26867,26868,26619
CQUADX4,26987,1,26619,26868,26869,26620
CQUADX4,26988,1,26620,26869,26870,26621
CQUADX4,26989,1,26621,26870,26871,26622
CQUADX4,26990,1,26622,26871,26872,26623
CQUADX4,26991,1,26623,26872,26873,26624
CQUADX4,26992,1,26624,26873,26874,26625
CQUADX4,26993,1,26625,26874,26875,26626
CQUADX4,26994,1,26626,26875,26876,26627
CQUADX4,26995,1,26627,26876,26877,26628
CQUADX4,26996,1,26628,26877,26878,26629
CQUADX4,26997,1,26629,26878,26879,26630
CQUADX4,26998,1,26630,26879,26880,26631
CQUADX4,26999,1,26631,26880,26881,26632
CQUADX4,27000,1,26632,26881,26882,26633
CQUADX4,27001,1,26633,26882,26883,26634
CQUADX4,27002,1,26634,26883,26884,26635
CQUADX4,27003,1,26635,26884,26885,26636
CQUADX4,27004,1,26636,26885,26886,26637
CQUADX4,27005,1,26637,26886,26887,26638
CQUADX4,27006,1,26638,26887,26888,26639
CQUADX4,27007,1,26639,26888,26889,26640
CQUADX4,27008,1,26640,26889,26890,26641
CQUADX4,27009,1,26641,26890,26891,26642
CQUADX4,27010,1,26642,26891,26892,26643
CQUADX4,27011,1,26643,26892,26893,26644
CQUADX4,27012,1,26644,26893,26894,26645
CQUADX4,27013,1,26645,26894,26895,26646
CQUADX4,27014,1,26646,26895,26896,26647
CQUADX4,27015,1,26647,26896,26897,26648
CQUADX4,27016,1,26648,26897,26898,26649
CQUADX4,27017,1,26649,26898,26899,26650
CQUADX4,27018,1,26650,26899,26900,26651
CQUADX4,27019,1,26651,26900,26901,26652
CQUADX4,27020,1,26652,26901,26902,26653
CQUADX4,27021,1,26653,26902,26903,26654
CQUADX4,27022,1,26654,26903,26904,26655
CQUADX4,27023,1,26655,26904,26905,26656
CQUADX4,27024,1,26656,26905,26906,26657
CQUADX4,27025,1,26657,26906,26907,26658
CQUADX4,27026,1,26658,26907,26908,26659
CQUADX4,27027,1,26659,26908,26909,26660
CQUADX4,27028,1,26660,26909,26910,26661
CQUADX4,27029,1,26661,26910,26911,26662
CQUADX4,27030,1,26662,26911,26912,26663
CQUADX4,27031,1,26663,26912,26913,26664
CQUADX4,27032,1,26664,26913,26914,26665
CQUADX4,27033,1,26665,26914,26915,26666
CQUADX4,27034,1,26666,26915,26916,26667
CQUADX4,27035,1,26667,26916,26917,26668
CQUADX4,27036,1,26668,26917,26918,26669
CQUADX4,27037,1,26669,26918,26919,26670
CQUADX4,27038,1,26670,26919,26920,26671
CQUADX4,27039,1,26671,26920,26921,26672
CQUADX4,27040,1,26672,26921,26922,26673
CQUADX4,27041,1,26673,26922,26923,26674
CQUADX4,27042,1,26674,26923,26924,26675
CQUADX4,27043,1,26675,26924,26925,26676
CQUADX4,27044,1,26676,26925,26926,26677
CQUADX4,27045,1,26677,26926,26927,26678
CQUADX4,27046,1,26678,26927,26928,26679
CQUADX4,27047,1,26679,26928,26929,26680
CQUADX4,27048,1,26680,26929,26930,26681
CQUADX4,27049,1,26681,26930,26931,26682
CQUADX4,27050,1,26682,26931,26932,26683
CQUADX4,27051,1,26683,26932,26933,26684
CQUADX4,27052,1,26684,26933,26934,26685
CQUADX4,27053,1,26685,26934,26935,26686
CQUADX4,27054,1,26686,26935,26936,26687
CQUADX4,27055,1,26687,26936,26937,26688
CQUADX4,27056,1,26688,26937,26938,26689
CQUADX4,27057,1,26689,26938,26939,26690
CQUADX4,27058,1,26690,26939,26940,26691
CQUADX4,27059,1,26691,26940,26941,26692
CQUADX4,27060,1,26692,26941,26942,26693
CQUADX4,27061,1,26693,26942,26943,26694
CQUADX4,27062,1,26694,26943,26944,26695
CQUADX4,27063,1,26695,26944,26945,26696
CQUADX4,27064,1,26696,26945,26946,26697
CQUADX4,27065,1,26697,26946,26947,26698
CQUADX4,27066,1,26698,26947,26948,26699
CQUADX4,27067,1,26699,26948,26949,26700
CQUADX4,27068,1,26700,26949,26950,26701
CQUADX4,27069,1,26701,26950,26951,26702
CQUADX4,27070,1,26702,26951,26952,26703
CQUADX4,27071,1,26703,26952,26953,26704
CQUADX4,27072,1,26704,26953,26954,26705
CQUADX4,27073,1,26705,26954,26955,26706
CQUADX4,27074,1,26706,26955,26956,26707
CQUADX4,27075,1,26707,26956,26957,26708
CQUADX4,27076,1,26708,26957,26958,26709
CQUADX4,27077,1,26709,26958,26959,26710
CQUADX4,27078,1,26710,26959,26960,26711
CQUADX4,27079,1,26711,26960,26961,26712
CQUADX4,27080,1,26712,26961,26962,26713
CQUADX4,27081,1,26713,26962,26963,26714
CQUADX4,27082,1,26714,26963,26964,26715
CQUADX4,27083,1,26715,26964,26965,26716
CQUADX4,27084,1,26716,26965,26966,26717
CQUADX4,27085,1,26717,26966,26967,26718
CQUADX4,27086,1,26718,26967,26968,26719
CQUADX4,27087,1,26719,26968,26969,26720
CQUADX4,27088,1,26720,26969,26970,26721
CQUADX4,27089,1,26721,26970,26971,26722
CQUADX4,27090,1,26722,26971,26972,26723
CQUADX4,27091,1,26723,26972,26973,26724
CQUADX4,27092,1,26724,26973,26974,26725
CQUADX4,27093,1,26725,26974,26975,26726
CQUADX4,27094,1,26726,26975,26976,26727
CQUADX4,27095,1,26727,26976,26977,26728
CQUADX4,27096,1,26728,26977,26978,26729
CQUADX4,27097,1,26729,26978,26979,26730
CQUADX4,27098,1,26730,26979,26980,26731
CQUADX4,27099,1,26731,26980,26981,26732
CQUADX4,27100,1,26732,26981,26982,26733
CQUADX4,27101,1,26733,26982,26983,26734
CQUADX4,27102,1,26734,26983,26984,26735
CQUADX4,27103,1,26735,26984,26985,26736
CQUADX4,27104,1,26736,26985,26986,26737
CQUADX4,27105,1,26737,26986,26987,26738
CQUADX4,27106,1,26738,26987,26988,26739
CQUADX4,27107,1,26739,26988,26989,26740
CQUADX4,27108,1,26740,26989,26990,26741
CQUADX4,27109,1,26741,26990,26991,26742
CQUADX4,27110,1,26742,26991,26992,26743
CQUADX4,27111,1,26743,26992,26993,26744
CQUADX4,27112,1,26744,26993,26994,26745
CQUADX4,27113,1,26745,26994,26995,26746
CQUADX4,27114,1,26746,26995,26996,26747
CQUADX4,27115,1,26747,26996,26997,26748
CQUADX4,27116,1,26748,26997,26998,26749
CQUADX4,27117,1,26749,26998,26999,26750
CQUADX4,27118,1,26750,26999,27000,26751
CQUADX4,27119,1,26751,27000,27001,26752
CQUADX4,27120,1,26752,27001,27002,26753
CQUADX4,27121,1,26753,27002,27003,26754
CQUADX4,27122,1,26754,27003,27004,26755
CQUADX4,27123,1,26755,27004,27005,26756
CQUADX4,27124,1,26756,27005,27006,26757
CQUADX4,27125,1,26757,27006,27007,26758
CQUADX4,27126,1,26758,27007,27008,26759
CQUADX4,27127,1,26759,27008,27009,26760
CQUADX4,27128,1,26760,27009,27010,26761
CQUADX4,27129,1,26761,27010,27011,26762
CQUADX4,27130,1,26762,27011,27012,26763
CQUADX4,27131,1,26763,27012,27013,26764
CQUADX4,27132,1,26764,27013,27014,26765
CQUADX4,27133,1,26765,27014,27015,26766
CQUADX4,27134,1,26766,27015,27016,26767
CQUADX4,27135,1,26767,27016,27017,26768
CQUADX4,27136,1,26768,27017,27018,26769
CQUADX4,27137,1,26769,27018,27019,26770
CQUADX4,27138,1,26770,27019,27020,26771
CQUADX4,27139,1,26771,27020,27021,26772
CQUADX4,27140,1,26772,27021,27022,26773
CQUADX4,27141,1,26773,27022,27023,26774
CQUADX4,27142,1,26774,27023,27024,26775
CQUADX4,27143,1,26775,27024,27025,26776
CQUADX4,27144,1,26776,27025,27026,26777
CQUADX4,27145,1,26778,27027,27028,26779
CQUADX4,27146,1,26779,27028,27029,26780
CQUADX4,27147,1,26780,27029,27030,26781
CQUADX4,27148,1,26781,27030,27031,26782
CQUADX4,27149,1,26782,27031,27032,26783
CQUADX4,27150,1,26783,27032,27033,26784
CQUADX4,27151,1,26784,27033,27034,26785
CQUADX4,27152,1,26785,27034,27035,26786
CQUADX4,27153,1,26786,27035,27036,26787
CQUADX4,27154,1,26787,27036,27037,26788
CQUADX4,27155,1,26788,27037,27038,26789
CQUADX4,27156,1,26789,27038,27039,26790
CQUADX4,27157,1,26790,27039,27040,26791
CQUADX4,27158,1,26791,27040,27041,26792
CQUADX4,27159,1,26792,27041,27042,26793
CQUADX4,27160,1,26793,27042,27043,26794
CQUADX4,27161,1,26794,27043,27044,26795
CQUADX4,27162,1,26795,27044,27045,26796
CQUADX4,27163,1,26796,27045,27046,26797
CQUADX4,27164,1,26797,27046,27047,26798
CQUADX4,27165,1,26798,27047,27048,26799
CQUADX4,27166,1,26799,27048,27049,26800
CQUADX4,27167,1,26800,27049,27050,26801
CQUADX4,27168,1,26801,27050,27051,26802
CQUADX4,27169,1,26802,27051,27052,26803
CQUADX4,27170,1,26803,27052,27053,26804
CQUADX4,27171,1,26804,27053,27054,26805
CQUADX4,27172,1,26805,27054,27055,26806
CQUADX4,27173,1,26806,27055,27056,26807
CQUADX4,27174,1,26807,27056,27057,26808
CQUADX4,27175,1,26808,27057,27058,26809
CQUADX4,27176,1,26809,27058,27059,26810
CQUADX4,27177,1,26810,27059,27060,26811
CQUADX4,27178,1,26811,27060,27061,26812
CQUADX4,27179,1,26812,27061,27062,26813
CQUADX4,27180,1,26813,27062,27063,26814
CQUADX4,27181,1,26814,27063,27064,26815
CQUADX4,27182,1,26815,27064,27065,26816
CQUADX4,27183,1,26816,27065,27066,26817
CQUADX4,27184,1,26817,27066,27067,26818
CQUADX4,27185,1,26818,27067,27068,26819
CQUADX4,27186,1,26819,27068,27069,26820
CQUADX4,27187,1,26820,27069,27070,26821
CQUADX4,27188,1,26821,27070,27071,26822
CQUADX4,27189,1,26822,27071,27072,26823
CQUADX4,27190,1,26823,27072,27073,26824
CQUADX4,27191,1,26824,27073,27074,26825
CQUADX4,27192,1,26825,27074,27075,26826
CQUADX4,27193,1,26826,27075,27076,26827
CQUADX4,27194,1,26827,27076,27077,26828
CQUADX4,27195,1,26828,27077,27078,26829
CQUADX4,27196,1,26829,27078,27079,26830
CQUADX4,27197,1,26830,27079,27080,26831
CQUADX4,27198,1,26831,27080,27081,26832
CQUADX4,27199,1,26832,27081,27082,26833
CQUADX4,27200,1,26833,27082,27083,26834
CQUADX4,27201,1,26834,27083,27084,26835
CQUADX4,27202,1,26835,27084,27085,26836
CQUADX4,27203,1,26836,27085,27086,26837
CQUADX4,27204,1,26837,27086,27087,26838
CQUADX4,27205,1,26838,27087,27088,26839
CQUADX4,27206,1,26839,27088,27089,26840
CQUADX4,27207,1,26840,27089,27090,26841
CQUADX4,27208,1,26841,27090,27091,26842
CQUADX4,27209,1,26842,27091,27092,26843
CQUADX4,27210,1,26843,27092,27093,26844
CQUADX4,27211,1,26844,27093,27094,26845
CQUADX4,27212,1,26845,27094,27095,26846
CQUADX4,27213,1,26846,27095,27096,26847
CQUADX4,27214,1,26847,27096,27097,26848
CQUADX4,27215,1,26848,27097,27098,26849
CQUADX4,27216,1,26849,27098,27099,26850
CQUADX4,27217,1,26850,27099,27100,26851
CQUADX4,27218,1,26851,27100,27101,26852
CQUADX4,27219,1,26852,27101,27102,26853
CQUADX4,27220,1,26853,27102,27103,26854
CQUADX4,27221,1,26854,27103,27104,26855
CQUADX4,27222,1,26855,27104,27105,26856
CQUADX4,27223,1,26856,27105,27106,26857
CQUADX4,27224,1,26857,27106,27107,26858
CQUADX4,27225,1,26858,27107,27108,26859
CQUADX4,27226,1,26859,27108,27109,26860
CQUADX4,27227,1,26860,27109,27110,26861
CQUADX4,27228,1,26861,27110,27111,26862
CQUADX4,27229,1,26862,27111,27112,26863
CQUADX4,27230,1,26863,27112,27113,26864
CQUADX4,27231,1,26864,27113,27114,26865
CQUADX4,27232,1,26865,27114,27115,26866
CQUADX4,27233,1,26866,27115,27116,26867
CQUADX4,27234,1,26867,27116,27117,26868
CQUADX4,27235,1,26868,27117,27118,26869
CQUADX4,27236,1,26869,27118,27119,26870
CQUADX4,27237,1,26870,27119,27120,26871
CQUADX4,27238,1,26871,27120,27121,26872
CQUADX4,27239,1,26872,27121,27122,26873
CQUADX4,27240,1,26873,27122,27123,26874
CQUADX4,27241,1,26874,27123,27124,26875
CQUADX4,27242,1,26875,27124,27125,26876
CQUADX4,27243,1,26876,27125,27126,26877
CQUADX4,27244,1,26877,27126,27127,26878
CQUADX4,27245,1,26878,27127,27128,26879
CQUADX4,27246,1,26879,27128,27129,26880
CQUADX4,27247,1,26880,27129,27130,26881
CQUADX4,27248,1,26881,27130,27131,26882
CQUADX4,27249,1,26882,27131,27132,26883
CQUADX4,27250,1,26883,27132,27133,26884
CQUADX4,27251,1,26884,27133,27134,26885
CQUADX4,27252,1,26885,27134,27135,26886
CQUADX4,27253,1,26886,27135,27136,26887
CQUADX4,27254,1,26887,27136,27137,26888
CQUADX4,27255,1,26888,27137,27138,26889
CQUADX4,27256,1,26889,27138,27139,26890
CQUADX4,27257,1,26890,27139,27140,26891
CQUADX4,27258,1,26891,27140,27141,26892
CQUADX4,27259,1,26892,27141,27142,26893
CQUADX4,27260,1,26893,27142,27143,26894
CQUADX4,27261,1,26894,27143,27144,26895
CQUADX4,27262,1,26895,27144,27145,26896
CQUADX4,27263,1,26896,27145,27146,26897
CQUADX4,27264,1,26897,27146,27147,26898
CQUADX4,27265,1,26898,27147,27148,26899
CQUADX4,27266,1,26899,27148,27149,26900
CQUADX4,27267,1,26900,27149,27150,26901
CQUADX4,27268,1,26901,27150,27151,26902
CQUADX4,27269,1,26902,27151,27152,26903
CQUADX4,27270,1,26903,27152,27153,26904
CQUADX4,27271,1,26904,27153,27154,26905
CQUADX4,27272,1,26905,27154,27155,26906
CQUADX4,27273,1,26906,27155,27156,26907
CQUADX4,27274,1,26907,27156,27157,26908
CQUADX4,27275,1,26908,27157,27158,26909
CQUADX4,27276,1,26909,27158,27159,26910
CQUADX4,27277,1,26910,27159,27160,26911
CQUADX4,27278,1,26911,27160,27161,26912
CQUADX4,27279,1,26912,27161,27162,26913
CQUADX4,27280,1,26913,27162,27163,26914
CQUADX4,27281,1,26914,27163,27164,26915
CQUADX4,27282,1,26915,27164,27165,26916
CQUADX4,27283,1,26916,27165,27166,26917
CQUADX4,27284,1,26917,27166,27167,26918
CQUADX4,27285,1,26918,27167,27168,26919
CQUADX4,27286,1,26919,27168,27169,26920
CQUADX4,27287,1,26920,27169,27170,26921
CQUADX4,27288,1,26921,27170,27171,26922
CQUADX4,27289,1,26922,27171,27172,26923
CQUADX4,27290,1,26923,27172,27173,26924
CQUADX4,27291,1,26924,27173,27174,26925
CQUADX4,27292,1,26925,27174,27175,26926
CQUADX4,27293,1,26926,27175,27176,26927
CQUADX4,27294,1,26927,27176,27177,26928
CQUADX4,27295,1,26928,27177,27178,26929
CQUADX4,27296,1,26929,27178,27179,26930
CQUADX4,27297,1,26930,27179,27180,26931
CQUADX4,27298,1,26931,27180,27181,26932
CQUADX4,27299,1,26932,27181,27182,26933
CQUADX4,27300,1,26933,27182,27183,26934
CQUADX4,27301,1,26934,27183,27184,26935
CQUADX4,27302,1,26935,27184,27185,26936
CQUADX4,27303,1,26936,27185,27186,26937
CQUADX4,27304,1,26937,27186,27187,26938
CQUADX4,27305,1,26938,27187,27188,26939
CQUADX4,27306,1,26939,27188,27189,26940
CQUADX4,27307,1,26940,27189,27190,26941
CQUADX4,27308,1,26941,27190,27191,26942
CQUADX4,27309,1,26942,27191,27192,26943
CQUADX4,27310,1,26943,27192,27193,26944
CQUADX4,27311,1,26944,27193,27194,26945
CQUADX4,27312,1,26945,27194,27195,26946
CQUADX4,27313,1,26946,27195,27196,26947
CQUADX4,27314,1,26947,27196,27197,26948
CQUADX4,27315,1,26948,27197,27198,26949
CQUADX4,27316,1,26949,27198,27199,26950
CQUADX4,27317,1,26950,27199,27200,26951
CQUADX4,27318,1,26951,27200,27201,26952
CQUADX4,27319,1,26952,27201,27202,26953
CQUADX4,27320,1,26953,27202,27203,26954
CQUADX4,27321,1,26954,27203,27204,26955
CQUADX4,27322,1,26955,27204,27205,26956
CQUADX4,27323,1,26956,27205,27206,26957
CQUADX4,27324,1,26957,27206,27207,26958
CQUADX4,27325,1,26958,27207,27208,26959
CQUADX4,27326,1,26959,27208,27209,26960
CQUADX4,27327,1,26960,27209,27210,26961
CQUADX4,27328,1,26961,27210,27211,26962
CQUADX4,27329,1,26962,27211,27212,26963
CQUADX4,27330,1,26963,27212,27213,26964
CQUADX4,27331,1,26964,27213,27214,26965
CQUADX4,27332,1,26965,27214,27215,26966
CQUADX4,27333,1,26966,27215,27216,26967
CQUADX4,27334,1,26967,27216,27217,26968
CQUADX4,27335,1,26968,27217,27218,26969
CQUADX4,27336,1,26969,27218,27219,26970
CQUADX4,27337,1,26970,27219,27220,26971
CQUADX4,27338,1,26971,27220,27221,26972
CQUADX4,27339,1,26972,27221,27222,26973
CQUADX4,27340,1,26973,27222,27223,26974
CQUADX4,27341,1,26974,27223,27224,26975
CQUADX4,27342,1,26975,27224,27225,26976
CQUADX4,27343,1,26976,27225,27226,26977
CQUADX4,27344,1,26977,27226,27227,26978
CQUADX4,27345,1,26978,27227,27228,26979
CQUADX4,27346,1,26979,27228,27229,26980
CQUADX4,27347,1,26980,27229,27230,26981
CQUADX4,27348,1,26981,27230,27231,26982
CQUADX4,27349,1,26982,27231,27232,26983
CQUADX4,27350,1,26983,27232,27233,26984
CQUADX4,27351,1,26984,27233,27234,26985
CQUADX4,27352,1,26985,27234,27235,26986
CQUADX4,27353,1,26986,27235,27236,26987
CQUADX4,27354,1,26987,27236,27237,26988
CQUADX4,27355,1,26988,27237,27238,26989
CQUADX4,27356,1,26989,27238,27239,26990
CQUADX4,27357,1,26990,27239,27240,26991
CQUADX4,27358,1,26991,27240,27241,26992
CQUADX4,27359,1,26992,27241,27242,26993
CQUADX4,27360,1,26993,27242,27243,26994
CQUADX4,27361,1,26994,27243,27244,26995
CQUADX4,27362,1,26995,27244,27245,26996
CQUADX4,27363,1,26996,27245,27246,26997
CQUADX4,27364,1,26997,27246,27247,26998
CQUADX4,27365,1,26998,27247,27248,26999
CQUADX4,27366,1,26999,27248,27249,27000
CQUADX4,27367,1,27000,27249,27250,27001
CQUADX4,27368,1,27001,27250,27251,27002
CQUADX4,27369,1,27002,27251,27252,27003
CQUADX4,27370,1,27003,27252,27253,27004
CQUADX4,27371,1,27004,27253,27254,27005
CQUADX4,27372,1,27005,27254,27255,27006
CQUADX4,27373,1,27006,27255,27256,27007
CQUADX4,27374,1,27007,27256,27257,27008
CQUADX4,27375,1,27008,27257,27258,27009
CQUADX4,27376,1,27009,27258,27259,27010
CQUADX4,27377,1,27010,27259,27260,27011
CQUADX4,27378,1,27011,27260,27261,27012
CQUADX4,27379,1,27012,27261,27262,27013
CQUADX4,27380,1,27013,27262,27263,27014
CQUADX4,27381,1,27014,27263,27264,27015
CQUADX4,27382,1,27015,27264,27265,27016
CQUADX4,27383,1,27016,27265,27266,27017
CQUADX4,27384,1,27017,27266,27267,27018
CQUADX4,27385,1,27018,27267,27268,27019
CQUADX4,27386,1,27019,27268,27269,27020
CQUADX4,27387,1,27020,27269,27270,27021
CQUADX4,27388,1,27021,27270,27271,27022
CQUADX4,27389,1,27022,27271,27272,27023
CQUADX4,27390,1,27023,27272,27273,27024
CQUADX4,27391,1,27024,27273,27274,27025
CQUADX4,27392,1,27025,27274,27275,27026
CQUADX4,27393,1,27027,27276,27277,27028
CQUADX4,27394,1,27028,27277,27278,27029
CQUADX4,27395,1,27029,27278,27279,27030
CQUADX4,27396,1,27030,27279,27280,27031
CQUADX4,27397,1,27031,27280,27281,27032
CQUADX4,27398,1,27032,27281,27282,27033
CQUADX4,27399,1,27033,27282,27283,27034
CQUADX4,27400,1,27034,27283,27284,27035
CQUADX4,27401,1,27035,27284,27285,27036
CQUADX4,27402,1,27036,27285,27286,27037
CQUADX4,27403,1,27037,27286,27287,27038
CQUADX4,27404,1,27038,27287,27288,27039
CQUADX4,27405,1,27039,27288,27289,27040
CQUADX4,27406,1,27040,27289,27290,27041
CQUADX4,27407,1,27041,27290,27291,27042
CQUADX4,27408,1,27042,27291,27292,27043
CQUADX4,27409,1,27043,27292,27293,27044
CQUADX4,27410,1,27044,27293,27294,27045
CQUADX4,27411,1,27045,27294,27295,27046
CQUADX4,27412,1,27046,27295,27296,27047
CQUADX4,27413,1,27047,27296,27297,27048
CQUADX4,27414,1,27048,27297,27298,27049
CQUADX4,27415,1,27049,27298,27299,27050
CQUADX4,27416,1,27050,27299,27300,27051
CQUADX4,27417,1,27051,27300,27301,27052
CQUADX4,27418,1,27052,27301,27302,27053
CQUADX4,27419,1,27053,27302,27303,27054
CQUADX4,27420,1,27054,27303,27304,27055
CQUADX4,27421,1,27055,27304,27305,27056
CQUADX4,27422,1,27056,27305,27306,27057
CQUADX4,27423,1,27057,27306,27307,27058
CQUADX4,27424,1,27058,27307,27308,27059
CQUADX4,27425,1,27059,27308,27309,27060
CQUADX4,27426,1,27060,27309,27310,27061
CQUADX4,27427,1,27061,27310,27311,27062
CQUADX4,27428,1,27062,27311,27312,27063
CQUADX4,27429,1,27063,27312,27313,27064
CQUADX4,27430,1,27064,27313,27314,27065
CQUADX4,27431,1,27065,27314,27315,27066
CQUADX4,27432,1,27066,27315,27316,27067
CQUADX4,27433,1,27067,27316,27317,27068
CQUADX4,27434,1,27068,27317,27318,27069
CQUADX4,27435,1,27069,27318,27319,27070
CQUADX4,27436,1,27070,27319,27320,27071
CQUADX4,27437,1,27071,27320,27321,27072
CQUADX4,27438,1,27072,27321,27322,27073
CQUADX4,27439,1,27073,27322,27323,27074
CQUADX4,27440,1,27074,27323,27324,27075
CQUADX4,27441,1,27075,27324,27325,27076
CQUADX4,27442,1,27076,27325,27326,27077
CQUADX4,27443,1,27077,27326,27327,27078
CQUADX4,27444,1,27078,27327,27328,27079
CQUADX4,27445,1,27079,27328,27329,27080
CQUADX4,27446,1,27080,27329,27330,27081
CQUADX4,27447,1,27081,27330,27331,27082
CQUADX4,27448,1,27082,27331,27332,27083
CQUADX4,27449,1,27083,27332,27333,27084
CQUADX4,27450,1,27084,27333,27334,27085
CQUADX4,27451,1,27085,27334,27335,27086
CQUADX4,27452,1,27086,27335,27336,27087
CQUADX4,27453,1,27087,27336,27337,27088
CQUADX4,27454,1,27088,27337,27338,27089
CQUADX4,27455,1,27089,27338,27339,27090
CQUADX4,27456,1,27090,27339,27340,27091
CQUADX4,27457,1,27091,27340,27341,27092
CQUADX4,27458,1,27092,27341,27342,27093
CQUADX4,27459,1,27093,27342,27343,27094
CQUADX4,27460,1,27094,27343,27344,27095
CQUADX4,27461,1,27095,27344,27345,27096
CQUADX4,27462,1,27096,27345,27346,27097
CQUADX4,27463,1,27097,27346,27347,27098
CQUADX4,27464,1,27098,27347,27348,27099
CQUADX4,27465,1,27099,27348,27349,27100
CQUADX4,27466,1,27100,27349,27350,27101
CQUADX4,27467,1,27101,27350,27351,27102
CQUADX4,27468,1,27102,27351,27352,27103
CQUADX4,27469,1,27103,27352,27353,27104
CQUADX4,27470,1,27104,27353,27354,27105
CQUADX4,27471,1,27105,27354,27355,27106
CQUADX4,27472,1,27106,27355,27356,27107
CQUADX4,27473,1,27107,27356,27357,27108
CQUADX4,27474,1,27108,27357,27358,27109
CQUADX4,27475,1,27109,27358,27359,27110
CQUADX4,27476,1,27110,27359,27360,27111
CQUADX4,27477,1,27111,27360,27361,27112
CQUADX4,27478,1,27112,27361,27362,27113
CQUADX4,27479,1,27113,27362,27363,27114
CQUADX4,27480,1,27114,27363,27364,27115
CQUADX4,27481,1,27115,27364,27365,27116
CQUADX4,27482,1,27116,27365,27366,27117
CQUADX4,27483,1,27117,27366,27367,27118
CQUADX4,27484,1,27118,27367,27368,27119
CQUADX4,27485,1,27119,27368,27369,27120
CQUADX4,27486,1,27120,27369,27370,27121
CQUADX4,27487,1,27121,27370,27371,27122
CQUADX4,27488,1,27122,27371,27372,27123
CQUADX4,27489,1,27123,27372,27373,27124
CQUADX4,27490,1,27124,27373,27374,27125
CQUADX4,27491,1,27125,27374,27375,27126
CQUADX4,27492,1,27126,27375,27376,27127
CQUADX4,27493,1,27127,27376,27377,27128
CQUADX4,27494,1,27128,27377,27378,27129
CQUADX4,27495,1,27129,27378,27379,27130
CQUADX4,27496,1,27130,27379,27380,27131
CQUADX4,27497,1,27131,27380,27381,27132
CQUADX4,27498,1,27132,27381,27382,27133
CQUADX4,27499,1,27133,27382,27383,27134
CQUADX4,27500,1,27134,27383,27384,27135
CQUADX4,27501,1,27135,27384,27385,27136
CQUADX4,27502,1,27136,27385,27386,27137
CQUADX4,27503,1,27137,27386,27387,27138
CQUADX4,27504,1,27138,27387,27388,27139
CQUADX4,27505,1,27139,27388,27389,27140
CQUADX4,27506,1,27140,27389,27390,27141
CQUADX4,27507,1,27141,27390,27391,27142
CQUADX4,27508,1,27142,27391,27392,27143
CQUADX4,27509,1,27143,27392,27393,27144
CQUADX4,27510,1,27144,27393,27394,27145
CQUADX4,27511,1,27145,27394,27395,27146
CQUADX4,27512,1,27146,27395,27396,27147
CQUADX4,27513,1,27147,27396,27397,27148
CQUADX4,27514,1,27148,27397,27398,27149
CQUADX4,27515,1,27149,27398,27399,27150
CQUADX4,27516,1,27150,27399,27400,27151
CQUADX4,27517,1,27151,27400,27401,27152
CQUADX4,27518,1,27152,27401,27402,27153
CQUADX4,27519,1,27153,27402,27403,27154
CQUADX4,27520,1,27154,27403,27404,27155
CQUADX4,27521,1,27155,27404,27405,27156
CQUADX4,27522,1,27156,27405,27406,27157
CQUADX4,27523,1,27157,27406,27407,27158
CQUADX4,27524,1,27158,27407,27408,27159
CQUADX4,27525,1,27159,27408,27409,27160
CQUADX4,27526,1,27160,27409,27410,27161
CQUADX4,27527,1,27161,27410,27411,27162
CQUADX4,27528,1,27162,27411,27412,27163
CQUADX4,27529,1,27163,27412,27413,27164
CQUADX4,27530,1,27164,27413,27414,27165
CQUADX4,27531,1,27165,27414,27415,27166
CQUADX4,27532,1,27166,27415,27416,27167
CQUADX4,27533,1,27167,27416,27417,27168
CQUADX4,27534,1,27168,27417,27418,27169
CQUADX4,27535,1,27169,27418,27419,27170
CQUADX4,27536,1,27170,27419,27420,27171
CQUADX4,27537,1,27171,27420,27421,27172
CQUADX4,27538,1,27172,27421,27422,27173
CQUADX4,27539,1,27173,27422,27423,27174
CQUADX4,27540,1,27174,27423,27424,27175
CQUADX4,27541,1,27175,27424,27425,27176
CQUADX4,27542,1,27176,27425,27426,27177
CQUADX4,27543,1,27177,27426,27427,27178
CQUADX4,27544,1,27178,27427,27428,27179
CQUADX4,27545,1,27179,27428,27429,27180
CQUADX4,27546,1,27180,27429,27430,27181
CQUADX4,27547,1,27181,27430,27431,27182
CQUADX4,27548,1,27182,27431,27432,27183
CQUADX4,27549,1,27183,27432,27433,27184
CQUADX4,27550,1,27184,27433,27434,27185
CQUADX4,27551,1,27185,27434,27435,27186
CQUADX4,27552,1,27186,27435,27436,27187
CQUADX4,27553,1,27187,27436,27437,27188
CQUADX4,27554,1,27188,27437,27438,27189
CQUADX4,27555,1,27189,27438,27439,27190
CQUADX4,27556,1,27190,27439,27440,27191
CQUADX4,27557,1,27191,27440,27441,27192
CQUADX4,27558,1,27192,27441,27442,27193
CQUADX4,27559,1,27193,27442,27443,27194
CQUADX4,27560,1,27194,27443,27444,27195
CQUADX4,27561,1,27195,27444,27445,27196
CQUADX4,27562,1,27196,27445,27446,27197
CQUADX4,27563,1,27197,27446,27447,27198
CQUADX4,27564,1,27198,27447,27448,27199
CQUADX4,27565,1,27199,27448,27449,27200
CQUADX4,27566,1,27200,27449,27450,27201
CQUADX4,27567,1,27201,27450,27451,27202
CQUADX4,27568,1,27202,27451,27452,27203
CQUADX4,27569,1,27203,27452,27453,27204
CQUADX4,27570,1,27204,27453,27454,27205
CQUADX4,27571,1,27205,27454,27455,27206
CQUADX4,27572,1,27206,27455,27456,27207
CQUADX4,27573,1,27207,27456,27457,27208
CQUADX4,27574,1,27208,27457,27458,27209
CQUADX4,27575,1,27209,27458,27459,27210
CQUADX4,27576,1,27210,27459,27460,27211
CQUADX4,27577,1,27211,27460,27461,27212
CQUADX4,27578,1,27212,27461,27462,27213
CQUADX4,27579,1,27213,27462,27463,27214
CQUADX4,27580,1,27214,27463,27464,27215
CQUADX4,27581,1,27215,27464,27465,27216
CQUADX4,27582,1,27216,27465,27466,27217
CQUADX4,27583,1,27217,27466,27467,27218
CQUADX4,27584,1,27218,27467,27468,27219
CQUADX4,27585,1,27219,27468,27469,27220
CQUADX4,27586,1,27220,27469,27470,27221
CQUADX4,27587,1,27221,27470,27471,27222
CQUADX4,27588,1,27222,27471,27472,27223
CQUADX4,27589,1,27223,27472,27473,27224
CQUADX4,27590,1,27224,27473,27474,27225
CQUADX4,27591,1,27225,27474,27475,27226
CQUADX4,27592,1,27226,27475,27476,27227
CQUADX4,27593,1,27227,27476,27477,27228
CQUADX4,27594,1,27228,27477,27478,27229
CQUADX4,27595,1,27229,27478,27479,27230
CQUADX4,27596,1,27230,27479,27480,27231
CQUADX4,27597,1,27231,27480,27481,27232
CQUADX4,27598,1,27232,27481,27482,27233
CQUADX4,27599,1,27233,27482,27483,27234
CQUADX4,27600,1,27234,27483,27484,27235
CQUADX4,27601,1,27235,27484,27485,27236
CQUADX4,27602,1,27236,27485,27486,27237
CQUADX4,27603,1,27237,27486,27487,27238
CQUADX4,27604,1,27238,27487,27488,27239
CQUADX4,27605,1,27239,27488,27489,27240
CQUADX4,27606,1,27240,27489,27490,27241
CQUADX4,27607,1,27241,27490,27491,27242
CQUADX4,27608,1,27242,27491,27492,27243
CQUADX4,27609,1,27243,27492,27493,27244
CQUADX4,27610,1,27244,27493,27494,27245
CQUADX4,27611,1,27245,27494,27495,27246
CQUADX4,27612,1,27246,27495,27496,27247
CQUADX4,27613,1,27247,27496,27497,27248
CQUADX4,27614,1,27248,27497,27498,27249
CQUADX4,27615,1,27249,27498,27499,27250
CQUADX4,27616,1,27250,27499,27500,27251
CQUADX4,27617,1,27251,27500,27501,27252
CQUADX4,27618,1,27252,27501,27502,27253
CQUADX4,27619,1,27253,27502,27503,27254
CQUADX4,27620,1,27254,27503,27504,27255
CQUADX4,27621,1,27255,27504,27505,27256
CQUADX4,27622,1,27256,27505,27506,27257
CQUADX4,27623,1,27257,27506,27507,27258
CQUADX4,27624,1,27258,27507,27508,27259
CQUADX4,27625,1,27259,27508,27509,27260
CQUADX4,27626,1,27260,27509,27510,27261
CQUADX4,27627,1,27261,27510,27511,27262
CQUADX4,27628,1,27262,27511,27512,27263
CQUADX4,27629,1,27263,27512,27513,27264
CQUADX4,27630,1,27264,27513,27514,27265
CQUADX4,27631,1,27265,27514,27515,27266
CQUADX4,27632,1,27266,27515,27516,27267
CQUADX4,27633,1,27267,27516,27517,27268
CQUADX4,27634,1,27268,27517,27518,27269
CQUADX4,27635,1,27269,27518,27519,27270
CQUADX4,27636,1,27270,27519,27520,27271
CQUADX4,27637,1,27271,27520,27521,27272
CQUADX4,27638,1,27272,27521,27522,27273
CQUADX4,27639,1,27273,27522,27523,27274
CQUADX4,27640,1,27274,27523,27524,27275
CQUADX4,27641,1,27276,27525,27526,27277
CQUADX4,27642,1,27277,27526,27527,27278
CQUADX4,27643,1,27278,27527,27528,27279
CQUADX4,27644,1,27279,27528,27529,27280
CQUADX4,27645,1,27280,27529,27530,27281
CQUADX4,27646,1,27281,27530,27531,27282
CQUADX4,27647,1,27282,27531,27532,27283
CQUADX4,27648,1,27283,27532,27533,27284
CQUADX4,27649,1,27284,27533,27534,27285
CQUADX4,27650,1,27285,27534,27535,27286
CQUADX4,27651,1,27286,27535,27536,27287
CQUADX4,27652,1,27287,27536,27537,27288
CQUADX4,27653,1,27288,27537,27538,27289
CQUADX4,27654,1,27289,27538,27539,27290
CQUADX4,27655,1,27290,27539,27540,27291
CQUADX4,27656,1,27291,27540,27541,27292
CQUADX4,27657,1,27292,27541,27542,27293
CQUADX4,27658,1,27293,27542,27543,27294
CQUADX4,27659,1,27294,27543,27544,27295
CQUADX4,27660,1,27295,27544,27545,27296
CQUADX4,27661,1,27296,27545,27546,27297
CQUADX4,27662,1,27297,27546,27547,27298
CQUADX4,27663,1,27298,27547,27548,27299
CQUADX4,27664,1,27299,27548,27549,27300
CQUADX4,27665,1,27300,27549,27550,27301
CQUADX4,27666,1,27301,27550,27551,27302
CQUADX4,27667,1,27302,27551,27552,27303
CQUADX4,27668,1,27303,27552,27553,27304
CQUADX4,27669,1,27304,27553,27554,27305
CQUADX4,27670,1,27305,27554,27555,27306
CQUADX4,27671,1,27306,27555,27556,27307
CQUADX4,27672,1,27307,27556,27557,27308
CQUADX4,27673,1,27308,27557,27558,27309
CQUADX4,27674,1,27309,27558,27559,27310
CQUADX4,27675,1,27310,27559,27560,27311
CQUADX4,27676,1,27311,27560,27561,27312
CQUADX4,27677,1,27312,27561,27562,27313
CQUADX4,27678,1,27313,27562,27563,27314
CQUADX4,27679,1,27314,27563,27564,27315
CQUADX4,27680,1,27315,27564,27565,27316
CQUADX4,27681,1,27316,27565,27566,27317
CQUADX4,27682,1,27317,27566,27567,27318
CQUADX4,27683,1,27318,27567,27568,27319
CQUADX4,27684,1,27319,27568,27569,27320
CQUADX4,27685,1,27320,27569,27570,27321
CQUADX4,27686,1,27321,27570,27571,27322
CQUADX4,27687,1,27322,27571,27572,27323
CQUADX4,27688,1,27323,27572,27573,27324
CQUADX4,27689,1,27324,27573,27574,27325
CQUADX4,27690,1,27325,27574,27575,27326
CQUADX4,27691,1,27326,27575,27576,27327
CQUADX4,27692,1,27327,27576,27577,27328
CQUADX4,27693,1,27328,27577,27578,27329
CQUADX4,27694,1,27329,27578,27579,27330
CQUADX4,27695,1,27330,27579,27580,27331
CQUADX4,27696,1,27331,27580,27581,27332
CQUADX4,27697,1,27332,27581,27582,27333
CQUADX4,27698,1,27333,27582,27583,27334
CQUADX4,27699,1,27334,27583,27584,27335
CQUADX4,27700,1,27335,27584,27585,27336
CQUADX4,27701,1,27336,27585,27586,27337
CQUADX4,27702,1,27337,27586,27587,27338
CQUADX4,27703,1,27338,27587,27588,27339
CQUADX4,27704,1,27339,27588,27589,27340
CQUADX4,27705,1,27340,27589,27590,27341
CQUADX4,27706,1,27341,27590,27591,27342
CQUADX4,27707,1,27342,27591,27592,27343
CQUADX4,27708,1,27343,27592,27593,27344
CQUADX4,27709,1,27344,27593,27594,27345
CQUADX4,27710,1,27345,27594,27595,27346
CQUADX4,27711,1,27346,27595,27596,27347
CQUADX4,27712,1,27347,27596,27597,27348
CQUADX4,27713,1,27348,27597,27598,27349
CQUADX4,27714,1,27349,27598,27599,27350
CQUADX4,27715,1,27350,27599,27600,27351
CQUADX4,27716,1,27351,27600,27601,27352
CQUADX4,27717,1,27352,27601,27602,27353
CQUADX4,27718,1,27353,27602,27603,27354
CQUADX4,27719,1,27354,27603,27604,27355
CQUADX4,27720,1,27355,27604,27605,27356
CQUADX4,27721,1,27356,27605,27606,27357
CQUADX4,27722,1,27357,27606,27607,27358
CQUADX4,27723,1,27358,27607,27608,27359
CQUADX4,27724,1,27359,27608,27609,27360
CQUADX4,27725,1,27360,27609,27610,27361
CQUADX4,27726,1,27361,27610,27611,27362
CQUADX4,27727,1,27362,27611,27612,27363
CQUADX4,27728,1,27363,27612,27613,27364
CQUADX4,27729,1,27364,27613,27614,27365
CQUADX4,27730,1,27365,27614,27615,27366
CQUADX4,27731,1,27366,27615,27616,27367
CQUADX4,27732,1,27367,27616,27617,27368
CQUADX4,27733,1,27368,27617,27618,27369
CQUADX4,27734,1,27369,27618,27619,27370
CQUADX4,27735,1,27370,27619,27620,27371
CQUADX4,27736,1,27371,27620,27621,27372
CQUADX4,27737,1,27372,27621,27622,27373
CQUADX4,27738,1,27373,27622,27623,27374
CQUADX4,27739,1,27374,27623,27624,27375
CQUADX4,27740,1,27375,27624,27625,27376
CQUADX4,27741,1,27376,27625,27626,27377
CQUADX4,27742,1,27377,27626,27627,27378
CQUADX4,27743,1,27378,27627,27628,27379
CQUADX4,27744,1,27379,27628,27629,27380
CQUADX4,27745,1,27380,27629,27630,27381
CQUADX4,27746,1,27381,27630,27631,27382
CQUADX4,27747,1,27382,27631,27632,27383
CQUADX4,27748,1,27383,27632,27633,27384
CQUADX4,27749,1,27384,27633,27634,27385
CQUADX4,27750,1,27385,27634,27635,27386
CQUADX4,27751,1,27386,27635,27636,27387
CQUADX4,27752,1,27387,27636,27637,27388
CQUADX4,27753,1,27388,27637,27638,27389
CQUADX4,27754,1,27389,27638,27639,27390
CQUADX4,27755,1,27390,27639,27640,27391
CQUADX4,27756,1,27391,27640,27641,27392
CQUADX4,27757,1,27392,27641,27642,27393
CQUADX4,27758,1,27393,27642,27643,27394
CQUADX4,27759,1,27394,27643,27644,27395
CQUADX4,27760,1,27395,27644,27645,27396
CQUADX4,27761,1,27396,27645,27646,27397
CQUADX4,27762,1,27397,27646,27647,27398
CQUADX4,27763,1,27398,27647,27648,27399
CQUADX4,27764,1,27399,27648,27649,27400
CQUADX4,27765,1,27400,27649,27650,27401
CQUADX4,27766,1,27401,27650,27651,27402
CQUADX4,27767,1,27402,27651,27652,27403
CQUADX4,27768,1,27403,27652,27653,27404
CQUADX4,27769,1,27404,27653,27654,27405
CQUADX4,27770,1,27405,27654,27655,27406
CQUADX4,27771,1,27406,27655,27656,27407
CQUADX4,27772,1,27407,27656,27657,27408
CQUADX4,27773,1,27408,27657,27658,27409
CQUADX4,27774,1,27409,27658,27659,27410
CQUADX4,27775,1,27410,27659,27660,27411
CQUADX4,27776,1,27411,27660,27661,27412
CQUADX4,27777,1,27412,27661,27662,27413
CQUADX4,27778,1,27413,27662,27663,27414
CQUADX4,27779,1,27414,27663,27664,27415
CQUADX4,27780,1,27415,27664,27665,27416
CQUADX4,27781,1,27416,27665,27666,27417
CQUADX4,27782,1,27417,27666,27667,27418
CQUADX4,27783,1,27418,27667,27668,27419
CQUADX4,27784,1,27419,27668,27669,27420
CQUADX4,27785,1,27420,27669,27670,27421
CQUADX4,27786,1,27421,27670,27671,27422
CQUADX4,27787,1,27422,27671,27672,27423
CQUADX4,27788,1,27423,27672,27673,27424
CQUADX4,27789,1,27424,27673,27674,27425
CQUADX4,27790,1,27425,27674,27675,27426
CQUADX4,27791,1,27426,27675,27676,27427
CQUADX4,27792,1,27427,27676,27677,27428
CQUADX4,27793,1,27428,27677,27678,27429
CQUADX4,27794,1,27429,27678,27679,27430
CQUADX4,27795,1,27430,27679,27680,27431
CQUADX4,27796,1,27431,27680,27681,27432
CQUADX4,27797,1,27432,27681,27682,27433
CQUADX4,27798,1,27433,27682,27683,27434
CQUADX4,27799,1,27434,27683,27684,27435
CQUADX4,27800,1,27435,27684,27685,27436
CQUADX4,27801,1,27436,27685,27686,27437
CQUADX4,27802,1,27437,27686,27687,27438
CQUADX4,27803,1,27438,27687,27688,27439
CQUADX4,27804,1,27439,27688,27689,27440
CQUADX4,27805,1,27440,27689,27690,27441
CQUADX4,27806,1,27441,27690,27691,27442
CQUADX4,27807,1,27442,27691,27692,27443
CQUADX4,27808,1,27443,27692,27693,27444
CQUADX4,27809,1,27444,27693,27694,27445
CQUADX4,27810,1,27445,27694,27695,27446
CQUADX4,27811,1,27446,27695,27696,27447
CQUADX4,27812,1,27447,27696,27697,27448
CQUADX4,27813,1,27448,27697,27698,27449
CQUADX4,27814,1,27449,27698,27699,27450
CQUADX4,27815,1,27450,27699,27700,27451
CQUADX4,27816,1,27451,27700,27701,27452
CQUADX4,27817,1,27452,27701,27702,27453
CQUADX4,27818,1,27453,27702,27703,27454
CQUADX4,27819,1,27454,27703,27704,27455
CQUADX4,27820,1,27455,27704,27705,27456
CQUADX4,27821,1,27456,27705,27706,27457
CQUADX4,27822,1,27457,27706,27707,27458
CQUADX4,27823,1,27458,27707,27708,27459
CQUADX4,27824,1,27459,27708,27709,27460
CQUADX4,27825,1,27460,27709,27710,27461
CQUADX4,27826,1,27461,27710,27711,27462
CQUADX4,27827,1,27462,27711,27712,27463
CQUADX4,27828,1,27463,27712,27713,27464
CQUADX4,27829,1,27464,27713,27714,27465
CQUADX4,27830,1,27465,27714,27715,27466
CQUADX4,27831,1,27466,27715,27716,27467
CQUADX4,27832,1,27467,27716,27717,27468
CQUADX4,27833,1,27468,27717,27718,27469
CQUADX4,27834,1,27469,27718,27719,27470
CQUADX4,27835,1,27470,27719,27720,27471
CQUADX4,27836,1,27471,27720,27721,27472
CQUADX4,27837,1,27472,27721,27722,27473
CQUADX4,27838,1,27473,27722,27723,27474
CQUADX4,27839,1,27474,27723,27724,27475
CQUADX4,27840,1,27475,27724,27725,27476
CQUADX4,27841,1,27476,27725,27726,27477
CQUADX4,27842,1,27477,27726,27727,27478
CQUADX4,27843,1,27478,27727,27728,27479
CQUADX4,27844,1,27479,27728,27729,27480
CQUADX4,27845,1,27480,27729,27730,27481
CQUADX4,27846,1,27481,27730,27731,27482
CQUADX4,27847,1,27482,27731,27732,27483
CQUADX4,27848,1,27483,27732,27733,27484
CQUADX4,27849,1,27484,27733,27734,27485
CQUADX4,27850,1,27485,27734,27735,27486
CQUADX4,27851,1,27486,27735,27736,27487
CQUADX4,27852,1,27487,27736,27737,27488
CQUADX4,27853,1,27488,27737,27738,27489
CQUADX4,27854,1,27489,27738,27739,27490
CQUADX4,27855,1,27490,27739,27740,27491
CQUADX4,27856,1,27491,27740,27741,27492
CQUADX4,27857,1,27492,27741,27742,27493
CQUADX4,27858,1,27493,27742,27743,27494
CQUADX4,27859,1,27494,27743,27744,27495
CQUADX4,27860,1,27495,27744,27745,27496
CQUADX4,27861,1,27496,27745,27746,27497
CQUADX4,27862,1,27497,27746,27747,27498
CQUADX4,27863,1,27498,27747,27748,27499
CQUADX4,27864,1,27499,27748,27749,27500
CQUADX4,27865,1,27500,27749,27750,27501
CQUADX4,27866,1,27501,27750,27751,27502
CQUADX4,27867,1,27502,27751,27752,27503
CQUADX4,27868,1,27503,27752,27753,27504
CQUADX4,27869,1,27504,27753,27754,27505
CQUADX4,27870,1,27505,27754,27755,27506
CQUADX4,27871,1,27506,27755,27756,27507
CQUADX4,27872,1,27507,27756,27757,27508
CQUADX4,27873,1,27508,27757,27758,27509
CQUADX4,27874,1,27509,27758,27759,27510
CQUADX4,27875,1,27510,27759,27760,27511
CQUADX4,27876,1,27511,27760,27761,27512
CQUADX4,27877,1,27512,27761,27762,27513
CQUADX4,27878,1,27513,27762,27763,27514
CQUADX4,27879,1,27514,27763,27764,27515
CQUADX4,27880,1,27515,27764,27765,27516
CQUADX4,27881,1,27516,27765,27766,27517
CQUADX4,27882,1,27517,27766,27767,27518
CQUADX4,27883,1,27518,27767,27768,27519
CQUADX4,27884,1,27519,27768,27769,27520
CQUADX4,27885,1,27520,27769,27770,27521
CQUADX4,27886,1,27521,27770,27771,27522
CQUADX4,27887,1,27522,27771,27772,27523
CQUADX4,27888,1,27523,27772,27773,27524
CQUADX4,27889,1,27525,27774,27775,27526
CQUADX4,27890,1,27526,27775,27776,27527
CQUADX4,27891,1,27527,27776,27777,27528
CQUADX4,27892,1,27528,27777,27778,27529
CQUADX4,27893,1,27529,27778,27779,27530
CQUADX4,27894,1,27530,27779,27780,27531
CQUADX4,27895,1,27531,27780,27781,27532
CQUADX4,27896,1,27532,27781,27782,27533
CQUADX4,27897,1,27533,27782,27783,27534
CQUADX4,27898,1,27534,27783,27784,27535
CQUADX4,27899,1,27535,27784,27785,27536
CQUADX4,27900,1,27536,27785,27786,27537
CQUADX4,27901,1,27537,27786,27787,27538
CQUADX4,27902,1,27538,27787,27788,27539
CQUADX4,27903,1,27539,27788,27789,27540
CQUADX4,27904,1,27540,27789,27790,27541
CQUADX4,27905,1,27541,27790,27791,27542
CQUADX4,27906,1,27542,27791,27792,27543
CQUADX4,27907,1,27543,27792,27793,27544
CQUADX4,27908,1,27544,27793,27794,27545
CQUADX4,27909,1,27545,27794,27795,27546
CQUADX4,27910,1,27546,27795,27796,27547
CQUADX4,27911,1,27547,27796,27797,27548
CQUADX4,27912,1,27548,27797,27798,27549
CQUADX4,27913,1,27549,27798,27799,27550
CQUADX4,27914,1,27550,27799,27800,27551
CQUADX4,27915,1,27551,27800,27801,27552
CQUADX4,27916,1,27552,27801,27802,27553
CQUADX4,27917,1,27553,27802,27803,27554
CQUADX4,27918,1,27554,27803,27804,27555
CQUADX4,27919,1,27555,27804,27805,27556
CQUADX4,27920,1,27556,27805,27806,27557
CQUADX4,27921,1,27557,27806,27807,27558
CQUADX4,27922,1,27558,27807,27808,27559
CQUADX4,27923,1,27559,27808,27809,27560
CQUADX4,27924,1,27560,27809,27810,27561
CQUADX4,27925,1,27561,27810,27811,27562
CQUADX4,27926,1,27562,27811,27812,27563
CQUADX4,27927,1,27563,27812,27813,27564
CQUADX4,27928,1,27564,27813,27814,27565
CQUADX4,27929,1,27565,27814,27815,27566
CQUADX4,27930,1,27566,27815,27816,27567
CQUADX4,27931,1,27567,27816,27817,27568
CQUADX4,27932,1,27568,27817,27818,27569
CQUADX4,27933,1,27569,27818,27819,27570
CQUADX4,27934,1,27570,27819,27820,27571
CQUADX4,27935,1,27571,27820,27821,27572
CQUADX4,27936,1,27572,27821,27822,27573
CQUADX4,27937,1,27573,27822,27823,27574
CQUADX4,27938,1,27574,27823,27824,27575
CQUADX4,27939,1,27575,27824,27825,27576
CQUADX4,27940,1,27576,27825,27826,27577
CQUADX4,27941,1,27577,27826,27827,27578
CQUADX4,27942,1,27578,27827,27828,27579
CQUADX4,27943,1,27579,27828,27829,27580
CQUADX4,27944,1,27580,27829,27830,27581
CQUADX4,27945,1,27581,27830,27831,27582
CQUADX4,27946,1,27582,27831,27832,27583
CQUADX4,27947,1,27583,27832,27833,27584
CQUADX4,27948,1,27584,27833,27834,27585
CQUADX4,27949,1,27585,27834,27835,27586
CQUADX4,27950,1,27586,27835,27836,27587
CQUADX4,27951,1,27587,27836,27837,27588
CQUADX4,27952,1,27588,27837,27838,27589
CQUADX4,27953,1,27589,27838,27839,27590
CQUADX4,27954,1,27590,27839,27840,27591
CQUADX4,27955,1,27591,27840,27841,27592
CQUADX4,27956,1,27592,27841,27842,27593
CQUADX4,27957,1,27593,27842,27843,27594
CQUADX4,27958,1,27594,27843,27844,27595
CQUADX4,27959,1,27595,27844,27845,27596
CQUADX4,27960,1,27596,27845,27846,27597
CQUADX4,27961,1,27597,27846,27847,27598
CQUADX4,27962,1,27598,27847,27848,27599
CQUADX4,27963,1,27599,27848,27849,27600
CQUADX4,27964,1,27600,27849,27850,27601
CQUADX4,27965,1,27601,27850,27851,27602
CQUADX4,27966,1,27602,27851,27852,27603
CQUADX4,27967,1,27603,27852,27853,27604
CQUADX4,27968,1,27604,27853,27854,27605
CQUADX4,27969,1,27605,27854,27855,27606
CQUADX4,27970,1,27606,27855,27856,27607
CQUADX4,27971,1,27607,27856,27857,27608
CQUADX4,27972,1,27608,27857,27858,27609
CQUADX4,27973,1,27609,27858,27859,27610
CQUADX4,27974,1,27610,27859,27860,27611
CQUADX4,27975,1,27611,27860,27861,27612
CQUADX4,27976,1,27612,27861,27862,27613
CQUADX4,27977,1,27613,27862,27863,27614
CQUADX4,27978,1,27614,27863,27864,27615
CQUADX4,27979,1,27615,27864,27865,27616
CQUADX4,27980,1,27616,27865,27866,27617
CQUADX4,27981,1,27617,27866,27867,27618
CQUADX4,27982,1,27618,27867,27868,27619
CQUADX4,27983,1,27619,27868,27869,27620
CQUADX4,27984,1,27620,27869,27870,27621
CQUADX4,27985,1,27621,27870,27871,27622
CQUADX4,27986,1,27622,27871,27872,27623
CQUADX4,27987,1,27623,27872,27873,27624
CQUADX4,27988,1,27624,27873,27874,27625
CQUADX4,27989,1,27625,27874,27875,27626
CQUADX4,27990,1,27626,27875,27876,27627
CQUADX4,27991,1,27627,27876,27877,27628
CQUADX4,27992,1,27628,27877,27878,27629
CQUADX4,27993,1,27629,27878,27879,27630
CQUADX4,27994,1,27630,27879,27880,27631
CQUADX4,27995,1,27631,27880,27881,27632
CQUADX4,27996,1,27632,27881,27882,27633
CQUADX4,27997,1,27633,27882,27883,27634
CQUADX4,27998,1,27634,27883,27884,27635
CQUADX4,27999,1,27635,27884,27885,27636
CQUADX4,28000,1,27636,27885,27886,27637
CQUADX4,28001,1,27637,27886,27887,27638
CQUADX4,28002,1,27638,27887,27888,27639
CQUADX4,28003,1,27639,27888,27889,27640
CQUADX4,28004,1,27640,27889,27890,27641
CQUADX4,28005,1,27641,27890,27891,27642
CQUADX4,28006,1,27642,27891,27892,27643
CQUADX4,28007,1,27643,27892,27893,27644
CQUADX4,28008,1,27644,27893,27894,27645
CQUADX4,28009,1,27645,27894,27895,27646
CQUADX4,28010,1,27646,27895,27896,27647
CQUADX4,28011,1,27647,27896,27897,27648
CQUADX4,28012,1,27648,27897,27898,27649
CQUADX4,28013,1,27649,27898,27899,27650
CQUADX4,28014,1,27650,27899,27900,27651
CQUADX4,28015,1,27651,27900,27901,27652
CQUADX4,28016,1,27652,27901,27902,27653
CQUADX4,28017,1,27653,27902,27903,27654
CQUADX4,28018,1,27654,27903,27904,27655
CQUADX4,28019,1,27655,27904,27905,27656
CQUADX4,28020,1,27656,27905,27906,27657
CQUADX4,28021,1,27657,27906,27907,27658
CQUADX4,28022,1,27658,27907,27908,27659
CQUADX4,28023,1,27659,27908,27909,27660
CQUADX4,28024,1,27660,27909,27910,27661
CQUADX4,28025,1,27661,27910,27911,27662
CQUADX4,28026,1,27662,27911,27912,27663
CQUADX4,28027,1,27663,27912,27913,27664
CQUADX4,28028,1,27664,27913,27914,27665
CQUADX4,28029,1,27665,27914,27915,27666
CQUADX4,28030,1,27666,27915,27916,27667
CQUADX4,28031,1,27667,27916,27917,27668
CQUADX4,28032,1,27668,27917,27918,27669
CQUADX4,28033,1,27669,27918,27919,27670
CQUADX4,28034,1,27670,27919,27920,27671
CQUADX4,28035,1,27671,27920,27921,27672
CQUADX4,28036,1,27672,27921,27922,27673
CQUADX4,28037,1,27673,27922,27923,27674
CQUADX4,28038,1,27674,27923,27924,27675
CQUADX4,28039,1,27675,27924,27925,27676
CQUADX4,28040,1,27676,27925,27926,27677
CQUADX4,28041,1,27677,27926,27927,27678
CQUADX4,28042,1,27678,27927,27928,27679
CQUADX4,28043,1,27679,27928,27929,27680
CQUADX4,28044,1,27680,27929,27930,27681
CQUADX4,28045,1,27681,27930,27931,27682
CQUADX4,28046,1,27682,27931,27932,27683
CQUADX4,28047,1,27683,27932,27933,27684
CQUADX4,28048,1,27684,27933,27934,27685
CQUADX4,28049,1,27685,27934,27935,27686
CQUADX4,28050,1,27686,27935,27936,27687
CQUADX4,28051,1,27687,27936,27937,27688
CQUADX4,28052,1,27688,27937,27938,27689
CQUADX4,28053,1,27689,27938,27939,27690
CQUADX4,28054,1,27690,27939,27940,27691
CQUADX4,28055,1,27691,27940,27941,27692
CQUADX4,28056,1,27692,27941,27942,27693
CQUADX4,28057,1,27693,27942,27943,27694
CQUADX4,28058,1,27694,27943,27944,27695
CQUADX4,28059,1,27695,27944,27945,27696
CQUADX4,28060,1,27696,27945,27946,27697
CQUADX4,28061,1,27697,27946,27947,27698
CQUADX4,28062,1,27698,27947,27948,27699
CQUADX4,28063,1,27699,27948,27949,27700
CQUADX4,28064,1,27700,27949,27950,27701
CQUADX4,28065,1,27701,27950,27951,27702
CQUADX4,28066,1,27702,27951,27952,27703
CQUADX4,28067,1,27703,27952,27953,27704
CQUADX4,28068,1,27704,27953,27954,27705
CQUADX4,28069,1,27705,27954,27955,27706
CQUADX4,28070,1,27706,27955,27956,27707
CQUADX4,28071,1,27707,27956,27957,27708
CQUADX4,28072,1,27708,27957,27958,27709
CQUADX4,28073,1,27709,27958,27959,27710
CQUADX4,28074,1,27710,27959,27960,27711
CQUADX4,28075,1,27711,27960,27961,27712
CQUADX4,28076,1,27712,27961,27962,27713
CQUADX4,28077,1,27713,27962,27963,27714
CQUADX4,28078,1,27714,27963,27964,27715
CQUADX4,28079,1,27715,27964,27965,27716
CQUADX4,28080,1,27716,27965,27966,27717
CQUADX4,28081,1,27717,27966,27967,27718
CQUADX4,28082,1,27718,27967,27968,27719
CQUADX4,28083,1,27719,27968,27969,27720
CQUADX4,28084,1,27720,27969,27970,27721
CQUADX4,28085,1,27721,27970,27971,27722
CQUADX4,28086,1,27722,27971,27972,27723
CQUADX4,28087,1,27723,27972,27973,27724
CQUADX4,28088,1,27724,27973,27974,27725
CQUADX4,28089,1,27725,27974,27975,27726
CQUADX4,28090,1,27726,27975,27976,27727
CQUADX4,28091,1,27727,27976,27977,27728
CQUADX4,28092,1,27728,27977,27978,27729
CQUADX4,28093,1,27729,27978,27979,27730
CQUADX4,28094,1,27730,27979,27980,27731
CQUADX4,28095,1,27731,27980,27981,27732
CQUADX4,28096,1,27732,27981,27982,27733
CQUADX4,28097,1,27733,27982,27983,27734
CQUADX4,28098,1,27734,27983,27984,27735
CQUADX4,28099,1,27735,27984,27985,27736
CQUADX4,28100,1,27736,27985,27986,27737
CQUADX4,28101,1,27737,27986,27987,27738
CQUADX4,28102,1,27738,27987,27988,27739
CQUADX4,28103,1,27739,27988,27989,27740
CQUADX4,28104,1,27740,27989,27990,27741
CQUADX4,28105,1,27741,27990,27991,27742
CQUADX4,28106,1,27742,27991,27992,27743
CQUADX4,28107,1,27743,27992,27993,27744
CQUADX4,28108,1,27744,27993,27994,27745
CQUADX4,28109,1,27745,27994,27995,27746
CQUADX4,28110,1,27746,27995,27996,27747
CQUADX4,28111,1,27747,27996,27997,27748
CQUADX4,28112,1,27748,27997,27998,27749
CQUADX4,28113,1,27749,27998,27999,27750
CQUADX4,28114,1,27750,27999,28000,27751
CQUADX4,28115,1,27751,28000,28001,27752
CQUADX4,28116,1,27752,28001,28002,27753
CQUADX4,28117,1,27753,28002,28003,27754
CQUADX4,28118,1,27754,28003,28004,27755
CQUADX4,28119,1,27755,28004,28005,27756
CQUADX4,28120,1,27756,28005,28006,27757
CQUADX4,28121,1,27757,28006,28007,27758
CQUADX4,28122,1,27758,28007,28008,27759
CQUADX4,28123,1,27759,28008,28009,27760
CQUADX4,28124,1,27760,28009,28010,27761
CQUADX4,28125,1,27761,28010,28011,27762
CQUADX4,28126,1,27762,28011,28012,27763
CQUADX4,28127,1,27763,28012,28013,27764
CQUADX4,28128,1,27764,28013,28014,27765
CQUADX4,28129,1,27765,28014,28015,27766
CQUADX4,28130,1,27766,28015,28016,27767
CQUADX4,28131,1,27767,28016,28017,27768
CQUADX4,28132,1,27768,28017,28018,27769
CQUADX4,28133,1,27769,28018,28019,27770
CQUADX4,28134,1,27770,28019,28020,27771
CQUADX4,28135,1,27771,28020,28021,27772
CQUADX4,28136,1,27772,28021,28022,27773
CQUADX4,28137,1,27774,28023,28024,27775
CQUADX4,28138,1,27775,28024,28025,27776
CQUADX4,28139,1,27776,28025,28026,27777
CQUADX4,28140,1,27777,28026,28027,27778
CQUADX4,28141,1,27778,28027,28028,27779
CQUADX4,28142,1,27779,28028,28029,27780
CQUADX4,28143,1,27780,28029,28030,27781
CQUADX4,28144,1,27781,28030,28031,27782
CQUADX4,28145,1,27782,28031,28032,27783
CQUADX4,28146,1,27783,28032,28033,27784
CQUADX4,28147,1,27784,28033,28034,27785
CQUADX4,28148,1,27785,28034,28035,27786
CQUADX4,28149,1,27786,28035,28036,27787
CQUADX4,28150,1,27787,28036,28037,27788
CQUADX4,28151,1,27788,28037,28038,27789
CQUADX4,28152,1,27789,28038,28039,27790
CQUADX4,28153,1,27790,28039,28040,27791
CQUADX4,28154,1,27791,28040,28041,27792
CQUADX4,28155,1,27792,28041,28042,27793
CQUADX4,28156,1,27793,28042,28043,27794
CQUADX4,28157,1,27794,28043,28044,27795
CQUADX4,28158,1,27795,28044,28045,27796
CQUADX4,28159,1,27796,28045,28046,27797
CQUADX4,28160,1,27797,28046,28047,27798
CQUADX4,28161,1,27798,28047,28048,27799
CQUADX4,28162,1,27799,28048,28049,27800
CQUADX4,28163,1,27800,28049,28050,27801
CQUADX4,28164,1,27801,28050,28051,27802
CQUADX4,28165,1,27802,28051,28052,27803
CQUADX4,28166,1,27803,28052,28053,27804
CQUADX4,28167,1,27804,28053,28054,27805
CQUADX4,28168,1,27805,28054,28055,27806
CQUADX4,28169,1,27806,28055,28056,27807
CQUADX4,28170,1,27807,28056,28057,27808
CQUADX4,28171,1,27808,28057,28058,27809
CQUADX4,28172,1,27809,28058,28059,27810
CQUADX4,28173,1,27810,28059,28060,27811
CQUADX4,28174,1,27811,28060,28061,27812
CQUADX4,28175,1,27812,28061,28062,27813
CQUADX4,28176,1,27813,28062,28063,27814
CQUADX4,28177,1,27814,28063,28064,27815
CQUADX4,28178,1,27815,28064,28065,27816
CQUADX4,28179,1,27816,28065,28066,27817
CQUADX4,28180,1,27817,28066,28067,27818
CQUADX4,28181,1,27818,28067,28068,27819
CQUADX4,28182,1,27819,28068,28069,27820
CQUADX4,28183,1,27820,28069,28070,27821
CQUADX4,28184,1,27821,28070,28071,27822
CQUADX4,28185,1,27822,28071,28072,27823
CQUADX4,28186,1,27823,28072,28073,27824
CQUADX4,28187,1,27824,28073,28074,27825
CQUADX4,28188,1,27825,28074,28075,27826
CQUADX4,28189,1,27826,28075,28076,27827
CQUADX4,28190,1,27827,28076,28077,27828
CQUADX4,28191,1,27828,28077,28078,27829
CQUADX4,28192,1,27829,28078,28079,27830
CQUADX4,28193,1,27830,28079,28080,27831
CQUADX4,28194,1,27831,28080,28081,27832
CQUADX4,28195,1,27832,28081,28082,27833
CQUADX4,28196,1,27833,28082,28083,27834
CQUADX4,28197,1,27834,28083,28084,27835
CQUADX4,28198,1,27835,28084,28085,27836
CQUADX4,28199,1,27836,28085,28086,27837
CQUADX4,28200,1,27837,28086,28087,27838
CQUADX4,28201,1,27838,28087,28088,27839
CQUADX4,28202,1,27839,28088,28089,27840
CQUADX4,28203,1,27840,28089,28090,27841
CQUADX4,28204,1,27841,28090,28091,27842
CQUADX4,28205,1,27842,28091,28092,27843
CQUADX4,28206,1,27843,28092,28093,27844
CQUADX4,28207,1,27844,28093,28094,27845
CQUADX4,28208,1,27845,28094,28095,27846
CQUADX4,28209,1,27846,28095,28096,27847
CQUADX4,28210,1,27847,28096,28097,27848
CQUADX4,28211,1,27848,28097,28098,27849
CQUADX4,28212,1,27849,28098,28099,27850
CQUADX4,28213,1,27850,28099,28100,27851
CQUADX4,28214,1,27851,28100,28101,27852
CQUADX4,28215,1,27852,28101,28102,27853
CQUADX4,28216,1,27853,28102,28103,27854
CQUADX4,28217,1,27854,28103,28104,27855
CQUADX4,28218,1,27855,28104,28105,27856
CQUADX4,28219,1,27856,28105,28106,27857
CQUADX4,28220,1,27857,28106,28107,27858
CQUADX4,28221,1,27858,28107,28108,27859
CQUADX4,28222,1,27859,28108,28109,27860
CQUADX4,28223,1,27860,28109,28110,27861
CQUADX4,28224,1,27861,28110,28111,27862
CQUADX4,28225,1,27862,28111,28112,27863
CQUADX4,28226,1,27863,28112,28113,27864
CQUADX4,28227,1,27864,28113,28114,27865
CQUADX4,28228,1,27865,28114,28115,27866
CQUADX4,28229,1,27866,28115,28116,27867
CQUADX4,28230,1,27867,28116,28117,27868
CQUADX4,28231,1,27868,28117,28118,27869
CQUADX4,28232,1,27869,28118,28119,27870
CQUADX4,28233,1,27870,28119,28120,27871
CQUADX4,28234,1,27871,28120,28121,27872
CQUADX4,28235,1,27872,28121,28122,27873
CQUADX4,28236,1,27873,28122,28123,27874
CQUADX4,28237,1,27874,28123,28124,27875
CQUADX4,28238,1,27875,28124,28125,27876
CQUADX4,28239,1,27876,28125,28126,27877
CQUADX4,28240,1,27877,28126,28127,27878
CQUADX4,28241,1,27878,28127,28128,27879
CQUADX4,28242,1,27879,28128,28129,27880
CQUADX4,28243,1,27880,28129,28130,27881
CQUADX4,28244,1,27881,28130,28131,27882
CQUADX4,28245,1,27882,28131,28132,27883
CQUADX4,28246,1,27883,28132,28133,27884
CQUADX4,28247,1,27884,28133,28134,27885
CQUADX4,28248,1,27885,28134,28135,27886
CQUADX4,28249,1,27886,28135,28136,27887
CQUADX4,28250,1,27887,28136,28137,27888
CQUADX4,28251,1,27888,28137,28138,27889
CQUADX4,28252,1,27889,28138,28139,27890
CQUADX4,28253,1,27890,28139,28140,27891
CQUADX4,28254,1,27891,28140,28141,27892
CQUADX4,28255,1,27892,28141,28142,27893
CQUADX4,28256,1,27893,28142,28143,27894
CQUADX4,28257,1,27894,28143,28144,27895
CQUADX4,28258,1,27895,28144,28145,27896
CQUADX4,28259,1,27896,28145,28146,27897
CQUADX4,28260,1,27897,28146,28147,27898
CQUADX4,28261,1,27898,28147,28148,27899
CQUADX4,28262,1,27899,28148,28149,27900
CQUADX4,28263,1,27900,28149,28150,27901
CQUADX4,28264,1,27901,28150,28151,27902
CQUADX4,28265,1,27902,28151,28152,27903
CQUADX4,28266,1,27903,28152,28153,27904
CQUADX4,28267,1,27904,28153,28154,27905
CQUADX4,28268,1,27905,28154,28155,27906
CQUADX4,28269,1,27906,28155,28156,27907
CQUADX4,28270,1,27907,28156,28157,27908
CQUADX4,28271,1,27908,28157,28158,27909
CQUADX4,28272,1,27909,28158,28159,27910
CQUADX4,28273,1,27910,28159,28160,27911
CQUADX4,28274,1,27911,28160,28161,27912
CQUADX4,28275,1,27912,28161,28162,27913
CQUADX4,28276,1,27913,28162,28163,27914
CQUADX4,28277,1,27914,28163,28164,27915
CQUADX4,28278,1,27915,28164,28165,27916
CQUADX4,28279,1,27916,28165,28166,27917
CQUADX4,28280,1,27917,28166,28167,27918
CQUADX4,28281,1,27918,28167,28168,27919
CQUADX4,28282,1,27919,28168,28169,27920
CQUADX4,28283,1,27920,28169,28170,27921
CQUADX4,28284,1,27921,28170,28171,27922
CQUADX4,28285,1,27922,28171,28172,27923
CQUADX4,28286,1,27923,28172,28173,27924
CQUADX4,28287,1,27924,28173,28174,27925
CQUADX4,28288,1,27925,28174,28175,27926
CQUADX4,28289,1,27926,28175,28176,27927
CQUADX4,28290,1,27927,28176,28177,27928
CQUADX4,28291,1,27928,28177,28178,27929
CQUADX4,28292,1,27929,28178,28179,27930
CQUADX4,28293,1,27930,28179,28180,27931
CQUADX4,28294,1,27931,28180,28181,27932
CQUADX4,28295,1,27932,28181,28182,27933
CQUADX4,28296,1,27933,28182,28183,27934
CQUADX4,28297,1,27934,28183,28184,27935
CQUADX4,28298,1,27935,28184,28185,27936
CQUADX4,28299,1,27936,28185,28186,27937
CQUADX4,28300,1,27937,28186,28187,27938
CQUADX4,28301,1,27938,28187,28188,27939
CQUADX4,28302,1,27939,28188,28189,27940
CQUADX4,28303,1,27940,28189,28190,27941
CQUADX4,28304,1,27941,28190,28191,27942
CQUADX4,28305,1,27942,28191,28192,27943
CQUADX4,28306,1,27943,28192,28193,27944
CQUADX4,28307,1,27944,28193,28194,27945
CQUADX4,28308,1,27945,28194,28195,27946
CQUADX4,28309,1,27946,28195,28196,27947
CQUADX4,28310,1,27947,28196,28197,27948
CQUADX4,28311,1,27948,28197,28198,27949
CQUADX4,28312,1,27949,28198,28199,27950
CQUADX4,28313,1,27950,28199,28200,27951
CQUADX4,28314,1,27951,28200,28201,27952
CQUADX4,28315,1,27952,28201,28202,27953
CQUADX4,28316,1,27953,28202,28203,27954
CQUADX4,28317,1,27954,28203,28204,27955
CQUADX4,28318,1,27955,28204,28205,27956
CQUADX4,28319,1,27956,28205,28206,27957
CQUADX4,28320,1,27957,28206,28207,27958
CQUADX4,28321,1,27958,28207,28208,27959
CQUADX4,28322,1,27959,28208,28209,27960
CQUADX4,28323,1,27960,28209,28210,27961
CQUADX4,28324,1,27961,28210,28211,27962
CQUADX4,28325,1,27962,28211,28212,27963
CQUADX4,28326,1,27963,28212,28213,27964
CQUADX4,28327,1,27964,28213,28214,27965
CQUADX4,28328,1,27965,28214,28215,27966
CQUADX4,28329,1,27966,28215,28216,27967
CQUADX4,28330,1,27967,28216,28217,27968
CQUADX4,28331,1,27968,28217,28218,27969
CQUADX4,28332,1,27969,28218,28219,27970
CQUADX4,28333,1,27970,28219,28220,27971
CQUADX4,28334,1,27971,28220,28221,27972
CQUADX4,28335,1,27972,28221,28222,27973
CQUADX4,28336,1,27973,28222,28223,27974
CQUADX4,28337,1,27974,28223,28224,27975
CQUADX4,28338,1,27975,28224,28225,27976
CQUADX4,28339,1,27976,28225,28226,27977
CQUADX4,28340,1,27977,28226,28227,27978
CQUADX4,28341,1,27978,28227,28228,27979
CQUADX4,28342,1,27979,28228,28229,27980
CQUADX4,28343,1,27980,28229,28230,27981
CQUADX4,28344,1,27981,28230,28231,27982
CQUADX4,28345,1,27982,28231,28232,27983
CQUADX4,28346,1,27983,28232,28233,27984
CQUADX4,28347,1,27984,28233,28234,27985
CQUADX4,28348,1,27985,28234,28235,27986
CQUADX4,28349,1,27986,28235,28236,27987
CQUADX4,28350,1,27987,28236,28237,27988
CQUADX4,28351,1,27988,28237,28238,27989
CQUADX4,28352,1,27989,28238,28239,27990
CQUADX4,28353,1,27990,28239,28240,27991
CQUADX4,28354,1,27991,28240,28241,27992
CQUADX4,28355,1,27992,28241,28242,27993
CQUADX4,28356,1,27993,28242,28243,27994
CQUADX4,28357,1,27994,28243,28244,27995
CQUADX4,28358,1,27995,28244,28245,27996
CQUADX4,28359,1,27996,28245,28246,27997
CQUADX4,28360,1,27997,28246,28247,27998
CQUADX4,28361,1,27998,28247,28248,27999
CQUADX4,28362,1,27999,28248,28249,28000
CQUADX4,28363,1,28000,28249,28250,28001
CQUADX4,28364,1,28001,28250,28251,28002
CQUADX4,28365,1,28002,28251,28252,28003
CQUADX4,28366,1,28003,28252,28253,28004
CQUADX4,28367,1,28004,28253,28254,28005
CQUADX4,28368,1,28005,28254,28255,28006
CQUADX4,28369,1,28006,28255,28256,28007
CQUADX4,28370,1,28007,28256,28257,28008
CQUADX4,28371,1,28008,28257,28258,28009
CQUADX4,28372,1,28009,28258,28259,28010
CQUADX4,28373,1,28010,28259,28260,28011
CQUADX4,28374,1,28011,28260,28261,28012
CQUADX4,28375,1,28012,28261,28262,28013
CQUADX4,28376,1,28013,28262,28263,28014
CQUADX4,28377,1,28014,28263,28264,28015
CQUADX4,28378,1,28015,28264,28265,28016
CQUADX4,28379,1,28016,28265,28266,28017
CQUADX4,28380,1,28017,28266,28267,28018
CQUADX4,28381,1,28018,28267,28268,28019
CQUADX4,28382,1,28019,28268,28269,28020
CQUADX4,28383,1,28020,28269,28270,28021
CQUADX4,28384,1,28021,28270,28271,28022
CQUADX4,28385,1,28023,28272,28273,28024
CQUADX4,28386,1,28024,28273,28274,28025
CQUADX4,28387,1,28025,28274,28275,28026
CQUADX4,28388,1,28026,28275,28276,28027
CQUADX4,28389,1,28027,28276,28277,28028
CQUADX4,28390,1,28028,28277,28278,28029
CQUADX4,28391,1,28029,28278,28279,28030
CQUADX4,28392,1,28030,28279,28280,28031
CQUADX4,28393,1,28031,28280,28281,28032
CQUADX4,28394,1,28032,28281,28282,28033
CQUADX4,28395,1,28033,28282,28283,28034
CQUADX4,28396,1,28034,28283,28284,28035
CQUADX4,28397,1,28035,28284,28285,28036
CQUADX4,28398,1,28036,28285,28286,28037
CQUADX4,28399,1,28037,28286,28287,28038
CQUADX4,28400,1,28038,28287,28288,28039
CQUADX4,28401,1,28039,28288,28289,28040
CQUADX4,28402,1,28040,28289,28290,28041
CQUADX4,28403,1,28041,28290,28291,28042
CQUADX4,28404,1,28042,28291,28292,28043
CQUADX4,28405,1,28043,28292,28293,28044
CQUADX4,28406,1,28044,28293,28294,28045
CQUADX4,28407,1,28045,28294,28295,28046
CQUADX4,28408,1,28046,28295,28296,28047
CQUADX4,28409,1,28047,28296,28297,28048
CQUADX4,28410,1,28048,28297,28298,28049
CQUADX4,28411,1,28049,28298,28299,28050
CQUADX4,28412,1,28050,28299,28300,28051
CQUADX4,28413,1,28051,28300,28301,28052
CQUADX4,28414,1,28052,28301,28302,28053
CQUADX4,28415,1,28053,28302,28303,28054
CQUADX4,28416,1,28054,28303,28304,28055
CQUADX4,28417,1,28055,28304,28305,28056
CQUADX4,28418,1,28056,28305,28306,28057
CQUADX4,28419,1,28057,28306,28307,28058
CQUADX4,28420,1,28058,28307,28308,28059
CQUADX4,28421,1,28059,28308,28309,28060
CQUADX4,28422,1,28060,28309,28310,28061
CQUADX4,28423,1,28061,28310,28311,28062
CQUADX4,28424,1,28062,28311,28312,28063
CQUADX4,28425,1,28063,28312,28313,28064
CQUADX4,28426,1,28064,28313,28314,28065
CQUADX4,28427,1,28065,28314,28315,28066
CQUADX4,28428,1,28066,28315,28316,28067
CQUADX4,28429,1,28067,28316,28317,28068
CQUADX4,28430,1,28068,28317,28318,28069
CQUADX4,28431,1,28069,28318,28319,28070
CQUADX4,28432,1,28070,28319,28320,28071
CQUADX4,28433,1,28071,28320,28321,28072
CQUADX4,28434,1,28072,28321,28322,28073
CQUADX4,28435,1,28073,28322,28323,28074
CQUADX4,28436,1,28074,28323,28324,28075
CQUADX4,28437,1,28075,28324,28325,28076
CQUADX4,28438,1,28076,28325,28326,28077
CQUADX4,28439,1,28077,28326,28327,28078
CQUADX4,28440,1,28078,28327,28328,28079
CQUADX4,28441,1,28079,28328,28329,28080
CQUADX4,28442,1,28080,28329,28330,28081
CQUADX4,28443,1,28081,28330,28331,28082
CQUADX4,28444,1,28082,28331,28332,28083
CQUADX4,28445,1,28083,28332,28333,28084
CQUADX4,28446,1,28084,28333,28334,28085
CQUADX4,28447,1,28085,28334,28335,28086
CQUADX4,28448,1,28086,28335,28336,28087
CQUADX4,28449,1,28087,28336,28337,28088
CQUADX4,28450,1,28088,28337,28338,28089
CQUADX4,28451,1,28089,28338,28339,28090
CQUADX4,28452,1,28090,28339,28340,28091
CQUADX4,28453,1,28091,28340,28341,28092
CQUADX4,28454,1,28092,28341,28342,28093
CQUADX4,28455,1,28093,28342,28343,28094
CQUADX4,28456,1,28094,28343,28344,28095
CQUADX4,28457,1,28095,28344,28345,28096
CQUADX4,28458,1,28096,28345,28346,28097
CQUADX4,28459,1,28097,28346,28347,28098
CQUADX4,28460,1,28098,28347,28348,28099
CQUADX4,28461,1,28099,28348,28349,28100
CQUADX4,28462,1,28100,28349,28350,28101
CQUADX4,28463,1,28101,28350,28351,28102
CQUADX4,28464,1,28102,28351,28352,28103
CQUADX4,28465,1,28103,28352,28353,28104
CQUADX4,28466,1,28104,28353,28354,28105
CQUADX4,28467,1,28105,28354,28355,28106
CQUADX4,28468,1,28106,28355,28356,28107
CQUADX4,28469,1,28107,28356,28357,28108
CQUADX4,28470,1,28108,28357,28358,28109
CQUADX4,28471,1,28109,28358,28359,28110
CQUADX4,28472,1,28110,28359,28360,28111
CQUADX4,28473,1,28111,28360,28361,28112
CQUADX4,28474,1,28112,28361,28362,28113
CQUADX4,28475,1,28113,28362,28363,28114
CQUADX4,28476,1,28114,28363,28364,28115
CQUADX4,28477,1,28115,28364,28365,28116
CQUADX4,28478,1,28116,28365,28366,28117
CQUADX4,28479,1,28117,28366,28367,28118
CQUADX4,28480,1,28118,28367,28368,28119
CQUADX4,28481,1,28119,28368,28369,28120
CQUADX4,28482,1,28120,28369,28370,28121
CQUADX4,28483,1,28121,28370,28371,28122
CQUADX4,28484,1,28122,28371,28372,28123
CQUADX4,28485,1,28123,28372,28373,28124
CQUADX4,28486,1,28124,28373,28374,28125
CQUADX4,28487,1,28125,28374,28375,28126
CQUADX4,28488,1,28126,28375,28376,28127
CQUADX4,28489,1,28127,28376,28377,28128
CQUADX4,28490,1,28128,28377,28378,28129
CQUADX4,28491,1,28129,28378,28379,28130
CQUADX4,28492,1,28130,28379,28380,28131
CQUADX4,28493,1,28131,28380,28381,28132
CQUADX4,28494,1,28132,28381,28382,28133
CQUADX4,28495,1,28133,28382,28383,28134
CQUADX4,28496,1,28134,28383,28384,28135
CQUADX4,28497,1,28135,28384,28385,28136
CQUADX4,28498,1,28136,28385,28386,28137
CQUADX4,28499,1,28137,28386,28387,28138
CQUADX4,28500,1,28138,28387,28388,28139
CQUADX4,28501,1,28139,28388,28389,28140
CQUADX4,28502,1,28140,28389,28390,28141
CQUADX4,28503,1,28141,28390,28391,28142
CQUADX4,28504,1,28142,28391,28392,28143
CQUADX4,28505,1,28143,28392,28393,28144
CQUADX4,28506,1,28144,28393,28394,28145
CQUADX4,28507,1,28145,28394,28395,28146
CQUADX4,28508,1,28146,28395,28396,28147
CQUADX4,28509,1,28147,28396,28397,28148
CQUADX4,28510,1,28148,28397,28398,28149
CQUADX4,28511,1,28149,28398,28399,28150
CQUADX4,28512,1,28150,28399,28400,28151
CQUADX4,28513,1,28151,28400,28401,28152
CQUADX4,28514,1,28152,28401,28402,28153
CQUADX4,28515,1,28153,28402,28403,28154
CQUADX4,28516,1,28154,28403,28404,28155
CQUADX4,28517,1,28155,28404,28405,28156
CQUADX4,28518,1,28156,28405,28406,28157
CQUADX4,28519,1,28157,28406,28407,28158
CQUADX4,28520,1,28158,28407,28408,28159
CQUADX4,28521,1,28159,28408,28409,28160
CQUADX4,28522,1,28160,28409,28410,28161
CQUADX4,28523,1,28161,28410,28411,28162
CQUADX4,28524,1,28162,28411,28412,28163
CQUADX4,28525,1,28163,28412,28413,28164
CQUADX4,28526,1,28164,28413,28414,28165
CQUADX4,28527,1,28165,28414,28415,28166
CQUADX4,28528,1,28166,28415,28416,28167
CQUADX4,28529,1,28167,28416,28417,28168
CQUADX4,28530,1,28168,28417,28418,28169
CQUADX4,28531,1,28169,28418,28419,28170
CQUADX4,28532,1,28170,28419,28420,28171
CQUADX4,28533,1,28171,28420,28421,28172
CQUADX4,28534,1,28172,28421,28422,28173
CQUADX4,28535,1,28173,28422,28423,28174
CQUADX4,28536,1,28174,28423,28424,28175
CQUADX4,28537,1,28175,28424,28425,28176
CQUADX4,28538,1,28176,28425,28426,28177
CQUADX4,28539,1,28177,28426,28427,28178
CQUADX4,28540,1,28178,28427,28428,28179
CQUADX4,28541,1,28179,28428,28429,28180
CQUADX4,28542,1,28180,28429,28430,28181
CQUADX4,28543,1,28181,28430,28431,28182
CQUADX4,28544,1,28182,28431,28432,28183
CQUADX4,28545,1,28183,28432,28433,28184
CQUADX4,28546,1,28184,28433,28434,28185
CQUADX4,28547,1,28185,28434,28435,28186
CQUADX4,28548,1,28186,28435,28436,28187
CQUADX4,28549,1,28187,28436,28437,28188
CQUADX4,28550,1,28188,28437,28438,28189
CQUADX4,28551,1,28189,28438,28439,28190
CQUADX4,28552,1,28190,28439,28440,28191
CQUADX4,28553,1,28191,28440,28441,28192
CQUADX4,28554,1,28192,28441,28442,28193
CQUADX4,28555,1,28193,28442,28443,28194
CQUADX4,28556,1,28194,28443,28444,28195
CQUADX4,28557,1,28195,28444,28445,28196
CQUADX4,28558,1,28196,28445,28446,28197
CQUADX4,28559,1,28197,28446,28447,28198
CQUADX4,28560,1,28198,28447,28448,28199
CQUADX4,28561,1,28199,28448,28449,28200
CQUADX4,28562,1,28200,28449,28450,28201
CQUADX4,28563,1,28201,28450,28451,28202
CQUADX4,28564,1,28202,28451,28452,28203
CQUADX4,28565,1,28203,28452,28453,28204
CQUADX4,28566,1,28204,28453,28454,28205
CQUADX4,28567,1,28205,28454,28455,28206
CQUADX4,28568,1,28206,28455,28456,28207
CQUADX4,28569,1,28207,28456,28457,28208
CQUADX4,28570,1,28208,28457,28458,28209
CQUADX4,28571,1,28209,28458,28459,28210
CQUADX4,28572,1,28210,28459,28460,28211
CQUADX4,28573,1,28211,28460,28461,28212
CQUADX4,28574,1,28212,28461,28462,28213
CQUADX4,28575,1,28213,28462,28463,28214
CQUADX4,28576,1,28214,28463,28464,28215
CQUADX4,28577,1,28215,28464,28465,28216
CQUADX4,28578,1,28216,28465,28466,28217
CQUADX4,28579,1,28217,28466,28467,28218
CQUADX4,28580,1,28218,28467,28468,28219
CQUADX4,28581,1,28219,28468,28469,28220
CQUADX4,28582,1,28220,28469,28470,28221
CQUADX4,28583,1,28221,28470,28471,28222
CQUADX4,28584,1,28222,28471,28472,28223
CQUADX4,28585,1,28223,28472,28473,28224
CQUADX4,28586,1,28224,28473,28474,28225
CQUADX4,28587,1,28225,28474,28475,28226
CQUADX4,28588,1,28226,28475,28476,28227
CQUADX4,28589,1,28227,28476,28477,28228
CQUADX4,28590,1,28228,28477,28478,28229
CQUADX4,28591,1,28229,28478,28479,28230
CQUADX4,28592,1,28230,28479,28480,28231
CQUADX4,28593,1,28231,28480,28481,28232
CQUADX4,28594,1,28232,28481,28482,28233
CQUADX4,28595,1,28233,28482,28483,28234
CQUADX4,28596,1,28234,28483,28484,28235
CQUADX4,28597,1,28235,28484,28485,28236
CQUADX4,28598,1,28236,28485,28486,28237
CQUADX4,28599,1,28237,28486,28487,28238
CQUADX4,28600,1,28238,28487,28488,28239
CQUADX4,28601,1,28239,28488,28489,28240
CQUADX4,28602,1,28240,28489,28490,28241
CQUADX4,28603,1,28241,28490,28491,28242
CQUADX4,28604,1,28242,28491,28492,28243
CQUADX4,28605,1,28243,28492,28493,28244
CQUADX4,28606,1,28244,28493,28494,28245
CQUADX4,28607,1,28245,28494,28495,28246
CQUADX4,28608,1,28246,28495,28496,28247
CQUADX4,28609,1,28247,28496,28497,28248
CQUADX4,28610,1,28248,28497,28498,28249
CQUADX4,28611,1,28249,28498,28499,28250
CQUADX4,28612,1,28250,28499,28500,28251
CQUADX4,28613,1,28251,28500,28501,28252
CQUADX4,28614,1,28252,28501,28502,28253
CQUADX4,28615,1,28253,28502,28503,28254
CQUADX4,28616,1,28254,28503,28504,28255
CQUADX4,28617,1,28255,28504,28505,28256
CQUADX4,28618,1,28256,28505,28506,28257
CQUADX4,28619,1,28257,28506,28507,28258
CQUADX4,28620,1,28258,28507,28508,28259
CQUADX4,28621,1,28259,28508,28509,28260
CQUADX4,28622,1,28260,28509,28510,28261
CQUADX4,28623,1,28261,28510,28511,28262
CQUADX4,28624,1,28262,28511,28512,28263
CQUADX4,28625,1,28263,28512,28513,28264
CQUADX4,28626,1,28264,28513,28514,28265
CQUADX4,28627,1,28265,28514,28515,28266
CQUADX4,28628,1,28266,28515,28516,28267
CQUADX4,28629,1,28267,28516,28517,28268
CQUADX4,28630,1,28268,28517,28518,28269
CQUADX4,28631,1,28269,28518,28519,28270
CQUADX4,28632,1,28270,28519,28520,28271
CQUADX4,28633,1,28272,28521,28522,28273
CQUADX4,28634,1,28273,28522,28523,28274
CQUADX4,28635,1,28274,28523,28524,28275
CQUADX4,28636,1,28275,28524,28525,28276
CQUADX4,28637,1,28276,28525,28526,28277
CQUADX4,28638,1,28277,28526,28527,28278
CQUADX4,28639,1,28278,28527,28528,28279
CQUADX4,28640,1,28279,28528,28529,28280
CQUADX4,28641,1,28280,28529,28530,28281
CQUADX4,28642,1,28281,28530,28531,28282
CQUADX4,28643,1,28282,28531,28532,28283
CQUADX4,28644,1,28283,28532,28533,28284
CQUADX4,28645,1,28284,28533,28534,28285
CQUADX4,28646,1,28285,28534,28535,28286
CQUADX4,28647,1,28286,28535,28536,28287
CQUADX4,28648,1,28287,28536,28537,28288
CQUADX4,28649,1,28288,28537,28538,28289
CQUADX4,28650,1,28289,28538,28539,28290
CQUADX4,28651,1,28290,28539,28540,28291
CQUADX4,28652,1,28291,28540,28541,28292
CQUADX4,28653,1,28292,28541,28542,28293
CQUADX4,28654,1,28293,28542,28543,28294
CQUADX4,28655,1,28294,28543,28544,28295
CQUADX4,28656,1,28295,28544,28545,28296
CQUADX4,28657,1,28296,28545,28546,28297
CQUADX4,28658,1,28297,28546,28547,28298
CQUADX4,28659,1,28298,28547,28548,28299
CQUADX4,28660,1,28299,28548,28549,28300
CQUADX4,28661,1,28300,28549,28550,28301
CQUADX4,28662,1,28301,28550,28551,28302
CQUADX4,28663,1,28302,28551,28552,28303
CQUADX4,28664,1,28303,28552,28553,28304
CQUADX4,28665,1,28304,28553,28554,28305
CQUADX4,28666,1,28305,28554,28555,28306
CQUADX4,28667,1,28306,28555,28556,28307
CQUADX4,28668,1,28307,28556,28557,28308
CQUADX4,28669,1,28308,28557,28558,28309
CQUADX4,28670,1,28309,28558,28559,28310
CQUADX4,28671,1,28310,28559,28560,28311
CQUADX4,28672,1,28311,28560,28561,28312
CQUADX4,28673,1,28312,28561,28562,28313
CQUADX4,28674,1,28313,28562,28563,28314
CQUADX4,28675,1,28314,28563,28564,28315
CQUADX4,28676,1,28315,28564,28565,28316
CQUADX4,28677,1,28316,28565,28566,28317
CQUADX4,28678,1,28317,28566,28567,28318
CQUADX4,28679,1,28318,28567,28568,28319
CQUADX4,28680,1,28319,28568,28569,28320
CQUADX4,28681,1,28320,28569,28570,28321
CQUADX4,28682,1,28321,28570,28571,28322
CQUADX4,28683,1,28322,28571,28572,28323
CQUADX4,28684,1,28323,28572,28573,28324
CQUADX4,28685,1,28324,28573,28574,28325
CQUADX4,28686,1,28325,28574,28575,28326
CQUADX4,28687,1,28326,28575,28576,28327
CQUADX4,28688,1,28327,28576,28577,28328
CQUADX4,28689,1,28328,28577,28578,28329
CQUADX4,28690,1,28329,28578,28579,28330
CQUADX4,28691,1,28330,28579,28580,28331
CQUADX4,28692,1,28331,28580,28581,28332
CQUADX4,28693,1,28332,28581,28582,28333
CQUADX4,28694,1,28333,28582,28583,28334
CQUADX4,28695,1,28334,28583,28584,28335
CQUADX4,28696,1,28335,28584,28585,28336
CQUADX4,28697,1,28336,28585,28586,28337
CQUADX4,28698,1,28337,28586,28587,28338
CQUADX4,28699,1,28338,28587,28588,28339
CQUADX4,28700,1,28339,28588,28589,28340
CQUADX4,28701,1,28340,28589,28590,28341
CQUADX4,28702,1,28341,28590,28591,28342
CQUADX4,28703,1,28342,28591,28592,28343
CQUADX4,28704,1,28343,28592,28593,28344
CQUADX4,28705,1,28344,28593,28594,28345
CQUADX4,28706,1,28345,28594,28595,28346
CQUADX4,28707,1,28346,28595,28596,28347
CQUADX4,28708,1,28347,28596,28597,28348
CQUADX4,28709,1,28348,28597,28598,28349
CQUADX4,28710,1,28349,28598,28599,28350
CQUADX4,28711,1,28350,28599,28600,28351
CQUADX4,28712,1,28351,28600,28601,28352
CQUADX4,28713,1,28352,28601,28602,28353
CQUADX4,28714,1,28353,28602,28603,28354
CQUADX4,28715,1,28354,28603,28604,28355
CQUADX4,28716,1,28355,28604,28605,28356
CQUADX4,28717,1,28356,28605,28606,28357
CQUADX4,28718,1,28357,28606,28607,28358
CQUADX4,28719,1,28358,28607,28608,28359
CQUADX4,28720,1,28359,28608,28609,28360
CQUADX4,28721,1,28360,28609,28610,28361
CQUADX4,28722,1,28361,28610,28611,28362
CQUADX4,28723,1,28362,28611,28612,28363
CQUADX4,28724,1,28363,28612,28613,28364
CQUADX4,28725,1,28364,28613,28614,28365
CQUADX4,28726,1,28365,28614,28615,28366
CQUADX4,28727,1,28366,28615,28616,28367
CQUADX4,28728,1,28367,28616,28617,28368
CQUADX4,28729,1,28368,28617,28618,28369
CQUADX4,28730,1,28369,28618,28619,28370
CQUADX4,28731,1,28370,28619,28620,28371
CQUADX4,28732,1,28371,28620,28621,28372
CQUADX4,28733,1,28372,28621,28622,28373
CQUADX4,28734,1,28373,28622,28623,28374
CQUADX4,28735,1,28374,28623,28624,28375
CQUADX4,28736,1,28375,28624,28625,28376
CQUADX4,28737,1,28376,28625,28626,28377
CQUADX4,28738,1,28377,28626,28627,28378
CQUADX4,28739,1,28378,28627,28628,28379
CQUADX4,28740,1,28379,28628,28629,28380
CQUADX4,28741,1,28380,28629,28630,28381
CQUADX4,28742,1,28381,28630,28631,28382
CQUADX4,28743,1,28382,28631,28632,28383
CQUADX4,28744,1,28383,28632,28633,28384
CQUADX4,28745,1,28384,28633,28634,28385
CQUADX4,28746,1,28385,28634,28635,28386
CQUADX4,28747,1,28386,28635,28636,28387
CQUADX4,28748,1,28387,28636,28637,28388
CQUADX4,28749,1,28388,28637,28638,28389
CQUADX4,28750,1,28389,28638,28639,28390
CQUADX4,28751,1,28390,28639,28640,28391
CQUADX4,28752,1,28391,28640,28641,28392
CQUADX4,28753,1,28392,28641,28642,28393
CQUADX4,28754,1,28393,28642,28643,28394
CQUADX4,28755,1,28394,28643,28644,28395
CQUADX4,28756,1,28395,28644,28645,28396
CQUADX4,28757,1,28396,28645,28646,28397
CQUADX4,28758,1,28397,28646,28647,28398
CQUADX4,28759,1,28398,28647,28648,28399
CQUADX4,28760,1,28399,28648,28649,28400
CQUADX4,28761,1,28400,28649,28650,28401
CQUADX4,28762,1,28401,28650,28651,28402
CQUADX4,28763,1,28402,28651,28652,28403
CQUADX4,28764,1,28403,28652,28653,28404
CQUADX4,28765,1,28404,28653,28654,28405
CQUADX4,28766,1,28405,28654,28655,28406
CQUADX4,28767,1,28406,28655,28656,28407
CQUADX4,28768,1,28407,28656,28657,28408
CQUADX4,28769,1,28408,28657,28658,28409
CQUADX4,28770,1,28409,28658,28659,28410
CQUADX4,28771,1,28410,28659,28660,28411
CQUADX4,28772,1,28411,28660,28661,28412
CQUADX4,28773,1,28412,28661,28662,28413
CQUADX4,28774,1,28413,28662,28663,28414
CQUADX4,28775,1,28414,28663,28664,28415
CQUADX4,28776,1,28415,28664,28665,28416
CQUADX4,28777,1,28416,28665,28666,28417
CQUADX4,28778,1,28417,28666,28667,28418
CQUADX4,28779,1,28418,28667,28668,28419
CQUADX4,28780,1,28419,28668,28669,28420
CQUADX4,28781,1,28420,28669,28670,28421
CQUADX4,28782,1,28421,28670,28671,28422
CQUADX4,28783,1,28422,28671,28672,28423
CQUADX4,28784,1,28423,28672,28673,28424
CQUADX4,28785,1,28424,28673,28674,28425
CQUADX4,28786,1,28425,28674,28675,28426
CQUADX4,28787,1,28426,28675,28676,28427
CQUADX4,28788,1,28427,28676,28677,28428
CQUADX4,28789,1,28428,28677,28678,28429
CQUADX4,28790,1,28429,28678,28679,28430
CQUADX4,28791,1,28430,28679,28680,28431
CQUADX4,28792,1,28431,28680,28681,28432
CQUADX4,28793,1,28432,28681,28682,28433
CQUADX4,28794,1,28433,28682,28683,28434
CQUADX4,28795,1,28434,28683,28684,28435
CQUADX4,28796,1,28435,28684,28685,28436
CQUADX4,28797,1,28436,28685,28686,28437
CQUADX4,28798,1,28437,28686,28687,28438
CQUADX4,28799,1,28438,28687,28688,28439
CQUADX4,28800,1,28439,28688,28689,28440
CQUADX4,28801,1,28440,28689,28690,28441
CQUADX4,28802,1,28441,28690,28691,28442
CQUADX4,28803,1,28442,28691,28692,28443
CQUADX4,28804,1,28443,28692,28693,28444
CQUADX4,28805,1,28444,28693,28694,28445
CQUADX4,28806,1,28445,28694,28695,28446
CQUADX4,28807,1,28446,28695,28696,28447
CQUADX4,28808,1,28447,28696,28697,28448
CQUADX4,28809,1,28448,28697,28698,28449
CQUADX4,28810,1,28449,28698,28699,28450
CQUADX4,28811,1,28450,28699,28700,28451
CQUADX4,28812,1,28451,28700,28701,28452
CQUADX4,28813,1,28452,28701,28702,28453
CQUADX4,28814,1,28453,28702,28703,28454
CQUADX4,28815,1,28454,28703,28704,28455
CQUADX4,28816,1,28455,28704,28705,28456
CQUADX4,28817,1,28456,28705,28706,28457
CQUADX4,28818,1,28457,28706,28707,28458
CQUADX4,28819,1,28458,28707,28708,28459
CQUADX4,28820,1,28459,28708,28709,28460
CQUADX4,28821,1,28460,28709,28710,28461
CQUADX4,28822,1,28461,28710,28711,28462
CQUADX4,28823,1,28462,28711,28712,28463
CQUADX4,28824,1,28463,28712,28713,28464
CQUADX4,28825,1,28464,28713,28714,28465
CQUADX4,28826,1,28465,28714,28715,28466
CQUADX4,28827,1,28466,28715,28716,28467
CQUADX4,28828,1,28467,28716,28717,28468
CQUADX4,28829,1,28468,28717,28718,28469
CQUADX4,28830,1,28469,28718,28719,28470
CQUADX4,28831,1,28470,28719,28720,28471
CQUADX4,28832,1,28471,28720,28721,28472
CQUADX4,28833,1,28472,28721,28722,28473
CQUADX4,28834,1,28473,28722,28723,28474
CQUADX4,28835,1,28474,28723,28724,28475
CQUADX4,28836,1,28475,28724,28725,28476
CQUADX4,28837,1,28476,28725,28726,28477
CQUADX4,28838,1,28477,28726,28727,28478
CQUADX4,28839,1,28478,28727,28728,28479
CQUADX4,28840,1,28479,28728,28729,28480
CQUADX4,28841,1,28480,28729,28730,28481
CQUADX4,28842,1,28481,28730,28731,28482
CQUADX4,28843,1,28482,28731,28732,28483
CQUADX4,28844,1,28483,28732,28733,28484
CQUADX4,28845,1,28484,28733,28734,28485
CQUADX4,28846,1,28485,28734,28735,28486
CQUADX4,28847,1,28486,28735,28736,28487
CQUADX4,28848,1,28487,28736,28737,28488
CQUADX4,28849,1,28488,28737,28738,28489
CQUADX4,28850,1,28489,28738,28739,28490
CQUADX4,28851,1,28490,28739,28740,28491
CQUADX4,28852,1,28491,28740,28741,28492
CQUADX4,28853,1,28492,28741,28742,28493
CQUADX4,28854,1,28493,28742,28743,28494
CQUADX4,28855,1,28494,28743,28744,28495
CQUADX4,28856,1,28495,28744,28745,28496
CQUADX4,28857,1,28496,28745,28746,28497
CQUADX4,28858,1,28497,28746,28747,28498
CQUADX4,28859,1,28498,28747,28748,28499
CQUADX4,28860,1,28499,28748,28749,28500
CQUADX4,28861,1,28500,28749,28750,28501
CQUADX4,28862,1,28501,28750,28751,28502
CQUADX4,28863,1,28502,28751,28752,28503
CQUADX4,28864,1,28503,28752,28753,28504
CQUADX4,28865,1,28504,28753,28754,28505
CQUADX4,28866,1,28505,28754,28755,28506
CQUADX4,28867,1,28506,28755,28756,28507
CQUADX4,28868,1,28507,28756,28757,28508
CQUADX4,28869,1,28508,28757,28758,28509
CQUADX4,28870,1,28509,28758,28759,28510
CQUADX4,28871,1,28510,28759,28760,28511
CQUADX4,28872,1,28511,28760,28761,28512
CQUADX4,28873,1,28512,28761,28762,28513
CQUADX4,28874,1,28513,28762,28763,28514
CQUADX4,28875,1,28514,28763,28764,28515
CQUADX4,28876,1,28515,28764,28765,28516
CQUADX4,28877,1,28516,28765,28766,28517
CQUADX4,28878,1,28517,28766,28767,28518
CQUADX4,28879,1,28518,28767,28768,28519
CQUADX4,28880,1,28519,28768,28769,28520
CQUADX4,28881,1,28521,28770,28771,28522
CQUADX4,28882,1,28522,28771,28772,28523
CQUADX4,28883,1,28523,28772,28773,28524
CQUADX4,28884,1,28524,28773,28774,28525
CQUADX4,28885,1,28525,28774,28775,28526
CQUADX4,28886,1,28526,28775,28776,28527
CQUADX4,28887,1,28527,28776,28777,28528
CQUADX4,28888,1,28528,28777,28778,28529
CQUADX4,28889,1,28529,28778,28779,28530
CQUADX4,28890,1,28530,28779,28780,28531
CQUADX4,28891,1,28531,28780,28781,28532
CQUADX4,28892,1,28532,28781,28782,28533
CQUADX4,28893,1,28533,28782,28783,28534
CQUADX4,28894,1,28534,28783,28784,28535
CQUADX4,28895,1,28535,28784,28785,28536
CQUADX4,28896,1,28536,28785,28786,28537
CQUADX4,28897,1,28537,28786,28787,28538
CQUADX4,28898,1,28538,28787,28788,28539
CQUADX4,28899,1,28539,28788,28789,28540
CQUADX4,28900,1,28540,28789,28790,28541
CQUADX4,28901,1,28541,28790,28791,28542
CQUADX4,28902,1,28542,28791,28792,28543
CQUADX4,28903,1,28543,28792,28793,28544
CQUADX4,28904,1,28544,28793,28794,28545
CQUADX4,28905,1,28545,28794,28795,28546
CQUADX4,28906,1,28546,28795,28796,28547
CQUADX4,28907,1,28547,28796,28797,28548
CQUADX4,28908,1,28548,28797,28798,28549
CQUADX4,28909,1,28549,28798,28799,28550
CQUADX4,28910,1,28550,28799,28800,28551
CQUADX4,28911,1,28551,28800,28801,28552
CQUADX4,28912,1,28552,28801,28802,28553
CQUADX4,28913,1,28553,28802,28803,28554
CQUADX4,28914,1,28554,28803,28804,28555
CQUADX4,28915,1,28555,28804,28805,28556
CQUADX4,28916,1,28556,28805,28806,28557
CQUADX4,28917,1,28557,28806,28807,28558
CQUADX4,28918,1,28558,28807,28808,28559
CQUADX4,28919,1,28559,28808,28809,28560
CQUADX4,28920,1,28560,28809,28810,28561
CQUADX4,28921,1,28561,28810,28811,28562
CQUADX4,28922,1,28562,28811,28812,28563
CQUADX4,28923,1,28563,28812,28813,28564
CQUADX4,28924,1,28564,28813,28814,28565
CQUADX4,28925,1,28565,28814,28815,28566
CQUADX4,28926,1,28566,28815,28816,28567
CQUADX4,28927,1,28567,28816,28817,28568
CQUADX4,28928,1,28568,28817,28818,28569
CQUADX4,28929,1,28569,28818,28819,28570
CQUADX4,28930,1,28570,28819,28820,28571
CQUADX4,28931,1,28571,28820,28821,28572
CQUADX4,28932,1,28572,28821,28822,28573
CQUADX4,28933,1,28573,28822,28823,28574
CQUADX4,28934,1,28574,28823,28824,28575
CQUADX4,28935,1,28575,28824,28825,28576
CQUADX4,28936,1,28576,28825,28826,28577
CQUADX4,28937,1,28577,28826,28827,28578
CQUADX4,28938,1,28578,28827,28828,28579
CQUADX4,28939,1,28579,28828,28829,28580
CQUADX4,28940,1,28580,28829,28830,28581
CQUADX4,28941,1,28581,28830,28831,28582
CQUADX4,28942,1,28582,28831,28832,28583
CQUADX4,28943,1,28583,28832,28833,28584
CQUADX4,28944,1,28584,28833,28834,28585
CQUADX4,28945,1,28585,28834,28835,28586
CQUADX4,28946,1,28586,28835,28836,28587
CQUADX4,28947,1,28587,28836,28837,28588
CQUADX4,28948,1,28588,28837,28838,28589
CQUADX4,28949,1,28589,28838,28839,28590
CQUADX4,28950,1,28590,28839,28840,28591
CQUADX4,28951,1,28591,28840,28841,28592
CQUADX4,28952,1,28592,28841,28842,28593
CQUADX4,28953,1,28593,28842,28843,28594
CQUADX4,28954,1,28594,28843,28844,28595
CQUADX4,28955,1,28595,28844,28845,28596
CQUADX4,28956,1,28596,28845,28846,28597
CQUADX4,28957,1,28597,28846,28847,28598
CQUADX4,28958,1,28598,28847,28848,28599
CQUADX4,28959,1,28599,28848,28849,28600
CQUADX4,28960,1,28600,28849,28850,28601
CQUADX4,28961,1,28601,28850,28851,28602
CQUADX4,28962,1,28602,28851,28852,28603
CQUADX4,28963,1,28603,28852,28853,28604
CQUADX4,28964,1,28604,28853,28854,28605
CQUADX4,28965,1,28605,28854,28855,28606
CQUADX4,28966,1,28606,28855,28856,28607
CQUADX4,28967,1,28607,28856,28857,28608
CQUADX4,28968,1,28608,28857,28858,28609
CQUADX4,28969,1,28609,28858,28859,28610
CQUADX4,28970,1,28610,28859,28860,28611
CQUADX4,28971,1,28611,28860,28861,28612
CQUADX4,28972,1,28612,28861,28862,28613
CQUADX4,28973,1,28613,28862,28863,28614
CQUADX4,28974,1,28614,28863,28864,28615
CQUADX4,28975,1,28615,28864,28865,28616
CQUADX4,28976,1,28616,28865,28866,28617
CQUADX4,28977,1,28617,28866,28867,28618
CQUADX4,28978,1,28618,28867,28868,28619
CQUADX4,28979,1,28619,28868,28869,28620
CQUADX4,28980,1,28620,28869,28870,28621
CQUADX4,28981,1,28621,28870,28871,28622
CQUADX4,28982,1,28622,28871,28872,28623
CQUADX4,28983,1,28623,28872,28873,28624
CQUADX4,28984,1,28624,28873,28874,28625
CQUADX4,28985,1,28625,28874,28875,28626
CQUADX4,28986,1,28626,28875,28876,28627
CQUADX4,28987,1,28627,28876,28877,28628
CQUADX4,28988,1,28628,28877,28878,28629
CQUADX4,28989,1,28629,28878,28879,28630
CQUADX4,28990,1,28630,28879,28880,28631
CQUADX4,28991,1,28631,28880,28881,28632
CQUADX4,28992,1,28632,28881,28882,28633
CQUADX4,28993,1,28633,28882,28883,28634
CQUADX4,28994,1,28634,28883,28884,28635
CQUADX4,28995,1,28635,28884,28885,28636
CQUADX4,28996,1,28636,28885,28886,28637
CQUADX4,28997,1,28637,28886,28887,28638
CQUADX4,28998,1,28638,28887,28888,28639
CQUADX4,28999,1,28639,28888,28889,28640
CQUADX4,29000,1,28640,28889,28890,28641
CQUADX4,29001,1,28641,28890,28891,28642
CQUADX4,29002,1,28642,28891,28892,28643
CQUADX4,29003,1,28643,28892,28893,28644
CQUADX4,29004,1,28644,28893,28894,28645
CQUADX4,29005,1,28645,28894,28895,28646
CQUADX4,29006,1,28646,28895,28896,28647
CQUADX4,29007,1,28647,28896,28897,28648
CQUADX4,29008,1,28648,28897,28898,28649
CQUADX4,29009,1,28649,28898,28899,28650
CQUADX4,29010,1,28650,28899,28900,28651
CQUADX4,29011,1,28651,28900,28901,28652
CQUADX4,29012,1,28652,28901,28902,28653
CQUADX4,29013,1,28653,28902,28903,28654
CQUADX4,29014,1,28654,28903,28904,28655
CQUADX4,29015,1,28655,28904,28905,28656
CQUADX4,29016,1,28656,28905,28906,28657
CQUADX4,29017,1,28657,28906,28907,28658
CQUADX4,29018,1,28658,28907,28908,28659
CQUADX4,29019,1,28659,28908,28909,28660
CQUADX4,29020,1,28660,28909,28910,28661
CQUADX4,29021,1,28661,28910,28911,28662
CQUADX4,29022,1,28662,28911,28912,28663
CQUADX4,29023,1,28663,28912,28913,28664
CQUADX4,29024,1,28664,28913,28914,28665
CQUADX4,29025,1,28665,28914,28915,28666
CQUADX4,29026,1,28666,28915,28916,28667
CQUADX4,29027,1,28667,28916,28917,28668
CQUADX4,29028,1,28668,28917,28918,28669
CQUADX4,29029,1,28669,28918,28919,28670
CQUADX4,29030,1,28670,28919,28920,28671
CQUADX4,29031,1,28671,28920,28921,28672
CQUADX4,29032,1,28672,28921,28922,28673
CQUADX4,29033,1,28673,28922,28923,28674
CQUADX4,29034,1,28674,28923,28924,28675
CQUADX4,29035,1,28675,28924,28925,28676
CQUADX4,29036,1,28676,28925,28926,28677
CQUADX4,29037,1,28677,28926,28927,28678
CQUADX4,29038,1,28678,28927,28928,28679
CQUADX4,29039,1,28679,28928,28929,28680
CQUADX4,29040,1,28680,28929,28930,28681
CQUADX4,29041,1,28681,28930,28931,28682
CQUADX4,29042,1,28682,28931,28932,28683
CQUADX4,29043,1,28683,28932,28933,28684
CQUADX4,29044,1,28684,28933,28934,28685
CQUADX4,29045,1,28685,28934,28935,28686
CQUADX4,29046,1,28686,28935,28936,28687
CQUADX4,29047,1,28687,28936,28937,28688
CQUADX4,29048,1,28688,28937,28938,28689
CQUADX4,29049,1,28689,28938,28939,28690
CQUADX4,29050,1,28690,28939,28940,28691
CQUADX4,29051,1,28691,28940,28941,28692
CQUADX4,29052,1,28692,28941,28942,28693
CQUADX4,29053,1,28693,28942,28943,28694
CQUADX4,29054,1,28694,28943,28944,28695
CQUADX4,29055,1,28695,28944,28945,28696
CQUADX4,29056,1,28696,28945,28946,28697
CQUADX4,29057,1,28697,28946,28947,28698
CQUADX4,29058,1,28698,28947,28948,28699
CQUADX4,29059,1,28699,28948,28949,28700
CQUADX4,29060,1,28700,28949,28950,28701
CQUADX4,29061,1,28701,28950,28951,28702
CQUADX4,29062,1,28702,28951,28952,28703
CQUADX4,29063,1,28703,28952,28953,28704
CQUADX4,29064,1,28704,28953,28954,28705
CQUADX4,29065,1,28705,28954,28955,28706
CQUADX4,29066,1,28706,28955,28956,28707
CQUADX4,29067,1,28707,28956,28957,28708
CQUADX4,29068,1,28708,28957,28958,28709
CQUADX4,29069,1,28709,28958,28959,28710
CQUADX4,29070,1,28710,28959,28960,28711
CQUADX4,29071,1,28711,28960,28961,28712
CQUADX4,29072,1,28712,28961,28962,28713
CQUADX4,29073,1,28713,28962,28963,28714
CQUADX4,29074,1,28714,28963,28964,28715
CQUADX4,29075,1,28715,28964,28965,28716
CQUADX4,29076,1,28716,28965,28966,28717
CQUADX4,29077,1,28717,28966,28967,28718
CQUADX4,29078,1,28718,28967,28968,28719
CQUADX4,29079,1,28719,28968,28969,28720
CQUADX4,29080,1,28720,28969,28970,28721
CQUADX4,29081,1,28721,28970,28971,28722
CQUADX4,29082,1,28722,28971,28972,28723
CQUADX4,29083,1,28723,28972,28973,28724
CQUADX4,29084,1,28724,28973,28974,28725
CQUADX4,29085,1,28725,28974,28975,28726
CQUADX4,29086,1,28726,28975,28976,28727
CQUADX4,29087,1,28727,28976,28977,28728
CQUADX4,29088,1,28728,28977,28978,28729
CQUADX4,29089,1,28729,28978,28979,28730
CQUADX4,29090,1,28730,28979,28980,28731
CQUADX4,29091,1,28731,28980,28981,28732
CQUADX4,29092,1,28732,28981,28982,28733
CQUADX4,29093,1,28733,28982,28983,28734
CQUADX4,29094,1,28734,28983,28984,28735
CQUADX4,29095,1,28735,28984,28985,28736
CQUADX4,29096,1,28736,28985,28986,28737
CQUADX4,29097,1,28737,28986,28987,28738
CQUADX4,29098,1,28738,28987,28988,28739
CQUADX4,29099,1,28739,28988,28989,28740
CQUADX4,29100,1,28740,28989,28990,28741
CQUADX4,29101,1,28741,28990,28991,28742
CQUADX4,29102,1,28742,28991,28992,28743
CQUADX4,29103,1,28743,28992,28993,28744
CQUADX4,29104,1,28744,28993,28994,28745
CQUADX4,29105,1,28745,28994,28995,28746
CQUADX4,29106,1,28746,28995,28996,28747
CQUADX4,29107,1,28747,28996,28997,28748
CQUADX4,29108,1,28748,28997,28998,28749
CQUADX4,29109,1,28749,28998,28999,28750
CQUADX4,29110,1,28750,28999,29000,28751
CQUADX4,29111,1,28751,29000,29001,28752
CQUADX4,29112,1,28752,29001,29002,28753
CQUADX4,29113,1,28753,29002,29003,28754
CQUADX4,29114,1,28754,29003,29004,28755
CQUADX4,29115,1,28755,29004,29005,28756
CQUADX4,29116,1,28756,29005,29006,28757
CQUADX4,29117,1,28757,29006,29007,28758
CQUADX4,29118,1,28758,29007,29008,28759
CQUADX4,29119,1,28759,29008,29009,28760
CQUADX4,29120,1,28760,29009,29010,28761
CQUADX4,29121,1,28761,29010,29011,28762
CQUADX4,29122,1,28762,29011,29012,28763
CQUADX4,29123,1,28763,29012,29013,28764
CQUADX4,29124,1,28764,29013,29014,28765
CQUADX4,29125,1,28765,29014,29015,28766
CQUADX4,29126,1,28766,29015,29016,28767
CQUADX4,29127,1,28767,29016,29017,28768
CQUADX4,29128,1,28768,29017,29018,28769
CQUADX4,29129,1,28770,29019,29020,28771
CQUADX4,29130,1,28771,29020,29021,28772
CQUADX4,29131,1,28772,29021,29022,28773
CQUADX4,29132,1,28773,29022,29023,28774
CQUADX4,29133,1,28774,29023,29024,28775
CQUADX4,29134,1,28775,29024,29025,28776
CQUADX4,29135,1,28776,29025,29026,28777
CQUADX4,29136,1,28777,29026,29027,28778
CQUADX4,29137,1,28778,29027,29028,28779
CQUADX4,29138,1,28779,29028,29029,28780
CQUADX4,29139,1,28780,29029,29030,28781
CQUADX4,29140,1,28781,29030,29031,28782
CQUADX4,29141,1,28782,29031,29032,28783
CQUADX4,29142,1,28783,29032,29033,28784
CQUADX4,29143,1,28784,29033,29034,28785
CQUADX4,29144,1,28785,29034,29035,28786
CQUADX4,29145,1,28786,29035,29036,28787
CQUADX4,29146,1,28787,29036,29037,28788
CQUADX4,29147,1,28788,29037,29038,28789
CQUADX4,29148,1,28789,29038,29039,28790
CQUADX4,29149,1,28790,29039,29040,28791
CQUADX4,29150,1,28791,29040,29041,28792
CQUADX4,29151,1,28792,29041,29042,28793
CQUADX4,29152,1,28793,29042,29043,28794
CQUADX4,29153,1,28794,29043,29044,28795
CQUADX4,29154,1,28795,29044,29045,28796
CQUADX4,29155,1,28796,29045,29046,28797
CQUADX4,29156,1,28797,29046,29047,28798
CQUADX4,29157,1,28798,29047,29048,28799
CQUADX4,29158,1,28799,29048,29049,28800
CQUADX4,29159,1,28800,29049,29050,28801
CQUADX4,29160,1,28801,29050,29051,28802
CQUADX4,29161,1,28802,29051,29052,28803
CQUADX4,29162,1,28803,29052,29053,28804
CQUADX4,29163,1,28804,29053,29054,28805
CQUADX4,29164,1,28805,29054,29055,28806
CQUADX4,29165,1,28806,29055,29056,28807
CQUADX4,29166,1,28807,29056,29057,28808
CQUADX4,29167,1,28808,29057,29058,28809
CQUADX4,29168,1,28809,29058,29059,28810
CQUADX4,29169,1,28810,29059,29060,28811
CQUADX4,29170,1,28811,29060,29061,28812
CQUADX4,29171,1,28812,29061,29062,28813
CQUADX4,29172,1,28813,29062,29063,28814
CQUADX4,29173,1,28814,29063,29064,28815
CQUADX4,29174,1,28815,29064,29065,28816
CQUADX4,29175,1,28816,29065,29066,28817
CQUADX4,29176,1,28817,29066,29067,28818
CQUADX4,29177,1,28818,29067,29068,28819
CQUADX4,29178,1,28819,29068,29069,28820
CQUADX4,29179,1,28820,29069,29070,28821
CQUADX4,29180,1,28821,29070,29071,28822
CQUADX4,29181,1,28822,29071,29072,28823
CQUADX4,29182,1,28823,29072,29073,28824
CQUADX4,29183,1,28824,29073,29074,28825
CQUADX4,29184,1,28825,29074,29075,28826
CQUADX4,29185,1,28826,29075,29076,28827
CQUADX4,29186,1,28827,29076,29077,28828
CQUADX4,29187,1,28828,29077,29078,28829
CQUADX4,29188,1,28829,29078,29079,28830
CQUADX4,29189,1,28830,29079,29080,28831
CQUADX4,29190,1,28831,29080,29081,28832
CQUADX4,29191,1,28832,29081,29082,28833
CQUADX4,29192,1,28833,29082,29083,28834
CQUADX4,29193,1,28834,29083,29084,28835
CQUADX4,29194,1,28835,29084,29085,28836
CQUADX4,29195,1,28836,29085,29086,28837
CQUADX4,29196,1,28837,29086,29087,28838
CQUADX4,29197,1,28838,29087,29088,28839
CQUADX4,29198,1,28839,29088,29089,28840
CQUADX4,29199,1,28840,29089,29090,28841
CQUADX4,29200,1,28841,29090,29091,28842
CQUADX4,29201,1,28842,29091,29092,28843
CQUADX4,29202,1,28843,29092,29093,28844
CQUADX4,29203,1,28844,29093,29094,28845
CQUADX4,29204,1,28845,29094,29095,28846
CQUADX4,29205,1,28846,29095,29096,28847
CQUADX4,29206,1,28847,29096,29097,28848
CQUADX4,29207,1,28848,29097,29098,28849
CQUADX4,29208,1,28849,29098,29099,28850
CQUADX4,29209,1,28850,29099,29100,28851
CQUADX4,29210,1,28851,29100,29101,28852
CQUADX4,29211,1,28852,29101,29102,28853
CQUADX4,29212,1,28853,29102,29103,28854
CQUADX4,29213,1,28854,29103,29104,28855
CQUADX4,29214,1,28855,29104,29105,28856
CQUADX4,29215,1,28856,29105,29106,28857
CQUADX4,29216,1,28857,29106,29107,28858
CQUADX4,29217,1,28858,29107,29108,28859
CQUADX4,29218,1,28859,29108,29109,28860
CQUADX4,29219,1,28860,29109,29110,28861
CQUADX4,29220,1,28861,29110,29111,28862
CQUADX4,29221,1,28862,29111,29112,28863
CQUADX4,29222,1,28863,29112,29113,28864
CQUADX4,29223,1,28864,29113,29114,28865
CQUADX4,29224,1,28865,29114,29115,28866
CQUADX4,29225,1,28866,29115,29116,28867
CQUADX4,29226,1,28867,29116,29117,28868
CQUADX4,29227,1,28868,29117,29118,28869
CQUADX4,29228,1,28869,29118,29119,28870
CQUADX4,29229,1,28870,29119,29120,28871
CQUADX4,29230,1,28871,29120,29121,28872
CQUADX4,29231,1,28872,29121,29122,28873
CQUADX4,29232,1,28873,29122,29123,28874
CQUADX4,29233,1,28874,29123,29124,28875
CQUADX4,29234,1,28875,29124,29125,28876
CQUADX4,29235,1,28876,29125,29126,28877
CQUADX4,29236,1,28877,29126,29127,28878
CQUADX4,29237,1,28878,29127,29128,28879
CQUADX4,29238,1,28879,29128,29129,28880
CQUADX4,29239,1,28880,29129,29130,28881
CQUADX4,29240,1,28881,29130,29131,28882
CQUADX4,29241,1,28882,29131,29132,28883
CQUADX4,29242,1,28883,29132,29133,28884
CQUADX4,29243,1,28884,29133,29134,28885
CQUADX4,29244,1,28885,29134,29135,28886
CQUADX4,29245,1,28886,29135,29136,28887
CQUADX4,29246,1,28887,29136,29137,28888
CQUADX4,29247,1,28888,29137,29138,28889
CQUADX4,29248,1,28889,29138,29139,28890
CQUADX4,29249,1,28890,29139,29140,28891
CQUADX4,29250,1,28891,29140,29141,28892
CQUADX4,29251,1,28892,29141,29142,28893
CQUADX4,29252,1,28893,29142,29143,28894
CQUADX4,29253,1,28894,29143,29144,28895
CQUADX4,29254,1,28895,29144,29145,28896
CQUADX4,29255,1,28896,29145,29146,28897
CQUADX4,29256,1,28897,29146,29147,28898
CQUADX4,29257,1,28898,29147,29148,28899
CQUADX4,29258,1,28899,29148,29149,28900
CQUADX4,29259,1,28900,29149,29150,28901
CQUADX4,29260,1,28901,29150,29151,28902
CQUADX4,29261,1,28902,29151,29152,28903
CQUADX4,29262,1,28903,29152,29153,28904
CQUADX4,29263,1,28904,29153,29154,28905
CQUADX4,29264,1,28905,29154,29155,28906
CQUADX4,29265,1,28906,29155,29156,28907
CQUADX4,29266,1,28907,29156,29157,28908
CQUADX4,29267,1,28908,29157,29158,28909
CQUADX4,29268,1,28909,29158,29159,28910
CQUADX4,29269,1,28910,29159,29160,28911
CQUADX4,29270,1,28911,29160,29161,28912
CQUADX4,29271,1,28912,29161,29162,28913
CQUADX4,29272,1,28913,29162,29163,28914
CQUADX4,29273,1,28914,29163,29164,28915
CQUADX4,29274,1,28915,29164,29165,28916
CQUADX4,29275,1,28916,29165,29166,28917
CQUADX4,29276,1,28917,29166,29167,28918
CQUADX4,29277,1,28918,29167,29168,28919
CQUADX4,29278,1,28919,29168,29169,28920
CQUADX4,29279,1,28920,29169,29170,28921
CQUADX4,29280,1,28921,29170,29171,28922
CQUADX4,29281,1,28922,29171,29172,28923
CQUADX4,29282,1,28923,29172,29173,28924
CQUADX4,29283,1,28924,29173,29174,28925
CQUADX4,29284,1,28925,29174,29175,28926
CQUADX4,29285,1,28926,29175,29176,28927
CQUADX4,29286,1,28927,29176,29177,28928
CQUADX4,29287,1,28928,29177,29178,28929
CQUADX4,29288,1,28929,29178,29179,28930
CQUADX4,29289,1,28930,29179,29180,28931
CQUADX4,29290,1,28931,29180,29181,28932
CQUADX4,29291,1,28932,29181,29182,28933
CQUADX4,29292,1,28933,29182,29183,28934
CQUADX4,29293,1,28934,29183,29184,28935
CQUADX4,29294,1,28935,29184,29185,28936
CQUADX4,29295,1,28936,29185,29186,28937
CQUADX4,29296,1,28937,29186,29187,28938
CQUADX4,29297,1,28938,29187,29188,28939
CQUADX4,29298,1,28939,29188,29189,28940
CQUADX4,29299,1,28940,29189,29190,28941
CQUADX4,29300,1,28941,29190,29191,28942
CQUADX4,29301,1,28942,29191,29192,28943
CQUADX4,29302,1,28943,29192,29193,28944
CQUADX4,29303,1,28944,29193,29194,28945
CQUADX4,29304,1,28945,29194,29195,28946
CQUADX4,29305,1,28946,29195,29196,28947
CQUADX4,29306,1,28947,29196,29197,28948
CQUADX4,29307,1,28948,29197,29198,28949
CQUADX4,29308,1,28949,29198,29199,28950
CQUADX4,29309,1,28950,29199,29200,28951
CQUADX4,29310,1,28951,29200,29201,28952
CQUADX4,29311,1,28952,29201,29202,28953
CQUADX4,29312,1,28953,29202,29203,28954
CQUADX4,29313,1,28954,29203,29204,28955
CQUADX4,29314,1,28955,29204,29205,28956
CQUADX4,29315,1,28956,29205,29206,28957
CQUADX4,29316,1,28957,29206,29207,28958
CQUADX4,29317,1,28958,29207,29208,28959
CQUADX4,29318,1,28959,29208,29209,28960
CQUADX4,29319,1,28960,29209,29210,28961
CQUADX4,29320,1,28961,29210,29211,28962
CQUADX4,29321,1,28962,29211,29212,28963
CQUADX4,29322,1,28963,29212,29213,28964
CQUADX4,29323,1,28964,29213,29214,28965
CQUADX4,29324,1,28965,29214,29215,28966
CQUADX4,29325,1,28966,29215,29216,28967
CQUADX4,29326,1,28967,29216,29217,28968
CQUADX4,29327,1,28968,29217,29218,28969
CQUADX4,29328,1,28969,29218,29219,28970
CQUADX4,29329,1,28970,29219,29220,28971
CQUADX4,29330,1,28971,29220,29221,28972
CQUADX4,29331,1,28972,29221,29222,28973
CQUADX4,29332,1,28973,29222,29223,28974
CQUADX4,29333,1,28974,29223,29224,28975
CQUADX4,29334,1,28975,29224,29225,28976
CQUADX4,29335,1,28976,29225,29226,28977
CQUADX4,29336,1,28977,29226,29227,28978
CQUADX4,29337,1,28978,29227,29228,28979
CQUADX4,29338,1,28979,29228,29229,28980
CQUADX4,29339,1,28980,29229,29230,28981
CQUADX4,29340,1,28981,29230,29231,28982
CQUADX4,29341,1,28982,29231,29232,28983
CQUADX4,29342,1,28983,29232,29233,28984
CQUADX4,29343,1,28984,29233,29234,28985
CQUADX4,29344,1,28985,29234,29235,28986
CQUADX4,29345,1,28986,29235,29236,28987
CQUADX4,29346,1,28987,29236,29237,28988
CQUADX4,29347,1,28988,29237,29238,28989
CQUADX4,29348,1,28989,29238,29239,28990
CQUADX4,29349,1,28990,29239,29240,28991
CQUADX4,29350,1,28991,29240,29241,28992
CQUADX4,29351,1,28992,29241,29242,28993
CQUADX4,29352,1,28993,29242,29243,28994
CQUADX4,29353,1,28994,29243,29244,28995
CQUADX4,29354,1,28995,29244,29245,28996
CQUADX4,29355,1,28996,29245,29246,28997
CQUADX4,29356,1,28997,29246,29247,28998
CQUADX4,29357,1,28998,29247,29248,28999
CQUADX4,29358,1,28999,29248,29249,29000
CQUADX4,29359,1,29000,29249,29250,29001
CQUADX4,29360,1,29001,29250,29251,29002
CQUADX4,29361,1,29002,29251,29252,29003
CQUADX4,29362,1,29003,29252,29253,29004
CQUADX4,29363,1,29004,29253,29254,29005
CQUADX4,29364,1,29005,29254,29255,29006
CQUADX4,29365,1,29006,29255,29256,29007
CQUADX4,29366,1,29007,29256,29257,29008
CQUADX4,29367,1,29008,29257,29258,29009
CQUADX4,29368,1,29009,29258,29259,29010
CQUADX4,29369,1,29010,29259,29260,29011
CQUADX4,29370,1,29011,29260,29261,29012
CQUADX4,29371,1,29012,29261,29262,29013
CQUADX4,29372,1,29013,29262,29263,29014
CQUADX4,29373,1,29014,29263,29264,29015
CQUADX4,29374,1,29015,29264,29265,29016
CQUADX4,29375,1,29016,29265,29266,29017
CQUADX4,29376,1,29017,29266,29267,29018
CQUADX4,29377,1,29019,29268,29269,29020
CQUADX4,29378,1,29020,29269,29270,29021
CQUADX4,29379,1,29021,29270,29271,29022
CQUADX4,29380,1,29022,29271,29272,29023
CQUADX4,29381,1,29023,29272,29273,29024
CQUADX4,29382,1,29024,29273,29274,29025
CQUADX4,29383,1,29025,29274,29275,29026
CQUADX4,29384,1,29026,29275,29276,29027
CQUADX4,29385,1,29027,29276,29277,29028
CQUADX4,29386,1,29028,29277,29278,29029
CQUADX4,29387,1,29029,29278,29279,29030
CQUADX4,29388,1,29030,29279,29280,29031
CQUADX4,29389,1,29031,29280,29281,29032
CQUADX4,29390,1,29032,29281,29282,29033
CQUADX4,29391,1,29033,29282,29283,29034
CQUADX4,29392,1,29034,29283,29284,29035
CQUADX4,29393,1,29035,29284,29285,29036
CQUADX4,29394,1,29036,29285,29286,29037
CQUADX4,29395,1,29037,29286,29287,29038
CQUADX4,29396,1,29038,29287,29288,29039
CQUADX4,29397,1,29039,29288,29289,29040
CQUADX4,29398,1,29040,29289,29290,29041
CQUADX4,29399,1,29041,29290,29291,29042
CQUADX4,29400,1,29042,29291,29292,29043
CQUADX4,29401,1,29043,29292,29293,29044
CQUADX4,29402,1,29044,29293,29294,29045
CQUADX4,29403,1,29045,29294,29295,29046
CQUADX4,29404,1,29046,29295,29296,29047
CQUADX4,29405,1,29047,29296,29297,29048
CQUADX4,29406,1,29048,29297,29298,29049
CQUADX4,29407,1,29049,29298,29299,29050
CQUADX4,29408,1,29050,29299,29300,29051
CQUADX4,29409,1,29051,29300,29301,29052
CQUADX4,29410,1,29052,29301,29302,29053
CQUADX4,29411,1,29053,29302,29303,29054
CQUADX4,29412,1,29054,29303,29304,29055
CQUADX4,29413,1,29055,29304,29305,29056
CQUADX4,29414,1,29056,29305,29306,29057
CQUADX4,29415,1,29057,29306,29307,29058
CQUADX4,29416,1,29058,29307,29308,29059
CQUADX4,29417,1,29059,29308,29309,29060
CQUADX4,29418,1,29060,29309,29310,29061
CQUADX4,29419,1,29061,29310,29311,29062
CQUADX4,29420,1,29062,29311,29312,29063
CQUADX4,29421,1,29063,29312,29313,29064
CQUADX4,29422,1,29064,29313,29314,29065
CQUADX4,29423,1,29065,29314,29315,29066
CQUADX4,29424,1,29066,29315,29316,29067
CQUADX4,29425,1,29067,29316,29317,29068
CQUADX4,29426,1,29068,29317,29318,29069
CQUADX4,29427,1,29069,29318,29319,29070
CQUADX4,29428,1,29070,29319,29320,29071
CQUADX4,29429,1,29071,29320,29321,29072
CQUADX4,29430,1,29072,29321,29322,29073
CQUADX4,29431,1,29073,29322,29323,29074
CQUADX4,29432,1,29074,29323,29324,29075
CQUADX4,29433,1,29075,29324,29325,29076
CQUADX4,29434,1,29076,29325,29326,29077
CQUADX4,29435,1,29077,29326,29327,29078
CQUADX4,29436,1,29078,29327,29328,29079
CQUADX4,29437,1,29079,29328,29329,29080
CQUADX4,29438,1,29080,29329,29330,29081
CQUADX4,29439,1,29081,29330,29331,29082
CQUADX4,29440,1,29082,29331,29332,29083
CQUADX4,29441,1,29083,29332,29333,29084
CQUADX4,29442,1,29084,29333,29334,29085
CQUADX4,29443,1,29085,29334,29335,29086
CQUADX4,29444,1,29086,29335,29336,29087
CQUADX4,29445,1,29087,29336,29337,29088
CQUADX4,29446,1,29088,29337,29338,29089
CQUADX4,29447,1,29089,29338,29339,29090
CQUADX4,29448,1,29090,29339,29340,29091
CQUADX4,29449,1,29091,29340,29341,29092
CQUADX4,29450,1,29092,29341,29342,29093
CQUADX4,29451,1,29093,29342,29343,29094
CQUADX4,29452,1,29094,29343,29344,29095
CQUADX4,29453,1,29095,29344,29345,29096
CQUADX4,29454,1,29096,29345,29346,29097
CQUADX4,29455,1,29097,29346,29347,29098
CQUADX4,29456,1,29098,29347,29348,29099
CQUADX4,29457,1,29099,29348,29349,29100
CQUADX4,29458,1,29100,29349,29350,29101
CQUADX4,29459,1,29101,29350,29351,29102
CQUADX4,29460,1,29102,29351,29352,29103
CQUADX4,29461,1,29103,29352,29353,29104
CQUADX4,29462,1,29104,29353,29354,29105
CQUADX4,29463,1,29105,29354,29355,29106
CQUADX4,29464,1,29106,29355,29356,29107
CQUADX4,29465,1,29107,29356,29357,29108
CQUADX4,29466,1,29108,29357,29358,29109
CQUADX4,29467,1,29109,29358,29359,29110
CQUADX4,29468,1,29110,29359,29360,29111
CQUADX4,29469,1,29111,29360,29361,29112
CQUADX4,29470,1,29112,29361,29362,29113
CQUADX4,29471,1,29113,29362,29363,29114
CQUADX4,29472,1,29114,29363,29364,29115
CQUADX4,29473,1,29115,29364,29365,29116
CQUADX4,29474,1,29116,29365,29366,29117
CQUADX4,29475,1,29117,29366,29367,29118
CQUADX4,29476,1,29118,29367,29368,29119
CQUADX4,29477,1,29119,29368,29369,29120
CQUADX4,29478,1,29120,29369,29370,29121
CQUADX4,29479,1,29121,29370,29371,29122
CQUADX4,29480,1,29122,29371,29372,29123
CQUADX4,29481,1,29123,29372,29373,29124
CQUADX4,29482,1,29124,29373,29374,29125
CQUADX4,29483,1,29125,29374,29375,29126
CQUADX4,29484,1,29126,29375,29376,29127
CQUADX4,29485,1,29127,29376,29377,29128
CQUADX4,29486,1,29128,29377,29378,29129
CQUADX4,29487,1,29129,29378,29379,29130
CQUADX4,29488,1,29130,29379,29380,29131
CQUADX4,29489,1,29131,29380,29381,29132
CQUADX4,29490,1,29132,29381,29382,29133
CQUADX4,29491,1,29133,29382,29383,29134
CQUADX4,29492,1,29134,29383,29384,29135
CQUADX4,29493,1,29135,29384,29385,29136
CQUADX4,29494,1,29136,29385,29386,29137
CQUADX4,29495,1,29137,29386,29387,29138
CQUADX4,29496,1,29138,29387,29388,29139
CQUADX4,29497,1,29139,29388,29389,29140
CQUADX4,29498,1,29140,29389,29390,29141
CQUADX4,29499,1,29141,29390,29391,29142
CQUADX4,29500,1,29142,29391,29392,29143
CQUADX4,29501,1,29143,29392,29393,29144
CQUADX4,29502,1,29144,29393,29394,29145
CQUADX4,29503,1,29145,29394,29395,29146
CQUADX4,29504,1,29146,29395,29396,29147
CQUADX4,29505,1,29147,29396,29397,29148
CQUADX4,29506,1,29148,29397,29398,29149
CQUADX4,29507,1,29149,29398,29399,29150
CQUADX4,29508,1,29150,29399,29400,29151
CQUADX4,29509,1,29151,29400,29401,29152
CQUADX4,29510,1,29152,29401,29402,29153
CQUADX4,29511,1,29153,29402,29403,29154
CQUADX4,29512,1,29154,29403,29404,29155
CQUADX4,29513,1,29155,29404,29405,29156
CQUADX4,29514,1,29156,29405,29406,29157
CQUADX4,29515,1,29157,29406,29407,29158
CQUADX4,29516,1,29158,29407,29408,29159
CQUADX4,29517,1,29159,29408,29409,29160
CQUADX4,29518,1,29160,29409,29410,29161
CQUADX4,29519,1,29161,29410,29411,29162
CQUADX4,29520,1,29162,29411,29412,29163
CQUADX4,29521,1,29163,29412,29413,29164
CQUADX4,29522,1,29164,29413,29414,29165
CQUADX4,29523,1,29165,29414,29415,29166
CQUADX4,29524,1,29166,29415,29416,29167
CQUADX4,29525,1,29167,29416,29417,29168
CQUADX4,29526,1,29168,29417,29418,29169
CQUADX4,29527,1,29169,29418,29419,29170
CQUADX4,29528,1,29170,29419,29420,29171
CQUADX4,29529,1,29171,29420,29421,29172
CQUADX4,29530,1,29172,29421,29422,29173
CQUADX4,29531,1,29173,29422,29423,29174
CQUADX4,29532,1,29174,29423,29424,29175
CQUADX4,29533,1,29175,29424,29425,29176
CQUADX4,29534,1,29176,29425,29426,29177
CQUADX4,29535,1,29177,29426,29427,29178
CQUADX4,29536,1,29178,29427,29428,29179
CQUADX4,29537,1,29179,29428,29429,29180
CQUADX4,29538,1,29180,29429,29430,29181
CQUADX4,29539,1,29181,29430,29431,29182
CQUADX4,29540,1,29182,29431,29432,29183
CQUADX4,29541,1,29183,29432,29433,29184
CQUADX4,29542,1,29184,29433,29434,29185
CQUADX4,29543,1,29185,29434,29435,29186
CQUADX4,29544,1,29186,29435,29436,29187
CQUADX4,29545,1,29187,29436,29437,29188
CQUADX4,29546,1,29188,29437,29438,29189
CQUADX4,29547,1,29189,29438,29439,29190
CQUADX4,29548,1,29190,29439,29440,29191
CQUADX4,29549,1,29191,29440,29441,29192
CQUADX4,29550,1,29192,29441,29442,29193
CQUADX4,29551,1,29193,29442,29443,29194
CQUADX4,29552,1,29194,29443,29444,29195
CQUADX4,29553,1,29195,29444,29445,29196
CQUADX4,29554,1,29196,29445,29446,29197
CQUADX4,29555,1,29197,29446,29447,29198
CQUADX4,29556,1,29198,29447,29448,29199
CQUADX4,29557,1,29199,29448,29449,29200
CQUADX4,29558,1,29200,29449,29450,29201
CQUADX4,29559,1,29201,29450,29451,29202
CQUADX4,29560,1,29202,29451,29452,29203
CQUADX4,29561,1,29203,29452,29453,29204
CQUADX4,29562,1,29204,29453,29454,29205
CQUADX4,29563,1,29205,29454,29455,29206
CQUADX4,29564,1,29206,29455,29456,29207
CQUADX4,29565,1,29207,29456,29457,29208
CQUADX4,29566,1,29208,29457,29458,29209
CQUADX4,29567,1,29209,29458,29459,29210
CQUADX4,29568,1,29210,29459,29460,29211
CQUADX4,29569,1,29211,29460,29461,29212
CQUADX4,29570,1,29212,29461,29462,29213
CQUADX4,29571,1,29213,29462,29463,29214
CQUADX4,29572,1,29214,29463,29464,29215
CQUADX4,29573,1,29215,29464,29465,29216
CQUADX4,29574,1,29216,29465,29466,29217
CQUADX4,29575,1,29217,29466,29467,29218
CQUADX4,29576,1,29218,29467,29468,29219
CQUADX4,29577,1,29219,29468,29469,29220
CQUADX4,29578,1,29220,29469,29470,29221
CQUADX4,29579,1,29221,29470,29471,29222
CQUADX4,29580,1,29222,29471,29472,29223
CQUADX4,29581,1,29223,29472,29473,29224
CQUADX4,29582,1,29224,29473,29474,29225
CQUADX4,29583,1,29225,29474,29475,29226
CQUADX4,29584,1,29226,29475,29476,29227
CQUADX4,29585,1,29227,29476,29477,29228
CQUADX4,29586,1,29228,29477,29478,29229
CQUADX4,29587,1,29229,29478,29479,29230
CQUADX4,29588,1,29230,29479,29480,29231
CQUADX4,29589,1,29231,29480,29481,29232
CQUADX4,29590,1,29232,29481,29482,29233
CQUADX4,29591,1,29233,29482,29483,29234
CQUADX4,29592,1,29234,29483,29484,29235
CQUADX4,29593,1,29235,29484,29485,29236
CQUADX4,29594,1,29236,29485,29486,29237
CQUADX4,29595,1,29237,29486,29487,29238
CQUADX4,29596,1,29238,29487,29488,29239
CQUADX4,29597,1,29239,29488,29489,29240
CQUADX4,29598,1,29240,29489,29490,29241
CQUADX4,29599,1,29241,29490,29491,29242
CQUADX4,29600,1,29242,29491,29492,29243
CQUADX4,29601,1,29243,29492,29493,29244
CQUADX4,29602,1,29244,29493,29494,29245
CQUADX4,29603,1,29245,29494,29495,29246
CQUADX4,29604,1,29246,29495,29496,29247
CQUADX4,29605,1,29247,29496,29497,29248
CQUADX4,29606,1,29248,29497,29498,29249
CQUADX4,29607,1,29249,29498,29499,29250
CQUADX4,29608,1,29250,29499,29500,29251
CQUADX4,29609,1,29251,29500,29501,29252
CQUADX4,29610,1,29252,29501,29502,29253
CQUADX4,29611,1,29253,29502,29503,29254
CQUADX4,29612,1,29254,29503,29504,29255
CQUADX4,29613,1,29255,29504,29505,29256
CQUADX4,29614,1,29256,29505,29506,29257
CQUADX4,29615,1,29257,29506,29507,29258
CQUADX4,29616,1,29258,29507,29508,29259
CQUADX4,29617,1,29259,29508,29509,29260
CQUADX4,29618,1,29260,29509,29510,29261
CQUADX4,29619,1,29261,29510,29511,29262
CQUADX4,29620,1,29262,29511,29512,29263
CQUADX4,29621,1,29263,29512,29513,29264
CQUADX4,29622,1,29264,29513,29514,29265
CQUADX4,29623,1,29265,29514,29515,29266
CQUADX4,29624,1,29266,29515,29516,29267
CQUADX4,29625,1,30850,30798,14826,30705
CQUADX4,29626,1,30798,30797,15075,14826
CQUADX4,29627,1,30797,30796,15324,15075
CQUADX4,29628,1,30796,30795,15573,15324
CQUADX4,29629,1,30795,30794,15822,15573
CQUADX4,29630,1,30794,30793,16071,15822
CQUADX4,29631,1,30793,30792,16320,16071
CQUADX4,29632,1,30792,30791,16569,16320
CQUADX4,29633,1,30791,30790,16818,16569
CQUADX4,29634,1,30790,30789,17067,16818
CQUADX4,29635,1,30789,30788,17316,17067
CQUADX4,29636,1,30788,30787,17565,17316
CQUADX4,29637,1,30787,30786,17814,17565
CQUADX4,29638,1,30786,30785,18063,17814
CQUADX4,29639,1,30785,30784,18312,18063
CQUADX4,29640,1,30784,30783,18561,18312
CQUADX4,29641,1,30783,30782,18810,18561
CQUADX4,29642,1,30782,30781,19059,18810
CQUADX4,29643,1,30781,30780,19308,19059
CQUADX4,29644,1,30780,30779,19557,19308
CQUADX4,29645,1,30779,30778,19806,19557
CQUADX4,29646,1,30778,30777,20055,19806
CQUADX4,29647,1,30777,30776,20304,20055
CQUADX4,29648,1,30776,30775,20553,20304
CQUADX4,29649,1,30775,30774,20802,20553
CQUADX4,29650,1,30774,30773,21051,20802
CQUADX4,29651,1,30773,30772,21300,21051
CQUADX4,29652,1,30772,30771,21549,21300
CQUADX4,29653,1,30771,30770,21798,21549
CQUADX4,29654,1,30770,30769,22047,21798
CQUADX4,29655,1,30769,30768,22296,22047
CQUADX4,29656,1,30768,30767,22545,22296
CQUADX4,29657,1,30767,30766,22794,22545
CQUADX4,29658,1,30766,30765,23043,22794
CQUADX4,29659,1,30765,30764,23292,23043
CQUADX4,29660,1,30764,30763,23541,23292
CQUADX4,29661,1,30763,30762,23790,23541
CQUADX4,29662,1,30762,30761,24039,23790
CQUADX4,29663,1,30761,30760,24288,24039
CQUADX4,29664,1,30760,30759,24537,24288
CQUADX4,29665,1,30759,30758,24786,24537
CQUADX4,29666,1,30758,30757,25035,24786
CQUADX4,29667,1,30757,30756,25284,25035
CQUADX4,29668,1,30756,30755,25533,25284
CQUADX4,29669,1,30755,30754,25782,25533
CQUADX4,29670,1,30754,30753,26031,25782
CQUADX4,29671,1,30753,30752,26280,26031
CQUADX4,29672,1,30752,30751,26529,26280
CQUADX4,29673,1,30751,30750,26778,26529
CQUADX4,29674,1,30750,30749,27027,26778
CQUADX4,29675,1,30749,30748,27276,27027
CQUADX4,29676,1,30748,30747,27525,27276
CQUADX4,29677,1,30747,30746,27774,27525
CQUADX4,29678,1,30746,30745,28023,27774
CQUADX4,29679,1,30745,30744,28272,28023
CQUADX4,29680,1,30744,30743,28521,28272
CQUADX4,29681,1,30743,30742,28770,28521
CQUADX4,29682,1,30742,30741,29019,28770
CQUADX4,29683,1,30741,30740,29268,29019
CQUADX4,29684,1,30740,30849,30561,29268
CQUADX4,29685,1,29268,30561,30562,29269
CQUADX4,29686,1,29269,30562,30563,29270
CQUADX4,29687,1,29270,30563,30564,29271
CQUADX4,29688,1,29271,30564,30565,29272
CQUADX4,29689,1,29272,30565,30566,29273
CQUADX4,29690,1,29273,30566,30846,29274
CQUADX4,29691,1,29274,30846,30440,29275
CQUADX4,29692,1,29275,30440,30441,29276
CQUADX4,29693,1,29276,30441,30442,29277
CQUADX4,29694,1,29277,30442,30443,29278
CQUADX4,29695,1,29278,30443,30444,29279
CQUADX4,29696,1,29279,30444,30445,29280
CQUADX4,29697,1,29280,30445,30446,29281
CQUADX4,29698,1,29281,30446,30447,29282
CQUADX4,29699,1,29282,30447,30448,29283
CQUADX4,29700,1,29283,30448,30449,29284
CQUADX4,29701,1,29284,30449,30450,29285
CQUADX4,29702,1,29285,30450,30451,29286
CQUADX4,29703,1,29286,30451,30452,29287
CQUADX4,29704,1,29287,30452,30453,29288
CQUADX4,29705,1,29288,30453,30454,29289
CQUADX4,29706,1,29289,30454,30455,29290
CQUADX4,29707,1,29290,30455,30456,29291
CQUADX4,29708,1,29291,30456,30457,29292
CQUADX4,29709,1,29292,30457,30458,29293
CQUADX4,29710,1,29293,30458,30459,29294
CQUADX4,29711,1,29294,30459,30460,29295
CQUADX4,29712,1,29295,30460,30461,29296
CQUADX4,29713,1,29296,30461,30462,29297
CQUADX4,29714,1,29297,30462,30463,29298
CQUADX4,29715,1,29298,30463,30464,29299
CQUADX4,29716,1,29299,30464,30465,29300
CQUADX4,29717,1,29300,30465,30466,29301
CQUADX4,29718,1,29301,30466,30467,29302
CQUADX4,29719,1,29302,30467,30468,29303
CQUADX4,29720,1,29303,30468,30469,29304
CQUADX4,29721,1,29304,30469,30470,29305
CQUADX4,29722,1,29305,30470,30471,29306
CQUADX4,29723,1,29306,30471,30472,29307
CQUADX4,29724,1,29307,30472,30473,29308
CQUADX4,29725,1,29308,30473,30474,29309
CQUADX4,29726,1,29309,30474,30475,29310
CQUADX4,29727,1,29310,30475,30476,29311
CQUADX4,29728,1,29311,30476,30477,29312
CQUADX4,29729,1,29312,30477,30478,29313
CQUADX4,29730,1,29313,30478,30479,29314
CQUADX4,29731,1,29314,30479,30480,29315
CQUADX4,29732,1,29315,30480,30481,29316
CQUADX4,29733,1,29316,30481,30482,29317
CQUADX4,29734,1,29317,30482,30483,29318
CQUADX4,29735,1,29318,30483,30484,29319
CQUADX4,29736,1,29319,30484,30485,29320
CQUADX4,29737,1,29320,30485,30486,29321
CQUADX4,29738,1,29321,30486,30487,29322
CQUADX4,29739,1,29322,30487,30488,29323
CQUADX4,29740,1,29323,30488,30489,29324
CQUADX4,29741,1,29324,30489,30490,29325
CQUADX4,29742,1,29325,30490,30491,29326
CQUADX4,29743,1,29326,30491,30492,29327
CQUADX4,29744,1,29327,30492,30493,29328
CQUADX4,29745,1,29328,30493,30494,29329
CQUADX4,29746,1,29329,30494,30495,29330
CQUADX4,29747,1,29330,30495,30496,29331
CQUADX4,29748,1,29331,30496,30497,29332
CQUADX4,29749,1,29332,30497,30498,29333
CQUADX4,29750,1,29333,30498,30499,29334
CQUADX4,29751,1,29334,30499,30500,29335
CQUADX4,29752,1,29335,30500,30501,29336
CQUADX4,29753,1,29336,30501,30502,29337
CQUADX4,29754,1,29337,30502,30503,29338
CQUADX4,29755,1,29338,30503,30504,29339
CQUADX4,29756,1,29339,30504,30505,29340
CQUADX4,29757,1,29340,30505,30506,29341
CQUADX4,29758,1,29341,30506,30507,29342
CQUADX4,29759,1,29342,30507,30508,29343
CQUADX4,29760,1,29343,30508,30509,29344
CQUADX4,29761,1,29344,30509,30510,29345
CQUADX4,29762,1,29345,30510,30511,29346
CQUADX4,29763,1,29346,30511,30512,29347
CQUADX4,29764,1,29347,30512,30513,29348
CQUADX4,29765,1,29348,30513,30514,29349
CQUADX4,29766,1,29349,30514,30515,29350
CQUADX4,29767,1,29350,30515,30516,29351
CQUADX4,29768,1,29351,30516,30517,29352
CQUADX4,29769,1,29352,30517,30518,29353
CQUADX4,29770,1,29353,30518,30519,29354
CQUADX4,29771,1,29354,30519,30520,29355
CQUADX4,29772,1,29355,30520,30521,29356
CQUADX4,29773,1,29356,30521,30522,29357
CQUADX4,29774,1,29357,30522,30523,29358
CQUADX4,29775,1,29358,30523,30524,29359
CQUADX4,29776,1,29359,30524,30525,29360
CQUADX4,29777,1,29360,30525,30526,29361
CQUADX4,29778,1,29361,30526,30527,29362
CQUADX4,29779,1,29362,30527,30528,29363
CQUADX4,29780,1,29363,30528,30529,29364
CQUADX4,29781,1,29364,30529,30530,29365
CQUADX4,29782,1,29365,30530,30531,29366
CQUADX4,29783,1,29366,30531,30532,29367
CQUADX4,29784,1,29367,30532,30533,29368
CQUADX4,29785,1,29368,30533,30534,29369
CQUADX4,29786,1,29369,30534,30535,29370
CQUADX4,29787,1,29370,30535,30536,29371
CQUADX4,29788,1,29371,30536,30537,29372
CQUADX4,29789,1,29372,30537,30538,29373
CQUADX4,29790,1,29373,30538,30539,29374
CQUADX4,29791,1,29374,30539,30540,29375
CQUADX4,29792,1,29375,30540,30541,29376
CQUADX4,29793,1,29376,30541,30542,29377
CQUADX4,29794,1,29377,30542,30543,29378
CQUADX4,29795,1,29378,30543,30544,29379
CQUADX4,29796,1,29379,30544,30545,29380
CQUADX4,29797,1,29380,30545,30546,29381
CQUADX4,29798,1,29381,30546,30547,29382
CQUADX4,29799,1,29382,30547,30548,29383
CQUADX4,29800,1,29383,30548,30549,29384
CQUADX4,29801,1,29384,30549,30550,29385
CQUADX4,29802,1,29385,30550,30551,29386
CQUADX4,29803,1,29386,30551,30552,29387
CQUADX4,29804,1,29387,30552,30553,29388
CQUADX4,29805,1,29388,30553,30554,29389
CQUADX4,29806,1,29389,30554,30555,29390
CQUADX4,29807,1,29390,30555,30556,29391
CQUADX4,29808,1,29391,30556,30557,29392
CQUADX4,29809,1,29392,30557,30558,29393
CQUADX4,29810,1,29393,30558,30559,29394
CQUADX4,29811,1,29394,30559,30560,29395
CQUADX4,29812,1,29395,30560,30844,29396
CQUADX4,29813,1,29396,30844,30272,29397
CQUADX4,29814,1,29397,30272,30273,29398
CQUADX4,29815,1,29398,30273,30274,29399
CQUADX4,29816,1,29399,30274,30275,29400
CQUADX4,29817,1,29400,30275,30276,29401
CQUADX4,29818,1,29401,30276,30277,29402
CQUADX4,29819,1,29402,30277,30278,29403
CQUADX4,29820,1,29403,30278,30279,29404
CQUADX4,29821,1,29404,30279,30280,29405
CQUADX4,29822,1,29405,30280,30281,29406
CQUADX4,29823,1,29406,30281,30282,29407
CQUADX4,29824,1,29407,30282,30283,29408
CQUADX4,29825,1,29408,30283,30284,29409
CQUADX4,29826,1,29409,30284,30285,29410
CQUADX4,29827,1,29410,30285,30286,29411
CQUADX4,29828,1,29411,30286,30287,29412
CQUADX4,29829,1,29412,30287,30288,29413
CQUADX4,29830,1,29413,30288,30289,29414
CQUADX4,29831,1,29414,30289,30290,29415
CQUADX4,29832,1,29415,30290,30291,29416
CQUADX4,29833,1,29416,30291,30292,29417
CQUADX4,29834,1,29417,30292,30293,29418
CQUADX4,29835,1,29418,30293,30294,29419
CQUADX4,29836,1,29419,30294,30295,29420
CQUADX4,29837,1,29420,30295,30296,29421
CQUADX4,29838,1,29421,30296,30297,29422
CQUADX4,29839,1,29422,30297,30298,29423
CQUADX4,29840,1,29423,30298,30299,29424
CQUADX4,29841,1,29424,30299,30300,29425
CQUADX4,29842,1,29425,30300,30301,29426
CQUADX4,29843,1,29426,30301,30302,29427
CQUADX4,29844,1,29427,30302,30303,29428
CQUADX4,29845,1,29428,30303,30304,29429
CQUADX4,29846,1,29429,30304,30305,29430
CQUADX4,29847,1,29430,30305,30306,29431
CQUADX4,29848,1,29431,30306,30307,29432
CQUADX4,29849,1,29432,30307,30308,29433
CQUADX4,29850,1,29433,30308,30309,29434
CQUADX4,29851,1,29434,30309,30310,29435
CQUADX4,29852,1,29435,30310,30311,29436
CQUADX4,29853,1,29436,30311,30312,29437
CQUADX4,29854,1,29437,30312,30313,29438
CQUADX4,29855,1,29438,30313,30314,29439
CQUADX4,29856,1,29439,30314,30315,29440
CQUADX4,29857,1,29440,30315,30316,29441
CQUADX4,29858,1,29441,30316,30317,29442
CQUADX4,29859,1,29442,30317,30318,29443
CQUADX4,29860,1,29443,30318,30319,29444
CQUADX4,29861,1,29444,30319,30320,29445
CQUADX4,29862,1,29445,30320,30321,29446
CQUADX4,29863,1,29446,30321,30322,29447
CQUADX4,29864,1,29447,30322,30323,29448
CQUADX4,29865,1,29448,30323,30324,29449
CQUADX4,29866,1,29449,30324,30325,29450
CQUADX4,29867,1,29450,30325,30326,29451
CQUADX4,29868,1,29451,30326,30327,29452
CQUADX4,29869,1,29452,30327,30328,29453
CQUADX4,29870,1,29453,30328,30329,29454
CQUADX4,29871,1,29454,30329,30330,29455
CQUADX4,29872,1,29455,30330,30331,29456
CQUADX4,29873,1,29456,30331,30332,29457
CQUADX4,29874,1,29457,30332,30843,29458
CQUADX4,29875,1,29458,30843,30214,29459
CQUADX4,29876,1,29459,30214,30215,29460
CQUADX4,29877,1,29460,30215,30216,29461
CQUADX4,29878,1,29461,30216,30217,29462
CQUADX4,29879,1,29462,30217,30218,29463
CQUADX4,29880,1,29463,30218,30219,29464
CQUADX4,29881,1,29464,30219,30220,29465
CQUADX4,29882,1,29465,30220,30221,29466
CQUADX4,29883,1,29466,30221,30222,29467
CQUADX4,29884,1,29467,30222,30223,29468
CQUADX4,29885,1,29468,30223,30224,29469
CQUADX4,29886,1,29469,30224,30225,29470
CQUADX4,29887,1,29470,30225,30226,29471
CQUADX4,29888,1,29471,30226,30227,29472
CQUADX4,29889,1,29472,30227,30228,29473
CQUADX4,29890,1,29473,30228,30229,29474
CQUADX4,29891,1,29474,30229,30230,29475
CQUADX4,29892,1,29475,30230,30231,29476
CQUADX4,29893,1,29476,30231,30232,29477
CQUADX4,29894,1,29477,30232,30233,29478
CQUADX4,29895,1,29478,30233,30234,29479
CQUADX4,29896,1,29479,30234,30235,29480
CQUADX4,29897,1,29480,30235,30236,29481
CQUADX4,29898,1,29481,30236,30237,29482
CQUADX4,29899,1,29482,30237,30238,29483
CQUADX4,29900,1,29483,30238,30239,29484
CQUADX4,29901,1,29484,30239,30240,29485
CQUADX4,29902,1,29485,30240,30241,29486
CQUADX4,29903,1,29486,30241,30242,29487
CQUADX4,29904,1,29487,30242,30243,29488
CQUADX4,29905,1,29488,30243,30244,29489
CQUADX4,29906,1,29489,30244,30245,29490
CQUADX4,29907,1,29490,30245,30246,29491
CQUADX4,29908,1,29491,30246,30247,29492
CQUADX4,29909,1,29492,30247,30248,29493
CQUADX4,29910,1,29493,30248,30249,29494
CQUADX4,29911,1,29494,30249,30250,29495
CQUADX4,29912,1,29495,30250,30251,29496
CQUADX4,29913,1,29496,30251,30252,29497
CQUADX4,29914,1,29497,30252,30253,29498
CQUADX4,29915,1,29498,30253,30254,29499
CQUADX4,29916,1,29499,30254,30255,29500
CQUADX4,29917,1,29500,30255,30256,29501
CQUADX4,29918,1,29501,30256,30257,29502
CQUADX4,29919,1,29502,30257,30258,29503
CQUADX4,29920,1,29503,30258,30259,29504
CQUADX4,29921,1,29504,30259,30260,29505
CQUADX4,29922,1,29505,30260,30261,29506
CQUADX4,29923,1,29506,30261,30262,29507
CQUADX4,29924,1,29507,30262,30263,29508
CQUADX4,29925,1,29508,30263,30264,29509
CQUADX4,29926,1,29509,30264,30265,29510
CQUADX4,29927,1,29510,30265,30266,29511
CQUADX4,29928,1,29511,30266,30267,29512
CQUADX4,29929,1,29512,30267,30268,29513
CQUADX4,29930,1,29513,30268,30269,29514
CQUADX4,29931,1,29514,30269,30270,29515
CQUADX4,29932,1,29515,30270,30271,29516
CQUADX4,29933,1,29516,30271,30841,30155
CQUADX4,29934,1,29267,29516,30155,30156
CQUADX4,29935,1,29018,29267,30156,30157
CQUADX4,29936,1,28769,29018,30157,30158
CQUADX4,29937,1,28520,28769,30158,30159
CQUADX4,29938,1,28271,28520,30159,30160
CQUADX4,29939,1,28022,28271,30160,30161
CQUADX4,29940,1,27773,28022,30161,30162
CQUADX4,29941,1,27524,27773,30162,30163
CQUADX4,29942,1,27275,27524,30163,30164
CQUADX4,29943,1,27026,27275,30164,30165
CQUADX4,29944,1,26777,27026,30165,30166
CQUADX4,29945,1,26528,26777,30166,30167
CQUADX4,29946,1,26279,26528,30167,30168
CQUADX4,29947,1,26030,26279,30168,30169
CQUADX4,29948,1,25781,26030,30169,30170
CQUADX4,29949,1,25532,25781,30170,30171
CQUADX4,29950,1,25283,25532,30171,30172
CQUADX4,29951,1,25034,25283,30172,30173
CQUADX4,29952,1,24785,25034,30173,30174
CQUADX4,29953,1,24536,24785,30174,30175
CQUADX4,29954,1,24287,24536,30175,30176
CQUADX4,29955,1,24038,24287,30176,30177
CQUADX4,29956,1,23789,24038,30177,30178
CQUADX4,29957,1,23540,23789,30178,30179
CQUADX4,29958,1,23291,23540,30179,30180
CQUADX4,29959,1,23042,23291,30180,30181
CQUADX4,29960,1,22793,23042,30181,30182
CQUADX4,29961,1,22544,22793,30182,30183
CQUADX4,29962,1,22295,22544,30183,30184
CQUADX4,29963,1,22046,22295,30184,30185
CQUADX4,29964,1,21797,22046,30185,30186
CQUADX4,29965,1,21548,21797,30186,30187
CQUADX4,29966,1,21299,21548,30187,30188
CQUADX4,29967,1,21050,21299,30188,30189
CQUADX4,29968,1,20801,21050,30189,30190
CQUADX4,29969,1,20552,20801,30190,30191
CQUADX4,29970,1,20303,20552,30191,30192
CQUADX4,29971,1,20054,20303,30192,30193
CQUADX4,29972,1,19805,20054,30193,30194
CQUADX4,29973,1,19556,19805,30194,30195
CQUADX4,29974,1,19307,19556,30195,30196
CQUADX4,29975,1,19058,19307,30196,30197
CQUADX4,29976,1,18809,19058,30197,30198
CQUADX4,29977,1,18560,18809,30198,30199
CQUADX4,29978,1,18311,18560,30199,30200
CQUADX4,29979,1,18062,18311,30200,30201
CQUADX4,29980,1,17813,18062,30201,30202
CQUADX4,29981,1,17564,17813,30202,30203
CQUADX4,29982,1,17315,17564,30203,30204
CQUADX4,29983,1,17066,17315,30204,30205
CQUADX4,29984,1,16817,17066,30205,30206
CQUADX4,29985,1,16568,16817,30206,30207
CQUADX4,29986,1,16319,16568,30207,30208
CQUADX4,29987,1,16070,16319,30208,30209
CQUADX4,29988,1,15821,16070,30209,30210
CQUADX4,29989,1,15572,15821,30210,30211
CQUADX4,29990,1,15323,15572,30211,30212
CQUADX4,29991,1,15074,15323,30212,30213
CQUADX4,29992,1,30333,15074,30213,30842
CQUADX4,29993,1,30334,15073,15074,30333
CQUADX4,29994,1,30335,15072,15073,30334
CQUADX4,29995,1,30336,15071,15072,30335
CQUADX4,29996,1,30337,15070,15071,30336
CQUADX4,29997,1,30338,15069,15070,30337
CQUADX4,29998,1,30339,15068,15069,30338
CQUADX4,29999,1,30340,15067,15068,30339
CQUADX4,30000,1,30341,15066,15067,30340
CQUADX4,30001,1,30342,15065,15066,30341
CQUADX4,30002,1,30343,15064,15065,30342
CQUADX4,30003,1,30344,15063,15064,30343
CQUADX4,30004,1,30345,15062,15063,30344
CQUADX4,30005,1,30346,15061,15062,30345
CQUADX4,30006,1,30347,15060,15061,30346
CQUADX4,30007,1,30348,15059,15060,30347
CQUADX4,30008,1,30349,15058,15059,30348
CQUADX4,30009,1,30350,15057,15058,30349
CQUADX4,30010,1,30351,15056,15057,30350
CQUADX4,30011,1,30352,15055,15056,30351
CQUADX4,30012,1,30353,15054,15055,30352
CQUADX4,30013,1,30354,15053,15054,30353
CQUADX4,30014,1,30355,15052,15053,30354
CQUADX4,30015,1,30356,15051,15052,30355
CQUADX4,30016,1,30357,15050,15051,30356
CQUADX4,30017,1,30358,15049,15050,30357
CQUADX4,30018,1,30359,15048,15049,30358
CQUADX4,30019,1,30360,15047,15048,30359
CQUADX4,30020,1,30361,15046,15047,30360
CQUADX4,30021,1,30362,15045,15046,30361
CQUADX4,30022,1,30363,15044,15045,30362
CQUADX4,30023,1,30364,15043,15044,30363
CQUADX4,30024,1,30365,15042,15043,30364
CQUADX4,30025,1,30366,15041,15042,30365
CQUADX4,30026,1,30367,15040,15041,30366
CQUADX4,30027,1,30368,15039,15040,30367
CQUADX4,30028,1,30369,15038,15039,30368
CQUADX4,30029,1,30370,15037,15038,30369
CQUADX4,30030,1,30371,15036,15037,30370
CQUADX4,30031,1,30372,15035,15036,30371
CQUADX4,30032,1,30373,15034,15035,30372
CQUADX4,30033,1,30374,15033,15034,30373
CQUADX4,30034,1,30375,15032,15033,30374
CQUADX4,30035,1,30376,15031,15032,30375
CQUADX4,30036,1,30377,15030,15031,30376
CQUADX4,30037,1,30378,15029,15030,30377
CQUADX4,30038,1,30379,15028,15029,30378
CQUADX4,30039,1,30380,15027,15028,30379
CQUADX4,30040,1,30381,15026,15027,30380
CQUADX4,30041,1,30382,15025,15026,30381
CQUADX4,30042,1,30383,15024,15025,30382
CQUADX4,30043,1,30384,15023,15024,30383
CQUADX4,30044,1,30385,15022,15023,30384
CQUADX4,30045,1,30386,15021,15022,30385
CQUADX4,30046,1,30387,15020,15021,30386
CQUADX4,30047,1,30388,15019,15020,30387
CQUADX4,30048,1,30389,15018,15019,30388
CQUADX4,30049,1,30390,15017,15018,30389
CQUADX4,30050,1,30391,15016,15017,30390
CQUADX4,30051,1,30392,15015,15016,30391
CQUADX4,30052,1,30393,15014,15015,30392
CQUADX4,30053,1,30394,15013,15014,30393
CQUADX4,30054,1,30395,15012,15013,30394
CQUADX4,30055,1,30396,15011,15012,30395
CQUADX4,30056,1,30397,15010,15011,30396
CQUADX4,30057,1,30398,15009,15010,30397
CQUADX4,30058,1,30399,15008,15009,30398
CQUADX4,30059,1,30400,15007,15008,30399
CQUADX4,30060,1,30401,15006,15007,30400
CQUADX4,30061,1,30402,15005,15006,30401
CQUADX4,30062,1,30403,15004,15005,30402
CQUADX4,30063,1,30404,15003,15004,30403
CQUADX4,30064,1,30405,15002,15003,30404
CQUADX4,30065,1,30406,15001,15002,30405
CQUADX4,30066,1,30407,15000,15001,30406
CQUADX4,30067,1,30408,14999,15000,30407
CQUADX4,30068,1,30409,14998,14999,30408
CQUADX4,30069,1,30410,14997,14998,30409
CQUADX4,30070,1,30411,14996,14997,30410
CQUADX4,30071,1,30412,14995,14996,30411
CQUADX4,30072,1,30413,14994,14995,30412
CQUADX4,30073,1,30414,14993,14994,30413
CQUADX4,30074,1,30415,14992,14993,30414
CQUADX4,30075,1,30416,14991,14992,30415
CQUADX4,30076,1,30417,14990,14991,30416
CQUADX4,30077,1,30418,14989,14990,30417
CQUADX4,30078,1,30419,14988,14989,30418
CQUADX4,30079,1,30420,14987,14988,30419
CQUADX4,30080,1,30421,14986,14987,30420
CQUADX4,30081,1,30422,14985,14986,30421
CQUADX4,30082,1,30423,14984,14985,30422
CQUADX4,30083,1,30424,14983,14984,30423
CQUADX4,30084,1,30425,14982,14983,30424
CQUADX4,30085,1,30426,14981,14982,30425
CQUADX4,30086,1,30427,14980,14981,30426
CQUADX4,30087,1,30428,14979,14980,30427
CQUADX4,30088,1,30429,14978,14979,30428
CQUADX4,30089,1,30430,14977,14978,30429
CQUADX4,30090,1,30431,14976,14977,30430
CQUADX4,30091,1,30432,14975,14976,30431
CQUADX4,30092,1,30433,14974,14975,30432
CQUADX4,30093,1,30434,14973,14974,30433
CQUADX4,30094,1,30435,14972,14973,30434
CQUADX4,30095,1,30436,14971,14972,30435
CQUADX4,30096,1,30437,14970,14971,30436
CQUADX4,30097,1,30438,14969,14970,30437
CQUADX4,30098,1,30439,14968,14969,30438
CQUADX4,30099,1,30845,14967,14968,30439
CQUADX4,30100,1,30567,14966,14967,30845
CQUADX4,30101,1,30568,14965,14966,30567
CQUADX4,30102,1,30569,14964,14965,30568
CQUADX4,30103,1,30570,14963,14964,30569
CQUADX4,30104,1,30571,14962,14963,30570
CQUADX4,30105,1,30572,14961,14962,30571
CQUADX4,30106,1,30573,14960,14961,30572
CQUADX4,30107,1,30574,14959,14960,30573
CQUADX4,30108,1,30847,14958,14959,30574
CQUADX4,30109,1,30575,14957,14958,30847
CQUADX4,30110,1,30576,14956,14957,30575
CQUADX4,30111,1,30577,14955,14956,30576
CQUADX4,30112,1,30578,14954,14955,30577
CQUADX4,30113,1,30579,14953,14954,30578
CQUADX4,30114,1,30580,14952,14953,30579
CQUADX4,30115,1,30581,14951,14952,30580
CQUADX4,30116,1,30582,14950,14951,30581
CQUADX4,30117,1,30583,14949,14950,30582
CQUADX4,30118,1,30584,14948,14949,30583
CQUADX4,30119,1,30585,14947,14948,30584
CQUADX4,30120,1,30586,14946,14947,30585
CQUADX4,30121,1,30587,14945,14946,30586
CQUADX4,30122,1,30588,14944,14945,30587
CQUADX4,30123,1,30589,14943,14944,30588
CQUADX4,30124,1,30590,14942,14943,30589
CQUADX4,30125,1,30591,14941,14942,30590
CQUADX4,30126,1,30592,14940,14941,30591
CQUADX4,30127,1,30593,14939,14940,30592
CQUADX4,30128,1,30594,14938,14939,30593
CQUADX4,30129,1,30595,14937,14938,30594
CQUADX4,30130,1,30596,14936,14937,30595
CQUADX4,30131,1,30597,14935,14936,30596
CQUADX4,30132,1,30598,14934,14935,30597
CQUADX4,30133,1,30599,14933,14934,30598
CQUADX4,30134,1,30600,14932,14933,30599
CQUADX4,30135,1,30601,14931,14932,30600
CQUADX4,30136,1,30602,14930,14931,30601
CQUADX4,30137,1,30603,14929,14930,30602
CQUADX4,30138,1,30604,14928,14929,30603
CQUADX4,30139,1,30605,14927,14928,30604
CQUADX4,30140,1,30606,14926,14927,30605
CQUADX4,30141,1,30607,14925,14926,30606
CQUADX4,30142,1,30608,14924,14925,30607
CQUADX4,30143,1,30609,14923,14924,30608
CQUADX4,30144,1,30610,14922,14923,30609
CQUADX4,30145,1,30611,14921,14922,30610
CQUADX4,30146,1,30612,14920,14921,30611
CQUADX4,30147,1,30613,14919,14920,30612
CQUADX4,30148,1,30614,14918,14919,30613
CQUADX4,30149,1,30615,14917,14918,30614
CQUADX4,30150,1,30616,14916,14917,30615
CQUADX4,30151,1,30617,14915,14916,30616
CQUADX4,30152,1,30618,14914,14915,30617
CQUADX4,30153,1,30619,14913,14914,30618
CQUADX4,30154,1,30620,14912,14913,30619
CQUADX4,30155,1,30621,14911,14912,30620
CQUADX4,30156,1,30622,14910,14911,30621
CQUADX4,30157,1,30623,14909,14910,30622
CQUADX4,30158,1,30624,14908,14909,30623
CQUADX4,30159,1,30625,14907,14908,30624
CQUADX4,30160,1,30626,14906,14907,30625
CQUADX4,30161,1,30627,14905,14906,30626
CQUADX4,30162,1,30628,14904,14905,30627
CQUADX4,30163,1,30629,14903,14904,30628
CQUADX4,30164,1,30630,14902,14903,30629
CQUADX4,30165,1,30631,14901,14902,30630
CQUADX4,30166,1,30632,14900,14901,30631
CQUADX4,30167,1,30633,14899,14900,30632
CQUADX4,30168,1,30634,14898,14899,30633
CQUADX4,30169,1,30635,14897,14898,30634
CQUADX4,30170,1,30636,14896,14897,30635
CQUADX4,30171,1,30637,14895,14896,30636
CQUADX4,30172,1,30638,14894,14895,30637
CQUADX4,30173,1,30639,14893,14894,30638
CQUADX4,30174,1,30640,14892,14893,30639
CQUADX4,30175,1,30641,14891,14892,30640
CQUADX4,30176,1,30642,14890,14891,30641
CQUADX4,30177,1,30643,14889,14890,30642
CQUADX4,30178,1,30644,14888,14889,30643
CQUADX4,30179,1,30645,14887,14888,30644
CQUADX4,30180,1,30646,14886,14887,30645
CQUADX4,30181,1,30647,14885,14886,30646
CQUADX4,30182,1,30648,14884,14885,30647
CQUADX4,30183,1,30649,14883,14884,30648
CQUADX4,30184,1,30650,14882,14883,30649
CQUADX4,30185,1,30651,14881,14882,30650
CQUADX4,30186,1,30848,14880,14881,30651
CQUADX4,30187,1,30652,14879,14880,30848
CQUADX4,30188,1,30653,14878,14879,30652
CQUADX4,30189,1,30654,14877,14878,30653
CQUADX4,30190,1,30655,14876,14877,30654
CQUADX4,30191,1,30656,14875,14876,30655
CQUADX4,30192,1,30657,14874,14875,30656
CQUADX4,30193,1,30658,14873,14874,30657
CQUADX4,30194,1,30659,14872,14873,30658
CQUADX4,30195,1,30660,14871,14872,30659
CQUADX4,30196,1,30661,14870,14871,30660
CQUADX4,30197,1,30662,14869,14870,30661
CQUADX4,30198,1,30663,14868,14869,30662
CQUADX4,30199,1,30664,14867,14868,30663
CQUADX4,30200,1,30665,14866,14867,30664
CQUADX4,30201,1,30666,14865,14866,30665
CQUADX4,30202,1,30667,14864,14865,30666
CQUADX4,30203,1,30668,14863,14864,30667
CQUADX4,30204,1,30669,14862,14863,30668
CQUADX4,30205,1,30670,14861,14862,30669
CQUADX4,30206,1,30671,14860,14861,30670
CQUADX4,30207,1,30672,14859,14860,30671
CQUADX4,30208,1,30673,14858,14859,30672
CQUADX4,30209,1,30674,14857,14858,30673
CQUADX4,30210,1,30675,14856,14857,30674
CQUADX4,30211,1,30676,14855,14856,30675
CQUADX4,30212,1,30677,14854,14855,30676
CQUADX4,30213,1,30678,14853,14854,30677
CQUADX4,30214,1,30679,14852,14853,30678
CQUADX4,30215,1,30680,14851,14852,30679
CQUADX4,30216,1,30681,14850,14851,30680
CQUADX4,30217,1,30682,14849,14850,30681
CQUADX4,30218,1,30683,14848,14849,30682
CQUADX4,30219,1,30684,14847,14848,30683
CQUADX4,30220,1,30685,14846,14847,30684
CQUADX4,30221,1,30686,14845,14846,30685
CQUADX4,30222,1,30687,14844,14845,30686
CQUADX4,30223,1,30688,14843,14844,30687
CQUADX4,30224,1,30689,14842,14843,30688
CQUADX4,30225,1,30690,14841,14842,30689
CQUADX4,30226,1,30691,14840,14841,30690
CQUADX4,30227,1,30692,14839,14840,30691
CQUADX4,30228,1,30693,14838,14839,30692
CQUADX4,30229,1,30694,14837,14838,30693
CQUADX4,30230,1,30695,14836,14837,30694
CQUADX4,30231,1,30696,14835,14836,30695
CQUADX4,30232,1,30697,14834,14835,30696
CQUADX4,30233,1,30698,14833,14834,30697
CQUADX4,30234,1,30699,14832,14833,30698
CQUADX4,30235,1,30700,14831,14832,30699
CQUADX4,30236,1,30701,14830,14831,30700
CQUADX4,30237,1,30702,14829,14830,30701
CQUADX4,30238,1,30703,14828,14829,30702
CQUADX4,30239,1,30704,14827,14828,30703
CQUADX4,30240,1,30705,14826,14827,30704
SPC,1,29517,15,0.0
SPC,1,29518,15,0.0
SPC,1,29519,15,0.0
SPC,1,29520,15,0.0
SPC,1,29521,15,0.0
SPC,1,29522,15,0.0
SPC,1,29523,15,0.0
SPC,1,29524,15,0.0
SPC,1,29525,15,0.0
SPC,1,29526,15,0.0
SPC,1,29527,15,0.0
SPC,1,29528,15,0.0
SPC,1,29529,15,0.0
SPC,1,29530,15,0.0
SPC,1,29531,15,0.0
SPC,1,29532,15,0.0
SPC,1,29533,15,0.0
SPC,1,29534,15,0.0
SPC,1,29535,15,0.0
SPC,1,29536,15,0.0
SPC,1,29537,15,0.0
SPC,1,29538,15,0.0
SPC,1,29539,15,0.0
SPC,1,29540,15,0.0
SPC,1,29541,15,0.0
SPC,1,29542,15,0.0
SPC,1,29543,15,0.0
SPC,1,29544,15,0.0
SPC,1,29545,15,0.0
SPC,1,29546,15,0.0
SPC,1,29547,15,0.0
SPC,1,29548,15,0.0
SPC,1,29549,15,0.0
SPC,1,29550,15,0.0
SPC,1,29551,15,0.0
SPC,1,29552,15,0.0
SPC,1,29553,15,0.0
SPC,1,29554,15,0.0
SPC,1,29555,15,0.0
SPC,1,29556,15,0.0
SPC,1,29557,15,0.0
SPC,1,29558,15,0.0
SPC,1,29559,15,0.0
SPC,1,29560,15,0.0
SPC,1,29561,15,0.0
SPC,1,29562,15,0.0
SPC,1,29563,15,0.0
SPC,1,29564,15,0.0
SPC,1,29565,15,0.0
SPC,1,29566,15,0.0
SPC,1,29567,15,0.0
SPC,1,29568,15,0.0
SPC,1,29569,15,0.0
SPC,1,29570,15,0.0
SPC,1,29571,15,0.0
SPC,1,29572,15,0.0
SPC,1,29573,15,0.0
SPC,1,29574,15,0.0
SPC,1,29575,15,0.0
SPC,1,30155,15,0.0
SPC,1,30156,15,0.0
SPC,1,30157,15,0.0
SPC,1,30158,15,0.0
SPC,1,30159,15,0.0
SPC,1,30160,15,0.0
SPC,1,30161,15,0.0
SPC,1,30162,15,0.0
SPC,1,30163,15,0.0
SPC,1,30164,15,0.0
SPC,1,30165,15,0.0
SPC,1,30166,15,0.0
SPC,1,30167,15,0.0
SPC,1,30168,15,0.0
SPC,1,30169,15,0.0
SPC,1,30170,15,0.0
SPC,1,30171,15,0.0
SPC,1,30172,15,0.0
SPC,1,30173,15,0.0
SPC,1,30174,15,0.0
SPC,1,30175,15,0.0
SPC,1,30176,15,0.0
SPC,1,30177,15,0.0
SPC,1,30178,15,0.0
SPC,1,30179,15,0.0
SPC,1,30180,15,0.0
SPC,1,30181,15,0.0
SPC,1,30182,15,0.0
SPC,1,30183,15,0.0
SPC,1,30184,15,0.0
SPC,1,30185,15,0.0
SPC,1,30186,15,0.0
SPC,1,30187,15,0.0
SPC,1,30188,15,0.0
SPC,1,30189,15,0.0
SPC,1,30190,15,0.0
SPC,1,30191,15,0.0
SPC,1,30192,15,0.0
SPC,1,30193,15,0.0
SPC,1,30194,15,0.0
SPC,1,30195,15,0.0
SPC,1,30196,15,0.0
SPC,1,30197,15,0.0
SPC,1,30198,15,0.0
SPC,1,30199,15,0.0
SPC,1,30200,15,0.0
SPC,1,30201,15,0.0
SPC,1,30202,15,0.0
SPC,1,30203,15,0.0
SPC,1,30204,15,0.0
SPC,1,30205,15,0.0
SPC,1,30206,15,0.0
SPC,1,30207,15,0.0
SPC,1,30208,15,0.0
SPC,1,30209,15,0.0
SPC,1,30210,15,0.0
SPC,1,30211,15,0.0
SPC,1,30212,15,0.0
SPC,1,30213,15,0.0
SPC,1,30833,15,0.0
SPC,1,30834,15,0.0
SPC,1,30841,15,0.0
SPC,1,30842,15,0.0
SPC,2,12811,3,0.0
SPC,2,14111,3,0.0
SPCADD,100,1,2
