ECHO = NONE
SPC = 100
OUTPUT
BCRESULTS(TRACTION,FORCE,PLOT) = ALL
DISPLACEMENT(PLOT,REAL) = ALL
FORCE(PLOT,REAL,CENTER) = ALL
OLOAD(PLOT,REAL) = ALL
SPCFORCES(PLOT,REAL) = ALL
STRESS(PLOT,REAL,VONMISES,CENTER) = ALL
PARAM,BAILOUT,0
SUBCASE 1
  LABEL = Subcase - Static Loads 1
GRID,1,0,397.2341,0.0,6.637579,0
GRID,2,0,386.4256,0.0,6.456945,0
GRID,3,0,375.6171,0.0,6.276312,0
GRID,4,0,364.8086,0.0,6.095679,0
GRID,5,0,354.0001,0.0,5.915045,0
GRID,6,0,343.1916,0.0,5.734412,0
GRID,7,0,332.3831,0.0,5.553779,0
GRID,8,0,321.5746,0.0,5.373146,0
GRID,9,0,310.7661,0.0,5.192512,0
GRID,10,0,397.0677,0.0,13.27331,0
GRID,11,0,386.2637,0.0,12.91209,0
GRID,12,0,375.4598,0.0,12.55088,0
GRID,13,0,364.6558,0.0,12.18966,0
GRID,14,0,353.8518,0.0,11.82844,0
GRID,15,0,343.0478,0.0,11.46723,0
GRID,16,0,332.2438,0.0,11.10601,0
GRID,17,0,321.4398,0.0,10.7448,0
GRID,18,0,310.6358,0.0,10.38358,0
GRID,19,0,396.7908,0.0,19.90533,0
GRID,20,0,385.9943,0.0,19.36364,0
GRID,21,0,375.1979,0.0,18.82194,0
GRID,22,0,364.4014,0.0,18.28024,0
GRID,23,0,353.605,0.0,17.73854,0
GRID,24,0,342.8085,0.0,17.19684,0
GRID,25,0,332.0121,0.0,16.65515,0
GRID,26,0,321.2156,0.0,16.11345,0
GRID,27,0,310.4192,0.0,15.57175,0
GRID,28,0,396.403,0.0,26.5318,0
GRID,29,0,385.6172,0.0,25.80977,0
GRID,30,0,374.8313,0.0,25.08774,0
GRID,31,0,364.0454,0.0,24.36572,0
GRID,32,0,353.2595,0.0,23.64369,0
GRID,33,0,342.4736,0.0,22.92166,0
GRID,34,0,331.6878,0.0,22.19963,0
GRID,35,0,320.9019,0.0,21.4776,0
GRID,36,0,310.116,0.0,20.75557,0
GRID,37,0,395.9045,0.0,33.15086,0
GRID,38,0,385.1322,0.0,32.2487,0
GRID,39,0,374.3599,0.0,31.34654,0
GRID,40,0,363.5876,0.0,30.44439,0
GRID,41,0,352.8153,0.0,29.54223,0
GRID,42,0,342.043,0.0,28.64007,0
GRID,43,0,331.2707,0.0,27.73792,0
GRID,44,0,320.4985,0.0,26.83576,0
GRID,45,0,309.7262,0.0,25.9336,0
GRID,46,0,395.2953,0.0,39.76066,0
GRID,47,0,384.5396,0.0,38.67863,0
GRID,48,0,373.7839,0.0,37.59659,0
GRID,49,0,363.0282,0.0,36.51456,0
GRID,50,0,352.2725,0.0,35.43253,0
GRID,51,0,341.5168,0.0,34.35049,0
GRID,52,0,330.7611,0.0,33.26846,0
GRID,53,0,320.0054,0.0,32.18642,0
GRID,54,0,309.2497,0.0,31.10439,0
GRID,55,0,394.5759,0.0,46.35937,0
GRID,56,0,383.8398,0.0,45.09776,0
GRID,57,0,373.1036,0.0,43.83615,0
GRID,58,0,362.3675,0.0,42.57454,0
GRID,59,0,351.6314,0.0,41.31293,0
GRID,60,0,340.8952,0.0,40.05132,0
GRID,61,0,330.1591,0.0,38.78971,0
GRID,62,0,319.423,0.0,37.5281,0
GRID,63,0,308.6868,0.0,36.26649,0
GRID,64,0,393.7463,0.0,52.94514,0
GRID,65,0,383.0327,0.0,51.5043,0
GRID,66,0,372.3192,0.0,50.06347,0
GRID,67,0,361.6056,0.0,48.62264,0
GRID,68,0,350.8921,0.0,47.18181,0
GRID,69,0,340.1785,0.0,45.74097,0
GRID,70,0,329.465,0.0,44.30014,0
GRID,71,0,318.7514,0.0,42.85931,0
GRID,72,0,308.0379,0.0,41.41848,0
GRID,73,0,392.8068,0.0,59.51612,0
GRID,74,0,382.1188,0.0,57.89647,0
GRID,75,0,371.4308,0.0,56.27682,0
GRID,76,0,360.7428,0.0,54.65717,0
GRID,77,0,350.0549,0.0,53.03751,0
GRID,78,0,339.3669,0.0,51.41786,0
GRID,79,0,328.6789,0.0,49.79821,0
GRID,80,0,317.9909,0.0,48.17856,0
GRID,81,0,307.3029,0.0,46.5589,0
GRID,82,0,391.7576,0.0,66.07049,0
GRID,83,0,381.0982,0.0,64.27247,0
GRID,84,0,370.4388,0.0,62.47445,0
GRID,85,0,359.7793,0.0,60.67643,0
GRID,86,0,349.1199,0.0,58.87841,0
GRID,87,0,338.4605,0.0,57.08039,0
GRID,88,0,327.8011,0.0,55.28237,0
GRID,89,0,317.1417,0.0,53.48435,0
GRID,90,0,306.4822,0.0,51.68633,0
GRID,91,0,390.5991,0.0,72.60642,0
GRID,92,0,379.9712,0.0,70.63053,0
GRID,93,0,369.3433,0.0,68.65465,0
GRID,94,0,358.7154,0.0,66.67876,0
GRID,95,0,348.0875,0.0,64.70288,0
GRID,96,0,337.4596,0.0,62.72699,0
GRID,97,0,326.8317,0.0,60.75111,0
GRID,98,0,316.2039,0.0,58.77522,0
GRID,99,0,305.576,0.0,56.79934,0
GRID,100,0,389.3315,0.0,79.12208,0
GRID,101,0,378.7381,0.0,76.96888,0
GRID,102,0,368.1447,0.0,74.81568,0
GRID,103,0,357.5513,0.0,72.66248,0
GRID,104,0,346.9579,0.0,70.50928,0
GRID,105,0,336.3646,0.0,68.35608,0
GRID,106,0,325.7712,0.0,66.20288,0
GRID,107,0,315.1778,0.0,64.04968,0
GRID,108,0,304.5844,0.0,61.89648,0
GRID,109,0,387.9553,0.0,85.61566,0
GRID,110,0,377.3993,0.0,83.28575,0
GRID,111,0,366.8434,0.0,80.95583,0
GRID,112,0,356.2875,0.0,78.62592,0
GRID,113,0,345.7315,0.0,76.296,0
GRID,114,0,335.1756,0.0,73.96609,0
GRID,115,0,324.6197,0.0,71.63618,0
GRID,116,0,314.0638,0.0,69.30626,0
GRID,117,0,303.5078,0.0,66.97635,0
GRID,118,0,386.4707,0.0,92.08533,0
GRID,119,0,375.9552,0.0,89.57936,0
GRID,120,0,365.4397,0.0,87.07338,0
GRID,121,0,354.9242,0.0,84.56741,0
GRID,122,0,344.4086,0.0,82.06143,0
GRID,123,0,333.8931,0.0,79.55546,0
GRID,124,0,323.3776,0.0,77.04948,0
GRID,125,0,312.8621,0.0,74.5435,0
GRID,126,0,302.3465,0.0,72.03753,0
GRID,127,0,384.8783,0.0,98.5293,0
GRID,128,0,374.4061,0.0,95.84796,0
GRID,129,0,363.9339,0.0,93.16663,0
GRID,130,0,353.4618,0.0,90.48529,0
GRID,131,0,342.9896,0.0,87.80395,0
GRID,132,0,332.5174,0.0,85.12261,0
GRID,133,0,322.0452,0.0,82.44128,0
GRID,134,0,311.5731,0.0,79.75994,0
GRID,135,0,301.1009,0.0,77.0786,0
GRID,136,0,383.1784,0.0,104.9458,0
GRID,137,0,372.7525,0.0,102.0898,0
GRID,138,0,362.3266,0.0,99.23387,0
GRID,139,0,351.9007,0.0,96.37791,0
GRID,140,0,341.4748,0.0,93.52196,0
GRID,141,0,331.0489,0.0,90.66601,0
GRID,142,0,320.623,0.0,87.81006,0
GRID,143,0,310.1971,0.0,84.95411,0
GRID,144,0,299.7712,0.0,82.09816,0
GRID,145,0,381.3716,0.0,111.3329,0
GRID,146,0,370.9949,0.0,108.3032,0
GRID,147,0,360.6182,0.0,105.2734,0
GRID,148,0,350.2414,0.0,102.2436,0
GRID,149,0,339.8647,0.0,99.21387,0
GRID,150,0,329.4879,0.0,96.1841,0
GRID,151,0,319.1112,0.0,93.15433,0
GRID,152,0,308.7345,0.0,90.12456,0
GRID,153,0,298.3577,0.0,87.09479,0
GRID,154,0,379.4583,0.0,117.689,0
GRID,155,0,369.1337,0.0,114.4863,0
GRID,156,0,358.809,0.0,111.2836,0
GRID,157,0,348.4844,0.0,108.0808,0
GRID,158,0,338.1597,0.0,104.8781,0
GRID,159,0,327.835,0.0,101.6753,0
GRID,160,0,317.5104,0.0,98.47259,0
GRID,161,0,307.1857,0.0,95.26985,0
GRID,162,0,296.861,0.0,92.06711,0
GRID,163,0,377.4391,0.0,124.0123,0
GRID,164,0,367.1694,0.0,120.6375,0
GRID,165,0,356.8997,0.0,117.2626,0
GRID,166,0,346.63,0.0,113.8878,0
GRID,167,0,336.3603,0.0,110.513,0
GRID,168,0,326.0906,0.0,107.1382,0
GRID,169,0,315.8209,0.0,103.7634,0
GRID,170,0,305.5512,0.0,100.3886,0
GRID,171,0,295.2815,0.0,97.01374,0
GRID,172,0,375.3145,0.0,130.3009,0
GRID,173,0,365.1027,0.0,126.7549,0
GRID,174,0,354.8908,0.0,123.209,0
GRID,175,0,344.6789,0.0,119.663,0
GRID,176,0,334.467,0.0,116.1171,0
GRID,177,0,324.2552,0.0,112.5711,0
GRID,178,0,314.0433,0.0,109.0252,0
GRID,179,0,303.8314,0.0,105.4792,0
GRID,180,0,293.6196,0.0,101.9333,0
GRID,181,0,373.0852,0.0,136.5531,0
GRID,182,0,362.934,0.0,132.837,0
GRID,183,0,352.7828,0.0,129.1209,0
GRID,184,0,342.6316,0.0,125.4049,0
GRID,185,0,332.4804,0.0,121.6888,0
GRID,186,0,322.3292,0.0,117.9727,0
GRID,187,0,312.178,0.0,114.2566,0
GRID,188,0,302.0268,0.0,110.5405,0
GRID,189,0,291.8756,0.0,106.8244,0
GRID,190,0,370.7517,0.0,142.7673,0
GRID,191,0,360.664,0.0,138.8821,0
GRID,192,0,350.5764,0.0,134.9969,0
GRID,193,0,340.4887,0.0,131.1117,0
GRID,194,0,330.401,0.0,127.2265,0
GRID,195,0,320.3133,0.0,123.3413,0
GRID,196,0,310.2256,0.0,119.4561,0
GRID,197,0,300.1379,0.0,115.5709,0
GRID,198,0,290.0502,0.0,111.6857,0
GRID,199,0,368.3147,0.0,148.9415,0
GRID,200,0,358.2934,0.0,144.8883,0
GRID,201,0,348.272,0.0,140.8351,0
GRID,202,0,338.2507,0.0,136.7819,0
GRID,203,0,328.2293,0.0,132.7287,0
GRID,204,0,318.208,0.0,128.6754,0
GRID,205,0,308.1866,0.0,124.6222,0
GRID,206,0,298.1652,0.0,120.569,0
GRID,207,0,288.1439,0.0,116.5158,0
GRID,208,0,365.7749,0.0,155.0742,0
GRID,209,0,355.8227,0.0,150.8541,0
GRID,210,0,345.8705,0.0,146.634,0
GRID,211,0,335.9182,0.0,142.4139,0
GRID,212,0,325.966,0.0,138.1938,0
GRID,213,0,316.0138,0.0,133.9737,0
GRID,214,0,306.0616,0.0,129.7536,0
GRID,215,0,296.1093,0.0,125.5335,0
GRID,216,0,286.1571,0.0,121.3134,0
GRID,217,0,363.133,0.0,161.1636,0
GRID,218,0,353.2527,0.0,156.7778,0
GRID,219,0,343.3724,0.0,152.392,0
GRID,220,0,333.4921,0.0,148.0062,0
GRID,221,0,323.6118,0.0,143.6204,0
GRID,222,0,313.7314,0.0,139.2346,0
GRID,223,0,303.8511,0.0,134.8487,0
GRID,224,0,293.9708,0.0,130.4629,0
GRID,225,0,284.0905,0.0,126.0771,0
GRID,226,0,360.3898,0.0,167.2081,0
GRID,227,0,350.5841,0.0,162.6578,0
GRID,228,0,340.7785,0.0,158.1075,0
GRID,229,0,330.9728,0.0,153.5572,0
GRID,230,0,321.1672,0.0,149.0069,0
GRID,231,0,311.3615,0.0,144.4566,0
GRID,232,0,301.5559,0.0,139.9063,0
GRID,233,0,291.7502,0.0,135.3559,0
GRID,234,0,281.9446,0.0,130.8056,0
GRID,235,0,357.5459,0.0,173.2058,0
GRID,236,0,347.8177,0.0,168.4923,0
GRID,237,0,338.0894,0.0,163.7788,0
GRID,238,0,328.3612,0.0,159.0653,0
GRID,239,0,318.6329,0.0,154.3517,0
GRID,240,0,308.9047,0.0,149.6382,0
GRID,241,0,299.1764,0.0,144.9247,0
GRID,242,0,289.4482,0.0,140.2112,0
GRID,243,0,279.7199,0.0,135.4977,0
GRID,244,0,354.6022,0.0,179.1552,0
GRID,245,0,344.9541,0.0,174.2798,0
GRID,246,0,335.306,0.0,169.4044,0
GRID,247,0,325.6578,0.0,164.529,0
GRID,248,0,316.0097,0.0,159.6535,0
GRID,249,0,306.3616,0.0,154.7781,0
GRID,250,0,296.7134,0.0,149.9027,0
GRID,251,0,287.0653,0.0,145.0273,0
GRID,252,0,277.4172,0.0,140.1519,0
GRID,253,0,351.5595,0.0,185.0546,0
GRID,254,0,341.9942,0.0,180.0186,0
GRID,255,0,332.4289,0.0,174.9827,0
GRID,256,0,322.8636,0.0,169.9467,0
GRID,257,0,313.2983,0.0,164.9108,0
GRID,258,0,303.733,0.0,159.8748,0
GRID,259,0,294.1677,0.0,154.8388,0
GRID,260,0,284.6023,0.0,149.8029,0
GRID,261,0,275.037,0.0,144.7669,0
GRID,262,0,348.4187,0.0,190.9023,0
GRID,263,0,338.9389,0.0,185.7072,0
GRID,264,0,329.4591,0.0,180.5121,0
GRID,265,0,319.9793,0.0,175.3171,0
GRID,266,0,310.4994,0.0,170.122,0
GRID,267,0,301.0196,0.0,164.9269,0
GRID,268,0,291.5398,0.0,159.7318,0
GRID,269,0,282.0599,0.0,154.5367,0
GRID,270,0,272.5801,0.0,149.3416,0
GRID,271,0,345.1807,0.0,196.6968,0
GRID,272,0,335.789,0.0,191.344,0
GRID,273,0,326.3973,0.0,185.9912,0
GRID,274,0,317.0056,0.0,180.6385,0
GRID,275,0,307.6139,0.0,175.2857,0
GRID,276,0,298.2222,0.0,169.9329,0
GRID,277,0,288.8305,0.0,164.5802,0
GRID,278,0,279.4388,0.0,159.2274,0
GRID,279,0,270.0471,0.0,153.8746,0
GRID,280,0,341.8463,0.0,202.4363,0
GRID,281,0,332.5453,0.0,196.9273,0
GRID,282,0,323.2444,0.0,191.4184,0
GRID,283,0,313.9435,0.0,185.9094,0
GRID,284,0,304.6425,0.0,180.4005,0
GRID,285,0,295.3416,0.0,174.8915,0
GRID,286,0,286.0406,0.0,169.3826,0
GRID,287,0,276.7397,0.0,163.8736,0
GRID,288,0,267.4387,0.0,158.3646,0
GRID,289,0,338.4164,0.0,208.1193,0
GRID,290,0,329.2088,0.0,202.4557,0
GRID,291,0,320.0012,0.0,196.7921,0
GRID,292,0,310.7936,0.0,191.1285,0
GRID,293,0,301.5861,0.0,185.4649,0
GRID,294,0,292.3785,0.0,179.8013,0
GRID,295,0,283.1709,0.0,174.1377,0
GRID,296,0,273.9633,0.0,168.4741,0
GRID,297,0,264.7557,0.0,162.8105,0
GRID,298,0,334.8921,0.0,213.7442,0
GRID,299,0,325.7804,0.0,207.9276,0
GRID,300,0,316.6688,0.0,202.1109,0
GRID,301,0,307.5571,0.0,196.2942,0
GRID,302,0,298.4454,0.0,190.4775,0
GRID,303,0,289.3338,0.0,184.6609,0
GRID,304,0,280.2221,0.0,178.8442,0
GRID,305,0,271.1104,0.0,173.0275,0
GRID,306,0,261.9988,0.0,167.2109,0
GRID,307,0,331.2743,0.0,219.3095,0
GRID,308,0,322.2611,0.0,213.3414,0
GRID,309,0,313.2479,0.0,207.3733,0
GRID,310,0,304.2347,0.0,201.4052,0
GRID,311,0,295.2215,0.0,195.437,0
GRID,312,0,286.2083,0.0,189.4689,0
GRID,313,0,277.1951,0.0,183.5008,0
GRID,314,0,268.1819,0.0,177.5327,0
GRID,315,0,259.1687,0.0,171.5646,0
GRID,316,0,327.5641,0.0,224.8135,0
GRID,317,0,318.6518,0.0,218.6957,0
GRID,318,0,309.7396,0.0,212.5778,0
GRID,319,0,300.8274,0.0,206.4599,0
GRID,320,0,291.9152,0.0,200.342,0
GRID,321,0,283.003,0.0,194.2241,0
GRID,322,0,274.0908,0.0,188.1062,0
GRID,323,0,265.1786,0.0,181.9883,0
GRID,324,0,256.2663,0.0,175.8704,0
GRID,325,0,323.7623,0.0,230.2548,0
GRID,326,0,314.9536,0.0,223.9889,0
GRID,327,0,306.1449,0.0,217.7229,0
GRID,328,0,297.3361,0.0,211.457,0
GRID,329,0,288.5274,0.0,205.191,0
GRID,330,0,279.7186,0.0,198.925,0
GRID,331,0,270.9099,0.0,192.6591,0
GRID,332,0,262.1012,0.0,186.3931,0
GRID,333,0,253.2924,0.0,180.1272,0
GRID,334,0,319.8702,0.0,235.6318,0
GRID,335,0,311.1674,0.0,229.2195,0
GRID,336,0,302.4646,0.0,222.8073,0
GRID,337,0,293.7618,0.0,216.395,0
GRID,338,0,285.059,0.0,209.9827,0
GRID,339,0,276.3562,0.0,203.5705,0
GRID,340,0,267.6534,0.0,197.1582,0
GRID,341,0,258.9506,0.0,190.7459,0
GRID,342,0,250.2478,0.0,184.3336,0
GRID,343,0,315.8889,0.0,240.943,0
GRID,344,0,307.2944,0.0,234.3862,0
GRID,345,0,298.7,0.0,227.8294,0
GRID,346,0,290.1055,0.0,221.2726,0
GRID,347,0,281.5111,0.0,214.7158,0
GRID,348,0,272.9166,0.0,208.159,0
GRID,349,0,264.3222,0.0,201.6022,0
GRID,350,0,255.7277,0.0,195.0454,0
GRID,351,0,247.1333,0.0,188.4886,0
GRID,352,0,311.8193,0.0,246.187,0
GRID,353,0,303.3356,0.0,239.4875,0
GRID,354,0,294.8519,0.0,232.788,0
GRID,355,0,286.3683,0.0,226.0885,0
GRID,356,0,277.8846,0.0,219.389,0
GRID,357,0,269.4009,0.0,212.6895,0
GRID,358,0,260.9172,0.0,205.99,0
GRID,359,0,252.4335,0.0,199.2905,0
GRID,360,0,243.9498,0.0,192.591,0
GRID,361,0,307.6627,0.0,251.3623,0
GRID,362,0,299.2922,0.0,244.522,0
GRID,363,0,290.9216,0.0,237.6816,0
GRID,364,0,282.5511,0.0,230.8413,0
GRID,365,0,274.1805,0.0,224.001,0
GRID,366,0,265.81,0.0,217.1607,0
GRID,367,0,257.4394,0.0,210.3203,0
GRID,368,0,249.0689,0.0,203.48,0
GRID,369,0,240.6983,0.0,196.6397,0
GRID,370,0,303.4202,0.0,256.4673,0
GRID,371,0,295.1651,0.0,249.4881,0
GRID,372,0,286.91,0.0,242.5089,0
GRID,373,0,278.655,0.0,235.5296,0
GRID,374,0,270.3999,0.0,228.5504,0
GRID,375,0,262.1448,0.0,221.5712,0
GRID,376,0,253.8897,0.0,214.5919,0
GRID,377,0,245.6347,0.0,207.6127,0
GRID,378,0,237.3796,0.0,200.6335,0
GRID,379,0,299.093,0.0,261.5008,0
GRID,380,0,290.9557,0.0,254.3846,0
GRID,381,0,282.8184,0.0,247.2684,0
GRID,382,0,274.6811,0.0,240.1522,0
GRID,383,0,266.5438,0.0,233.036,0
GRID,384,0,258.4065,0.0,225.9198,0
GRID,385,0,250.2692,0.0,218.8036,0
GRID,386,0,242.1319,0.0,211.6874,0
GRID,387,0,233.9946,0.0,204.5712,0
GRID,388,0,294.6823,0.0,266.4613,0
GRID,389,0,286.6651,0.0,259.2102,0
GRID,390,0,278.6478,0.0,251.959,0
GRID,391,0,270.6306,0.0,244.7078,0
GRID,392,0,262.6133,0.0,237.4566,0
GRID,393,0,254.596,0.0,230.2054,0
GRID,394,0,246.5788,0.0,222.9542,0
GRID,395,0,238.5615,0.0,215.703,0
GRID,396,0,230.5443,0.0,208.4519,0
GRID,397,0,290.1894,0.0,271.3475,0
GRID,398,0,282.2944,0.0,263.9633,0
GRID,399,0,274.3995,0.0,256.5792,0
GRID,400,0,266.5045,0.0,249.195,0
GRID,401,0,258.6095,0.0,241.8109,0
GRID,402,0,250.7145,0.0,234.4268,0
GRID,403,0,242.8196,0.0,227.0426,0
GRID,404,0,234.9246,0.0,219.6585,0
GRID,405,0,227.0296,0.0,212.2743,0
GRID,406,0,285.6155,0.0,276.1578,0
GRID,407,0,277.845,0.0,268.6428,0
GRID,408,0,270.0745,0.0,261.1277,0
GRID,409,0,262.304,0.0,253.6127,0
GRID,410,0,254.5335,0.0,246.0977,0
GRID,411,0,246.763,0.0,238.5827,0
GRID,412,0,238.9926,0.0,231.0676,0
GRID,413,0,231.2221,0.0,223.5526,0
GRID,414,0,223.4516,0.0,216.0376,0
GRID,415,0,280.9618,0.0,280.8911,0
GRID,416,0,273.318,0.0,273.2472,0
GRID,417,0,265.6741,0.0,265.6034,0
GRID,418,0,258.0303,0.0,257.9596,0
GRID,419,0,250.3865,0.0,250.3158,0
GRID,420,0,242.7427,0.0,242.672,0
GRID,421,0,235.0989,0.0,235.0281,0
GRID,422,0,227.455,0.0,227.3843,0
GRID,423,0,219.8112,0.0,219.7405,0
GRID,424,0,276.2297,0.0,285.5459,0
GRID,425,0,268.7147,0.0,277.7755,0
GRID,426,0,261.1996,0.0,270.005,0
GRID,427,0,253.6846,0.0,262.2345,0
GRID,428,0,246.1696,0.0,254.464,0
GRID,429,0,238.6545,0.0,246.6935,0
GRID,430,0,231.1395,0.0,238.923,0
GRID,431,0,223.6245,0.0,231.1526,0
GRID,432,0,216.1095,0.0,223.3821,0
GRID,433,0,271.4205,0.0,290.1211,0
GRID,434,0,264.0363,0.0,282.2261,0
GRID,435,0,256.6522,0.0,274.3312,0
GRID,436,0,249.2681,0.0,266.4362,0
GRID,437,0,241.8839,0.0,258.5412,0
GRID,438,0,234.4998,0.0,250.6462,0
GRID,439,0,227.1156,0.0,242.7512,0
GRID,440,0,219.7315,0.0,234.8563,0
GRID,441,0,212.3474,0.0,226.9613,0
GRID,442,0,266.5355,0.0,294.6153,0
GRID,443,0,259.2843,0.0,286.598,0
GRID,444,0,252.0331,0.0,278.5807,0
GRID,445,0,244.7819,0.0,270.5635,0
GRID,446,0,237.5308,0.0,262.5462,0
GRID,447,0,230.2796,0.0,254.529,0
GRID,448,0,223.0284,0.0,246.5117,0
GRID,449,0,215.7772,0.0,238.4944,0
GRID,450,0,208.526,0.0,230.4772,0
GRID,451,0,261.5761,0.0,299.0272,0
GRID,452,0,254.4599,0.0,290.8899,0
GRID,453,0,247.3437,0.0,282.7526,0
GRID,454,0,240.2275,0.0,274.6153,0
GRID,455,0,233.1113,0.0,266.478,0
GRID,456,0,225.9951,0.0,258.3407,0
GRID,457,0,218.8789,0.0,250.2034,0
GRID,458,0,211.7627,0.0,242.0661,0
GRID,459,0,204.6465,0.0,233.9287,0
GRID,460,0,256.5437,0.0,303.3556,0
GRID,461,0,249.5645,0.0,295.1006,0
GRID,462,0,242.5852,0.0,286.8455,0
GRID,463,0,235.606,0.0,278.5904,0
GRID,464,0,228.6268,0.0,270.3353,0
GRID,465,0,221.6475,0.0,262.0803,0
GRID,466,0,214.6683,0.0,253.8252,0
GRID,467,0,207.6891,0.0,245.5701,0
GRID,468,0,200.7098,0.0,237.315,0
GRID,469,0,251.4397,0.0,307.5994,0
GRID,470,0,244.5994,0.0,299.2289,0
GRID,471,0,237.7591,0.0,290.8583,0
GRID,472,0,230.9187,0.0,282.4878,0
GRID,473,0,224.0784,0.0,274.1172,0
GRID,474,0,217.2381,0.0,265.7467,0
GRID,475,0,210.3978,0.0,257.3761,0
GRID,476,0,203.5575,0.0,249.0056,0
GRID,477,0,196.7171,0.0,240.635,0
GRID,478,0,246.2655,0.0,311.7573,0
GRID,479,0,239.566,0.0,303.2737,0
GRID,480,0,232.8665,0.0,294.79,0
GRID,481,0,226.167,0.0,286.3063,0
GRID,482,0,219.4675,0.0,277.8226,0
GRID,483,0,212.768,0.0,269.3389,0
GRID,484,0,206.0685,0.0,260.8552,0
GRID,485,0,199.369,0.0,252.3716,0
GRID,486,0,192.6695,0.0,243.8879,0
GRID,487,0,241.0226,0.0,315.8282,0
GRID,488,0,234.4658,0.0,307.2338,0
GRID,489,0,227.909,0.0,298.6393,0
GRID,490,0,221.3522,0.0,290.0449,0
GRID,491,0,214.7953,0.0,281.4504,0
GRID,492,0,208.2385,0.0,272.856,0
GRID,493,0,201.6817,0.0,264.2615,0
GRID,494,0,195.1249,0.0,255.6671,0
GRID,495,0,188.5681,0.0,247.0726,0
GRID,496,0,235.7123,0.0,319.8109,0
GRID,497,0,229.3,0.0,311.1081,0
GRID,498,0,222.8878,0.0,302.4053,0
GRID,499,0,216.4755,0.0,293.7025,0
GRID,500,0,210.0632,0.0,284.9997,0
GRID,501,0,203.651,0.0,276.2969,0
GRID,502,0,197.2387,0.0,267.5941,0
GRID,503,0,190.8264,0.0,258.8913,0
GRID,504,0,184.4141,0.0,250.1885,0
GRID,505,0,230.3363,0.0,323.7044,0
GRID,506,0,224.0703,0.0,314.8956,0
GRID,507,0,217.8044,0.0,306.0869,0
GRID,508,0,211.5384,0.0,297.2781,0
GRID,509,0,205.2725,0.0,288.4694,0
GRID,510,0,199.0065,0.0,279.6607,0
GRID,511,0,192.7406,0.0,270.8519,0
GRID,512,0,186.4746,0.0,262.0432,0
GRID,513,0,180.2087,0.0,253.2345,0
GRID,514,0,224.896,0.0,327.5075,0
GRID,515,0,218.7781,0.0,318.5952,0
GRID,516,0,212.6602,0.0,309.683,0
GRID,517,0,206.5423,0.0,300.7708,0
GRID,518,0,200.4244,0.0,291.8586,0
GRID,519,0,194.3065,0.0,282.9464,0
GRID,520,0,188.1887,0.0,274.0342,0
GRID,521,0,182.0708,0.0,265.122,0
GRID,522,0,175.9529,0.0,256.2097,0
GRID,523,0,219.3929,0.0,331.2191,0
GRID,524,0,213.4248,0.0,322.2059,0
GRID,525,0,207.4566,0.0,313.1927,0
GRID,526,0,201.4885,0.0,304.1795,0
GRID,527,0,195.5204,0.0,295.1663,0
GRID,528,0,189.5523,0.0,286.1531,0
GRID,529,0,183.5842,0.0,277.1399,0
GRID,530,0,177.6161,0.0,268.1267,0
GRID,531,0,171.648,0.0,259.1135,0
GRID,532,0,213.8285,0.0,334.8383,0
GRID,533,0,208.0118,0.0,325.7266,0
GRID,534,0,202.1952,0.0,316.615,0
GRID,535,0,196.3785,0.0,307.5033,0
GRID,536,0,190.5618,0.0,298.3916,0
GRID,537,0,184.7452,0.0,289.28,0
GRID,538,0,178.9285,0.0,280.1683,0
GRID,539,0,173.1118,0.0,271.0566,0
GRID,540,0,167.2951,0.0,261.945,0
GRID,541,0,208.2045,0.0,338.364,0
GRID,542,0,202.5409,0.0,329.1564,0
GRID,543,0,196.8773,0.0,319.9488,0
GRID,544,0,191.2137,0.0,310.7413,0
GRID,545,0,185.5501,0.0,301.5337,0
GRID,546,0,179.8865,0.0,292.3261,0
GRID,547,0,174.2229,0.0,283.1185,0
GRID,548,0,168.5593,0.0,273.9109,0
GRID,549,0,162.8956,0.0,264.7033,0
GRID,550,0,202.5223,0.0,341.7953,0
GRID,551,0,197.0134,0.0,332.4944,0
GRID,552,0,191.5044,0.0,323.1934,0
GRID,553,0,185.9955,0.0,313.8925,0
GRID,554,0,180.4865,0.0,304.5915,0
GRID,555,0,174.9776,0.0,295.2906,0
GRID,556,0,169.4686,0.0,285.9897,0
GRID,557,0,163.9596,0.0,276.6887,0
GRID,558,0,158.4507,0.0,267.3878,0
GRID,559,0,196.7837,0.0,345.1312,0
GRID,560,0,191.4309,0.0,335.7395,0
GRID,561,0,186.0781,0.0,326.3478,0
GRID,562,0,180.7253,0.0,316.9561,0
GRID,563,0,175.3726,0.0,307.5644,0
GRID,564,0,170.0198,0.0,298.1727,0
GRID,565,0,164.667,0.0,288.781,0
GRID,566,0,159.3143,0.0,279.3893,0
GRID,567,0,153.9615,0.0,269.9976,0
GRID,568,0,190.99,0.0,348.3707,0
GRID,569,0,185.7949,0.0,338.8909,0
GRID,570,0,180.5998,0.0,329.411,0
GRID,571,0,175.4048,0.0,319.9312,0
GRID,572,0,170.2097,0.0,310.4514,0
GRID,573,0,165.0146,0.0,300.9715,0
GRID,574,0,159.8195,0.0,291.4917,0
GRID,575,0,154.6244,0.0,282.0119,0
GRID,576,0,149.4293,0.0,272.5321,0
GRID,577,0,185.1431,0.0,351.513,0
GRID,578,0,180.1071,0.0,341.9476,0
GRID,579,0,175.0712,0.0,332.3823,0
GRID,580,0,170.0352,0.0,322.817,0
GRID,581,0,164.9992,0.0,313.2517,0
GRID,582,0,159.9633,0.0,303.6864,0
GRID,583,0,154.9273,0.0,294.1211,0
GRID,584,0,149.8914,0.0,284.5557,0
GRID,585,0,144.8554,0.0,274.9904,0
GRID,586,0,179.2445,0.0,354.5571,0
GRID,587,0,174.369,0.0,344.909,0
GRID,588,0,169.4936,0.0,335.2609,0
GRID,589,0,164.6182,0.0,325.6127,0
GRID,590,0,159.7428,0.0,315.9646,0
GRID,591,0,154.8674,0.0,306.3165,0
GRID,592,0,149.9919,0.0,296.6683,0
GRID,593,0,145.1165,0.0,287.0202,0
GRID,594,0,140.2411,0.0,277.3721,0
GRID,595,0,173.2958,0.0,357.5023,0
GRID,596,0,168.5823,0.0,347.7741,0
GRID,597,0,163.8688,0.0,338.0458,0
GRID,598,0,159.1553,0.0,328.3176,0
GRID,599,0,154.4417,0.0,318.5893,0
GRID,600,0,149.7282,0.0,308.8611,0
GRID,601,0,145.0147,0.0,299.1328,0
GRID,602,0,140.3012,0.0,289.4046,0
GRID,603,0,135.5877,0.0,279.6763,0
GRID,604,0,167.2988,0.0,360.3477,0
GRID,605,0,162.7485,0.0,350.542,0
GRID,606,0,158.1982,0.0,340.7364,0
GRID,607,0,153.6479,0.0,330.9307,0
GRID,608,0,149.0976,0.0,321.1251,0
GRID,609,0,144.5473,0.0,311.3194,0
GRID,610,0,139.997,0.0,301.5138,0
GRID,611,0,135.4467,0.0,291.7081,0
GRID,612,0,130.8964,0.0,281.9025,0
GRID,613,0,161.255,0.0,363.0924,0
GRID,614,0,156.8692,0.0,353.2121,0
GRID,615,0,152.4834,0.0,343.3318,0
GRID,616,0,148.0976,0.0,333.4515,0
GRID,617,0,143.7118,0.0,323.5712,0
GRID,618,0,139.326,0.0,313.6909,0
GRID,619,0,134.9401,0.0,303.8106,0
GRID,620,0,130.5543,0.0,293.9302,0
GRID,621,0,126.1685,0.0,284.0499,0
GRID,622,0,155.1663,0.0,365.7359,0
GRID,623,0,150.9462,0.0,355.7837,0
GRID,624,0,146.7261,0.0,345.8314,0
GRID,625,0,142.506,0.0,335.8792,0
GRID,626,0,138.2859,0.0,325.927,0
GRID,627,0,134.0658,0.0,315.9748,0
GRID,628,0,129.8456,0.0,306.0225,0
GRID,629,0,125.6255,0.0,296.0703,0
GRID,630,0,121.4054,0.0,286.1181,0
GRID,631,0,149.0342,0.0,368.2772,0
GRID,632,0,144.981,0.0,358.2559,0
GRID,633,0,140.9278,0.0,348.2345,0
GRID,634,0,136.8746,0.0,338.2132,0
GRID,635,0,132.8214,0.0,328.1918,0
GRID,636,0,128.7681,0.0,318.1705,0
GRID,637,0,124.7149,0.0,308.1491,0
GRID,638,0,120.6617,0.0,298.1277,0
GRID,639,0,116.6085,0.0,288.1064,0
GRID,640,0,142.8606,0.0,370.7158,0
GRID,641,0,138.9754,0.0,360.6281,0
GRID,642,0,135.0902,0.0,350.5404,0
GRID,643,0,131.205,0.0,340.4527,0
GRID,644,0,127.3198,0.0,330.365,0
GRID,645,0,123.4346,0.0,320.2774,0
GRID,646,0,119.5494,0.0,310.1897,0
GRID,647,0,115.6642,0.0,300.102,0
GRID,648,0,111.779,0.0,290.0143,0
GRID,649,0,136.647,0.0,373.0508,0
GRID,650,0,132.9309,0.0,362.8996,0
GRID,651,0,129.2149,0.0,352.7484,0
GRID,652,0,125.4988,0.0,342.5972,0
GRID,653,0,121.7827,0.0,332.446,0
GRID,654,0,118.0666,0.0,322.2948,0
GRID,655,0,114.3505,0.0,312.1436,0
GRID,656,0,110.6344,0.0,301.9925,0
GRID,657,0,106.9183,0.0,291.8413,0
GRID,658,0,130.3953,0.0,375.2817,0
GRID,659,0,126.8494,0.0,365.0698,0
GRID,660,0,123.3034,0.0,354.858,0
GRID,661,0,119.7575,0.0,344.6461,0
GRID,662,0,116.2116,0.0,334.4342,0
GRID,663,0,112.6656,0.0,324.2224,0
GRID,664,0,109.1197,0.0,314.0105,0
GRID,665,0,105.5737,0.0,303.7986,0
GRID,666,0,102.0278,0.0,293.5867,0
GRID,667,0,124.1073,0.0,377.4079,0
GRID,668,0,120.7324,0.0,367.1382,0
GRID,669,0,117.3576,0.0,356.8685,0
GRID,670,0,113.9828,0.0,346.5988,0
GRID,671,0,110.608,0.0,336.3291,0
GRID,672,0,107.2332,0.0,326.0594,0
GRID,673,0,103.8584,0.0,315.7897,0
GRID,674,0,100.4836,0.0,305.52,0
GRID,675,0,97.10874,0.0,295.2503,0
GRID,676,0,117.7845,0.0,379.4287,0
GRID,677,0,114.5818,0.0,369.104,0
GRID,678,0,111.3791,0.0,358.7794,0
GRID,679,0,108.1763,0.0,348.4547,0
GRID,680,0,104.9736,0.0,338.13,0
GRID,681,0,101.7708,0.0,327.8054,0
GRID,682,0,98.5681,0.0,317.4807,0
GRID,683,0,95.36536,0.0,307.1561,0
GRID,684,0,92.16262,0.0,296.8314,0
GRID,685,0,111.4289,0.0,381.3436,0
GRID,686,0,108.3992,0.0,370.9668,0
GRID,687,0,105.3694,0.0,360.5901,0
GRID,688,0,102.3396,0.0,350.2134,0
GRID,689,0,99.30985,0.0,339.8366,0
GRID,690,0,96.28008,0.0,329.4599,0
GRID,691,0,93.25031,0.0,319.0832,0
GRID,692,0,90.22054,0.0,308.7064,0
GRID,693,0,87.19078,0.0,298.3297,0
GRID,694,0,105.0422,0.0,383.152,0
GRID,695,0,102.1863,0.0,372.7261,0
GRID,696,0,99.33031,0.0,362.3002,0
GRID,697,0,96.47435,0.0,351.8743,0
GRID,698,0,93.6184,0.0,341.4484,0
GRID,699,0,90.76245,0.0,331.0224,0
GRID,700,0,87.9065,0.0,320.5965,0
GRID,701,0,85.05055,0.0,310.1706,0
GRID,702,0,82.1946,0.0,299.7447,0
GRID,703,0,98.62617,0.0,384.8535,0
GRID,704,0,95.94484,0.0,374.3813,0
GRID,705,0,93.2635,0.0,363.9091,0
GRID,706,0,90.58216,0.0,353.4369,0
GRID,707,0,87.90082,0.0,342.9648,0
GRID,708,0,85.21948,0.0,332.4926,0
GRID,709,0,82.53815,0.0,322.0204,0
GRID,710,0,79.85681,0.0,311.5482,0
GRID,711,0,77.17547,0.0,301.0761,0
GRID,712,0,92.18261,0.0,386.4475,0
GRID,713,0,89.67663,0.0,375.932,0
GRID,714,0,87.17066,0.0,365.4165,0
GRID,715,0,84.66468,0.0,354.901,0
GRID,716,0,82.1587,0.0,344.3854,0
GRID,717,0,79.65273,0.0,333.8699,0
GRID,718,0,77.14675,0.0,323.3544,0
GRID,719,0,74.64078,0.0,312.8389,0
GRID,720,0,72.1348,0.0,302.3233,0
GRID,721,0,85.71331,0.0,387.9337,0
GRID,722,0,83.3834,0.0,377.3778,0
GRID,723,0,81.05348,0.0,366.8218,0
GRID,724,0,78.72357,0.0,356.2659,0
GRID,725,0,76.39365,0.0,345.71,0
GRID,726,0,74.06374,0.0,335.1541,0
GRID,727,0,71.73382,0.0,324.5981,0
GRID,728,0,69.40391,0.0,314.0422,0
GRID,729,0,67.074,0.0,303.4863,0
GRID,730,0,79.22008,0.0,389.3116,0
GRID,731,0,77.06688,0.0,378.7182,0
GRID,732,0,74.91368,0.0,368.1248,0
GRID,733,0,72.76048,0.0,357.5314,0
GRID,734,0,70.60728,0.0,346.938,0
GRID,735,0,68.45408,0.0,336.3446,0
GRID,736,0,66.30087,0.0,325.7513,0
GRID,737,0,64.14767,0.0,315.1579,0
GRID,738,0,61.99447,0.0,304.5645,0
GRID,739,0,72.70473,0.0,390.5808,0
GRID,740,0,70.72885,0.0,379.9529,0
GRID,741,0,68.75296,0.0,369.325,0
GRID,742,0,66.77708,0.0,358.6971,0
GRID,743,0,64.80119,0.0,348.0692,0
GRID,744,0,62.82531,0.0,337.4414,0
GRID,745,0,60.84942,0.0,326.8135,0
GRID,746,0,58.87354,0.0,316.1856,0
GRID,747,0,56.89765,0.0,305.5577,0
GRID,748,0,66.1691,0.0,391.741,0
GRID,749,0,64.37108,0.0,381.0815,0
GRID,750,0,62.57306,0.0,370.4221,0
GRID,751,0,60.77504,0.0,359.7627,0
GRID,752,0,58.97702,0.0,349.1033,0
GRID,753,0,57.179,0.0,338.4439,0
GRID,754,0,55.38098,0.0,327.7844,0
GRID,755,0,53.58296,0.0,317.125,0
GRID,756,0,51.78494,0.0,306.4656,0
GRID,757,0,59.61499,0.0,392.7918,0
GRID,758,0,57.99534,0.0,382.1038,0
GRID,759,0,56.37569,0.0,371.4158,0
GRID,760,0,54.75604,0.0,360.7278,0
GRID,761,0,53.13638,0.0,350.0399,0
GRID,762,0,51.51673,0.0,339.3519,0
GRID,763,0,49.89708,0.0,328.6639,0
GRID,764,0,48.27743,0.0,317.9759,0
GRID,765,0,46.65777,0.0,307.288,0
GRID,766,0,53.04424,0.0,393.7329,0
GRID,767,0,51.60341,0.0,383.0194,0
GRID,768,0,50.16258,0.0,372.3058,0
GRID,769,0,48.72175,0.0,361.5923,0
GRID,770,0,47.28091,0.0,350.8787,0
GRID,771,0,45.84008,0.0,340.1652,0
GRID,772,0,44.39925,0.0,329.4516,0
GRID,773,0,42.95842,0.0,318.7381,0
GRID,774,0,41.51758,0.0,308.0245,0
GRID,775,0,46.45868,0.0,394.5642,0
GRID,776,0,45.19707,0.0,383.8281,0
GRID,777,0,43.93547,0.0,373.0919,0
GRID,778,0,42.67386,0.0,362.3558,0
GRID,779,0,41.41225,0.0,351.6197,0
GRID,780,0,40.15064,0.0,340.8836,0
GRID,781,0,38.88903,0.0,330.1474,0
GRID,782,0,37.62742,0.0,319.4113,0
GRID,783,0,36.36581,0.0,308.6752,0
GRID,784,0,39.86016,0.0,395.2853,0
GRID,785,0,38.77813,0.0,384.5296,0
GRID,786,0,37.69609,0.0,373.7739,0
GRID,787,0,36.61406,0.0,363.0182,0
GRID,788,0,35.53202,0.0,352.2625,0
GRID,789,0,34.44999,0.0,341.5068,0
GRID,790,0,33.36795,0.0,330.7511,0
GRID,791,0,32.28592,0.0,319.9954,0
GRID,792,0,31.20389,0.0,309.2397,0
GRID,793,0,33.25051,0.0,395.8961,0
GRID,794,0,32.34835,0.0,385.1238,0
GRID,795,0,31.4462,0.0,374.3516,0
GRID,796,0,30.54404,0.0,363.5793,0
GRID,797,0,29.64188,0.0,352.807,0
GRID,798,0,28.73972,0.0,342.0347,0
GRID,799,0,27.83757,0.0,331.2624,0
GRID,800,0,26.93541,0.0,320.4901,0
GRID,801,0,26.03325,0.0,309.7178,0
GRID,802,0,26.63158,0.0,396.3964,0
GRID,803,0,25.90955,0.0,385.6105,0
GRID,804,0,25.18752,0.0,374.8246,0
GRID,805,0,24.46549,0.0,364.0387,0
GRID,806,0,23.74346,0.0,353.2528,0
GRID,807,0,23.02144,0.0,342.467,0
GRID,808,0,22.29941,0.0,331.6811,0
GRID,809,0,21.57738,0.0,320.8952,0
GRID,810,0,20.85535,0.0,310.1093,0
GRID,811,0,20.00521,0.0,396.7857,0
GRID,812,0,19.46351,0.0,385.9893,0
GRID,813,0,18.92181,0.0,375.1928,0
GRID,814,0,18.38011,0.0,364.3964,0
GRID,815,0,17.83842,0.0,353.6,0
GRID,816,0,17.29672,0.0,342.8035,0
GRID,817,0,16.75502,0.0,332.0071,0
GRID,818,0,16.21332,0.0,321.2106,0
GRID,819,0,15.67162,0.0,310.4142,0
GRID,820,0,13.37325,0.0,397.0644,0
GRID,821,0,13.01204,0.0,386.2604,0
GRID,822,0,12.65082,0.0,375.4564,0
GRID,823,0,12.2896,0.0,364.6524,0
GRID,824,0,11.92839,0.0,353.8484,0
GRID,825,0,11.56717,0.0,343.0444,0
GRID,826,0,11.20595,0.0,332.2405,0
GRID,827,0,10.84474,0.0,321.4365,0
GRID,828,0,10.48352,0.0,310.6325,0
GRID,829,0,6.737564,0.0,397.2324,0
GRID,830,0,6.556931,0.0,386.4239,0
GRID,831,0,6.376298,0.0,375.6154,0
GRID,832,0,6.195664,0.0,364.8069,0
GRID,833,0,6.015031,0.0,353.9984,0
GRID,834,0,5.834398,0.0,343.1899,0
GRID,835,0,5.653765,0.0,332.3814,0
GRID,836,0,5.473131,0.0,321.5729,0
GRID,837,0,5.292498,0.0,310.7644,0
GRID,838,0,477.0025,0.0,-1195.0,0
GRID,839,0,467.115,0.0,-1195.0,0
GRID,840,0,457.2275,0.0,-1195.0,0
GRID,841,0,447.34,0.0,-1195.0,0
GRID,842,0,437.4525,0.0,-1195.0,0
GRID,843,0,427.565,0.0,-1195.0,0
GRID,844,0,417.6775,0.0,-1195.0,0
GRID,845,0,477.0025,0.0,-1190.0,0
GRID,846,0,467.115,0.0,-1190.0,0
GRID,847,0,457.2275,0.0,-1190.0,0
GRID,848,0,447.34,0.0,-1190.0,0
GRID,849,0,437.4525,0.0,-1190.0,0
GRID,850,0,427.565,0.0,-1190.0,0
GRID,851,0,417.6775,0.0,-1190.0,0
GRID,852,0,477.0025,0.0,-1185.0,0
GRID,853,0,467.115,0.0,-1185.0,0
GRID,854,0,457.2275,0.0,-1185.0,0
GRID,855,0,447.34,0.0,-1185.0,0
GRID,856,0,437.4525,0.0,-1185.0,0
GRID,857,0,427.565,0.0,-1185.0,0
GRID,858,0,417.6775,0.0,-1185.0,0
GRID,859,0,477.0025,0.0,-1180.0,0
GRID,860,0,467.115,0.0,-1180.0,0
GRID,861,0,457.2275,0.0,-1180.0,0
GRID,862,0,447.34,0.0,-1180.0,0
GRID,863,0,437.4525,0.0,-1180.0,0
GRID,864,0,427.565,0.0,-1180.0,0
GRID,865,0,417.6775,0.0,-1180.0,0
GRID,866,0,477.0025,0.0,-1175.0,0
GRID,867,0,467.115,0.0,-1175.0,0
GRID,868,0,457.2275,0.0,-1175.0,0
GRID,869,0,447.34,0.0,-1175.0,0
GRID,870,0,437.4525,0.0,-1175.0,0
GRID,871,0,427.565,0.0,-1175.0,0
GRID,872,0,417.6775,0.0,-1175.0,0
GRID,873,0,477.0025,0.0,-1170.0,0
GRID,874,0,467.115,0.0,-1170.0,0
GRID,875,0,457.2275,0.0,-1170.0,0
GRID,876,0,447.34,0.0,-1170.0,0
GRID,877,0,437.4525,0.0,-1170.0,0
GRID,878,0,427.565,0.0,-1170.0,0
GRID,879,0,417.6775,0.0,-1170.0,0
GRID,880,0,477.0025,0.0,-1165.0,0
GRID,881,0,467.115,0.0,-1165.0,0
GRID,882,0,457.2275,0.0,-1165.0,0
GRID,883,0,447.34,0.0,-1165.0,0
GRID,884,0,437.4525,0.0,-1165.0,0
GRID,885,0,427.565,0.0,-1165.0,0
GRID,886,0,417.6775,0.0,-1165.0,0
GRID,887,0,477.0025,0.0,-1160.0,0
GRID,888,0,467.115,0.0,-1160.0,0
GRID,889,0,457.2275,0.0,-1160.0,0
GRID,890,0,447.34,0.0,-1160.0,0
GRID,891,0,437.4525,0.0,-1160.0,0
GRID,892,0,427.565,0.0,-1160.0,0
GRID,893,0,417.6775,0.0,-1160.0,0
GRID,894,0,477.0025,0.0,-1155.0,0
GRID,895,0,467.115,0.0,-1155.0,0
GRID,896,0,457.2275,0.0,-1155.0,0
GRID,897,0,447.34,0.0,-1155.0,0
GRID,898,0,437.4525,0.0,-1155.0,0
GRID,899,0,427.565,0.0,-1155.0,0
GRID,900,0,417.6775,0.0,-1155.0,0
GRID,901,0,477.0025,0.0,-1150.0,0
GRID,902,0,467.115,0.0,-1150.0,0
GRID,903,0,457.2275,0.0,-1150.0,0
GRID,904,0,447.34,0.0,-1150.0,0
GRID,905,0,437.4525,0.0,-1150.0,0
GRID,906,0,427.565,0.0,-1150.0,0
GRID,907,0,417.6775,0.0,-1150.0,0
GRID,908,0,477.0025,0.0,-1145.0,0
GRID,909,0,467.115,0.0,-1145.0,0
GRID,910,0,457.2275,0.0,-1145.0,0
GRID,911,0,447.34,0.0,-1145.0,0
GRID,912,0,437.4525,0.0,-1145.0,0
GRID,913,0,427.565,0.0,-1145.0,0
GRID,914,0,417.6775,0.0,-1145.0,0
GRID,915,0,477.0025,0.0,-1140.0,0
GRID,916,0,467.115,0.0,-1140.0,0
GRID,917,0,457.2275,0.0,-1140.0,0
GRID,918,0,447.34,0.0,-1140.0,0
GRID,919,0,437.4525,0.0,-1140.0,0
GRID,920,0,427.565,0.0,-1140.0,0
GRID,921,0,417.6775,0.0,-1140.0,0
GRID,922,0,477.0025,0.0,-1135.0,0
GRID,923,0,467.115,0.0,-1135.0,0
GRID,924,0,457.2275,0.0,-1135.0,0
GRID,925,0,447.34,0.0,-1135.0,0
GRID,926,0,437.4525,0.0,-1135.0,0
GRID,927,0,427.565,0.0,-1135.0,0
GRID,928,0,417.6775,0.0,-1135.0,0
GRID,929,0,477.0025,0.0,-1130.0,0
GRID,930,0,467.115,0.0,-1130.0,0
GRID,931,0,457.2275,0.0,-1130.0,0
GRID,932,0,447.34,0.0,-1130.0,0
GRID,933,0,437.4525,0.0,-1130.0,0
GRID,934,0,427.565,0.0,-1130.0,0
GRID,935,0,417.6775,0.0,-1130.0,0
GRID,936,0,477.0025,0.0,-1125.0,0
GRID,937,0,467.115,0.0,-1125.0,0
GRID,938,0,457.2275,0.0,-1125.0,0
GRID,939,0,447.34,0.0,-1125.0,0
GRID,940,0,437.4525,0.0,-1125.0,0
GRID,941,0,427.565,0.0,-1125.0,0
GRID,942,0,417.6775,0.0,-1125.0,0
GRID,943,0,477.0025,0.0,-1120.0,0
GRID,944,0,467.115,0.0,-1120.0,0
GRID,945,0,457.2275,0.0,-1120.0,0
GRID,946,0,447.34,0.0,-1120.0,0
GRID,947,0,437.4525,0.0,-1120.0,0
GRID,948,0,427.565,0.0,-1120.0,0
GRID,949,0,417.6775,0.0,-1120.0,0
GRID,950,0,477.0025,0.0,-1115.0,0
GRID,951,0,467.115,0.0,-1115.0,0
GRID,952,0,457.2275,0.0,-1115.0,0
GRID,953,0,447.34,0.0,-1115.0,0
GRID,954,0,437.4525,0.0,-1115.0,0
GRID,955,0,427.565,0.0,-1115.0,0
GRID,956,0,417.6775,0.0,-1115.0,0
GRID,957,0,477.0025,0.0,-1110.0,0
GRID,958,0,467.115,0.0,-1110.0,0
GRID,959,0,457.2275,0.0,-1110.0,0
GRID,960,0,447.34,0.0,-1110.0,0
GRID,961,0,437.4525,0.0,-1110.0,0
GRID,962,0,427.565,0.0,-1110.0,0
GRID,963,0,417.6775,0.0,-1110.0,0
GRID,964,0,477.0025,0.0,-1105.0,0
GRID,965,0,467.115,0.0,-1105.0,0
GRID,966,0,457.2275,0.0,-1105.0,0
GRID,967,0,447.34,0.0,-1105.0,0
GRID,968,0,437.4525,0.0,-1105.0,0
GRID,969,0,427.565,0.0,-1105.0,0
GRID,970,0,417.6775,0.0,-1105.0,0
GRID,971,0,477.0025,0.0,-1100.0,0
GRID,972,0,467.115,0.0,-1100.0,0
GRID,973,0,457.2275,0.0,-1100.0,0
GRID,974,0,447.34,0.0,-1100.0,0
GRID,975,0,437.4525,0.0,-1100.0,0
GRID,976,0,427.565,0.0,-1100.0,0
GRID,977,0,417.6775,0.0,-1100.0,0
GRID,978,0,477.0025,0.0,-1095.0,0
GRID,979,0,467.115,0.0,-1095.0,0
GRID,980,0,457.2275,0.0,-1095.0,0
GRID,981,0,447.34,0.0,-1095.0,0
GRID,982,0,437.4525,0.0,-1095.0,0
GRID,983,0,427.565,0.0,-1095.0,0
GRID,984,0,417.6775,0.0,-1095.0,0
GRID,985,0,477.0025,0.0,-1090.0,0
GRID,986,0,467.115,0.0,-1090.0,0
GRID,987,0,457.2275,0.0,-1090.0,0
GRID,988,0,447.34,0.0,-1090.0,0
GRID,989,0,437.4525,0.0,-1090.0,0
GRID,990,0,427.565,0.0,-1090.0,0
GRID,991,0,417.6775,0.0,-1090.0,0
GRID,992,0,477.0025,0.0,-1085.0,0
GRID,993,0,467.115,0.0,-1085.0,0
GRID,994,0,457.2275,0.0,-1085.0,0
GRID,995,0,447.34,0.0,-1085.0,0
GRID,996,0,437.4525,0.0,-1085.0,0
GRID,997,0,427.565,0.0,-1085.0,0
GRID,998,0,417.6775,0.0,-1085.0,0
GRID,999,0,477.0025,0.0,-1080.0,0
GRID,1000,0,467.115,0.0,-1080.0,0
GRID,1001,0,457.2275,0.0,-1080.0,0
GRID,1002,0,447.34,0.0,-1080.0,0
GRID,1003,0,437.4525,0.0,-1080.0,0
GRID,1004,0,427.565,0.0,-1080.0,0
GRID,1005,0,417.6775,0.0,-1080.0,0
GRID,1006,0,477.0025,0.0,-1075.0,0
GRID,1007,0,467.115,0.0,-1075.0,0
GRID,1008,0,457.2275,0.0,-1075.0,0
GRID,1009,0,447.34,0.0,-1075.0,0
GRID,1010,0,437.4525,0.0,-1075.0,0
GRID,1011,0,427.565,0.0,-1075.0,0
GRID,1012,0,417.6775,0.0,-1075.0,0
GRID,1013,0,477.0025,0.0,-1070.0,0
GRID,1014,0,467.115,0.0,-1070.0,0
GRID,1015,0,457.2275,0.0,-1070.0,0
GRID,1016,0,447.34,0.0,-1070.0,0
GRID,1017,0,437.4525,0.0,-1070.0,0
GRID,1018,0,427.565,0.0,-1070.0,0
GRID,1019,0,417.6775,0.0,-1070.0,0
GRID,1020,0,477.0025,0.0,-1065.0,0
GRID,1021,0,467.115,0.0,-1065.0,0
GRID,1022,0,457.2275,0.0,-1065.0,0
GRID,1023,0,447.34,0.0,-1065.0,0
GRID,1024,0,437.4525,0.0,-1065.0,0
GRID,1025,0,427.565,0.0,-1065.0,0
GRID,1026,0,417.6775,0.0,-1065.0,0
GRID,1027,0,477.0025,0.0,-1060.0,0
GRID,1028,0,467.115,0.0,-1060.0,0
GRID,1029,0,457.2275,0.0,-1060.0,0
GRID,1030,0,447.34,0.0,-1060.0,0
GRID,1031,0,437.4525,0.0,-1060.0,0
GRID,1032,0,427.565,0.0,-1060.0,0
GRID,1033,0,417.6775,0.0,-1060.0,0
GRID,1034,0,477.0025,0.0,-1055.0,0
GRID,1035,0,467.115,0.0,-1055.0,0
GRID,1036,0,457.2275,0.0,-1055.0,0
GRID,1037,0,447.34,0.0,-1055.0,0
GRID,1038,0,437.4525,0.0,-1055.0,0
GRID,1039,0,427.565,0.0,-1055.0,0
GRID,1040,0,417.6775,0.0,-1055.0,0
GRID,1041,0,477.0025,0.0,-1050.0,0
GRID,1042,0,467.115,0.0,-1050.0,0
GRID,1043,0,457.2275,0.0,-1050.0,0
GRID,1044,0,447.34,0.0,-1050.0,0
GRID,1045,0,437.4525,0.0,-1050.0,0
GRID,1046,0,427.565,0.0,-1050.0,0
GRID,1047,0,417.6775,0.0,-1050.0,0
GRID,1048,0,477.0025,0.0,-1045.0,0
GRID,1049,0,467.115,0.0,-1045.0,0
GRID,1050,0,457.2275,0.0,-1045.0,0
GRID,1051,0,447.34,0.0,-1045.0,0
GRID,1052,0,437.4525,0.0,-1045.0,0
GRID,1053,0,427.565,0.0,-1045.0,0
GRID,1054,0,417.6775,0.0,-1045.0,0
GRID,1055,0,477.0025,0.0,-1040.0,0
GRID,1056,0,467.115,0.0,-1040.0,0
GRID,1057,0,457.2275,0.0,-1040.0,0
GRID,1058,0,447.34,0.0,-1040.0,0
GRID,1059,0,437.4525,0.0,-1040.0,0
GRID,1060,0,427.565,0.0,-1040.0,0
GRID,1061,0,417.6775,0.0,-1040.0,0
GRID,1062,0,477.0025,0.0,-1035.0,0
GRID,1063,0,467.115,0.0,-1035.0,0
GRID,1064,0,457.2275,0.0,-1035.0,0
GRID,1065,0,447.34,0.0,-1035.0,0
GRID,1066,0,437.4525,0.0,-1035.0,0
GRID,1067,0,427.565,0.0,-1035.0,0
GRID,1068,0,417.6775,0.0,-1035.0,0
GRID,1069,0,477.0025,0.0,-1030.0,0
GRID,1070,0,467.115,0.0,-1030.0,0
GRID,1071,0,457.2275,0.0,-1030.0,0
GRID,1072,0,447.34,0.0,-1030.0,0
GRID,1073,0,437.4525,0.0,-1030.0,0
GRID,1074,0,427.565,0.0,-1030.0,0
GRID,1075,0,417.6775,0.0,-1030.0,0
GRID,1076,0,477.0025,0.0,-1025.0,0
GRID,1077,0,467.115,0.0,-1025.0,0
GRID,1078,0,457.2275,0.0,-1025.0,0
GRID,1079,0,447.34,0.0,-1025.0,0
GRID,1080,0,437.4525,0.0,-1025.0,0
GRID,1081,0,427.565,0.0,-1025.0,0
GRID,1082,0,417.6775,0.0,-1025.0,0
GRID,1083,0,477.0025,0.0,-1020.0,0
GRID,1084,0,467.115,0.0,-1020.0,0
GRID,1085,0,457.2275,0.0,-1020.0,0
GRID,1086,0,447.34,0.0,-1020.0,0
GRID,1087,0,437.4525,0.0,-1020.0,0
GRID,1088,0,427.565,0.0,-1020.0,0
GRID,1089,0,417.6775,0.0,-1020.0,0
GRID,1090,0,477.0025,0.0,-1015.0,0
GRID,1091,0,467.115,0.0,-1015.0,0
GRID,1092,0,457.2275,0.0,-1015.0,0
GRID,1093,0,447.34,0.0,-1015.0,0
GRID,1094,0,437.4525,0.0,-1015.0,0
GRID,1095,0,427.565,0.0,-1015.0,0
GRID,1096,0,417.6775,0.0,-1015.0,0
GRID,1097,0,477.0025,0.0,-1010.0,0
GRID,1098,0,467.115,0.0,-1010.0,0
GRID,1099,0,457.2275,0.0,-1010.0,0
GRID,1100,0,447.34,0.0,-1010.0,0
GRID,1101,0,437.4525,0.0,-1010.0,0
GRID,1102,0,427.565,0.0,-1010.0,0
GRID,1103,0,417.6775,0.0,-1010.0,0
GRID,1104,0,477.0025,0.0,-1005.0,0
GRID,1105,0,467.115,0.0,-1005.0,0
GRID,1106,0,457.2275,0.0,-1005.0,0
GRID,1107,0,447.34,0.0,-1005.0,0
GRID,1108,0,437.4525,0.0,-1005.0,0
GRID,1109,0,427.565,0.0,-1005.0,0
GRID,1110,0,417.6775,0.0,-1005.0,0
GRID,1111,0,477.0025,0.0,-1000.0,0
GRID,1112,0,467.115,0.0,-1000.0,0
GRID,1113,0,457.2275,0.0,-1000.0,0
GRID,1114,0,447.34,0.0,-1000.0,0
GRID,1115,0,437.4525,0.0,-1000.0,0
GRID,1116,0,427.565,0.0,-1000.0,0
GRID,1117,0,417.6775,0.0,-1000.0,0
GRID,1118,0,477.0025,0.0,-995.0,0
GRID,1119,0,467.115,0.0,-995.0,0
GRID,1120,0,457.2275,0.0,-995.0,0
GRID,1121,0,447.34,0.0,-995.0,0
GRID,1122,0,437.4525,0.0,-995.0,0
GRID,1123,0,427.565,0.0,-995.0,0
GRID,1124,0,417.6775,0.0,-995.0,0
GRID,1125,0,477.0025,0.0,-990.0,0
GRID,1126,0,467.115,0.0,-990.0,0
GRID,1127,0,457.2275,0.0,-990.0,0
GRID,1128,0,447.34,0.0,-990.0,0
GRID,1129,0,437.4525,0.0,-990.0,0
GRID,1130,0,427.565,0.0,-990.0,0
GRID,1131,0,417.6775,0.0,-990.0,0
GRID,1132,0,477.0025,0.0,-985.0,0
GRID,1133,0,467.115,0.0,-985.0,0
GRID,1134,0,457.2275,0.0,-985.0,0
GRID,1135,0,447.34,0.0,-985.0,0
GRID,1136,0,437.4525,0.0,-985.0,0
GRID,1137,0,427.565,0.0,-985.0,0
GRID,1138,0,417.6775,0.0,-985.0,0
GRID,1139,0,477.0025,0.0,-980.0,0
GRID,1140,0,467.115,0.0,-980.0,0
GRID,1141,0,457.2275,0.0,-980.0,0
GRID,1142,0,447.34,0.0,-980.0,0
GRID,1143,0,437.4525,0.0,-980.0,0
GRID,1144,0,427.565,0.0,-980.0,0
GRID,1145,0,417.6775,0.0,-980.0,0
GRID,1146,0,477.0025,0.0,-975.0,0
GRID,1147,0,467.115,0.0,-975.0,0
GRID,1148,0,457.2275,0.0,-975.0,0
GRID,1149,0,447.34,0.0,-975.0,0
GRID,1150,0,437.4525,0.0,-975.0,0
GRID,1151,0,427.565,0.0,-975.0,0
GRID,1152,0,417.6775,0.0,-975.0,0
GRID,1153,0,477.0025,0.0,-970.0,0
GRID,1154,0,467.115,0.0,-970.0,0
GRID,1155,0,457.2275,0.0,-970.0,0
GRID,1156,0,447.34,0.0,-970.0,0
GRID,1157,0,437.4525,0.0,-970.0,0
GRID,1158,0,427.565,0.0,-970.0,0
GRID,1159,0,417.6775,0.0,-970.0,0
GRID,1160,0,477.0025,0.0,-965.0,0
GRID,1161,0,467.115,0.0,-965.0,0
GRID,1162,0,457.2275,0.0,-965.0,0
GRID,1163,0,447.34,0.0,-965.0,0
GRID,1164,0,437.4525,0.0,-965.0,0
GRID,1165,0,427.565,0.0,-965.0,0
GRID,1166,0,417.6775,0.0,-965.0,0
GRID,1167,0,477.0025,0.0,-960.0,0
GRID,1168,0,467.115,0.0,-960.0,0
GRID,1169,0,457.2275,0.0,-960.0,0
GRID,1170,0,447.34,0.0,-960.0,0
GRID,1171,0,437.4525,0.0,-960.0,0
GRID,1172,0,427.565,0.0,-960.0,0
GRID,1173,0,417.6775,0.0,-960.0,0
GRID,1174,0,477.0025,0.0,-955.0,0
GRID,1175,0,467.115,0.0,-955.0,0
GRID,1176,0,457.2275,0.0,-955.0,0
GRID,1177,0,447.34,0.0,-955.0,0
GRID,1178,0,437.4525,0.0,-955.0,0
GRID,1179,0,427.565,0.0,-955.0,0
GRID,1180,0,417.6775,0.0,-955.0,0
GRID,1181,0,477.0025,0.0,-950.0,0
GRID,1182,0,467.115,0.0,-950.0,0
GRID,1183,0,457.2275,0.0,-950.0,0
GRID,1184,0,447.34,0.0,-950.0,0
GRID,1185,0,437.4525,0.0,-950.0,0
GRID,1186,0,427.565,0.0,-950.0,0
GRID,1187,0,417.6775,0.0,-950.0,0
GRID,1188,0,477.0025,0.0,-945.0,0
GRID,1189,0,467.115,0.0,-945.0,0
GRID,1190,0,457.2275,0.0,-945.0,0
GRID,1191,0,447.34,0.0,-945.0,0
GRID,1192,0,437.4525,0.0,-945.0,0
GRID,1193,0,427.565,0.0,-945.0,0
GRID,1194,0,417.6775,0.0,-945.0,0
GRID,1195,0,477.0025,0.0,-940.0,0
GRID,1196,0,467.115,0.0,-940.0,0
GRID,1197,0,457.2275,0.0,-940.0,0
GRID,1198,0,447.34,0.0,-940.0,0
GRID,1199,0,437.4525,0.0,-940.0,0
GRID,1200,0,427.565,0.0,-940.0,0
GRID,1201,0,417.6775,0.0,-940.0,0
GRID,1202,0,477.0025,0.0,-935.0,0
GRID,1203,0,467.115,0.0,-935.0,0
GRID,1204,0,457.2275,0.0,-935.0,0
GRID,1205,0,447.34,0.0,-935.0,0
GRID,1206,0,437.4525,0.0,-935.0,0
GRID,1207,0,427.565,0.0,-935.0,0
GRID,1208,0,417.6775,0.0,-935.0,0
GRID,1209,0,477.0025,0.0,-930.0,0
GRID,1210,0,467.115,0.0,-930.0,0
GRID,1211,0,457.2275,0.0,-930.0,0
GRID,1212,0,447.34,0.0,-930.0,0
GRID,1213,0,437.4525,0.0,-930.0,0
GRID,1214,0,427.565,0.0,-930.0,0
GRID,1215,0,417.6775,0.0,-930.0,0
GRID,1216,0,477.0025,0.0,-925.0,0
GRID,1217,0,467.115,0.0,-925.0,0
GRID,1218,0,457.2275,0.0,-925.0,0
GRID,1219,0,447.34,0.0,-925.0,0
GRID,1220,0,437.4525,0.0,-925.0,0
GRID,1221,0,427.565,0.0,-925.0,0
GRID,1222,0,417.6775,0.0,-925.0,0
GRID,1223,0,477.0025,0.0,-920.0,0
GRID,1224,0,467.115,0.0,-920.0,0
GRID,1225,0,457.2275,0.0,-920.0,0
GRID,1226,0,447.34,0.0,-920.0,0
GRID,1227,0,437.4525,0.0,-920.0,0
GRID,1228,0,427.565,0.0,-920.0,0
GRID,1229,0,417.6775,0.0,-920.0,0
GRID,1230,0,477.0025,0.0,-915.0,0
GRID,1231,0,467.115,0.0,-915.0,0
GRID,1232,0,457.2275,0.0,-915.0,0
GRID,1233,0,447.34,0.0,-915.0,0
GRID,1234,0,437.4525,0.0,-915.0,0
GRID,1235,0,427.565,0.0,-915.0,0
GRID,1236,0,417.6775,0.0,-915.0,0
GRID,1237,0,477.0025,0.0,-910.0,0
GRID,1238,0,467.115,0.0,-910.0,0
GRID,1239,0,457.2275,0.0,-910.0,0
GRID,1240,0,447.34,0.0,-910.0,0
GRID,1241,0,437.4525,0.0,-910.0,0
GRID,1242,0,427.565,0.0,-910.0,0
GRID,1243,0,417.6775,0.0,-910.0,0
GRID,1244,0,477.0025,0.0,-905.0,0
GRID,1245,0,467.115,0.0,-905.0,0
GRID,1246,0,457.2275,0.0,-905.0,0
GRID,1247,0,447.34,0.0,-905.0,0
GRID,1248,0,437.4525,0.0,-905.0,0
GRID,1249,0,427.565,0.0,-905.0,0
GRID,1250,0,417.6775,0.0,-905.0,0
GRID,1251,0,477.0025,0.0,-900.0,0
GRID,1252,0,467.115,0.0,-900.0,0
GRID,1253,0,457.2275,0.0,-900.0,0
GRID,1254,0,447.34,0.0,-900.0,0
GRID,1255,0,437.4525,0.0,-900.0,0
GRID,1256,0,427.565,0.0,-900.0,0
GRID,1257,0,417.6775,0.0,-900.0,0
GRID,1258,0,477.0025,0.0,-895.0,0
GRID,1259,0,467.115,0.0,-895.0,0
GRID,1260,0,457.2275,0.0,-895.0,0
GRID,1261,0,447.34,0.0,-895.0,0
GRID,1262,0,437.4525,0.0,-895.0,0
GRID,1263,0,427.565,0.0,-895.0,0
GRID,1264,0,417.6775,0.0,-895.0,0
GRID,1265,0,477.0025,0.0,-890.0,0
GRID,1266,0,467.115,0.0,-890.0,0
GRID,1267,0,457.2275,0.0,-890.0,0
GRID,1268,0,447.34,0.0,-890.0,0
GRID,1269,0,437.4525,0.0,-890.0,0
GRID,1270,0,427.565,0.0,-890.0,0
GRID,1271,0,417.6775,0.0,-890.0,0
GRID,1272,0,477.0025,0.0,-885.0,0
GRID,1273,0,467.115,0.0,-885.0,0
GRID,1274,0,457.2275,0.0,-885.0,0
GRID,1275,0,447.34,0.0,-885.0,0
GRID,1276,0,437.4525,0.0,-885.0,0
GRID,1277,0,427.565,0.0,-885.0,0
GRID,1278,0,417.6775,0.0,-885.0,0
GRID,1279,0,477.0025,0.0,-880.0,0
GRID,1280,0,467.115,0.0,-880.0,0
GRID,1281,0,457.2275,0.0,-880.0,0
GRID,1282,0,447.34,0.0,-880.0,0
GRID,1283,0,437.4525,0.0,-880.0,0
GRID,1284,0,427.565,0.0,-880.0,0
GRID,1285,0,417.6775,0.0,-880.0,0
GRID,1286,0,477.0025,0.0,-875.0,0
GRID,1287,0,467.115,0.0,-875.0,0
GRID,1288,0,457.2275,0.0,-875.0,0
GRID,1289,0,447.34,0.0,-875.0,0
GRID,1290,0,437.4525,0.0,-875.0,0
GRID,1291,0,427.565,0.0,-875.0,0
GRID,1292,0,417.6775,0.0,-875.0,0
GRID,1293,0,477.0025,0.0,-870.0,0
GRID,1294,0,467.115,0.0,-870.0,0
GRID,1295,0,457.2275,0.0,-870.0,0
GRID,1296,0,447.34,0.0,-870.0,0
GRID,1297,0,437.4525,0.0,-870.0,0
GRID,1298,0,427.565,0.0,-870.0,0
GRID,1299,0,417.6775,0.0,-870.0,0
GRID,1300,0,477.0025,0.0,-865.0,0
GRID,1301,0,467.115,0.0,-865.0,0
GRID,1302,0,457.2275,0.0,-865.0,0
GRID,1303,0,447.34,0.0,-865.0,0
GRID,1304,0,437.4525,0.0,-865.0,0
GRID,1305,0,427.565,0.0,-865.0,0
GRID,1306,0,417.6775,0.0,-865.0,0
GRID,1307,0,477.0025,0.0,-860.0,0
GRID,1308,0,467.115,0.0,-860.0,0
GRID,1309,0,457.2275,0.0,-860.0,0
GRID,1310,0,447.34,0.0,-860.0,0
GRID,1311,0,437.4525,0.0,-860.0,0
GRID,1312,0,427.565,0.0,-860.0,0
GRID,1313,0,417.6775,0.0,-860.0,0
GRID,1314,0,477.0025,0.0,-855.0,0
GRID,1315,0,467.115,0.0,-855.0,0
GRID,1316,0,457.2275,0.0,-855.0,0
GRID,1317,0,447.34,0.0,-855.0,0
GRID,1318,0,437.4525,0.0,-855.0,0
GRID,1319,0,427.565,0.0,-855.0,0
GRID,1320,0,417.6775,0.0,-855.0,0
GRID,1321,0,477.0025,0.0,-850.0,0
GRID,1322,0,467.115,0.0,-850.0,0
GRID,1323,0,457.2275,0.0,-850.0,0
GRID,1324,0,447.34,0.0,-850.0,0
GRID,1325,0,437.4525,0.0,-850.0,0
GRID,1326,0,427.565,0.0,-850.0,0
GRID,1327,0,417.6775,0.0,-850.0,0
GRID,1328,0,477.0025,0.0,-845.0,0
GRID,1329,0,467.115,0.0,-845.0,0
GRID,1330,0,457.2275,0.0,-845.0,0
GRID,1331,0,447.34,0.0,-845.0,0
GRID,1332,0,437.4525,0.0,-845.0,0
GRID,1333,0,427.565,0.0,-845.0,0
GRID,1334,0,417.6775,0.0,-845.0,0
GRID,1335,0,477.0025,0.0,-840.0,0
GRID,1336,0,467.115,0.0,-840.0,0
GRID,1337,0,457.2275,0.0,-840.0,0
GRID,1338,0,447.34,0.0,-840.0,0
GRID,1339,0,437.4525,0.0,-840.0,0
GRID,1340,0,427.565,0.0,-840.0,0
GRID,1341,0,417.6775,0.0,-840.0,0
GRID,1342,0,477.0025,0.0,-835.0,0
GRID,1343,0,467.115,0.0,-835.0,0
GRID,1344,0,457.2275,0.0,-835.0,0
GRID,1345,0,447.34,0.0,-835.0,0
GRID,1346,0,437.4525,0.0,-835.0,0
GRID,1347,0,427.565,0.0,-835.0,0
GRID,1348,0,417.6775,0.0,-835.0,0
GRID,1349,0,477.0025,0.0,-830.0,0
GRID,1350,0,467.115,0.0,-830.0,0
GRID,1351,0,457.2275,0.0,-830.0,0
GRID,1352,0,447.34,0.0,-830.0,0
GRID,1353,0,437.4525,0.0,-830.0,0
GRID,1354,0,427.565,0.0,-830.0,0
GRID,1355,0,417.6775,0.0,-830.0,0
GRID,1356,0,477.0025,0.0,-825.0,0
GRID,1357,0,467.115,0.0,-825.0,0
GRID,1358,0,457.2275,0.0,-825.0,0
GRID,1359,0,447.34,0.0,-825.0,0
GRID,1360,0,437.4525,0.0,-825.0,0
GRID,1361,0,427.565,0.0,-825.0,0
GRID,1362,0,417.6775,0.0,-825.0,0
GRID,1363,0,477.0025,0.0,-820.0,0
GRID,1364,0,467.115,0.0,-820.0,0
GRID,1365,0,457.2275,0.0,-820.0,0
GRID,1366,0,447.34,0.0,-820.0,0
GRID,1367,0,437.4525,0.0,-820.0,0
GRID,1368,0,427.565,0.0,-820.0,0
GRID,1369,0,417.6775,0.0,-820.0,0
GRID,1370,0,477.0025,0.0,-815.0,0
GRID,1371,0,467.115,0.0,-815.0,0
GRID,1372,0,457.2275,0.0,-815.0,0
GRID,1373,0,447.34,0.0,-815.0,0
GRID,1374,0,437.4525,0.0,-815.0,0
GRID,1375,0,427.565,0.0,-815.0,0
GRID,1376,0,417.6775,0.0,-815.0,0
GRID,1377,0,477.0025,0.0,-810.0,0
GRID,1378,0,467.115,0.0,-810.0,0
GRID,1379,0,457.2275,0.0,-810.0,0
GRID,1380,0,447.34,0.0,-810.0,0
GRID,1381,0,437.4525,0.0,-810.0,0
GRID,1382,0,427.565,0.0,-810.0,0
GRID,1383,0,417.6775,0.0,-810.0,0
GRID,1384,0,477.0025,0.0,-805.0,0
GRID,1385,0,467.115,0.0,-805.0,0
GRID,1386,0,457.2275,0.0,-805.0,0
GRID,1387,0,447.34,0.0,-805.0,0
GRID,1388,0,437.4525,0.0,-805.0,0
GRID,1389,0,427.565,0.0,-805.0,0
GRID,1390,0,417.6775,0.0,-805.0,0
GRID,1391,0,477.0025,0.0,-800.0,0
GRID,1392,0,467.115,0.0,-800.0,0
GRID,1393,0,457.2275,0.0,-800.0,0
GRID,1394,0,447.34,0.0,-800.0,0
GRID,1395,0,437.4525,0.0,-800.0,0
GRID,1396,0,427.565,0.0,-800.0,0
GRID,1397,0,417.6775,0.0,-800.0,0
GRID,1398,0,477.0025,0.0,-795.0,0
GRID,1399,0,467.115,0.0,-795.0,0
GRID,1400,0,457.2275,0.0,-795.0,0
GRID,1401,0,447.34,0.0,-795.0,0
GRID,1402,0,437.4525,0.0,-795.0,0
GRID,1403,0,427.565,0.0,-795.0,0
GRID,1404,0,417.6775,0.0,-795.0,0
GRID,1405,0,477.0025,0.0,-790.0,0
GRID,1406,0,467.115,0.0,-790.0,0
GRID,1407,0,457.2275,0.0,-790.0,0
GRID,1408,0,447.34,0.0,-790.0,0
GRID,1409,0,437.4525,0.0,-790.0,0
GRID,1410,0,427.565,0.0,-790.0,0
GRID,1411,0,417.6775,0.0,-790.0,0
GRID,1412,0,477.0025,0.0,-785.0,0
GRID,1413,0,467.115,0.0,-785.0,0
GRID,1414,0,457.2275,0.0,-785.0,0
GRID,1415,0,447.34,0.0,-785.0,0
GRID,1416,0,437.4525,0.0,-785.0,0
GRID,1417,0,427.565,0.0,-785.0,0
GRID,1418,0,417.6775,0.0,-785.0,0
GRID,1419,0,477.0025,0.0,-780.0,0
GRID,1420,0,467.115,0.0,-780.0,0
GRID,1421,0,457.2275,0.0,-780.0,0
GRID,1422,0,447.34,0.0,-780.0,0
GRID,1423,0,437.4525,0.0,-780.0,0
GRID,1424,0,427.565,0.0,-780.0,0
GRID,1425,0,417.6775,0.0,-780.0,0
GRID,1426,0,477.0025,0.0,-775.0,0
GRID,1427,0,467.115,0.0,-775.0,0
GRID,1428,0,457.2275,0.0,-775.0,0
GRID,1429,0,447.34,0.0,-775.0,0
GRID,1430,0,437.4525,0.0,-775.0,0
GRID,1431,0,427.565,0.0,-775.0,0
GRID,1432,0,417.6775,0.0,-775.0,0
GRID,1433,0,477.0025,0.0,-770.0,0
GRID,1434,0,467.115,0.0,-770.0,0
GRID,1435,0,457.2275,0.0,-770.0,0
GRID,1436,0,447.34,0.0,-770.0,0
GRID,1437,0,437.4525,0.0,-770.0,0
GRID,1438,0,427.565,0.0,-770.0,0
GRID,1439,0,417.6775,0.0,-770.0,0
GRID,1440,0,477.0025,0.0,-765.0,0
GRID,1441,0,467.115,0.0,-765.0,0
GRID,1442,0,457.2275,0.0,-765.0,0
GRID,1443,0,447.34,0.0,-765.0,0
GRID,1444,0,437.4525,0.0,-765.0,0
GRID,1445,0,427.565,0.0,-765.0,0
GRID,1446,0,417.6775,0.0,-765.0,0
GRID,1447,0,477.0025,0.0,-760.0,0
GRID,1448,0,467.115,0.0,-760.0,0
GRID,1449,0,457.2275,0.0,-760.0,0
GRID,1450,0,447.34,0.0,-760.0,0
GRID,1451,0,437.4525,0.0,-760.0,0
GRID,1452,0,427.565,0.0,-760.0,0
GRID,1453,0,417.6775,0.0,-760.0,0
GRID,1454,0,477.0025,0.0,-755.0,0
GRID,1455,0,467.115,0.0,-755.0,0
GRID,1456,0,457.2275,0.0,-755.0,0
GRID,1457,0,447.34,0.0,-755.0,0
GRID,1458,0,437.4525,0.0,-755.0,0
GRID,1459,0,427.565,0.0,-755.0,0
GRID,1460,0,417.6775,0.0,-755.0,0
GRID,1461,0,477.0025,0.0,-750.0,0
GRID,1462,0,467.115,0.0,-750.0,0
GRID,1463,0,457.2275,0.0,-750.0,0
GRID,1464,0,447.34,0.0,-750.0,0
GRID,1465,0,437.4525,0.0,-750.0,0
GRID,1466,0,427.565,0.0,-750.0,0
GRID,1467,0,417.6775,0.0,-750.0,0
GRID,1468,0,477.0025,0.0,-745.0,0
GRID,1469,0,467.115,0.0,-745.0,0
GRID,1470,0,457.2275,0.0,-745.0,0
GRID,1471,0,447.34,0.0,-745.0,0
GRID,1472,0,437.4525,0.0,-745.0,0
GRID,1473,0,427.565,0.0,-745.0,0
GRID,1474,0,417.6775,0.0,-745.0,0
GRID,1475,0,477.0025,0.0,-740.0,0
GRID,1476,0,467.115,0.0,-740.0,0
GRID,1477,0,457.2275,0.0,-740.0,0
GRID,1478,0,447.34,0.0,-740.0,0
GRID,1479,0,437.4525,0.0,-740.0,0
GRID,1480,0,427.565,0.0,-740.0,0
GRID,1481,0,417.6775,0.0,-740.0,0
GRID,1482,0,477.0025,0.0,-735.0,0
GRID,1483,0,467.115,0.0,-735.0,0
GRID,1484,0,457.2275,0.0,-735.0,0
GRID,1485,0,447.34,0.0,-735.0,0
GRID,1486,0,437.4525,0.0,-735.0,0
GRID,1487,0,427.565,0.0,-735.0,0
GRID,1488,0,417.6775,0.0,-735.0,0
GRID,1489,0,477.0025,0.0,-730.0,0
GRID,1490,0,467.115,0.0,-730.0,0
GRID,1491,0,457.2275,0.0,-730.0,0
GRID,1492,0,447.34,0.0,-730.0,0
GRID,1493,0,437.4525,0.0,-730.0,0
GRID,1494,0,427.565,0.0,-730.0,0
GRID,1495,0,417.6775,0.0,-730.0,0
GRID,1496,0,477.0025,0.0,-725.0,0
GRID,1497,0,467.115,0.0,-725.0,0
GRID,1498,0,457.2275,0.0,-725.0,0
GRID,1499,0,447.34,0.0,-725.0,0
GRID,1500,0,437.4525,0.0,-725.0,0
GRID,1501,0,427.565,0.0,-725.0,0
GRID,1502,0,417.6775,0.0,-725.0,0
GRID,1503,0,477.0025,0.0,-720.0,0
GRID,1504,0,467.115,0.0,-720.0,0
GRID,1505,0,457.2275,0.0,-720.0,0
GRID,1506,0,447.34,0.0,-720.0,0
GRID,1507,0,437.4525,0.0,-720.0,0
GRID,1508,0,427.565,0.0,-720.0,0
GRID,1509,0,417.6775,0.0,-720.0,0
GRID,1510,0,477.0025,0.0,-715.0,0
GRID,1511,0,467.115,0.0,-715.0,0
GRID,1512,0,457.2275,0.0,-715.0,0
GRID,1513,0,447.34,0.0,-715.0,0
GRID,1514,0,437.4525,0.0,-715.0,0
GRID,1515,0,427.565,0.0,-715.0,0
GRID,1516,0,417.6775,0.0,-715.0,0
GRID,1517,0,477.0025,0.0,-710.0,0
GRID,1518,0,467.115,0.0,-710.0,0
GRID,1519,0,457.2275,0.0,-710.0,0
GRID,1520,0,447.34,0.0,-710.0,0
GRID,1521,0,437.4525,0.0,-710.0,0
GRID,1522,0,427.565,0.0,-710.0,0
GRID,1523,0,417.6775,0.0,-710.0,0
GRID,1524,0,477.0025,0.0,-705.0,0
GRID,1525,0,467.115,0.0,-705.0,0
GRID,1526,0,457.2275,0.0,-705.0,0
GRID,1527,0,447.34,0.0,-705.0,0
GRID,1528,0,437.4525,0.0,-705.0,0
GRID,1529,0,427.565,0.0,-705.0,0
GRID,1530,0,417.6775,0.0,-705.0,0
GRID,1531,0,477.0025,0.0,-700.0,0
GRID,1532,0,467.115,0.0,-700.0,0
GRID,1533,0,457.2275,0.0,-700.0,0
GRID,1534,0,447.34,0.0,-700.0,0
GRID,1535,0,437.4525,0.0,-700.0,0
GRID,1536,0,427.565,0.0,-700.0,0
GRID,1537,0,417.6775,0.0,-700.0,0
GRID,1538,0,477.0025,0.0,-695.0,0
GRID,1539,0,467.115,0.0,-695.0,0
GRID,1540,0,457.2275,0.0,-695.0,0
GRID,1541,0,447.34,0.0,-695.0,0
GRID,1542,0,437.4525,0.0,-695.0,0
GRID,1543,0,427.565,0.0,-695.0,0
GRID,1544,0,417.6775,0.0,-695.0,0
GRID,1545,0,477.0025,0.0,-690.0,0
GRID,1546,0,467.115,0.0,-690.0,0
GRID,1547,0,457.2275,0.0,-690.0,0
GRID,1548,0,447.34,0.0,-690.0,0
GRID,1549,0,437.4525,0.0,-690.0,0
GRID,1550,0,427.565,0.0,-690.0,0
GRID,1551,0,417.6775,0.0,-690.0,0
GRID,1552,0,477.0025,0.0,-685.0,0
GRID,1553,0,467.115,0.0,-685.0,0
GRID,1554,0,457.2275,0.0,-685.0,0
GRID,1555,0,447.34,0.0,-685.0,0
GRID,1556,0,437.4525,0.0,-685.0,0
GRID,1557,0,427.565,0.0,-685.0,0
GRID,1558,0,417.6775,0.0,-685.0,0
GRID,1559,0,477.0025,0.0,-680.0,0
GRID,1560,0,467.115,0.0,-680.0,0
GRID,1561,0,457.2275,0.0,-680.0,0
GRID,1562,0,447.34,0.0,-680.0,0
GRID,1563,0,437.4525,0.0,-680.0,0
GRID,1564,0,427.565,0.0,-680.0,0
GRID,1565,0,417.6775,0.0,-680.0,0
GRID,1566,0,477.0025,0.0,-675.0,0
GRID,1567,0,467.115,0.0,-675.0,0
GRID,1568,0,457.2275,0.0,-675.0,0
GRID,1569,0,447.34,0.0,-675.0,0
GRID,1570,0,437.4525,0.0,-675.0,0
GRID,1571,0,427.565,0.0,-675.0,0
GRID,1572,0,417.6775,0.0,-675.0,0
GRID,1573,0,477.0025,0.0,-670.0,0
GRID,1574,0,467.115,0.0,-670.0,0
GRID,1575,0,457.2275,0.0,-670.0,0
GRID,1576,0,447.34,0.0,-670.0,0
GRID,1577,0,437.4525,0.0,-670.0,0
GRID,1578,0,427.565,0.0,-670.0,0
GRID,1579,0,417.6775,0.0,-670.0,0
GRID,1580,0,477.0025,0.0,-665.0,0
GRID,1581,0,467.115,0.0,-665.0,0
GRID,1582,0,457.2275,0.0,-665.0,0
GRID,1583,0,447.34,0.0,-665.0,0
GRID,1584,0,437.4525,0.0,-665.0,0
GRID,1585,0,427.565,0.0,-665.0,0
GRID,1586,0,417.6775,0.0,-665.0,0
GRID,1587,0,477.0025,0.0,-660.0,0
GRID,1588,0,467.115,0.0,-660.0,0
GRID,1589,0,457.2275,0.0,-660.0,0
GRID,1590,0,447.34,0.0,-660.0,0
GRID,1591,0,437.4525,0.0,-660.0,0
GRID,1592,0,427.565,0.0,-660.0,0
GRID,1593,0,417.6775,0.0,-660.0,0
GRID,1594,0,477.0025,0.0,-655.0,0
GRID,1595,0,467.115,0.0,-655.0,0
GRID,1596,0,457.2275,0.0,-655.0,0
GRID,1597,0,447.34,0.0,-655.0,0
GRID,1598,0,437.4525,0.0,-655.0,0
GRID,1599,0,427.565,0.0,-655.0,0
GRID,1600,0,417.6775,0.0,-655.0,0
GRID,1601,0,477.0025,0.0,-650.0,0
GRID,1602,0,467.115,0.0,-650.0,0
GRID,1603,0,457.2275,0.0,-650.0,0
GRID,1604,0,447.34,0.0,-650.0,0
GRID,1605,0,437.4525,0.0,-650.0,0
GRID,1606,0,427.565,0.0,-650.0,0
GRID,1607,0,417.6775,0.0,-650.0,0
GRID,1608,0,477.0025,0.0,-645.0,0
GRID,1609,0,467.115,0.0,-645.0,0
GRID,1610,0,457.2275,0.0,-645.0,0
GRID,1611,0,447.34,0.0,-645.0,0
GRID,1612,0,437.4525,0.0,-645.0,0
GRID,1613,0,427.565,0.0,-645.0,0
GRID,1614,0,417.6775,0.0,-645.0,0
GRID,1615,0,477.0025,0.0,-640.0,0
GRID,1616,0,467.115,0.0,-640.0,0
GRID,1617,0,457.2275,0.0,-640.0,0
GRID,1618,0,447.34,0.0,-640.0,0
GRID,1619,0,437.4525,0.0,-640.0,0
GRID,1620,0,427.565,0.0,-640.0,0
GRID,1621,0,417.6775,0.0,-640.0,0
GRID,1622,0,477.0025,0.0,-635.0,0
GRID,1623,0,467.115,0.0,-635.0,0
GRID,1624,0,457.2275,0.0,-635.0,0
GRID,1625,0,447.34,0.0,-635.0,0
GRID,1626,0,437.4525,0.0,-635.0,0
GRID,1627,0,427.565,0.0,-635.0,0
GRID,1628,0,417.6775,0.0,-635.0,0
GRID,1629,0,477.0025,0.0,-630.0,0
GRID,1630,0,467.115,0.0,-630.0,0
GRID,1631,0,457.2275,0.0,-630.0,0
GRID,1632,0,447.34,0.0,-630.0,0
GRID,1633,0,437.4525,0.0,-630.0,0
GRID,1634,0,427.565,0.0,-630.0,0
GRID,1635,0,417.6775,0.0,-630.0,0
GRID,1636,0,477.0025,0.0,-625.0,0
GRID,1637,0,467.115,0.0,-625.0,0
GRID,1638,0,457.2275,0.0,-625.0,0
GRID,1639,0,447.34,0.0,-625.0,0
GRID,1640,0,437.4525,0.0,-625.0,0
GRID,1641,0,427.565,0.0,-625.0,0
GRID,1642,0,417.6775,0.0,-625.0,0
GRID,1643,0,477.0025,0.0,-620.0,0
GRID,1644,0,467.115,0.0,-620.0,0
GRID,1645,0,457.2275,0.0,-620.0,0
GRID,1646,0,447.34,0.0,-620.0,0
GRID,1647,0,437.4525,0.0,-620.0,0
GRID,1648,0,427.565,0.0,-620.0,0
GRID,1649,0,417.6775,0.0,-620.0,0
GRID,1650,0,477.0025,0.0,-615.0,0
GRID,1651,0,467.115,0.0,-615.0,0
GRID,1652,0,457.2275,0.0,-615.0,0
GRID,1653,0,447.34,0.0,-615.0,0
GRID,1654,0,437.4525,0.0,-615.0,0
GRID,1655,0,427.565,0.0,-615.0,0
GRID,1656,0,417.6775,0.0,-615.0,0
GRID,1657,0,477.0025,0.0,-610.0,0
GRID,1658,0,467.115,0.0,-610.0,0
GRID,1659,0,457.2275,0.0,-610.0,0
GRID,1660,0,447.34,0.0,-610.0,0
GRID,1661,0,437.4525,0.0,-610.0,0
GRID,1662,0,427.565,0.0,-610.0,0
GRID,1663,0,417.6775,0.0,-610.0,0
GRID,1664,0,477.0025,0.0,-605.0,0
GRID,1665,0,467.115,0.0,-605.0,0
GRID,1666,0,457.2275,0.0,-605.0,0
GRID,1667,0,447.34,0.0,-605.0,0
GRID,1668,0,437.4525,0.0,-605.0,0
GRID,1669,0,427.565,0.0,-605.0,0
GRID,1670,0,417.6775,0.0,-605.0,0
GRID,1671,0,477.0025,0.0,-600.0,0
GRID,1672,0,467.115,0.0,-600.0,0
GRID,1673,0,457.2275,0.0,-600.0,0
GRID,1674,0,447.34,0.0,-600.0,0
GRID,1675,0,437.4525,0.0,-600.0,0
GRID,1676,0,427.565,0.0,-600.0,0
GRID,1677,0,417.6775,0.0,-600.0,0
GRID,1678,0,477.0025,0.0,-595.0,0
GRID,1679,0,467.115,0.0,-595.0,0
GRID,1680,0,457.2275,0.0,-595.0,0
GRID,1681,0,447.34,0.0,-595.0,0
GRID,1682,0,437.4525,0.0,-595.0,0
GRID,1683,0,427.565,0.0,-595.0,0
GRID,1684,0,417.6775,0.0,-595.0,0
GRID,1685,0,477.0025,0.0,-590.0,0
GRID,1686,0,467.115,0.0,-590.0,0
GRID,1687,0,457.2275,0.0,-590.0,0
GRID,1688,0,447.34,0.0,-590.0,0
GRID,1689,0,437.4525,0.0,-590.0,0
GRID,1690,0,427.565,0.0,-590.0,0
GRID,1691,0,417.6775,0.0,-590.0,0
GRID,1692,0,477.0025,0.0,-585.0,0
GRID,1693,0,467.115,0.0,-585.0,0
GRID,1694,0,457.2275,0.0,-585.0,0
GRID,1695,0,447.34,0.0,-585.0,0
GRID,1696,0,437.4525,0.0,-585.0,0
GRID,1697,0,427.565,0.0,-585.0,0
GRID,1698,0,417.6775,0.0,-585.0,0
GRID,1699,0,477.0025,0.0,-580.0,0
GRID,1700,0,467.115,0.0,-580.0,0
GRID,1701,0,457.2275,0.0,-580.0,0
GRID,1702,0,447.34,0.0,-580.0,0
GRID,1703,0,437.4525,0.0,-580.0,0
GRID,1704,0,427.565,0.0,-580.0,0
GRID,1705,0,417.6775,0.0,-580.0,0
GRID,1706,0,477.0025,0.0,-575.0,0
GRID,1707,0,467.115,0.0,-575.0,0
GRID,1708,0,457.2275,0.0,-575.0,0
GRID,1709,0,447.34,0.0,-575.0,0
GRID,1710,0,437.4525,0.0,-575.0,0
GRID,1711,0,427.565,0.0,-575.0,0
GRID,1712,0,417.6775,0.0,-575.0,0
GRID,1713,0,477.0025,0.0,-570.0,0
GRID,1714,0,467.115,0.0,-570.0,0
GRID,1715,0,457.2275,0.0,-570.0,0
GRID,1716,0,447.34,0.0,-570.0,0
GRID,1717,0,437.4525,0.0,-570.0,0
GRID,1718,0,427.565,0.0,-570.0,0
GRID,1719,0,417.6775,0.0,-570.0,0
GRID,1720,0,477.0025,0.0,-565.0,0
GRID,1721,0,467.115,0.0,-565.0,0
GRID,1722,0,457.2275,0.0,-565.0,0
GRID,1723,0,447.34,0.0,-565.0,0
GRID,1724,0,437.4525,0.0,-565.0,0
GRID,1725,0,427.565,0.0,-565.0,0
GRID,1726,0,417.6775,0.0,-565.0,0
GRID,1727,0,477.0025,0.0,-560.0,0
GRID,1728,0,467.115,0.0,-560.0,0
GRID,1729,0,457.2275,0.0,-560.0,0
GRID,1730,0,447.34,0.0,-560.0,0
GRID,1731,0,437.4525,0.0,-560.0,0
GRID,1732,0,427.565,0.0,-560.0,0
GRID,1733,0,417.6775,0.0,-560.0,0
GRID,1734,0,477.0025,0.0,-555.0,0
GRID,1735,0,467.115,0.0,-555.0,0
GRID,1736,0,457.2275,0.0,-555.0,0
GRID,1737,0,447.34,0.0,-555.0,0
GRID,1738,0,437.4525,0.0,-555.0,0
GRID,1739,0,427.565,0.0,-555.0,0
GRID,1740,0,417.6775,0.0,-555.0,0
GRID,1741,0,477.0025,0.0,-550.0,0
GRID,1742,0,467.115,0.0,-550.0,0
GRID,1743,0,457.2275,0.0,-550.0,0
GRID,1744,0,447.34,0.0,-550.0,0
GRID,1745,0,437.4525,0.0,-550.0,0
GRID,1746,0,427.565,0.0,-550.0,0
GRID,1747,0,417.6775,0.0,-550.0,0
GRID,1748,0,477.0025,0.0,-545.0,0
GRID,1749,0,467.115,0.0,-545.0,0
GRID,1750,0,457.2275,0.0,-545.0,0
GRID,1751,0,447.34,0.0,-545.0,0
GRID,1752,0,437.4525,0.0,-545.0,0
GRID,1753,0,427.565,0.0,-545.0,0
GRID,1754,0,417.6775,0.0,-545.0,0
GRID,1755,0,477.0025,0.0,-540.0,0
GRID,1756,0,467.115,0.0,-540.0,0
GRID,1757,0,457.2275,0.0,-540.0,0
GRID,1758,0,447.34,0.0,-540.0,0
GRID,1759,0,437.4525,0.0,-540.0,0
GRID,1760,0,427.565,0.0,-540.0,0
GRID,1761,0,417.6775,0.0,-540.0,0
GRID,1762,0,477.0025,0.0,-535.0,0
GRID,1763,0,467.115,0.0,-535.0,0
GRID,1764,0,457.2275,0.0,-535.0,0
GRID,1765,0,447.34,0.0,-535.0,0
GRID,1766,0,437.4525,0.0,-535.0,0
GRID,1767,0,427.565,0.0,-535.0,0
GRID,1768,0,417.6775,0.0,-535.0,0
GRID,1769,0,477.0025,0.0,-530.0,0
GRID,1770,0,467.115,0.0,-530.0,0
GRID,1771,0,457.2275,0.0,-530.0,0
GRID,1772,0,447.34,0.0,-530.0,0
GRID,1773,0,437.4525,0.0,-530.0,0
GRID,1774,0,427.565,0.0,-530.0,0
GRID,1775,0,417.6775,0.0,-530.0,0
GRID,1776,0,477.0025,0.0,-525.0,0
GRID,1777,0,467.115,0.0,-525.0,0
GRID,1778,0,457.2275,0.0,-525.0,0
GRID,1779,0,447.34,0.0,-525.0,0
GRID,1780,0,437.4525,0.0,-525.0,0
GRID,1781,0,427.565,0.0,-525.0,0
GRID,1782,0,417.6775,0.0,-525.0,0
GRID,1783,0,477.0025,0.0,-520.0,0
GRID,1784,0,467.115,0.0,-520.0,0
GRID,1785,0,457.2275,0.0,-520.0,0
GRID,1786,0,447.34,0.0,-520.0,0
GRID,1787,0,437.4525,0.0,-520.0,0
GRID,1788,0,427.565,0.0,-520.0,0
GRID,1789,0,417.6775,0.0,-520.0,0
GRID,1790,0,477.0025,0.0,-515.0,0
GRID,1791,0,467.115,0.0,-515.0,0
GRID,1792,0,457.2275,0.0,-515.0,0
GRID,1793,0,447.34,0.0,-515.0,0
GRID,1794,0,437.4525,0.0,-515.0,0
GRID,1795,0,427.565,0.0,-515.0,0
GRID,1796,0,417.6775,0.0,-515.0,0
GRID,1797,0,477.0025,0.0,-510.0,0
GRID,1798,0,467.115,0.0,-510.0,0
GRID,1799,0,457.2275,0.0,-510.0,0
GRID,1800,0,447.34,0.0,-510.0,0
GRID,1801,0,437.4525,0.0,-510.0,0
GRID,1802,0,427.565,0.0,-510.0,0
GRID,1803,0,417.6775,0.0,-510.0,0
GRID,1804,0,477.0025,0.0,-505.0,0
GRID,1805,0,467.115,0.0,-505.0,0
GRID,1806,0,457.2275,0.0,-505.0,0
GRID,1807,0,447.34,0.0,-505.0,0
GRID,1808,0,437.4525,0.0,-505.0,0
GRID,1809,0,427.565,0.0,-505.0,0
GRID,1810,0,417.6775,0.0,-505.0,0
GRID,1811,0,477.0025,0.0,-500.0,0
GRID,1812,0,467.115,0.0,-500.0,0
GRID,1813,0,457.2275,0.0,-500.0,0
GRID,1814,0,447.34,0.0,-500.0,0
GRID,1815,0,437.4525,0.0,-500.0,0
GRID,1816,0,427.565,0.0,-500.0,0
GRID,1817,0,417.6775,0.0,-500.0,0
GRID,1818,0,477.0025,0.0,-495.0,0
GRID,1819,0,467.115,0.0,-495.0,0
GRID,1820,0,457.2275,0.0,-495.0,0
GRID,1821,0,447.34,0.0,-495.0,0
GRID,1822,0,437.4525,0.0,-495.0,0
GRID,1823,0,427.565,0.0,-495.0,0
GRID,1824,0,417.6775,0.0,-495.0,0
GRID,1825,0,477.0025,0.0,-490.0,0
GRID,1826,0,467.115,0.0,-490.0,0
GRID,1827,0,457.2275,0.0,-490.0,0
GRID,1828,0,447.34,0.0,-490.0,0
GRID,1829,0,437.4525,0.0,-490.0,0
GRID,1830,0,427.565,0.0,-490.0,0
GRID,1831,0,417.6775,0.0,-490.0,0
GRID,1832,0,477.0025,0.0,-485.0,0
GRID,1833,0,467.115,0.0,-485.0,0
GRID,1834,0,457.2275,0.0,-485.0,0
GRID,1835,0,447.34,0.0,-485.0,0
GRID,1836,0,437.4525,0.0,-485.0,0
GRID,1837,0,427.565,0.0,-485.0,0
GRID,1838,0,417.6775,0.0,-485.0,0
GRID,1839,0,477.0025,0.0,-480.0,0
GRID,1840,0,467.115,0.0,-480.0,0
GRID,1841,0,457.2275,0.0,-480.0,0
GRID,1842,0,447.34,0.0,-480.0,0
GRID,1843,0,437.4525,0.0,-480.0,0
GRID,1844,0,427.565,0.0,-480.0,0
GRID,1845,0,417.6775,0.0,-480.0,0
GRID,1846,0,477.0025,0.0,-475.0,0
GRID,1847,0,467.115,0.0,-475.0,0
GRID,1848,0,457.2275,0.0,-475.0,0
GRID,1849,0,447.34,0.0,-475.0,0
GRID,1850,0,437.4525,0.0,-475.0,0
GRID,1851,0,427.565,0.0,-475.0,0
GRID,1852,0,417.6775,0.0,-475.0,0
GRID,1853,0,477.0025,0.0,-470.0,0
GRID,1854,0,467.115,0.0,-470.0,0
GRID,1855,0,457.2275,0.0,-470.0,0
GRID,1856,0,447.34,0.0,-470.0,0
GRID,1857,0,437.4525,0.0,-470.0,0
GRID,1858,0,427.565,0.0,-470.0,0
GRID,1859,0,417.6775,0.0,-470.0,0
GRID,1860,0,477.0025,0.0,-465.0,0
GRID,1861,0,467.115,0.0,-465.0,0
GRID,1862,0,457.2275,0.0,-465.0,0
GRID,1863,0,447.34,0.0,-465.0,0
GRID,1864,0,437.4525,0.0,-465.0,0
GRID,1865,0,427.565,0.0,-465.0,0
GRID,1866,0,417.6775,0.0,-465.0,0
GRID,1867,0,477.0025,0.0,-460.0,0
GRID,1868,0,467.115,0.0,-460.0,0
GRID,1869,0,457.2275,0.0,-460.0,0
GRID,1870,0,447.34,0.0,-460.0,0
GRID,1871,0,437.4525,0.0,-460.0,0
GRID,1872,0,427.565,0.0,-460.0,0
GRID,1873,0,417.6775,0.0,-460.0,0
GRID,1874,0,477.0025,0.0,-455.0,0
GRID,1875,0,467.115,0.0,-455.0,0
GRID,1876,0,457.2275,0.0,-455.0,0
GRID,1877,0,447.34,0.0,-455.0,0
GRID,1878,0,437.4525,0.0,-455.0,0
GRID,1879,0,427.565,0.0,-455.0,0
GRID,1880,0,417.6775,0.0,-455.0,0
GRID,1881,0,477.0025,0.0,-450.0,0
GRID,1882,0,467.115,0.0,-450.0,0
GRID,1883,0,457.2275,0.0,-450.0,0
GRID,1884,0,447.34,0.0,-450.0,0
GRID,1885,0,437.4525,0.0,-450.0,0
GRID,1886,0,427.565,0.0,-450.0,0
GRID,1887,0,417.6775,0.0,-450.0,0
GRID,1888,0,477.0025,0.0,-445.0,0
GRID,1889,0,467.115,0.0,-445.0,0
GRID,1890,0,457.2275,0.0,-445.0,0
GRID,1891,0,447.34,0.0,-445.0,0
GRID,1892,0,437.4525,0.0,-445.0,0
GRID,1893,0,427.565,0.0,-445.0,0
GRID,1894,0,417.6775,0.0,-445.0,0
GRID,1895,0,477.0025,0.0,-440.0,0
GRID,1896,0,467.115,0.0,-440.0,0
GRID,1897,0,457.2275,0.0,-440.0,0
GRID,1898,0,447.34,0.0,-440.0,0
GRID,1899,0,437.4525,0.0,-440.0,0
GRID,1900,0,427.565,0.0,-440.0,0
GRID,1901,0,417.6775,0.0,-440.0,0
GRID,1902,0,477.0025,0.0,-435.0,0
GRID,1903,0,467.115,0.0,-435.0,0
GRID,1904,0,457.2275,0.0,-435.0,0
GRID,1905,0,447.34,0.0,-435.0,0
GRID,1906,0,437.4525,0.0,-435.0,0
GRID,1907,0,427.565,0.0,-435.0,0
GRID,1908,0,417.6775,0.0,-435.0,0
GRID,1909,0,477.0025,0.0,-430.0,0
GRID,1910,0,467.115,0.0,-430.0,0
GRID,1911,0,457.2275,0.0,-430.0,0
GRID,1912,0,447.34,0.0,-430.0,0
GRID,1913,0,437.4525,0.0,-430.0,0
GRID,1914,0,427.565,0.0,-430.0,0
GRID,1915,0,417.6775,0.0,-430.0,0
GRID,1916,0,477.0025,0.0,-425.0,0
GRID,1917,0,467.115,0.0,-425.0,0
GRID,1918,0,457.2275,0.0,-425.0,0
GRID,1919,0,447.34,0.0,-425.0,0
GRID,1920,0,437.4525,0.0,-425.0,0
GRID,1921,0,427.565,0.0,-425.0,0
GRID,1922,0,417.6775,0.0,-425.0,0
GRID,1923,0,477.0025,0.0,-420.0,0
GRID,1924,0,467.115,0.0,-420.0,0
GRID,1925,0,457.2275,0.0,-420.0,0
GRID,1926,0,447.34,0.0,-420.0,0
GRID,1927,0,437.4525,0.0,-420.0,0
GRID,1928,0,427.565,0.0,-420.0,0
GRID,1929,0,417.6775,0.0,-420.0,0
GRID,1930,0,477.0025,0.0,-415.0,0
GRID,1931,0,467.115,0.0,-415.0,0
GRID,1932,0,457.2275,0.0,-415.0,0
GRID,1933,0,447.34,0.0,-415.0,0
GRID,1934,0,437.4525,0.0,-415.0,0
GRID,1935,0,427.565,0.0,-415.0,0
GRID,1936,0,417.6775,0.0,-415.0,0
GRID,1937,0,477.0025,0.0,-410.0,0
GRID,1938,0,467.115,0.0,-410.0,0
GRID,1939,0,457.2275,0.0,-410.0,0
GRID,1940,0,447.34,0.0,-410.0,0
GRID,1941,0,437.4525,0.0,-410.0,0
GRID,1942,0,427.565,0.0,-410.0,0
GRID,1943,0,417.6775,0.0,-410.0,0
GRID,1944,0,477.0025,0.0,-405.0,0
GRID,1945,0,467.115,0.0,-405.0,0
GRID,1946,0,457.2275,0.0,-405.0,0
GRID,1947,0,447.34,0.0,-405.0,0
GRID,1948,0,437.4525,0.0,-405.0,0
GRID,1949,0,427.565,0.0,-405.0,0
GRID,1950,0,417.6775,0.0,-405.0,0
GRID,1951,0,477.0025,0.0,-400.0,0
GRID,1952,0,467.115,0.0,-400.0,0
GRID,1953,0,457.2275,0.0,-400.0,0
GRID,1954,0,447.34,0.0,-400.0,0
GRID,1955,0,437.4525,0.0,-400.0,0
GRID,1956,0,427.565,0.0,-400.0,0
GRID,1957,0,417.6775,0.0,-400.0,0
GRID,1958,0,477.0025,0.0,-395.0,0
GRID,1959,0,467.115,0.0,-395.0,0
GRID,1960,0,457.2275,0.0,-395.0,0
GRID,1961,0,447.34,0.0,-395.0,0
GRID,1962,0,437.4525,0.0,-395.0,0
GRID,1963,0,427.565,0.0,-395.0,0
GRID,1964,0,417.6775,0.0,-395.0,0
GRID,1965,0,477.0025,0.0,-390.0,0
GRID,1966,0,467.115,0.0,-390.0,0
GRID,1967,0,457.2275,0.0,-390.0,0
GRID,1968,0,447.34,0.0,-390.0,0
GRID,1969,0,437.4525,0.0,-390.0,0
GRID,1970,0,427.565,0.0,-390.0,0
GRID,1971,0,417.6775,0.0,-390.0,0
GRID,1972,0,477.0025,0.0,-385.0,0
GRID,1973,0,467.115,0.0,-385.0,0
GRID,1974,0,457.2275,0.0,-385.0,0
GRID,1975,0,447.34,0.0,-385.0,0
GRID,1976,0,437.4525,0.0,-385.0,0
GRID,1977,0,427.565,0.0,-385.0,0
GRID,1978,0,417.6775,0.0,-385.0,0
GRID,1979,0,477.0025,0.0,-380.0,0
GRID,1980,0,467.115,0.0,-380.0,0
GRID,1981,0,457.2275,0.0,-380.0,0
GRID,1982,0,447.34,0.0,-380.0,0
GRID,1983,0,437.4525,0.0,-380.0,0
GRID,1984,0,427.565,0.0,-380.0,0
GRID,1985,0,417.6775,0.0,-380.0,0
GRID,1986,0,477.0025,0.0,-375.0,0
GRID,1987,0,467.115,0.0,-375.0,0
GRID,1988,0,457.2275,0.0,-375.0,0
GRID,1989,0,447.34,0.0,-375.0,0
GRID,1990,0,437.4525,0.0,-375.0,0
GRID,1991,0,427.565,0.0,-375.0,0
GRID,1992,0,417.6775,0.0,-375.0,0
GRID,1993,0,477.0025,0.0,-370.0,0
GRID,1994,0,467.115,0.0,-370.0,0
GRID,1995,0,457.2275,0.0,-370.0,0
GRID,1996,0,447.34,0.0,-370.0,0
GRID,1997,0,437.4525,0.0,-370.0,0
GRID,1998,0,427.565,0.0,-370.0,0
GRID,1999,0,417.6775,0.0,-370.0,0
GRID,2000,0,477.0025,0.0,-365.0,0
GRID,2001,0,467.115,0.0,-365.0,0
GRID,2002,0,457.2275,0.0,-365.0,0
GRID,2003,0,447.34,0.0,-365.0,0
GRID,2004,0,437.4525,0.0,-365.0,0
GRID,2005,0,427.565,0.0,-365.0,0
GRID,2006,0,417.6775,0.0,-365.0,0
GRID,2007,0,477.0025,0.0,-360.0,0
GRID,2008,0,467.115,0.0,-360.0,0
GRID,2009,0,457.2275,0.0,-360.0,0
GRID,2010,0,447.34,0.0,-360.0,0
GRID,2011,0,437.4525,0.0,-360.0,0
GRID,2012,0,427.565,0.0,-360.0,0
GRID,2013,0,417.6775,0.0,-360.0,0
GRID,2014,0,477.0025,0.0,-355.0,0
GRID,2015,0,467.115,0.0,-355.0,0
GRID,2016,0,457.2275,0.0,-355.0,0
GRID,2017,0,447.34,0.0,-355.0,0
GRID,2018,0,437.4525,0.0,-355.0,0
GRID,2019,0,427.565,0.0,-355.0,0
GRID,2020,0,417.6775,0.0,-355.0,0
GRID,2021,0,477.0025,0.0,-350.0,0
GRID,2022,0,467.115,0.0,-350.0,0
GRID,2023,0,457.2275,0.0,-350.0,0
GRID,2024,0,447.34,0.0,-350.0,0
GRID,2025,0,437.4525,0.0,-350.0,0
GRID,2026,0,427.565,0.0,-350.0,0
GRID,2027,0,417.6775,0.0,-350.0,0
GRID,2028,0,477.0025,0.0,-345.0,0
GRID,2029,0,467.115,0.0,-345.0,0
GRID,2030,0,457.2275,0.0,-345.0,0
GRID,2031,0,447.34,0.0,-345.0,0
GRID,2032,0,437.4525,0.0,-345.0,0
GRID,2033,0,427.565,0.0,-345.0,0
GRID,2034,0,417.6775,0.0,-345.0,0
GRID,2035,0,477.0025,0.0,-340.0,0
GRID,2036,0,467.115,0.0,-340.0,0
GRID,2037,0,457.2275,0.0,-340.0,0
GRID,2038,0,447.34,0.0,-340.0,0
GRID,2039,0,437.4525,0.0,-340.0,0
GRID,2040,0,427.565,0.0,-340.0,0
GRID,2041,0,417.6775,0.0,-340.0,0
GRID,2042,0,477.0025,0.0,-335.0,0
GRID,2043,0,467.115,0.0,-335.0,0
GRID,2044,0,457.2275,0.0,-335.0,0
GRID,2045,0,447.34,0.0,-335.0,0
GRID,2046,0,437.4525,0.0,-335.0,0
GRID,2047,0,427.565,0.0,-335.0,0
GRID,2048,0,417.6775,0.0,-335.0,0
GRID,2049,0,477.0025,0.0,-330.0,0
GRID,2050,0,467.115,0.0,-330.0,0
GRID,2051,0,457.2275,0.0,-330.0,0
GRID,2052,0,447.34,0.0,-330.0,0
GRID,2053,0,437.4525,0.0,-330.0,0
GRID,2054,0,427.565,0.0,-330.0,0
GRID,2055,0,417.6775,0.0,-330.0,0
GRID,2056,0,477.0025,0.0,-325.0,0
GRID,2057,0,467.115,0.0,-325.0,0
GRID,2058,0,457.2275,0.0,-325.0,0
GRID,2059,0,447.34,0.0,-325.0,0
GRID,2060,0,437.4525,0.0,-325.0,0
GRID,2061,0,427.565,0.0,-325.0,0
GRID,2062,0,417.6775,0.0,-325.0,0
GRID,2063,0,477.0025,0.0,-320.0,0
GRID,2064,0,467.115,0.0,-320.0,0
GRID,2065,0,457.2275,0.0,-320.0,0
GRID,2066,0,447.34,0.0,-320.0,0
GRID,2067,0,437.4525,0.0,-320.0,0
GRID,2068,0,427.565,0.0,-320.0,0
GRID,2069,0,417.6775,0.0,-320.0,0
GRID,2070,0,477.0025,0.0,-315.0,0
GRID,2071,0,467.115,0.0,-315.0,0
GRID,2072,0,457.2275,0.0,-315.0,0
GRID,2073,0,447.34,0.0,-315.0,0
GRID,2074,0,437.4525,0.0,-315.0,0
GRID,2075,0,427.565,0.0,-315.0,0
GRID,2076,0,417.6775,0.0,-315.0,0
GRID,2077,0,477.0025,0.0,-310.0,0
GRID,2078,0,467.115,0.0,-310.0,0
GRID,2079,0,457.2275,0.0,-310.0,0
GRID,2080,0,447.34,0.0,-310.0,0
GRID,2081,0,437.4525,0.0,-310.0,0
GRID,2082,0,427.565,0.0,-310.0,0
GRID,2083,0,417.6775,0.0,-310.0,0
GRID,2084,0,477.0025,0.0,-305.0,0
GRID,2085,0,467.115,0.0,-305.0,0
GRID,2086,0,457.2275,0.0,-305.0,0
GRID,2087,0,447.34,0.0,-305.0,0
GRID,2088,0,437.4525,0.0,-305.0,0
GRID,2089,0,427.565,0.0,-305.0,0
GRID,2090,0,417.6775,0.0,-305.0,0
GRID,2091,0,477.0025,0.0,-300.0,0
GRID,2092,0,467.115,0.0,-300.0,0
GRID,2093,0,457.2275,0.0,-300.0,0
GRID,2094,0,447.34,0.0,-300.0,0
GRID,2095,0,437.4525,0.0,-300.0,0
GRID,2096,0,427.565,0.0,-300.0,0
GRID,2097,0,417.6775,0.0,-300.0,0
GRID,2098,0,477.0025,0.0,-295.0,0
GRID,2099,0,467.115,0.0,-295.0,0
GRID,2100,0,457.2275,0.0,-295.0,0
GRID,2101,0,447.34,0.0,-295.0,0
GRID,2102,0,437.4525,0.0,-295.0,0
GRID,2103,0,427.565,0.0,-295.0,0
GRID,2104,0,417.6775,0.0,-295.0,0
GRID,2105,0,477.0025,0.0,-290.0,0
GRID,2106,0,467.115,0.0,-290.0,0
GRID,2107,0,457.2275,0.0,-290.0,0
GRID,2108,0,447.34,0.0,-290.0,0
GRID,2109,0,437.4525,0.0,-290.0,0
GRID,2110,0,427.565,0.0,-290.0,0
GRID,2111,0,417.6775,0.0,-290.0,0
GRID,2112,0,477.0025,0.0,-285.0,0
GRID,2113,0,467.115,0.0,-285.0,0
GRID,2114,0,457.2275,0.0,-285.0,0
GRID,2115,0,447.34,0.0,-285.0,0
GRID,2116,0,437.4525,0.0,-285.0,0
GRID,2117,0,427.565,0.0,-285.0,0
GRID,2118,0,417.6775,0.0,-285.0,0
GRID,2119,0,477.0025,0.0,-280.0,0
GRID,2120,0,467.115,0.0,-280.0,0
GRID,2121,0,457.2275,0.0,-280.0,0
GRID,2122,0,447.34,0.0,-280.0,0
GRID,2123,0,437.4525,0.0,-280.0,0
GRID,2124,0,427.565,0.0,-280.0,0
GRID,2125,0,417.6775,0.0,-280.0,0
GRID,2126,0,477.0025,0.0,-275.0,0
GRID,2127,0,467.115,0.0,-275.0,0
GRID,2128,0,457.2275,0.0,-275.0,0
GRID,2129,0,447.34,0.0,-275.0,0
GRID,2130,0,437.4525,0.0,-275.0,0
GRID,2131,0,427.565,0.0,-275.0,0
GRID,2132,0,417.6775,0.0,-275.0,0
GRID,2133,0,477.0025,0.0,-270.0,0
GRID,2134,0,467.115,0.0,-270.0,0
GRID,2135,0,457.2275,0.0,-270.0,0
GRID,2136,0,447.34,0.0,-270.0,0
GRID,2137,0,437.4525,0.0,-270.0,0
GRID,2138,0,427.565,0.0,-270.0,0
GRID,2139,0,417.6775,0.0,-270.0,0
GRID,2140,0,477.0025,0.0,-265.0,0
GRID,2141,0,467.115,0.0,-265.0,0
GRID,2142,0,457.2275,0.0,-265.0,0
GRID,2143,0,447.34,0.0,-265.0,0
GRID,2144,0,437.4525,0.0,-265.0,0
GRID,2145,0,427.565,0.0,-265.0,0
GRID,2146,0,417.6775,0.0,-265.0,0
GRID,2147,0,477.0025,0.0,-260.0,0
GRID,2148,0,467.115,0.0,-260.0,0
GRID,2149,0,457.2275,0.0,-260.0,0
GRID,2150,0,447.34,0.0,-260.0,0
GRID,2151,0,437.4525,0.0,-260.0,0
GRID,2152,0,427.565,0.0,-260.0,0
GRID,2153,0,417.6775,0.0,-260.0,0
GRID,2154,0,477.0025,0.0,-255.0,0
GRID,2155,0,467.115,0.0,-255.0,0
GRID,2156,0,457.2275,0.0,-255.0,0
GRID,2157,0,447.34,0.0,-255.0,0
GRID,2158,0,437.4525,0.0,-255.0,0
GRID,2159,0,427.565,0.0,-255.0,0
GRID,2160,0,417.6775,0.0,-255.0,0
GRID,2161,0,477.0025,0.0,-250.0,0
GRID,2162,0,467.115,0.0,-250.0,0
GRID,2163,0,457.2275,0.0,-250.0,0
GRID,2164,0,447.34,0.0,-250.0,0
GRID,2165,0,437.4525,0.0,-250.0,0
GRID,2166,0,427.565,0.0,-250.0,0
GRID,2167,0,417.6775,0.0,-250.0,0
GRID,2168,0,477.0025,0.0,-245.0,0
GRID,2169,0,467.115,0.0,-245.0,0
GRID,2170,0,457.2275,0.0,-245.0,0
GRID,2171,0,447.34,0.0,-245.0,0
GRID,2172,0,437.4525,0.0,-245.0,0
GRID,2173,0,427.565,0.0,-245.0,0
GRID,2174,0,417.6775,0.0,-245.0,0
GRID,2175,0,477.0025,0.0,-240.0,0
GRID,2176,0,467.115,0.0,-240.0,0
GRID,2177,0,457.2275,0.0,-240.0,0
GRID,2178,0,447.34,0.0,-240.0,0
GRID,2179,0,437.4525,0.0,-240.0,0
GRID,2180,0,427.565,0.0,-240.0,0
GRID,2181,0,417.6775,0.0,-240.0,0
GRID,2182,0,477.0025,0.0,-235.0,0
GRID,2183,0,467.115,0.0,-235.0,0
GRID,2184,0,457.2275,0.0,-235.0,0
GRID,2185,0,447.34,0.0,-235.0,0
GRID,2186,0,437.4525,0.0,-235.0,0
GRID,2187,0,427.565,0.0,-235.0,0
GRID,2188,0,417.6775,0.0,-235.0,0
GRID,2189,0,477.0025,0.0,-230.0,0
GRID,2190,0,467.115,0.0,-230.0,0
GRID,2191,0,457.2275,0.0,-230.0,0
GRID,2192,0,447.34,0.0,-230.0,0
GRID,2193,0,437.4525,0.0,-230.0,0
GRID,2194,0,427.565,0.0,-230.0,0
GRID,2195,0,417.6775,0.0,-230.0,0
GRID,2196,0,477.0025,0.0,-225.0,0
GRID,2197,0,467.115,0.0,-225.0,0
GRID,2198,0,457.2275,0.0,-225.0,0
GRID,2199,0,447.34,0.0,-225.0,0
GRID,2200,0,437.4525,0.0,-225.0,0
GRID,2201,0,427.565,0.0,-225.0,0
GRID,2202,0,417.6775,0.0,-225.0,0
GRID,2203,0,477.0025,0.0,-220.0,0
GRID,2204,0,467.115,0.0,-220.0,0
GRID,2205,0,457.2275,0.0,-220.0,0
GRID,2206,0,447.34,0.0,-220.0,0
GRID,2207,0,437.4525,0.0,-220.0,0
GRID,2208,0,427.565,0.0,-220.0,0
GRID,2209,0,417.6775,0.0,-220.0,0
GRID,2210,0,477.0025,0.0,-215.0,0
GRID,2211,0,467.115,0.0,-215.0,0
GRID,2212,0,457.2275,0.0,-215.0,0
GRID,2213,0,447.34,0.0,-215.0,0
GRID,2214,0,437.4525,0.0,-215.0,0
GRID,2215,0,427.565,0.0,-215.0,0
GRID,2216,0,417.6775,0.0,-215.0,0
GRID,2217,0,477.0025,0.0,-210.0,0
GRID,2218,0,467.115,0.0,-210.0,0
GRID,2219,0,457.2275,0.0,-210.0,0
GRID,2220,0,447.34,0.0,-210.0,0
GRID,2221,0,437.4525,0.0,-210.0,0
GRID,2222,0,427.565,0.0,-210.0,0
GRID,2223,0,417.6775,0.0,-210.0,0
GRID,2224,0,477.0025,0.0,-205.0,0
GRID,2225,0,467.115,0.0,-205.0,0
GRID,2226,0,457.2275,0.0,-205.0,0
GRID,2227,0,447.34,0.0,-205.0,0
GRID,2228,0,437.4525,0.0,-205.0,0
GRID,2229,0,427.565,0.0,-205.0,0
GRID,2230,0,417.6775,0.0,-205.0,0
GRID,2231,0,477.0025,0.0,-200.0,0
GRID,2232,0,467.115,0.0,-200.0,0
GRID,2233,0,457.2275,0.0,-200.0,0
GRID,2234,0,447.34,0.0,-200.0,0
GRID,2235,0,437.4525,0.0,-200.0,0
GRID,2236,0,427.565,0.0,-200.0,0
GRID,2237,0,417.6775,0.0,-200.0,0
GRID,2238,0,477.0025,0.0,-195.0,0
GRID,2239,0,467.115,0.0,-195.0,0
GRID,2240,0,457.2275,0.0,-195.0,0
GRID,2241,0,447.34,0.0,-195.0,0
GRID,2242,0,437.4525,0.0,-195.0,0
GRID,2243,0,427.565,0.0,-195.0,0
GRID,2244,0,417.6775,0.0,-195.0,0
GRID,2245,0,477.0025,0.0,-190.0,0
GRID,2246,0,467.115,0.0,-190.0,0
GRID,2247,0,457.2275,0.0,-190.0,0
GRID,2248,0,447.34,0.0,-190.0,0
GRID,2249,0,437.4525,0.0,-190.0,0
GRID,2250,0,427.565,0.0,-190.0,0
GRID,2251,0,417.6775,0.0,-190.0,0
GRID,2252,0,477.0025,0.0,-185.0,0
GRID,2253,0,467.115,0.0,-185.0,0
GRID,2254,0,457.2275,0.0,-185.0,0
GRID,2255,0,447.34,0.0,-185.0,0
GRID,2256,0,437.4525,0.0,-185.0,0
GRID,2257,0,427.565,0.0,-185.0,0
GRID,2258,0,417.6775,0.0,-185.0,0
GRID,2259,0,477.0025,0.0,-180.0,0
GRID,2260,0,467.115,0.0,-180.0,0
GRID,2261,0,457.2275,0.0,-180.0,0
GRID,2262,0,447.34,0.0,-180.0,0
GRID,2263,0,437.4525,0.0,-180.0,0
GRID,2264,0,427.565,0.0,-180.0,0
GRID,2265,0,417.6775,0.0,-180.0,0
GRID,2266,0,477.0025,0.0,-175.0,0
GRID,2267,0,467.115,0.0,-175.0,0
GRID,2268,0,457.2275,0.0,-175.0,0
GRID,2269,0,447.34,0.0,-175.0,0
GRID,2270,0,437.4525,0.0,-175.0,0
GRID,2271,0,427.565,0.0,-175.0,0
GRID,2272,0,417.6775,0.0,-175.0,0
GRID,2273,0,477.0025,0.0,-170.0,0
GRID,2274,0,467.115,0.0,-170.0,0
GRID,2275,0,457.2275,0.0,-170.0,0
GRID,2276,0,447.34,0.0,-170.0,0
GRID,2277,0,437.4525,0.0,-170.0,0
GRID,2278,0,427.565,0.0,-170.0,0
GRID,2279,0,417.6775,0.0,-170.0,0
GRID,2280,0,477.0025,0.0,-165.0,0
GRID,2281,0,467.115,0.0,-165.0,0
GRID,2282,0,457.2275,0.0,-165.0,0
GRID,2283,0,447.34,0.0,-165.0,0
GRID,2284,0,437.4525,0.0,-165.0,0
GRID,2285,0,427.565,0.0,-165.0,0
GRID,2286,0,417.6775,0.0,-165.0,0
GRID,2287,0,477.0025,0.0,-160.0,0
GRID,2288,0,467.115,0.0,-160.0,0
GRID,2289,0,457.2275,0.0,-160.0,0
GRID,2290,0,447.34,0.0,-160.0,0
GRID,2291,0,437.4525,0.0,-160.0,0
GRID,2292,0,427.565,0.0,-160.0,0
GRID,2293,0,417.6775,0.0,-160.0,0
GRID,2294,0,477.0025,0.0,-155.0,0
GRID,2295,0,467.115,0.0,-155.0,0
GRID,2296,0,457.2275,0.0,-155.0,0
GRID,2297,0,447.34,0.0,-155.0,0
GRID,2298,0,437.4525,0.0,-155.0,0
GRID,2299,0,427.565,0.0,-155.0,0
GRID,2300,0,417.6775,0.0,-155.0,0
GRID,2301,0,477.0025,0.0,-150.0,0
GRID,2302,0,467.115,0.0,-150.0,0
GRID,2303,0,457.2275,0.0,-150.0,0
GRID,2304,0,447.34,0.0,-150.0,0
GRID,2305,0,437.4525,0.0,-150.0,0
GRID,2306,0,427.565,0.0,-150.0,0
GRID,2307,0,417.6775,0.0,-150.0,0
GRID,2308,0,477.0025,0.0,-145.0,0
GRID,2309,0,467.115,0.0,-145.0,0
GRID,2310,0,457.2275,0.0,-145.0,0
GRID,2311,0,447.34,0.0,-145.0,0
GRID,2312,0,437.4525,0.0,-145.0,0
GRID,2313,0,427.565,0.0,-145.0,0
GRID,2314,0,417.6775,0.0,-145.0,0
GRID,2315,0,477.0025,0.0,-140.0,0
GRID,2316,0,467.115,0.0,-140.0,0
GRID,2317,0,457.2275,0.0,-140.0,0
GRID,2318,0,447.34,0.0,-140.0,0
GRID,2319,0,437.4525,0.0,-140.0,0
GRID,2320,0,427.565,0.0,-140.0,0
GRID,2321,0,417.6775,0.0,-140.0,0
GRID,2322,0,477.0025,0.0,-135.0,0
GRID,2323,0,467.115,0.0,-135.0,0
GRID,2324,0,457.2275,0.0,-135.0,0
GRID,2325,0,447.34,0.0,-135.0,0
GRID,2326,0,437.4525,0.0,-135.0,0
GRID,2327,0,427.565,0.0,-135.0,0
GRID,2328,0,417.6775,0.0,-135.0,0
GRID,2329,0,477.0025,0.0,-130.0,0
GRID,2330,0,467.115,0.0,-130.0,0
GRID,2331,0,457.2275,0.0,-130.0,0
GRID,2332,0,447.34,0.0,-130.0,0
GRID,2333,0,437.4525,0.0,-130.0,0
GRID,2334,0,427.565,0.0,-130.0,0
GRID,2335,0,417.6775,0.0,-130.0,0
GRID,2336,0,477.0025,0.0,-125.0,0
GRID,2337,0,467.115,0.0,-125.0,0
GRID,2338,0,457.2275,0.0,-125.0,0
GRID,2339,0,447.34,0.0,-125.0,0
GRID,2340,0,437.4525,0.0,-125.0,0
GRID,2341,0,427.565,0.0,-125.0,0
GRID,2342,0,417.6775,0.0,-125.0,0
GRID,2343,0,477.0025,0.0,-120.0,0
GRID,2344,0,467.115,0.0,-120.0,0
GRID,2345,0,457.2275,0.0,-120.0,0
GRID,2346,0,447.34,0.0,-120.0,0
GRID,2347,0,437.4525,0.0,-120.0,0
GRID,2348,0,427.565,0.0,-120.0,0
GRID,2349,0,417.6775,0.0,-120.0,0
GRID,2350,0,477.0025,0.0,-115.0,0
GRID,2351,0,467.115,0.0,-115.0,0
GRID,2352,0,457.2275,0.0,-115.0,0
GRID,2353,0,447.34,0.0,-115.0,0
GRID,2354,0,437.4525,0.0,-115.0,0
GRID,2355,0,427.565,0.0,-115.0,0
GRID,2356,0,417.6775,0.0,-115.0,0
GRID,2357,0,477.0025,0.0,-110.0,0
GRID,2358,0,467.115,0.0,-110.0,0
GRID,2359,0,457.2275,0.0,-110.0,0
GRID,2360,0,447.34,0.0,-110.0,0
GRID,2361,0,437.4525,0.0,-110.0,0
GRID,2362,0,427.565,0.0,-110.0,0
GRID,2363,0,417.6775,0.0,-110.0,0
GRID,2364,0,477.0025,0.0,-105.0,0
GRID,2365,0,467.115,0.0,-105.0,0
GRID,2366,0,457.2275,0.0,-105.0,0
GRID,2367,0,447.34,0.0,-105.0,0
GRID,2368,0,437.4525,0.0,-105.0,0
GRID,2369,0,427.565,0.0,-105.0,0
GRID,2370,0,417.6775,0.0,-105.0,0
GRID,2371,0,477.0025,0.0,-100.0,0
GRID,2372,0,467.115,0.0,-100.0,0
GRID,2373,0,457.2275,0.0,-100.0,0
GRID,2374,0,447.34,0.0,-100.0,0
GRID,2375,0,437.4525,0.0,-100.0,0
GRID,2376,0,427.565,0.0,-100.0,0
GRID,2377,0,417.6775,0.0,-100.0,0
GRID,2378,0,477.0025,0.0,-95.0,0
GRID,2379,0,467.115,0.0,-95.0,0
GRID,2380,0,457.2275,0.0,-95.0,0
GRID,2381,0,447.34,0.0,-95.0,0
GRID,2382,0,437.4525,0.0,-95.0,0
GRID,2383,0,427.565,0.0,-95.0,0
GRID,2384,0,417.6775,0.0,-95.0,0
GRID,2385,0,477.0025,0.0,-90.0,0
GRID,2386,0,467.115,0.0,-90.0,0
GRID,2387,0,457.2275,0.0,-90.0,0
GRID,2388,0,447.34,0.0,-90.0,0
GRID,2389,0,437.4525,0.0,-90.0,0
GRID,2390,0,427.565,0.0,-90.0,0
GRID,2391,0,417.6775,0.0,-90.0,0
GRID,2392,0,477.0025,0.0,-85.0,0
GRID,2393,0,467.115,0.0,-85.0,0
GRID,2394,0,457.2275,0.0,-85.0,0
GRID,2395,0,447.34,0.0,-85.0,0
GRID,2396,0,437.4525,0.0,-85.0,0
GRID,2397,0,427.565,0.0,-85.0,0
GRID,2398,0,417.6775,0.0,-85.0,0
GRID,2399,0,477.0025,0.0,-80.0,0
GRID,2400,0,467.115,0.0,-80.0,0
GRID,2401,0,457.2275,0.0,-80.0,0
GRID,2402,0,447.34,0.0,-80.0,0
GRID,2403,0,437.4525,0.0,-80.0,0
GRID,2404,0,427.565,0.0,-80.0,0
GRID,2405,0,417.6775,0.0,-80.0,0
GRID,2406,0,477.0025,0.0,-75.0,0
GRID,2407,0,467.115,0.0,-75.0,0
GRID,2408,0,457.2275,0.0,-75.0,0
GRID,2409,0,447.34,0.0,-75.0,0
GRID,2410,0,437.4525,0.0,-75.0,0
GRID,2411,0,427.565,0.0,-75.0,0
GRID,2412,0,417.6775,0.0,-75.0,0
GRID,2413,0,477.0025,0.0,-70.0,0
GRID,2414,0,467.115,0.0,-70.0,0
GRID,2415,0,457.2275,0.0,-70.0,0
GRID,2416,0,447.34,0.0,-70.0,0
GRID,2417,0,437.4525,0.0,-70.0,0
GRID,2418,0,427.565,0.0,-70.0,0
GRID,2419,0,417.6775,0.0,-70.0,0
GRID,2420,0,477.0025,0.0,-65.0,0
GRID,2421,0,467.115,0.0,-65.0,0
GRID,2422,0,457.2275,0.0,-65.0,0
GRID,2423,0,447.34,0.0,-65.0,0
GRID,2424,0,437.4525,0.0,-65.0,0
GRID,2425,0,427.565,0.0,-65.0,0
GRID,2426,0,417.6775,0.0,-65.0,0
GRID,2427,0,477.0025,0.0,-60.0,0
GRID,2428,0,467.115,0.0,-60.0,0
GRID,2429,0,457.2275,0.0,-60.0,0
GRID,2430,0,447.34,0.0,-60.0,0
GRID,2431,0,437.4525,0.0,-60.0,0
GRID,2432,0,427.565,0.0,-60.0,0
GRID,2433,0,417.6775,0.0,-60.0,0
GRID,2434,0,477.0025,0.0,-55.0,0
GRID,2435,0,467.115,0.0,-55.0,0
GRID,2436,0,457.2275,0.0,-55.0,0
GRID,2437,0,447.34,0.0,-55.0,0
GRID,2438,0,437.4525,0.0,-55.0,0
GRID,2439,0,427.565,0.0,-55.0,0
GRID,2440,0,417.6775,0.0,-55.0,0
GRID,2441,0,477.0025,0.0,-50.0,0
GRID,2442,0,467.115,0.0,-50.0,0
GRID,2443,0,457.2275,0.0,-50.0,0
GRID,2444,0,447.34,0.0,-50.0,0
GRID,2445,0,437.4525,0.0,-50.0,0
GRID,2446,0,427.565,0.0,-50.0,0
GRID,2447,0,417.6775,0.0,-50.0,0
GRID,2448,0,477.0025,0.0,-45.0,0
GRID,2449,0,467.115,0.0,-45.0,0
GRID,2450,0,457.2275,0.0,-45.0,0
GRID,2451,0,447.34,0.0,-45.0,0
GRID,2452,0,437.4525,0.0,-45.0,0
GRID,2453,0,427.565,0.0,-45.0,0
GRID,2454,0,417.6775,0.0,-45.0,0
GRID,2455,0,477.0025,0.0,-40.0,0
GRID,2456,0,467.115,0.0,-40.0,0
GRID,2457,0,457.2275,0.0,-40.0,0
GRID,2458,0,447.34,0.0,-40.0,0
GRID,2459,0,437.4525,0.0,-40.0,0
GRID,2460,0,427.565,0.0,-40.0,0
GRID,2461,0,417.6775,0.0,-40.0,0
GRID,2462,0,477.0025,0.0,-35.0,0
GRID,2463,0,467.115,0.0,-35.0,0
GRID,2464,0,457.2275,0.0,-35.0,0
GRID,2465,0,447.34,0.0,-35.0,0
GRID,2466,0,437.4525,0.0,-35.0,0
GRID,2467,0,427.565,0.0,-35.0,0
GRID,2468,0,417.6775,0.0,-35.0,0
GRID,2469,0,477.0025,0.0,-30.0,0
GRID,2470,0,467.115,0.0,-30.0,0
GRID,2471,0,457.2275,0.0,-30.0,0
GRID,2472,0,447.34,0.0,-30.0,0
GRID,2473,0,437.4525,0.0,-30.0,0
GRID,2474,0,427.565,0.0,-30.0,0
GRID,2475,0,417.6775,0.0,-30.0,0
GRID,2476,0,477.0025,0.0,-25.0,0
GRID,2477,0,467.115,0.0,-25.0,0
GRID,2478,0,457.2275,0.0,-25.0,0
GRID,2479,0,447.34,0.0,-25.0,0
GRID,2480,0,437.4525,0.0,-25.0,0
GRID,2481,0,427.565,0.0,-25.0,0
GRID,2482,0,417.6775,0.0,-25.0,0
GRID,2483,0,477.0025,0.0,-20.0,0
GRID,2484,0,467.115,0.0,-20.0,0
GRID,2485,0,457.2275,0.0,-20.0,0
GRID,2486,0,447.34,0.0,-20.0,0
GRID,2487,0,437.4525,0.0,-20.0,0
GRID,2488,0,427.565,0.0,-20.0,0
GRID,2489,0,417.6775,0.0,-20.0,0
GRID,2490,0,477.0025,0.0,-15.0,0
GRID,2491,0,467.115,0.0,-15.0,0
GRID,2492,0,457.2275,0.0,-15.0,0
GRID,2493,0,447.34,0.0,-15.0,0
GRID,2494,0,437.4525,0.0,-15.0,0
GRID,2495,0,427.565,0.0,-15.0,0
GRID,2496,0,417.6775,0.0,-15.0,0
GRID,2497,0,477.0025,0.0,-10.0,0
GRID,2498,0,467.115,0.0,-10.0,0
GRID,2499,0,457.2275,0.0,-10.0,0
GRID,2500,0,447.34,0.0,-10.0,0
GRID,2501,0,437.4525,0.0,-10.0,0
GRID,2502,0,427.565,0.0,-10.0,0
GRID,2503,0,417.6775,0.0,-10.0,0
GRID,2504,0,477.0025,0.0,-5.0,0
GRID,2505,0,467.115,0.0,-5.0,0
GRID,2506,0,457.2275,0.0,-5.0,0
GRID,2507,0,447.34,0.0,-5.0,0
GRID,2508,0,437.4525,0.0,-5.0,0
GRID,2509,0,427.565,0.0,-5.0,0
GRID,2510,0,417.6775,0.0,-5.0,0
GRID,2511,0,310.81,0.0,-1045.0,0
GRID,2512,0,310.81,0.0,-1040.0,0
GRID,2513,0,310.81,0.0,-1035.0,0
GRID,2514,0,310.81,0.0,-1030.0,0
GRID,2515,0,310.81,0.0,-1025.0,0
GRID,2516,0,310.81,0.0,-1020.0,0
GRID,2517,0,310.81,0.0,-1015.0,0
GRID,2518,0,310.81,0.0,-1010.0,0
GRID,2519,0,310.81,0.0,-1005.0,0
GRID,2520,0,310.81,0.0,-1000.0,0
GRID,2521,0,310.81,0.0,-995.0,0
GRID,2522,0,310.81,0.0,-990.0,0
GRID,2523,0,310.81,0.0,-985.0,0
GRID,2524,0,310.81,0.0,-980.0,0
GRID,2525,0,310.81,0.0,-975.0,0
GRID,2526,0,310.81,0.0,-970.0,0
GRID,2527,0,310.81,0.0,-965.0,0
GRID,2528,0,310.81,0.0,-960.0,0
GRID,2529,0,310.81,0.0,-955.0,0
GRID,2530,0,310.81,0.0,-950.0,0
GRID,2531,0,310.81,0.0,-945.0,0
GRID,2532,0,310.81,0.0,-940.0,0
GRID,2533,0,310.81,0.0,-935.0,0
GRID,2534,0,310.81,0.0,-930.0,0
GRID,2535,0,310.81,0.0,-925.0,0
GRID,2536,0,310.81,0.0,-920.0,0
GRID,2537,0,310.81,0.0,-915.0,0
GRID,2538,0,310.81,0.0,-910.0,0
GRID,2539,0,310.81,0.0,-905.0,0
GRID,2540,0,310.81,0.0,-900.0,0
GRID,2541,0,310.81,0.0,-895.0,0
GRID,2542,0,310.81,0.0,-890.0,0
GRID,2543,0,310.81,0.0,-885.0,0
GRID,2544,0,310.81,0.0,-880.0,0
GRID,2545,0,310.81,0.0,-875.0,0
GRID,2546,0,310.81,0.0,-870.0,0
GRID,2547,0,310.81,0.0,-865.0,0
GRID,2548,0,310.81,0.0,-860.0,0
GRID,2549,0,310.81,0.0,-855.0,0
GRID,2550,0,310.81,0.0,-850.0,0
GRID,2551,0,310.81,0.0,-845.0,0
GRID,2552,0,310.81,0.0,-840.0,0
GRID,2553,0,310.81,0.0,-835.0,0
GRID,2554,0,310.81,0.0,-830.0,0
GRID,2555,0,310.81,0.0,-825.0,0
GRID,2556,0,310.81,0.0,-820.0,0
GRID,2557,0,310.81,0.0,-815.0,0
GRID,2558,0,310.81,0.0,-810.0,0
GRID,2559,0,310.81,0.0,-805.0,0
GRID,2560,0,310.81,0.0,-800.0,0
GRID,2561,0,310.81,0.0,-795.0,0
GRID,2562,0,310.81,0.0,-790.0,0
GRID,2563,0,310.81,0.0,-785.0,0
GRID,2564,0,310.81,0.0,-780.0,0
GRID,2565,0,310.81,0.0,-775.0,0
GRID,2566,0,310.81,0.0,-770.0,0
GRID,2567,0,310.81,0.0,-765.0,0
GRID,2568,0,310.81,0.0,-760.0,0
GRID,2569,0,310.81,0.0,-755.0,0
GRID,2570,0,310.81,0.0,-750.0,0
GRID,2571,0,310.81,0.0,-745.0,0
GRID,2572,0,310.81,0.0,-740.0,0
GRID,2573,0,310.81,0.0,-735.0,0
GRID,2574,0,310.81,0.0,-730.0,0
GRID,2575,0,310.81,0.0,-725.0,0
GRID,2576,0,310.81,0.0,-720.0,0
GRID,2577,0,310.81,0.0,-715.0,0
GRID,2578,0,310.81,0.0,-710.0,0
GRID,2579,0,310.81,0.0,-705.0,0
GRID,2580,0,310.81,0.0,-700.0,0
GRID,2581,0,310.81,0.0,-695.0,0
GRID,2582,0,310.81,0.0,-690.0,0
GRID,2583,0,310.81,0.0,-685.0,0
GRID,2584,0,310.81,0.0,-680.0,0
GRID,2585,0,310.81,0.0,-675.0,0
GRID,2586,0,310.81,0.0,-670.0,0
GRID,2587,0,310.81,0.0,-665.0,0
GRID,2588,0,310.81,0.0,-660.0,0
GRID,2589,0,310.81,0.0,-655.0,0
GRID,2590,0,310.81,0.0,-650.0,0
GRID,2591,0,310.81,0.0,-645.0,0
GRID,2592,0,310.81,0.0,-640.0,0
GRID,2593,0,310.81,0.0,-635.0,0
GRID,2594,0,310.81,0.0,-630.0,0
GRID,2595,0,310.81,0.0,-625.0,0
GRID,2596,0,310.81,0.0,-620.0,0
GRID,2597,0,310.81,0.0,-615.0,0
GRID,2598,0,310.81,0.0,-610.0,0
GRID,2599,0,310.81,0.0,-605.0,0
GRID,2600,0,310.81,0.0,-600.0,0
GRID,2601,0,310.81,0.0,-595.0,0
GRID,2602,0,310.81,0.0,-590.0,0
GRID,2603,0,310.81,0.0,-585.0,0
GRID,2604,0,310.81,0.0,-580.0,0
GRID,2605,0,310.81,0.0,-575.0,0
GRID,2606,0,310.81,0.0,-570.0,0
GRID,2607,0,310.81,0.0,-565.0,0
GRID,2608,0,310.81,0.0,-560.0,0
GRID,2609,0,310.81,0.0,-555.0,0
GRID,2610,0,310.81,0.0,-550.0,0
GRID,2611,0,310.81,0.0,-545.0,0
GRID,2612,0,310.81,0.0,-540.0,0
GRID,2613,0,310.81,0.0,-535.0,0
GRID,2614,0,310.81,0.0,-530.0,0
GRID,2615,0,310.81,0.0,-525.0,0
GRID,2616,0,310.81,0.0,-520.0,0
GRID,2617,0,310.81,0.0,-515.0,0
GRID,2618,0,310.81,0.0,-510.0,0
GRID,2619,0,310.81,0.0,-505.0,0
GRID,2620,0,310.81,0.0,-500.0,0
GRID,2621,0,310.81,0.0,-495.0,0
GRID,2622,0,310.81,0.0,-490.0,0
GRID,2623,0,310.81,0.0,-485.0,0
GRID,2624,0,310.81,0.0,-480.0,0
GRID,2625,0,310.81,0.0,-475.0,0
GRID,2626,0,310.81,0.0,-470.0,0
GRID,2627,0,310.81,0.0,-465.0,0
GRID,2628,0,310.81,0.0,-460.0,0
GRID,2629,0,310.81,0.0,-455.0,0
GRID,2630,0,310.81,0.0,-450.0,0
GRID,2631,0,310.81,0.0,-445.0,0
GRID,2632,0,310.81,0.0,-440.0,0
GRID,2633,0,310.81,0.0,-435.0,0
GRID,2634,0,310.81,0.0,-430.0,0
GRID,2635,0,310.81,0.0,-425.0,0
GRID,2636,0,310.81,0.0,-420.0,0
GRID,2637,0,310.81,0.0,-415.0,0
GRID,2638,0,310.81,0.0,-410.0,0
GRID,2639,0,310.81,0.0,-405.0,0
GRID,2640,0,310.81,0.0,-400.0,0
GRID,2641,0,310.81,0.0,-395.0,0
GRID,2642,0,310.81,0.0,-390.0,0
GRID,2643,0,310.81,0.0,-385.0,0
GRID,2644,0,310.81,0.0,-380.0,0
GRID,2645,0,310.81,0.0,-375.0,0
GRID,2646,0,310.81,0.0,-370.0,0
GRID,2647,0,310.81,0.0,-365.0,0
GRID,2648,0,310.81,0.0,-360.0,0
GRID,2649,0,310.81,0.0,-355.0,0
GRID,2650,0,310.81,0.0,-350.0,0
GRID,2651,0,310.81,0.0,-345.0,0
GRID,2652,0,310.81,0.0,-340.0,0
GRID,2653,0,310.81,0.0,-335.0,0
GRID,2654,0,310.81,0.0,-330.0,0
GRID,2655,0,310.81,0.0,-325.0,0
GRID,2656,0,310.81,0.0,-320.0,0
GRID,2657,0,310.81,0.0,-315.0,0
GRID,2658,0,310.81,0.0,-310.0,0
GRID,2659,0,310.81,0.0,-305.0,0
GRID,2660,0,310.81,0.0,-300.0,0
GRID,2661,0,310.81,0.0,-295.0,0
GRID,2662,0,310.81,0.0,-290.0,0
GRID,2663,0,310.81,0.0,-285.0,0
GRID,2664,0,310.81,0.0,-280.0,0
GRID,2665,0,310.81,0.0,-275.0,0
GRID,2666,0,310.81,0.0,-270.0,0
GRID,2667,0,310.81,0.0,-265.0,0
GRID,2668,0,310.81,0.0,-260.0,0
GRID,2669,0,310.81,0.0,-255.0,0
GRID,2670,0,310.81,0.0,-250.0,0
GRID,2671,0,310.81,0.0,-245.0,0
GRID,2672,0,310.81,0.0,-240.0,0
GRID,2673,0,310.81,0.0,-235.0,0
GRID,2674,0,310.81,0.0,-230.0,0
GRID,2675,0,310.81,0.0,-225.0,0
GRID,2676,0,310.81,0.0,-220.0,0
GRID,2677,0,310.81,0.0,-215.0,0
GRID,2678,0,310.81,0.0,-210.0,0
GRID,2679,0,310.81,0.0,-205.0,0
GRID,2680,0,310.81,0.0,-200.0,0
GRID,2681,0,310.81,0.0,-195.0,0
GRID,2682,0,310.81,0.0,-190.0,0
GRID,2683,0,310.81,0.0,-185.0,0
GRID,2684,0,310.81,0.0,-180.0,0
GRID,2685,0,310.81,0.0,-175.0,0
GRID,2686,0,310.81,0.0,-170.0,0
GRID,2687,0,310.81,0.0,-165.0,0
GRID,2688,0,310.81,0.0,-160.0,0
GRID,2689,0,310.81,0.0,-155.0,0
GRID,2690,0,310.81,0.0,-150.0,0
GRID,2691,0,310.81,0.0,-145.0,0
GRID,2692,0,310.81,0.0,-140.0,0
GRID,2693,0,310.81,0.0,-135.0,0
GRID,2694,0,310.81,0.0,-130.0,0
GRID,2695,0,310.81,0.0,-125.0,0
GRID,2696,0,310.81,0.0,-120.0,0
GRID,2697,0,310.81,0.0,-115.0,0
GRID,2698,0,310.81,0.0,-110.0,0
GRID,2699,0,310.81,0.0,-105.0,0
GRID,2700,0,310.81,0.0,-100.0,0
GRID,2701,0,310.81,0.0,-95.0,0
GRID,2702,0,310.81,0.0,-90.0,0
GRID,2703,0,310.81,0.0,-85.0,0
GRID,2704,0,310.81,0.0,-80.0,0
GRID,2705,0,310.81,0.0,-75.0,0
GRID,2706,0,310.81,0.0,-70.0,0
GRID,2707,0,310.81,0.0,-65.0,0
GRID,2708,0,310.81,0.0,-60.0,0
GRID,2709,0,310.81,0.0,-55.0,0
GRID,2710,0,310.81,0.0,-50.0,0
GRID,2711,0,310.81,0.0,-45.0,0
GRID,2712,0,310.81,0.0,-40.0,0
GRID,2713,0,310.81,0.0,-35.0,0
GRID,2714,0,310.81,0.0,-30.0,0
GRID,2715,0,310.81,0.0,-25.0,0
GRID,2716,0,310.81,0.0,-20.0,0
GRID,2717,0,310.81,0.0,-15.0,0
GRID,2718,0,310.81,0.0,-10.0,0
GRID,2719,0,310.81,0.0,-5.0,0
GRID,2720,0,321.62,0.0,-1045.0,0
GRID,2721,0,321.62,0.0,-1040.0,0
GRID,2722,0,321.62,0.0,-1035.0,0
GRID,2723,0,321.62,0.0,-1030.0,0
GRID,2724,0,321.62,0.0,-1025.0,0
GRID,2725,0,321.62,0.0,-1020.0,0
GRID,2726,0,321.62,0.0,-1015.0,0
GRID,2727,0,321.62,0.0,-1010.0,0
GRID,2728,0,321.62,0.0,-1005.0,0
GRID,2729,0,321.62,0.0,-1000.0,0
GRID,2730,0,321.62,0.0,-995.0,0
GRID,2731,0,321.62,0.0,-990.0,0
GRID,2732,0,321.62,0.0,-985.0,0
GRID,2733,0,321.62,0.0,-980.0,0
GRID,2734,0,321.62,0.0,-975.0,0
GRID,2735,0,321.62,0.0,-970.0,0
GRID,2736,0,321.62,0.0,-965.0,0
GRID,2737,0,321.62,0.0,-960.0,0
GRID,2738,0,321.62,0.0,-955.0,0
GRID,2739,0,321.62,0.0,-950.0,0
GRID,2740,0,321.62,0.0,-945.0,0
GRID,2741,0,321.62,0.0,-940.0,0
GRID,2742,0,321.62,0.0,-935.0,0
GRID,2743,0,321.62,0.0,-930.0,0
GRID,2744,0,321.62,0.0,-925.0,0
GRID,2745,0,321.62,0.0,-920.0,0
GRID,2746,0,321.62,0.0,-915.0,0
GRID,2747,0,321.62,0.0,-910.0,0
GRID,2748,0,321.62,0.0,-905.0,0
GRID,2749,0,321.62,0.0,-900.0,0
GRID,2750,0,321.62,0.0,-895.0,0
GRID,2751,0,321.62,0.0,-890.0,0
GRID,2752,0,321.62,0.0,-885.0,0
GRID,2753,0,321.62,0.0,-880.0,0
GRID,2754,0,321.62,0.0,-875.0,0
GRID,2755,0,321.62,0.0,-870.0,0
GRID,2756,0,321.62,0.0,-865.0,0
GRID,2757,0,321.62,0.0,-860.0,0
GRID,2758,0,321.62,0.0,-855.0,0
GRID,2759,0,321.62,0.0,-850.0,0
GRID,2760,0,321.62,0.0,-845.0,0
GRID,2761,0,321.62,0.0,-840.0,0
GRID,2762,0,321.62,0.0,-835.0,0
GRID,2763,0,321.62,0.0,-830.0,0
GRID,2764,0,321.62,0.0,-825.0,0
GRID,2765,0,321.62,0.0,-820.0,0
GRID,2766,0,321.62,0.0,-815.0,0
GRID,2767,0,321.62,0.0,-810.0,0
GRID,2768,0,321.62,0.0,-805.0,0
GRID,2769,0,321.62,0.0,-800.0,0
GRID,2770,0,321.62,0.0,-795.0,0
GRID,2771,0,321.62,0.0,-790.0,0
GRID,2772,0,321.62,0.0,-785.0,0
GRID,2773,0,321.62,0.0,-780.0,0
GRID,2774,0,321.62,0.0,-775.0,0
GRID,2775,0,321.62,0.0,-770.0,0
GRID,2776,0,321.62,0.0,-765.0,0
GRID,2777,0,321.62,0.0,-760.0,0
GRID,2778,0,321.62,0.0,-755.0,0
GRID,2779,0,321.62,0.0,-750.0,0
GRID,2780,0,321.62,0.0,-745.0,0
GRID,2781,0,321.62,0.0,-740.0,0
GRID,2782,0,321.62,0.0,-735.0,0
GRID,2783,0,321.62,0.0,-730.0,0
GRID,2784,0,321.62,0.0,-725.0,0
GRID,2785,0,321.62,0.0,-720.0,0
GRID,2786,0,321.62,0.0,-715.0,0
GRID,2787,0,321.62,0.0,-710.0,0
GRID,2788,0,321.62,0.0,-705.0,0
GRID,2789,0,321.62,0.0,-700.0,0
GRID,2790,0,321.62,0.0,-695.0,0
GRID,2791,0,321.62,0.0,-690.0,0
GRID,2792,0,321.62,0.0,-685.0,0
GRID,2793,0,321.62,0.0,-680.0,0
GRID,2794,0,321.62,0.0,-675.0,0
GRID,2795,0,321.62,0.0,-670.0,0
GRID,2796,0,321.62,0.0,-665.0,0
GRID,2797,0,321.62,0.0,-660.0,0
GRID,2798,0,321.62,0.0,-655.0,0
GRID,2799,0,321.62,0.0,-650.0,0
GRID,2800,0,321.62,0.0,-645.0,0
GRID,2801,0,321.62,0.0,-640.0,0
GRID,2802,0,321.62,0.0,-635.0,0
GRID,2803,0,321.62,0.0,-630.0,0
GRID,2804,0,321.62,0.0,-625.0,0
GRID,2805,0,321.62,0.0,-620.0,0
GRID,2806,0,321.62,0.0,-615.0,0
GRID,2807,0,321.62,0.0,-610.0,0
GRID,2808,0,321.62,0.0,-605.0,0
GRID,2809,0,321.62,0.0,-600.0,0
GRID,2810,0,321.62,0.0,-595.0,0
GRID,2811,0,321.62,0.0,-590.0,0
GRID,2812,0,321.62,0.0,-585.0,0
GRID,2813,0,321.62,0.0,-580.0,0
GRID,2814,0,321.62,0.0,-575.0,0
GRID,2815,0,321.62,0.0,-570.0,0
GRID,2816,0,321.62,0.0,-565.0,0
GRID,2817,0,321.62,0.0,-560.0,0
GRID,2818,0,321.62,0.0,-555.0,0
GRID,2819,0,321.62,0.0,-550.0,0
GRID,2820,0,321.62,0.0,-545.0,0
GRID,2821,0,321.62,0.0,-540.0,0
GRID,2822,0,321.62,0.0,-535.0,0
GRID,2823,0,321.62,0.0,-530.0,0
GRID,2824,0,321.62,0.0,-525.0,0
GRID,2825,0,321.62,0.0,-520.0,0
GRID,2826,0,321.62,0.0,-515.0,0
GRID,2827,0,321.62,0.0,-510.0,0
GRID,2828,0,321.62,0.0,-505.0,0
GRID,2829,0,321.62,0.0,-500.0,0
GRID,2830,0,321.62,0.0,-495.0,0
GRID,2831,0,321.62,0.0,-490.0,0
GRID,2832,0,321.62,0.0,-485.0,0
GRID,2833,0,321.62,0.0,-480.0,0
GRID,2834,0,321.62,0.0,-475.0,0
GRID,2835,0,321.62,0.0,-470.0,0
GRID,2836,0,321.62,0.0,-465.0,0
GRID,2837,0,321.62,0.0,-460.0,0
GRID,2838,0,321.62,0.0,-455.0,0
GRID,2839,0,321.62,0.0,-450.0,0
GRID,2840,0,321.62,0.0,-445.0,0
GRID,2841,0,321.62,0.0,-440.0,0
GRID,2842,0,321.62,0.0,-435.0,0
GRID,2843,0,321.62,0.0,-430.0,0
GRID,2844,0,321.62,0.0,-425.0,0
GRID,2845,0,321.62,0.0,-420.0,0
GRID,2846,0,321.62,0.0,-415.0,0
GRID,2847,0,321.62,0.0,-410.0,0
GRID,2848,0,321.62,0.0,-405.0,0
GRID,2849,0,321.62,0.0,-400.0,0
GRID,2850,0,321.62,0.0,-395.0,0
GRID,2851,0,321.62,0.0,-390.0,0
GRID,2852,0,321.62,0.0,-385.0,0
GRID,2853,0,321.62,0.0,-380.0,0
GRID,2854,0,321.62,0.0,-375.0,0
GRID,2855,0,321.62,0.0,-370.0,0
GRID,2856,0,321.62,0.0,-365.0,0
GRID,2857,0,321.62,0.0,-360.0,0
GRID,2858,0,321.62,0.0,-355.0,0
GRID,2859,0,321.62,0.0,-350.0,0
GRID,2860,0,321.62,0.0,-345.0,0
GRID,2861,0,321.62,0.0,-340.0,0
GRID,2862,0,321.62,0.0,-335.0,0
GRID,2863,0,321.62,0.0,-330.0,0
GRID,2864,0,321.62,0.0,-325.0,0
GRID,2865,0,321.62,0.0,-320.0,0
GRID,2866,0,321.62,0.0,-315.0,0
GRID,2867,0,321.62,0.0,-310.0,0
GRID,2868,0,321.62,0.0,-305.0,0
GRID,2869,0,321.62,0.0,-300.0,0
GRID,2870,0,321.62,0.0,-295.0,0
GRID,2871,0,321.62,0.0,-290.0,0
GRID,2872,0,321.62,0.0,-285.0,0
GRID,2873,0,321.62,0.0,-280.0,0
GRID,2874,0,321.62,0.0,-275.0,0
GRID,2875,0,321.62,0.0,-270.0,0
GRID,2876,0,321.62,0.0,-265.0,0
GRID,2877,0,321.62,0.0,-260.0,0
GRID,2878,0,321.62,0.0,-255.0,0
GRID,2879,0,321.62,0.0,-250.0,0
GRID,2880,0,321.62,0.0,-245.0,0
GRID,2881,0,321.62,0.0,-240.0,0
GRID,2882,0,321.62,0.0,-235.0,0
GRID,2883,0,321.62,0.0,-230.0,0
GRID,2884,0,321.62,0.0,-225.0,0
GRID,2885,0,321.62,0.0,-220.0,0
GRID,2886,0,321.62,0.0,-215.0,0
GRID,2887,0,321.62,0.0,-210.0,0
GRID,2888,0,321.62,0.0,-205.0,0
GRID,2889,0,321.62,0.0,-200.0,0
GRID,2890,0,321.62,0.0,-195.0,0
GRID,2891,0,321.62,0.0,-190.0,0
GRID,2892,0,321.62,0.0,-185.0,0
GRID,2893,0,321.62,0.0,-180.0,0
GRID,2894,0,321.62,0.0,-175.0,0
GRID,2895,0,321.62,0.0,-170.0,0
GRID,2896,0,321.62,0.0,-165.0,0
GRID,2897,0,321.62,0.0,-160.0,0
GRID,2898,0,321.62,0.0,-155.0,0
GRID,2899,0,321.62,0.0,-150.0,0
GRID,2900,0,321.62,0.0,-145.0,0
GRID,2901,0,321.62,0.0,-140.0,0
GRID,2902,0,321.62,0.0,-135.0,0
GRID,2903,0,321.62,0.0,-130.0,0
GRID,2904,0,321.62,0.0,-125.0,0
GRID,2905,0,321.62,0.0,-120.0,0
GRID,2906,0,321.62,0.0,-115.0,0
GRID,2907,0,321.62,0.0,-110.0,0
GRID,2908,0,321.62,0.0,-105.0,0
GRID,2909,0,321.62,0.0,-100.0,0
GRID,2910,0,321.62,0.0,-95.0,0
GRID,2911,0,321.62,0.0,-90.0,0
GRID,2912,0,321.62,0.0,-85.0,0
GRID,2913,0,321.62,0.0,-80.0,0
GRID,2914,0,321.62,0.0,-75.0,0
GRID,2915,0,321.62,0.0,-70.0,0
GRID,2916,0,321.62,0.0,-65.0,0
GRID,2917,0,321.62,0.0,-60.0,0
GRID,2918,0,321.62,0.0,-55.0,0
GRID,2919,0,321.62,0.0,-50.0,0
GRID,2920,0,321.62,0.0,-45.0,0
GRID,2921,0,321.62,0.0,-40.0,0
GRID,2922,0,321.62,0.0,-35.0,0
GRID,2923,0,321.62,0.0,-30.0,0
GRID,2924,0,321.62,0.0,-25.0,0
GRID,2925,0,321.62,0.0,-20.0,0
GRID,2926,0,321.62,0.0,-15.0,0
GRID,2927,0,321.62,0.0,-10.0,0
GRID,2928,0,321.62,0.0,-5.0,0
GRID,2929,0,332.43,0.0,-1045.0,0
GRID,2930,0,332.43,0.0,-1040.0,0
GRID,2931,0,332.43,0.0,-1035.0,0
GRID,2932,0,332.43,0.0,-1030.0,0
GRID,2933,0,332.43,0.0,-1025.0,0
GRID,2934,0,332.43,0.0,-1020.0,0
GRID,2935,0,332.43,0.0,-1015.0,0
GRID,2936,0,332.43,0.0,-1010.0,0
GRID,2937,0,332.43,0.0,-1005.0,0
GRID,2938,0,332.43,0.0,-1000.0,0
GRID,2939,0,332.43,0.0,-995.0,0
GRID,2940,0,332.43,0.0,-990.0,0
GRID,2941,0,332.43,0.0,-985.0,0
GRID,2942,0,332.43,0.0,-980.0,0
GRID,2943,0,332.43,0.0,-975.0,0
GRID,2944,0,332.43,0.0,-970.0,0
GRID,2945,0,332.43,0.0,-965.0,0
GRID,2946,0,332.43,0.0,-960.0,0
GRID,2947,0,332.43,0.0,-955.0,0
GRID,2948,0,332.43,0.0,-950.0,0
GRID,2949,0,332.43,0.0,-945.0,0
GRID,2950,0,332.43,0.0,-940.0,0
GRID,2951,0,332.43,0.0,-935.0,0
GRID,2952,0,332.43,0.0,-930.0,0
GRID,2953,0,332.43,0.0,-925.0,0
GRID,2954,0,332.43,0.0,-920.0,0
GRID,2955,0,332.43,0.0,-915.0,0
GRID,2956,0,332.43,0.0,-910.0,0
GRID,2957,0,332.43,0.0,-905.0,0
GRID,2958,0,332.43,0.0,-900.0,0
GRID,2959,0,332.43,0.0,-895.0,0
GRID,2960,0,332.43,0.0,-890.0,0
GRID,2961,0,332.43,0.0,-885.0,0
GRID,2962,0,332.43,0.0,-880.0,0
GRID,2963,0,332.43,0.0,-875.0,0
GRID,2964,0,332.43,0.0,-870.0,0
GRID,2965,0,332.43,0.0,-865.0,0
GRID,2966,0,332.43,0.0,-860.0,0
GRID,2967,0,332.43,0.0,-855.0,0
GRID,2968,0,332.43,0.0,-850.0,0
GRID,2969,0,332.43,0.0,-845.0,0
GRID,2970,0,332.43,0.0,-840.0,0
GRID,2971,0,332.43,0.0,-835.0,0
GRID,2972,0,332.43,0.0,-830.0,0
GRID,2973,0,332.43,0.0,-825.0,0
GRID,2974,0,332.43,0.0,-820.0,0
GRID,2975,0,332.43,0.0,-815.0,0
GRID,2976,0,332.43,0.0,-810.0,0
GRID,2977,0,332.43,0.0,-805.0,0
GRID,2978,0,332.43,0.0,-800.0,0
GRID,2979,0,332.43,0.0,-795.0,0
GRID,2980,0,332.43,0.0,-790.0,0
GRID,2981,0,332.43,0.0,-785.0,0
GRID,2982,0,332.43,0.0,-780.0,0
GRID,2983,0,332.43,0.0,-775.0,0
GRID,2984,0,332.43,0.0,-770.0,0
GRID,2985,0,332.43,0.0,-765.0,0
GRID,2986,0,332.43,0.0,-760.0,0
GRID,2987,0,332.43,0.0,-755.0,0
GRID,2988,0,332.43,0.0,-750.0,0
GRID,2989,0,332.43,0.0,-745.0,0
GRID,2990,0,332.43,0.0,-740.0,0
GRID,2991,0,332.43,0.0,-735.0,0
GRID,2992,0,332.43,0.0,-730.0,0
GRID,2993,0,332.43,0.0,-725.0,0
GRID,2994,0,332.43,0.0,-720.0,0
GRID,2995,0,332.43,0.0,-715.0,0
GRID,2996,0,332.43,0.0,-710.0,0
GRID,2997,0,332.43,0.0,-705.0,0
GRID,2998,0,332.43,0.0,-700.0,0
GRID,2999,0,332.43,0.0,-695.0,0
GRID,3000,0,332.43,0.0,-690.0,0
GRID,3001,0,332.43,0.0,-685.0,0
GRID,3002,0,332.43,0.0,-680.0,0
GRID,3003,0,332.43,0.0,-675.0,0
GRID,3004,0,332.43,0.0,-670.0,0
GRID,3005,0,332.43,0.0,-665.0,0
GRID,3006,0,332.43,0.0,-660.0,0
GRID,3007,0,332.43,0.0,-655.0,0
GRID,3008,0,332.43,0.0,-650.0,0
GRID,3009,0,332.43,0.0,-645.0,0
GRID,3010,0,332.43,0.0,-640.0,0
GRID,3011,0,332.43,0.0,-635.0,0
GRID,3012,0,332.43,0.0,-630.0,0
GRID,3013,0,332.43,0.0,-625.0,0
GRID,3014,0,332.43,0.0,-620.0,0
GRID,3015,0,332.43,0.0,-615.0,0
GRID,3016,0,332.43,0.0,-610.0,0
GRID,3017,0,332.43,0.0,-605.0,0
GRID,3018,0,332.43,0.0,-600.0,0
GRID,3019,0,332.43,0.0,-595.0,0
GRID,3020,0,332.43,0.0,-590.0,0
GRID,3021,0,332.43,0.0,-585.0,0
GRID,3022,0,332.43,0.0,-580.0,0
GRID,3023,0,332.43,0.0,-575.0,0
GRID,3024,0,332.43,0.0,-570.0,0
GRID,3025,0,332.43,0.0,-565.0,0
GRID,3026,0,332.43,0.0,-560.0,0
GRID,3027,0,332.43,0.0,-555.0,0
GRID,3028,0,332.43,0.0,-550.0,0
GRID,3029,0,332.43,0.0,-545.0,0
GRID,3030,0,332.43,0.0,-540.0,0
GRID,3031,0,332.43,0.0,-535.0,0
GRID,3032,0,332.43,0.0,-530.0,0
GRID,3033,0,332.43,0.0,-525.0,0
GRID,3034,0,332.43,0.0,-520.0,0
GRID,3035,0,332.43,0.0,-515.0,0
GRID,3036,0,332.43,0.0,-510.0,0
GRID,3037,0,332.43,0.0,-505.0,0
GRID,3038,0,332.43,0.0,-500.0,0
GRID,3039,0,332.43,0.0,-495.0,0
GRID,3040,0,332.43,0.0,-490.0,0
GRID,3041,0,332.43,0.0,-485.0,0
GRID,3042,0,332.43,0.0,-480.0,0
GRID,3043,0,332.43,0.0,-475.0,0
GRID,3044,0,332.43,0.0,-470.0,0
GRID,3045,0,332.43,0.0,-465.0,0
GRID,3046,0,332.43,0.0,-460.0,0
GRID,3047,0,332.43,0.0,-455.0,0
GRID,3048,0,332.43,0.0,-450.0,0
GRID,3049,0,332.43,0.0,-445.0,0
GRID,3050,0,332.43,0.0,-440.0,0
GRID,3051,0,332.43,0.0,-435.0,0
GRID,3052,0,332.43,0.0,-430.0,0
GRID,3053,0,332.43,0.0,-425.0,0
GRID,3054,0,332.43,0.0,-420.0,0
GRID,3055,0,332.43,0.0,-415.0,0
GRID,3056,0,332.43,0.0,-410.0,0
GRID,3057,0,332.43,0.0,-405.0,0
GRID,3058,0,332.43,0.0,-400.0,0
GRID,3059,0,332.43,0.0,-395.0,0
GRID,3060,0,332.43,0.0,-390.0,0
GRID,3061,0,332.43,0.0,-385.0,0
GRID,3062,0,332.43,0.0,-380.0,0
GRID,3063,0,332.43,0.0,-375.0,0
GRID,3064,0,332.43,0.0,-370.0,0
GRID,3065,0,332.43,0.0,-365.0,0
GRID,3066,0,332.43,0.0,-360.0,0
GRID,3067,0,332.43,0.0,-355.0,0
GRID,3068,0,332.43,0.0,-350.0,0
GRID,3069,0,332.43,0.0,-345.0,0
GRID,3070,0,332.43,0.0,-340.0,0
GRID,3071,0,332.43,0.0,-335.0,0
GRID,3072,0,332.43,0.0,-330.0,0
GRID,3073,0,332.43,0.0,-325.0,0
GRID,3074,0,332.43,0.0,-320.0,0
GRID,3075,0,332.43,0.0,-315.0,0
GRID,3076,0,332.43,0.0,-310.0,0
GRID,3077,0,332.43,0.0,-305.0,0
GRID,3078,0,332.43,0.0,-300.0,0
GRID,3079,0,332.43,0.0,-295.0,0
GRID,3080,0,332.43,0.0,-290.0,0
GRID,3081,0,332.43,0.0,-285.0,0
GRID,3082,0,332.43,0.0,-280.0,0
GRID,3083,0,332.43,0.0,-275.0,0
GRID,3084,0,332.43,0.0,-270.0,0
GRID,3085,0,332.43,0.0,-265.0,0
GRID,3086,0,332.43,0.0,-260.0,0
GRID,3087,0,332.43,0.0,-255.0,0
GRID,3088,0,332.43,0.0,-250.0,0
GRID,3089,0,332.43,0.0,-245.0,0
GRID,3090,0,332.43,0.0,-240.0,0
GRID,3091,0,332.43,0.0,-235.0,0
GRID,3092,0,332.43,0.0,-230.0,0
GRID,3093,0,332.43,0.0,-225.0,0
GRID,3094,0,332.43,0.0,-220.0,0
GRID,3095,0,332.43,0.0,-215.0,0
GRID,3096,0,332.43,0.0,-210.0,0
GRID,3097,0,332.43,0.0,-205.0,0
GRID,3098,0,332.43,0.0,-200.0,0
GRID,3099,0,332.43,0.0,-195.0,0
GRID,3100,0,332.43,0.0,-190.0,0
GRID,3101,0,332.43,0.0,-185.0,0
GRID,3102,0,332.43,0.0,-180.0,0
GRID,3103,0,332.43,0.0,-175.0,0
GRID,3104,0,332.43,0.0,-170.0,0
GRID,3105,0,332.43,0.0,-165.0,0
GRID,3106,0,332.43,0.0,-160.0,0
GRID,3107,0,332.43,0.0,-155.0,0
GRID,3108,0,332.43,0.0,-150.0,0
GRID,3109,0,332.43,0.0,-145.0,0
GRID,3110,0,332.43,0.0,-140.0,0
GRID,3111,0,332.43,0.0,-135.0,0
GRID,3112,0,332.43,0.0,-130.0,0
GRID,3113,0,332.43,0.0,-125.0,0
GRID,3114,0,332.43,0.0,-120.0,0
GRID,3115,0,332.43,0.0,-115.0,0
GRID,3116,0,332.43,0.0,-110.0,0
GRID,3117,0,332.43,0.0,-105.0,0
GRID,3118,0,332.43,0.0,-100.0,0
GRID,3119,0,332.43,0.0,-95.0,0
GRID,3120,0,332.43,0.0,-90.0,0
GRID,3121,0,332.43,0.0,-85.0,0
GRID,3122,0,332.43,0.0,-80.0,0
GRID,3123,0,332.43,0.0,-75.0,0
GRID,3124,0,332.43,0.0,-70.0,0
GRID,3125,0,332.43,0.0,-65.0,0
GRID,3126,0,332.43,0.0,-60.0,0
GRID,3127,0,332.43,0.0,-55.0,0
GRID,3128,0,332.43,0.0,-50.0,0
GRID,3129,0,332.43,0.0,-45.0,0
GRID,3130,0,332.43,0.0,-40.0,0
GRID,3131,0,332.43,0.0,-35.0,0
GRID,3132,0,332.43,0.0,-30.0,0
GRID,3133,0,332.43,0.0,-25.0,0
GRID,3134,0,332.43,0.0,-20.0,0
GRID,3135,0,332.43,0.0,-15.0,0
GRID,3136,0,332.43,0.0,-10.0,0
GRID,3137,0,332.43,0.0,-5.0,0
GRID,3138,0,343.24,0.0,-1045.0,0
GRID,3139,0,343.24,0.0,-1040.0,0
GRID,3140,0,343.24,0.0,-1035.0,0
GRID,3141,0,343.24,0.0,-1030.0,0
GRID,3142,0,343.24,0.0,-1025.0,0
GRID,3143,0,343.24,0.0,-1020.0,0
GRID,3144,0,343.24,0.0,-1015.0,0
GRID,3145,0,343.24,0.0,-1010.0,0
GRID,3146,0,343.24,0.0,-1005.0,0
GRID,3147,0,343.24,0.0,-1000.0,0
GRID,3148,0,343.24,0.0,-995.0,0
GRID,3149,0,343.24,0.0,-990.0,0
GRID,3150,0,343.24,0.0,-985.0,0
GRID,3151,0,343.24,0.0,-980.0,0
GRID,3152,0,343.24,0.0,-975.0,0
GRID,3153,0,343.24,0.0,-970.0,0
GRID,3154,0,343.24,0.0,-965.0,0
GRID,3155,0,343.24,0.0,-960.0,0
GRID,3156,0,343.24,0.0,-955.0,0
GRID,3157,0,343.24,0.0,-950.0,0
GRID,3158,0,343.24,0.0,-945.0,0
GRID,3159,0,343.24,0.0,-940.0,0
GRID,3160,0,343.24,0.0,-935.0,0
GRID,3161,0,343.24,0.0,-930.0,0
GRID,3162,0,343.24,0.0,-925.0,0
GRID,3163,0,343.24,0.0,-920.0,0
GRID,3164,0,343.24,0.0,-915.0,0
GRID,3165,0,343.24,0.0,-910.0,0
GRID,3166,0,343.24,0.0,-905.0,0
GRID,3167,0,343.24,0.0,-900.0,0
GRID,3168,0,343.24,0.0,-895.0,0
GRID,3169,0,343.24,0.0,-890.0,0
GRID,3170,0,343.24,0.0,-885.0,0
GRID,3171,0,343.24,0.0,-880.0,0
GRID,3172,0,343.24,0.0,-875.0,0
GRID,3173,0,343.24,0.0,-870.0,0
GRID,3174,0,343.24,0.0,-865.0,0
GRID,3175,0,343.24,0.0,-860.0,0
GRID,3176,0,343.24,0.0,-855.0,0
GRID,3177,0,343.24,0.0,-850.0,0
GRID,3178,0,343.24,0.0,-845.0,0
GRID,3179,0,343.24,0.0,-840.0,0
GRID,3180,0,343.24,0.0,-835.0,0
GRID,3181,0,343.24,0.0,-830.0,0
GRID,3182,0,343.24,0.0,-825.0,0
GRID,3183,0,343.24,0.0,-820.0,0
GRID,3184,0,343.24,0.0,-815.0,0
GRID,3185,0,343.24,0.0,-810.0,0
GRID,3186,0,343.24,0.0,-805.0,0
GRID,3187,0,343.24,0.0,-800.0,0
GRID,3188,0,343.24,0.0,-795.0,0
GRID,3189,0,343.24,0.0,-790.0,0
GRID,3190,0,343.24,0.0,-785.0,0
GRID,3191,0,343.24,0.0,-780.0,0
GRID,3192,0,343.24,0.0,-775.0,0
GRID,3193,0,343.24,0.0,-770.0,0
GRID,3194,0,343.24,0.0,-765.0,0
GRID,3195,0,343.24,0.0,-760.0,0
GRID,3196,0,343.24,0.0,-755.0,0
GRID,3197,0,343.24,0.0,-750.0,0
GRID,3198,0,343.24,0.0,-745.0,0
GRID,3199,0,343.24,0.0,-740.0,0
GRID,3200,0,343.24,0.0,-735.0,0
GRID,3201,0,343.24,0.0,-730.0,0
GRID,3202,0,343.24,0.0,-725.0,0
GRID,3203,0,343.24,0.0,-720.0,0
GRID,3204,0,343.24,0.0,-715.0,0
GRID,3205,0,343.24,0.0,-710.0,0
GRID,3206,0,343.24,0.0,-705.0,0
GRID,3207,0,343.24,0.0,-700.0,0
GRID,3208,0,343.24,0.0,-695.0,0
GRID,3209,0,343.24,0.0,-690.0,0
GRID,3210,0,343.24,0.0,-685.0,0
GRID,3211,0,343.24,0.0,-680.0,0
GRID,3212,0,343.24,0.0,-675.0,0
GRID,3213,0,343.24,0.0,-670.0,0
GRID,3214,0,343.24,0.0,-665.0,0
GRID,3215,0,343.24,0.0,-660.0,0
GRID,3216,0,343.24,0.0,-655.0,0
GRID,3217,0,343.24,0.0,-650.0,0
GRID,3218,0,343.24,0.0,-645.0,0
GRID,3219,0,343.24,0.0,-640.0,0
GRID,3220,0,343.24,0.0,-635.0,0
GRID,3221,0,343.24,0.0,-630.0,0
GRID,3222,0,343.24,0.0,-625.0,0
GRID,3223,0,343.24,0.0,-620.0,0
GRID,3224,0,343.24,0.0,-615.0,0
GRID,3225,0,343.24,0.0,-610.0,0
GRID,3226,0,343.24,0.0,-605.0,0
GRID,3227,0,343.24,0.0,-600.0,0
GRID,3228,0,343.24,0.0,-595.0,0
GRID,3229,0,343.24,0.0,-590.0,0
GRID,3230,0,343.24,0.0,-585.0,0
GRID,3231,0,343.24,0.0,-580.0,0
GRID,3232,0,343.24,0.0,-575.0,0
GRID,3233,0,343.24,0.0,-570.0,0
GRID,3234,0,343.24,0.0,-565.0,0
GRID,3235,0,343.24,0.0,-560.0,0
GRID,3236,0,343.24,0.0,-555.0,0
GRID,3237,0,343.24,0.0,-550.0,0
GRID,3238,0,343.24,0.0,-545.0,0
GRID,3239,0,343.24,0.0,-540.0,0
GRID,3240,0,343.24,0.0,-535.0,0
GRID,3241,0,343.24,0.0,-530.0,0
GRID,3242,0,343.24,0.0,-525.0,0
GRID,3243,0,343.24,0.0,-520.0,0
GRID,3244,0,343.24,0.0,-515.0,0
GRID,3245,0,343.24,0.0,-510.0,0
GRID,3246,0,343.24,0.0,-505.0,0
GRID,3247,0,343.24,0.0,-500.0,0
GRID,3248,0,343.24,0.0,-495.0,0
GRID,3249,0,343.24,0.0,-490.0,0
GRID,3250,0,343.24,0.0,-485.0,0
GRID,3251,0,343.24,0.0,-480.0,0
GRID,3252,0,343.24,0.0,-475.0,0
GRID,3253,0,343.24,0.0,-470.0,0
GRID,3254,0,343.24,0.0,-465.0,0
GRID,3255,0,343.24,0.0,-460.0,0
GRID,3256,0,343.24,0.0,-455.0,0
GRID,3257,0,343.24,0.0,-450.0,0
GRID,3258,0,343.24,0.0,-445.0,0
GRID,3259,0,343.24,0.0,-440.0,0
GRID,3260,0,343.24,0.0,-435.0,0
GRID,3261,0,343.24,0.0,-430.0,0
GRID,3262,0,343.24,0.0,-425.0,0
GRID,3263,0,343.24,0.0,-420.0,0
GRID,3264,0,343.24,0.0,-415.0,0
GRID,3265,0,343.24,0.0,-410.0,0
GRID,3266,0,343.24,0.0,-405.0,0
GRID,3267,0,343.24,0.0,-400.0,0
GRID,3268,0,343.24,0.0,-395.0,0
GRID,3269,0,343.24,0.0,-390.0,0
GRID,3270,0,343.24,0.0,-385.0,0
GRID,3271,0,343.24,0.0,-380.0,0
GRID,3272,0,343.24,0.0,-375.0,0
GRID,3273,0,343.24,0.0,-370.0,0
GRID,3274,0,343.24,0.0,-365.0,0
GRID,3275,0,343.24,0.0,-360.0,0
GRID,3276,0,343.24,0.0,-355.0,0
GRID,3277,0,343.24,0.0,-350.0,0
GRID,3278,0,343.24,0.0,-345.0,0
GRID,3279,0,343.24,0.0,-340.0,0
GRID,3280,0,343.24,0.0,-335.0,0
GRID,3281,0,343.24,0.0,-330.0,0
GRID,3282,0,343.24,0.0,-325.0,0
GRID,3283,0,343.24,0.0,-320.0,0
GRID,3284,0,343.24,0.0,-315.0,0
GRID,3285,0,343.24,0.0,-310.0,0
GRID,3286,0,343.24,0.0,-305.0,0
GRID,3287,0,343.24,0.0,-300.0,0
GRID,3288,0,343.24,0.0,-295.0,0
GRID,3289,0,343.24,0.0,-290.0,0
GRID,3290,0,343.24,0.0,-285.0,0
GRID,3291,0,343.24,0.0,-280.0,0
GRID,3292,0,343.24,0.0,-275.0,0
GRID,3293,0,343.24,0.0,-270.0,0
GRID,3294,0,343.24,0.0,-265.0,0
GRID,3295,0,343.24,0.0,-260.0,0
GRID,3296,0,343.24,0.0,-255.0,0
GRID,3297,0,343.24,0.0,-250.0,0
GRID,3298,0,343.24,0.0,-245.0,0
GRID,3299,0,343.24,0.0,-240.0,0
GRID,3300,0,343.24,0.0,-235.0,0
GRID,3301,0,343.24,0.0,-230.0,0
GRID,3302,0,343.24,0.0,-225.0,0
GRID,3303,0,343.24,0.0,-220.0,0
GRID,3304,0,343.24,0.0,-215.0,0
GRID,3305,0,343.24,0.0,-210.0,0
GRID,3306,0,343.24,0.0,-205.0,0
GRID,3307,0,343.24,0.0,-200.0,0
GRID,3308,0,343.24,0.0,-195.0,0
GRID,3309,0,343.24,0.0,-190.0,0
GRID,3310,0,343.24,0.0,-185.0,0
GRID,3311,0,343.24,0.0,-180.0,0
GRID,3312,0,343.24,0.0,-175.0,0
GRID,3313,0,343.24,0.0,-170.0,0
GRID,3314,0,343.24,0.0,-165.0,0
GRID,3315,0,343.24,0.0,-160.0,0
GRID,3316,0,343.24,0.0,-155.0,0
GRID,3317,0,343.24,0.0,-150.0,0
GRID,3318,0,343.24,0.0,-145.0,0
GRID,3319,0,343.24,0.0,-140.0,0
GRID,3320,0,343.24,0.0,-135.0,0
GRID,3321,0,343.24,0.0,-130.0,0
GRID,3322,0,343.24,0.0,-125.0,0
GRID,3323,0,343.24,0.0,-120.0,0
GRID,3324,0,343.24,0.0,-115.0,0
GRID,3325,0,343.24,0.0,-110.0,0
GRID,3326,0,343.24,0.0,-105.0,0
GRID,3327,0,343.24,0.0,-100.0,0
GRID,3328,0,343.24,0.0,-95.0,0
GRID,3329,0,343.24,0.0,-90.0,0
GRID,3330,0,343.24,0.0,-85.0,0
GRID,3331,0,343.24,0.0,-80.0,0
GRID,3332,0,343.24,0.0,-75.0,0
GRID,3333,0,343.24,0.0,-70.0,0
GRID,3334,0,343.24,0.0,-65.0,0
GRID,3335,0,343.24,0.0,-60.0,0
GRID,3336,0,343.24,0.0,-55.0,0
GRID,3337,0,343.24,0.0,-50.0,0
GRID,3338,0,343.24,0.0,-45.0,0
GRID,3339,0,343.24,0.0,-40.0,0
GRID,3340,0,343.24,0.0,-35.0,0
GRID,3341,0,343.24,0.0,-30.0,0
GRID,3342,0,343.24,0.0,-25.0,0
GRID,3343,0,343.24,0.0,-20.0,0
GRID,3344,0,343.24,0.0,-15.0,0
GRID,3345,0,343.24,0.0,-10.0,0
GRID,3346,0,343.24,0.0,-5.0,0
GRID,3347,0,354.05,0.0,-1045.0,0
GRID,3348,0,354.05,0.0,-1040.0,0
GRID,3349,0,354.05,0.0,-1035.0,0
GRID,3350,0,354.05,0.0,-1030.0,0
GRID,3351,0,354.05,0.0,-1025.0,0
GRID,3352,0,354.05,0.0,-1020.0,0
GRID,3353,0,354.05,0.0,-1015.0,0
GRID,3354,0,354.05,0.0,-1010.0,0
GRID,3355,0,354.05,0.0,-1005.0,0
GRID,3356,0,354.05,0.0,-1000.0,0
GRID,3357,0,354.05,0.0,-995.0,0
GRID,3358,0,354.05,0.0,-990.0,0
GRID,3359,0,354.05,0.0,-985.0,0
GRID,3360,0,354.05,0.0,-980.0,0
GRID,3361,0,354.05,0.0,-975.0,0
GRID,3362,0,354.05,0.0,-970.0,0
GRID,3363,0,354.05,0.0,-965.0,0
GRID,3364,0,354.05,0.0,-960.0,0
GRID,3365,0,354.05,0.0,-955.0,0
GRID,3366,0,354.05,0.0,-950.0,0
GRID,3367,0,354.05,0.0,-945.0,0
GRID,3368,0,354.05,0.0,-940.0,0
GRID,3369,0,354.05,0.0,-935.0,0
GRID,3370,0,354.05,0.0,-930.0,0
GRID,3371,0,354.05,0.0,-925.0,0
GRID,3372,0,354.05,0.0,-920.0,0
GRID,3373,0,354.05,0.0,-915.0,0
GRID,3374,0,354.05,0.0,-910.0,0
GRID,3375,0,354.05,0.0,-905.0,0
GRID,3376,0,354.05,0.0,-900.0,0
GRID,3377,0,354.05,0.0,-895.0,0
GRID,3378,0,354.05,0.0,-890.0,0
GRID,3379,0,354.05,0.0,-885.0,0
GRID,3380,0,354.05,0.0,-880.0,0
GRID,3381,0,354.05,0.0,-875.0,0
GRID,3382,0,354.05,0.0,-870.0,0
GRID,3383,0,354.05,0.0,-865.0,0
GRID,3384,0,354.05,0.0,-860.0,0
GRID,3385,0,354.05,0.0,-855.0,0
GRID,3386,0,354.05,0.0,-850.0,0
GRID,3387,0,354.05,0.0,-845.0,0
GRID,3388,0,354.05,0.0,-840.0,0
GRID,3389,0,354.05,0.0,-835.0,0
GRID,3390,0,354.05,0.0,-830.0,0
GRID,3391,0,354.05,0.0,-825.0,0
GRID,3392,0,354.05,0.0,-820.0,0
GRID,3393,0,354.05,0.0,-815.0,0
GRID,3394,0,354.05,0.0,-810.0,0
GRID,3395,0,354.05,0.0,-805.0,0
GRID,3396,0,354.05,0.0,-800.0,0
GRID,3397,0,354.05,0.0,-795.0,0
GRID,3398,0,354.05,0.0,-790.0,0
GRID,3399,0,354.05,0.0,-785.0,0
GRID,3400,0,354.05,0.0,-780.0,0
GRID,3401,0,354.05,0.0,-775.0,0
GRID,3402,0,354.05,0.0,-770.0,0
GRID,3403,0,354.05,0.0,-765.0,0
GRID,3404,0,354.05,0.0,-760.0,0
GRID,3405,0,354.05,0.0,-755.0,0
GRID,3406,0,354.05,0.0,-750.0,0
GRID,3407,0,354.05,0.0,-745.0,0
GRID,3408,0,354.05,0.0,-740.0,0
GRID,3409,0,354.05,0.0,-735.0,0
GRID,3410,0,354.05,0.0,-730.0,0
GRID,3411,0,354.05,0.0,-725.0,0
GRID,3412,0,354.05,0.0,-720.0,0
GRID,3413,0,354.05,0.0,-715.0,0
GRID,3414,0,354.05,0.0,-710.0,0
GRID,3415,0,354.05,0.0,-705.0,0
GRID,3416,0,354.05,0.0,-700.0,0
GRID,3417,0,354.05,0.0,-695.0,0
GRID,3418,0,354.05,0.0,-690.0,0
GRID,3419,0,354.05,0.0,-685.0,0
GRID,3420,0,354.05,0.0,-680.0,0
GRID,3421,0,354.05,0.0,-675.0,0
GRID,3422,0,354.05,0.0,-670.0,0
GRID,3423,0,354.05,0.0,-665.0,0
GRID,3424,0,354.05,0.0,-660.0,0
GRID,3425,0,354.05,0.0,-655.0,0
GRID,3426,0,354.05,0.0,-650.0,0
GRID,3427,0,354.05,0.0,-645.0,0
GRID,3428,0,354.05,0.0,-640.0,0
GRID,3429,0,354.05,0.0,-635.0,0
GRID,3430,0,354.05,0.0,-630.0,0
GRID,3431,0,354.05,0.0,-625.0,0
GRID,3432,0,354.05,0.0,-620.0,0
GRID,3433,0,354.05,0.0,-615.0,0
GRID,3434,0,354.05,0.0,-610.0,0
GRID,3435,0,354.05,0.0,-605.0,0
GRID,3436,0,354.05,0.0,-600.0,0
GRID,3437,0,354.05,0.0,-595.0,0
GRID,3438,0,354.05,0.0,-590.0,0
GRID,3439,0,354.05,0.0,-585.0,0
GRID,3440,0,354.05,0.0,-580.0,0
GRID,3441,0,354.05,0.0,-575.0,0
GRID,3442,0,354.05,0.0,-570.0,0
GRID,3443,0,354.05,0.0,-565.0,0
GRID,3444,0,354.05,0.0,-560.0,0
GRID,3445,0,354.05,0.0,-555.0,0
GRID,3446,0,354.05,0.0,-550.0,0
GRID,3447,0,354.05,0.0,-545.0,0
GRID,3448,0,354.05,0.0,-540.0,0
GRID,3449,0,354.05,0.0,-535.0,0
GRID,3450,0,354.05,0.0,-530.0,0
GRID,3451,0,354.05,0.0,-525.0,0
GRID,3452,0,354.05,0.0,-520.0,0
GRID,3453,0,354.05,0.0,-515.0,0
GRID,3454,0,354.05,0.0,-510.0,0
GRID,3455,0,354.05,0.0,-505.0,0
GRID,3456,0,354.05,0.0,-500.0,0
GRID,3457,0,354.05,0.0,-495.0,0
GRID,3458,0,354.05,0.0,-490.0,0
GRID,3459,0,354.05,0.0,-485.0,0
GRID,3460,0,354.05,0.0,-480.0,0
GRID,3461,0,354.05,0.0,-475.0,0
GRID,3462,0,354.05,0.0,-470.0,0
GRID,3463,0,354.05,0.0,-465.0,0
GRID,3464,0,354.05,0.0,-460.0,0
GRID,3465,0,354.05,0.0,-455.0,0
GRID,3466,0,354.05,0.0,-450.0,0
GRID,3467,0,354.05,0.0,-445.0,0
GRID,3468,0,354.05,0.0,-440.0,0
GRID,3469,0,354.05,0.0,-435.0,0
GRID,3470,0,354.05,0.0,-430.0,0
GRID,3471,0,354.05,0.0,-425.0,0
GRID,3472,0,354.05,0.0,-420.0,0
GRID,3473,0,354.05,0.0,-415.0,0
GRID,3474,0,354.05,0.0,-410.0,0
GRID,3475,0,354.05,0.0,-405.0,0
GRID,3476,0,354.05,0.0,-400.0,0
GRID,3477,0,354.05,0.0,-395.0,0
GRID,3478,0,354.05,0.0,-390.0,0
GRID,3479,0,354.05,0.0,-385.0,0
GRID,3480,0,354.05,0.0,-380.0,0
GRID,3481,0,354.05,0.0,-375.0,0
GRID,3482,0,354.05,0.0,-370.0,0
GRID,3483,0,354.05,0.0,-365.0,0
GRID,3484,0,354.05,0.0,-360.0,0
GRID,3485,0,354.05,0.0,-355.0,0
GRID,3486,0,354.05,0.0,-350.0,0
GRID,3487,0,354.05,0.0,-345.0,0
GRID,3488,0,354.05,0.0,-340.0,0
GRID,3489,0,354.05,0.0,-335.0,0
GRID,3490,0,354.05,0.0,-330.0,0
GRID,3491,0,354.05,0.0,-325.0,0
GRID,3492,0,354.05,0.0,-320.0,0
GRID,3493,0,354.05,0.0,-315.0,0
GRID,3494,0,354.05,0.0,-310.0,0
GRID,3495,0,354.05,0.0,-305.0,0
GRID,3496,0,354.05,0.0,-300.0,0
GRID,3497,0,354.05,0.0,-295.0,0
GRID,3498,0,354.05,0.0,-290.0,0
GRID,3499,0,354.05,0.0,-285.0,0
GRID,3500,0,354.05,0.0,-280.0,0
GRID,3501,0,354.05,0.0,-275.0,0
GRID,3502,0,354.05,0.0,-270.0,0
GRID,3503,0,354.05,0.0,-265.0,0
GRID,3504,0,354.05,0.0,-260.0,0
GRID,3505,0,354.05,0.0,-255.0,0
GRID,3506,0,354.05,0.0,-250.0,0
GRID,3507,0,354.05,0.0,-245.0,0
GRID,3508,0,354.05,0.0,-240.0,0
GRID,3509,0,354.05,0.0,-235.0,0
GRID,3510,0,354.05,0.0,-230.0,0
GRID,3511,0,354.05,0.0,-225.0,0
GRID,3512,0,354.05,0.0,-220.0,0
GRID,3513,0,354.05,0.0,-215.0,0
GRID,3514,0,354.05,0.0,-210.0,0
GRID,3515,0,354.05,0.0,-205.0,0
GRID,3516,0,354.05,0.0,-200.0,0
GRID,3517,0,354.05,0.0,-195.0,0
GRID,3518,0,354.05,0.0,-190.0,0
GRID,3519,0,354.05,0.0,-185.0,0
GRID,3520,0,354.05,0.0,-180.0,0
GRID,3521,0,354.05,0.0,-175.0,0
GRID,3522,0,354.05,0.0,-170.0,0
GRID,3523,0,354.05,0.0,-165.0,0
GRID,3524,0,354.05,0.0,-160.0,0
GRID,3525,0,354.05,0.0,-155.0,0
GRID,3526,0,354.05,0.0,-150.0,0
GRID,3527,0,354.05,0.0,-145.0,0
GRID,3528,0,354.05,0.0,-140.0,0
GRID,3529,0,354.05,0.0,-135.0,0
GRID,3530,0,354.05,0.0,-130.0,0
GRID,3531,0,354.05,0.0,-125.0,0
GRID,3532,0,354.05,0.0,-120.0,0
GRID,3533,0,354.05,0.0,-115.0,0
GRID,3534,0,354.05,0.0,-110.0,0
GRID,3535,0,354.05,0.0,-105.0,0
GRID,3536,0,354.05,0.0,-100.0,0
GRID,3537,0,354.05,0.0,-95.0,0
GRID,3538,0,354.05,0.0,-90.0,0
GRID,3539,0,354.05,0.0,-85.0,0
GRID,3540,0,354.05,0.0,-80.0,0
GRID,3541,0,354.05,0.0,-75.0,0
GRID,3542,0,354.05,0.0,-70.0,0
GRID,3543,0,354.05,0.0,-65.0,0
GRID,3544,0,354.05,0.0,-60.0,0
GRID,3545,0,354.05,0.0,-55.0,0
GRID,3546,0,354.05,0.0,-50.0,0
GRID,3547,0,354.05,0.0,-45.0,0
GRID,3548,0,354.05,0.0,-40.0,0
GRID,3549,0,354.05,0.0,-35.0,0
GRID,3550,0,354.05,0.0,-30.0,0
GRID,3551,0,354.05,0.0,-25.0,0
GRID,3552,0,354.05,0.0,-20.0,0
GRID,3553,0,354.05,0.0,-15.0,0
GRID,3554,0,354.05,0.0,-10.0,0
GRID,3555,0,354.05,0.0,-5.0,0
GRID,3556,0,364.86,0.0,-1045.0,0
GRID,3557,0,364.86,0.0,-1040.0,0
GRID,3558,0,364.86,0.0,-1035.0,0
GRID,3559,0,364.86,0.0,-1030.0,0
GRID,3560,0,364.86,0.0,-1025.0,0
GRID,3561,0,364.86,0.0,-1020.0,0
GRID,3562,0,364.86,0.0,-1015.0,0
GRID,3563,0,364.86,0.0,-1010.0,0
GRID,3564,0,364.86,0.0,-1005.0,0
GRID,3565,0,364.86,0.0,-1000.0,0
GRID,3566,0,364.86,0.0,-995.0,0
GRID,3567,0,364.86,0.0,-990.0,0
GRID,3568,0,364.86,0.0,-985.0,0
GRID,3569,0,364.86,0.0,-980.0,0
GRID,3570,0,364.86,0.0,-975.0,0
GRID,3571,0,364.86,0.0,-970.0,0
GRID,3572,0,364.86,0.0,-965.0,0
GRID,3573,0,364.86,0.0,-960.0,0
GRID,3574,0,364.86,0.0,-955.0,0
GRID,3575,0,364.86,0.0,-950.0,0
GRID,3576,0,364.86,0.0,-945.0,0
GRID,3577,0,364.86,0.0,-940.0,0
GRID,3578,0,364.86,0.0,-935.0,0
GRID,3579,0,364.86,0.0,-930.0,0
GRID,3580,0,364.86,0.0,-925.0,0
GRID,3581,0,364.86,0.0,-920.0,0
GRID,3582,0,364.86,0.0,-915.0,0
GRID,3583,0,364.86,0.0,-910.0,0
GRID,3584,0,364.86,0.0,-905.0,0
GRID,3585,0,364.86,0.0,-900.0,0
GRID,3586,0,364.86,0.0,-895.0,0
GRID,3587,0,364.86,0.0,-890.0,0
GRID,3588,0,364.86,0.0,-885.0,0
GRID,3589,0,364.86,0.0,-880.0,0
GRID,3590,0,364.86,0.0,-875.0,0
GRID,3591,0,364.86,0.0,-870.0,0
GRID,3592,0,364.86,0.0,-865.0,0
GRID,3593,0,364.86,0.0,-860.0,0
GRID,3594,0,364.86,0.0,-855.0,0
GRID,3595,0,364.86,0.0,-850.0,0
GRID,3596,0,364.86,0.0,-845.0,0
GRID,3597,0,364.86,0.0,-840.0,0
GRID,3598,0,364.86,0.0,-835.0,0
GRID,3599,0,364.86,0.0,-830.0,0
GRID,3600,0,364.86,0.0,-825.0,0
GRID,3601,0,364.86,0.0,-820.0,0
GRID,3602,0,364.86,0.0,-815.0,0
GRID,3603,0,364.86,0.0,-810.0,0
GRID,3604,0,364.86,0.0,-805.0,0
GRID,3605,0,364.86,0.0,-800.0,0
GRID,3606,0,364.86,0.0,-795.0,0
GRID,3607,0,364.86,0.0,-790.0,0
GRID,3608,0,364.86,0.0,-785.0,0
GRID,3609,0,364.86,0.0,-780.0,0
GRID,3610,0,364.86,0.0,-775.0,0
GRID,3611,0,364.86,0.0,-770.0,0
GRID,3612,0,364.86,0.0,-765.0,0
GRID,3613,0,364.86,0.0,-760.0,0
GRID,3614,0,364.86,0.0,-755.0,0
GRID,3615,0,364.86,0.0,-750.0,0
GRID,3616,0,364.86,0.0,-745.0,0
GRID,3617,0,364.86,0.0,-740.0,0
GRID,3618,0,364.86,0.0,-735.0,0
GRID,3619,0,364.86,0.0,-730.0,0
GRID,3620,0,364.86,0.0,-725.0,0
GRID,3621,0,364.86,0.0,-720.0,0
GRID,3622,0,364.86,0.0,-715.0,0
GRID,3623,0,364.86,0.0,-710.0,0
GRID,3624,0,364.86,0.0,-705.0,0
GRID,3625,0,364.86,0.0,-700.0,0
GRID,3626,0,364.86,0.0,-695.0,0
GRID,3627,0,364.86,0.0,-690.0,0
GRID,3628,0,364.86,0.0,-685.0,0
GRID,3629,0,364.86,0.0,-680.0,0
GRID,3630,0,364.86,0.0,-675.0,0
GRID,3631,0,364.86,0.0,-670.0,0
GRID,3632,0,364.86,0.0,-665.0,0
GRID,3633,0,364.86,0.0,-660.0,0
GRID,3634,0,364.86,0.0,-655.0,0
GRID,3635,0,364.86,0.0,-650.0,0
GRID,3636,0,364.86,0.0,-645.0,0
GRID,3637,0,364.86,0.0,-640.0,0
GRID,3638,0,364.86,0.0,-635.0,0
GRID,3639,0,364.86,0.0,-630.0,0
GRID,3640,0,364.86,0.0,-625.0,0
GRID,3641,0,364.86,0.0,-620.0,0
GRID,3642,0,364.86,0.0,-615.0,0
GRID,3643,0,364.86,0.0,-610.0,0
GRID,3644,0,364.86,0.0,-605.0,0
GRID,3645,0,364.86,0.0,-600.0,0
GRID,3646,0,364.86,0.0,-595.0,0
GRID,3647,0,364.86,0.0,-590.0,0
GRID,3648,0,364.86,0.0,-585.0,0
GRID,3649,0,364.86,0.0,-580.0,0
GRID,3650,0,364.86,0.0,-575.0,0
GRID,3651,0,364.86,0.0,-570.0,0
GRID,3652,0,364.86,0.0,-565.0,0
GRID,3653,0,364.86,0.0,-560.0,0
GRID,3654,0,364.86,0.0,-555.0,0
GRID,3655,0,364.86,0.0,-550.0,0
GRID,3656,0,364.86,0.0,-545.0,0
GRID,3657,0,364.86,0.0,-540.0,0
GRID,3658,0,364.86,0.0,-535.0,0
GRID,3659,0,364.86,0.0,-530.0,0
GRID,3660,0,364.86,0.0,-525.0,0
GRID,3661,0,364.86,0.0,-520.0,0
GRID,3662,0,364.86,0.0,-515.0,0
GRID,3663,0,364.86,0.0,-510.0,0
GRID,3664,0,364.86,0.0,-505.0,0
GRID,3665,0,364.86,0.0,-500.0,0
GRID,3666,0,364.86,0.0,-495.0,0
GRID,3667,0,364.86,0.0,-490.0,0
GRID,3668,0,364.86,0.0,-485.0,0
GRID,3669,0,364.86,0.0,-480.0,0
GRID,3670,0,364.86,0.0,-475.0,0
GRID,3671,0,364.86,0.0,-470.0,0
GRID,3672,0,364.86,0.0,-465.0,0
GRID,3673,0,364.86,0.0,-460.0,0
GRID,3674,0,364.86,0.0,-455.0,0
GRID,3675,0,364.86,0.0,-450.0,0
GRID,3676,0,364.86,0.0,-445.0,0
GRID,3677,0,364.86,0.0,-440.0,0
GRID,3678,0,364.86,0.0,-435.0,0
GRID,3679,0,364.86,0.0,-430.0,0
GRID,3680,0,364.86,0.0,-425.0,0
GRID,3681,0,364.86,0.0,-420.0,0
GRID,3682,0,364.86,0.0,-415.0,0
GRID,3683,0,364.86,0.0,-410.0,0
GRID,3684,0,364.86,0.0,-405.0,0
GRID,3685,0,364.86,0.0,-400.0,0
GRID,3686,0,364.86,0.0,-395.0,0
GRID,3687,0,364.86,0.0,-390.0,0
GRID,3688,0,364.86,0.0,-385.0,0
GRID,3689,0,364.86,0.0,-380.0,0
GRID,3690,0,364.86,0.0,-375.0,0
GRID,3691,0,364.86,0.0,-370.0,0
GRID,3692,0,364.86,0.0,-365.0,0
GRID,3693,0,364.86,0.0,-360.0,0
GRID,3694,0,364.86,0.0,-355.0,0
GRID,3695,0,364.86,0.0,-350.0,0
GRID,3696,0,364.86,0.0,-345.0,0
GRID,3697,0,364.86,0.0,-340.0,0
GRID,3698,0,364.86,0.0,-335.0,0
GRID,3699,0,364.86,0.0,-330.0,0
GRID,3700,0,364.86,0.0,-325.0,0
GRID,3701,0,364.86,0.0,-320.0,0
GRID,3702,0,364.86,0.0,-315.0,0
GRID,3703,0,364.86,0.0,-310.0,0
GRID,3704,0,364.86,0.0,-305.0,0
GRID,3705,0,364.86,0.0,-300.0,0
GRID,3706,0,364.86,0.0,-295.0,0
GRID,3707,0,364.86,0.0,-290.0,0
GRID,3708,0,364.86,0.0,-285.0,0
GRID,3709,0,364.86,0.0,-280.0,0
GRID,3710,0,364.86,0.0,-275.0,0
GRID,3711,0,364.86,0.0,-270.0,0
GRID,3712,0,364.86,0.0,-265.0,0
GRID,3713,0,364.86,0.0,-260.0,0
GRID,3714,0,364.86,0.0,-255.0,0
GRID,3715,0,364.86,0.0,-250.0,0
GRID,3716,0,364.86,0.0,-245.0,0
GRID,3717,0,364.86,0.0,-240.0,0
GRID,3718,0,364.86,0.0,-235.0,0
GRID,3719,0,364.86,0.0,-230.0,0
GRID,3720,0,364.86,0.0,-225.0,0
GRID,3721,0,364.86,0.0,-220.0,0
GRID,3722,0,364.86,0.0,-215.0,0
GRID,3723,0,364.86,0.0,-210.0,0
GRID,3724,0,364.86,0.0,-205.0,0
GRID,3725,0,364.86,0.0,-200.0,0
GRID,3726,0,364.86,0.0,-195.0,0
GRID,3727,0,364.86,0.0,-190.0,0
GRID,3728,0,364.86,0.0,-185.0,0
GRID,3729,0,364.86,0.0,-180.0,0
GRID,3730,0,364.86,0.0,-175.0,0
GRID,3731,0,364.86,0.0,-170.0,0
GRID,3732,0,364.86,0.0,-165.0,0
GRID,3733,0,364.86,0.0,-160.0,0
GRID,3734,0,364.86,0.0,-155.0,0
GRID,3735,0,364.86,0.0,-150.0,0
GRID,3736,0,364.86,0.0,-145.0,0
GRID,3737,0,364.86,0.0,-140.0,0
GRID,3738,0,364.86,0.0,-135.0,0
GRID,3739,0,364.86,0.0,-130.0,0
GRID,3740,0,364.86,0.0,-125.0,0
GRID,3741,0,364.86,0.0,-120.0,0
GRID,3742,0,364.86,0.0,-115.0,0
GRID,3743,0,364.86,0.0,-110.0,0
GRID,3744,0,364.86,0.0,-105.0,0
GRID,3745,0,364.86,0.0,-100.0,0
GRID,3746,0,364.86,0.0,-95.0,0
GRID,3747,0,364.86,0.0,-90.0,0
GRID,3748,0,364.86,0.0,-85.0,0
GRID,3749,0,364.86,0.0,-80.0,0
GRID,3750,0,364.86,0.0,-75.0,0
GRID,3751,0,364.86,0.0,-70.0,0
GRID,3752,0,364.86,0.0,-65.0,0
GRID,3753,0,364.86,0.0,-60.0,0
GRID,3754,0,364.86,0.0,-55.0,0
GRID,3755,0,364.86,0.0,-50.0,0
GRID,3756,0,364.86,0.0,-45.0,0
GRID,3757,0,364.86,0.0,-40.0,0
GRID,3758,0,364.86,0.0,-35.0,0
GRID,3759,0,364.86,0.0,-30.0,0
GRID,3760,0,364.86,0.0,-25.0,0
GRID,3761,0,364.86,0.0,-20.0,0
GRID,3762,0,364.86,0.0,-15.0,0
GRID,3763,0,364.86,0.0,-10.0,0
GRID,3764,0,364.86,0.0,-5.0,0
GRID,3765,0,375.67,0.0,-1045.0,0
GRID,3766,0,375.67,0.0,-1040.0,0
GRID,3767,0,375.67,0.0,-1035.0,0
GRID,3768,0,375.67,0.0,-1030.0,0
GRID,3769,0,375.67,0.0,-1025.0,0
GRID,3770,0,375.67,0.0,-1020.0,0
GRID,3771,0,375.67,0.0,-1015.0,0
GRID,3772,0,375.67,0.0,-1010.0,0
GRID,3773,0,375.67,0.0,-1005.0,0
GRID,3774,0,375.67,0.0,-1000.0,0
GRID,3775,0,375.67,0.0,-995.0,0
GRID,3776,0,375.67,0.0,-990.0,0
GRID,3777,0,375.67,0.0,-985.0,0
GRID,3778,0,375.67,0.0,-980.0,0
GRID,3779,0,375.67,0.0,-975.0,0
GRID,3780,0,375.67,0.0,-970.0,0
GRID,3781,0,375.67,0.0,-965.0,0
GRID,3782,0,375.67,0.0,-960.0,0
GRID,3783,0,375.67,0.0,-955.0,0
GRID,3784,0,375.67,0.0,-950.0,0
GRID,3785,0,375.67,0.0,-945.0,0
GRID,3786,0,375.67,0.0,-940.0,0
GRID,3787,0,375.67,0.0,-935.0,0
GRID,3788,0,375.67,0.0,-930.0,0
GRID,3789,0,375.67,0.0,-925.0,0
GRID,3790,0,375.67,0.0,-920.0,0
GRID,3791,0,375.67,0.0,-915.0,0
GRID,3792,0,375.67,0.0,-910.0,0
GRID,3793,0,375.67,0.0,-905.0,0
GRID,3794,0,375.67,0.0,-900.0,0
GRID,3795,0,375.67,0.0,-895.0,0
GRID,3796,0,375.67,0.0,-890.0,0
GRID,3797,0,375.67,0.0,-885.0,0
GRID,3798,0,375.67,0.0,-880.0,0
GRID,3799,0,375.67,0.0,-875.0,0
GRID,3800,0,375.67,0.0,-870.0,0
GRID,3801,0,375.67,0.0,-865.0,0
GRID,3802,0,375.67,0.0,-860.0,0
GRID,3803,0,375.67,0.0,-855.0,0
GRID,3804,0,375.67,0.0,-850.0,0
GRID,3805,0,375.67,0.0,-845.0,0
GRID,3806,0,375.67,0.0,-840.0,0
GRID,3807,0,375.67,0.0,-835.0,0
GRID,3808,0,375.67,0.0,-830.0,0
GRID,3809,0,375.67,0.0,-825.0,0
GRID,3810,0,375.67,0.0,-820.0,0
GRID,3811,0,375.67,0.0,-815.0,0
GRID,3812,0,375.67,0.0,-810.0,0
GRID,3813,0,375.67,0.0,-805.0,0
GRID,3814,0,375.67,0.0,-800.0,0
GRID,3815,0,375.67,0.0,-795.0,0
GRID,3816,0,375.67,0.0,-790.0,0
GRID,3817,0,375.67,0.0,-785.0,0
GRID,3818,0,375.67,0.0,-780.0,0
GRID,3819,0,375.67,0.0,-775.0,0
GRID,3820,0,375.67,0.0,-770.0,0
GRID,3821,0,375.67,0.0,-765.0,0
GRID,3822,0,375.67,0.0,-760.0,0
GRID,3823,0,375.67,0.0,-755.0,0
GRID,3824,0,375.67,0.0,-750.0,0
GRID,3825,0,375.67,0.0,-745.0,0
GRID,3826,0,375.67,0.0,-740.0,0
GRID,3827,0,375.67,0.0,-735.0,0
GRID,3828,0,375.67,0.0,-730.0,0
GRID,3829,0,375.67,0.0,-725.0,0
GRID,3830,0,375.67,0.0,-720.0,0
GRID,3831,0,375.67,0.0,-715.0,0
GRID,3832,0,375.67,0.0,-710.0,0
GRID,3833,0,375.67,0.0,-705.0,0
GRID,3834,0,375.67,0.0,-700.0,0
GRID,3835,0,375.67,0.0,-695.0,0
GRID,3836,0,375.67,0.0,-690.0,0
GRID,3837,0,375.67,0.0,-685.0,0
GRID,3838,0,375.67,0.0,-680.0,0
GRID,3839,0,375.67,0.0,-675.0,0
GRID,3840,0,375.67,0.0,-670.0,0
GRID,3841,0,375.67,0.0,-665.0,0
GRID,3842,0,375.67,0.0,-660.0,0
GRID,3843,0,375.67,0.0,-655.0,0
GRID,3844,0,375.67,0.0,-650.0,0
GRID,3845,0,375.67,0.0,-645.0,0
GRID,3846,0,375.67,0.0,-640.0,0
GRID,3847,0,375.67,0.0,-635.0,0
GRID,3848,0,375.67,0.0,-630.0,0
GRID,3849,0,375.67,0.0,-625.0,0
GRID,3850,0,375.67,0.0,-620.0,0
GRID,3851,0,375.67,0.0,-615.0,0
GRID,3852,0,375.67,0.0,-610.0,0
GRID,3853,0,375.67,0.0,-605.0,0
GRID,3854,0,375.67,0.0,-600.0,0
GRID,3855,0,375.67,0.0,-595.0,0
GRID,3856,0,375.67,0.0,-590.0,0
GRID,3857,0,375.67,0.0,-585.0,0
GRID,3858,0,375.67,0.0,-580.0,0
GRID,3859,0,375.67,0.0,-575.0,0
GRID,3860,0,375.67,0.0,-570.0,0
GRID,3861,0,375.67,0.0,-565.0,0
GRID,3862,0,375.67,0.0,-560.0,0
GRID,3863,0,375.67,0.0,-555.0,0
GRID,3864,0,375.67,0.0,-550.0,0
GRID,3865,0,375.67,0.0,-545.0,0
GRID,3866,0,375.67,0.0,-540.0,0
GRID,3867,0,375.67,0.0,-535.0,0
GRID,3868,0,375.67,0.0,-530.0,0
GRID,3869,0,375.67,0.0,-525.0,0
GRID,3870,0,375.67,0.0,-520.0,0
GRID,3871,0,375.67,0.0,-515.0,0
GRID,3872,0,375.67,0.0,-510.0,0
GRID,3873,0,375.67,0.0,-505.0,0
GRID,3874,0,375.67,0.0,-500.0,0
GRID,3875,0,375.67,0.0,-495.0,0
GRID,3876,0,375.67,0.0,-490.0,0
GRID,3877,0,375.67,0.0,-485.0,0
GRID,3878,0,375.67,0.0,-480.0,0
GRID,3879,0,375.67,0.0,-475.0,0
GRID,3880,0,375.67,0.0,-470.0,0
GRID,3881,0,375.67,0.0,-465.0,0
GRID,3882,0,375.67,0.0,-460.0,0
GRID,3883,0,375.67,0.0,-455.0,0
GRID,3884,0,375.67,0.0,-450.0,0
GRID,3885,0,375.67,0.0,-445.0,0
GRID,3886,0,375.67,0.0,-440.0,0
GRID,3887,0,375.67,0.0,-435.0,0
GRID,3888,0,375.67,0.0,-430.0,0
GRID,3889,0,375.67,0.0,-425.0,0
GRID,3890,0,375.67,0.0,-420.0,0
GRID,3891,0,375.67,0.0,-415.0,0
GRID,3892,0,375.67,0.0,-410.0,0
GRID,3893,0,375.67,0.0,-405.0,0
GRID,3894,0,375.67,0.0,-400.0,0
GRID,3895,0,375.67,0.0,-395.0,0
GRID,3896,0,375.67,0.0,-390.0,0
GRID,3897,0,375.67,0.0,-385.0,0
GRID,3898,0,375.67,0.0,-380.0,0
GRID,3899,0,375.67,0.0,-375.0,0
GRID,3900,0,375.67,0.0,-370.0,0
GRID,3901,0,375.67,0.0,-365.0,0
GRID,3902,0,375.67,0.0,-360.0,0
GRID,3903,0,375.67,0.0,-355.0,0
GRID,3904,0,375.67,0.0,-350.0,0
GRID,3905,0,375.67,0.0,-345.0,0
GRID,3906,0,375.67,0.0,-340.0,0
GRID,3907,0,375.67,0.0,-335.0,0
GRID,3908,0,375.67,0.0,-330.0,0
GRID,3909,0,375.67,0.0,-325.0,0
GRID,3910,0,375.67,0.0,-320.0,0
GRID,3911,0,375.67,0.0,-315.0,0
GRID,3912,0,375.67,0.0,-310.0,0
GRID,3913,0,375.67,0.0,-305.0,0
GRID,3914,0,375.67,0.0,-300.0,0
GRID,3915,0,375.67,0.0,-295.0,0
GRID,3916,0,375.67,0.0,-290.0,0
GRID,3917,0,375.67,0.0,-285.0,0
GRID,3918,0,375.67,0.0,-280.0,0
GRID,3919,0,375.67,0.0,-275.0,0
GRID,3920,0,375.67,0.0,-270.0,0
GRID,3921,0,375.67,0.0,-265.0,0
GRID,3922,0,375.67,0.0,-260.0,0
GRID,3923,0,375.67,0.0,-255.0,0
GRID,3924,0,375.67,0.0,-250.0,0
GRID,3925,0,375.67,0.0,-245.0,0
GRID,3926,0,375.67,0.0,-240.0,0
GRID,3927,0,375.67,0.0,-235.0,0
GRID,3928,0,375.67,0.0,-230.0,0
GRID,3929,0,375.67,0.0,-225.0,0
GRID,3930,0,375.67,0.0,-220.0,0
GRID,3931,0,375.67,0.0,-215.0,0
GRID,3932,0,375.67,0.0,-210.0,0
GRID,3933,0,375.67,0.0,-205.0,0
GRID,3934,0,375.67,0.0,-200.0,0
GRID,3935,0,375.67,0.0,-195.0,0
GRID,3936,0,375.67,0.0,-190.0,0
GRID,3937,0,375.67,0.0,-185.0,0
GRID,3938,0,375.67,0.0,-180.0,0
GRID,3939,0,375.67,0.0,-175.0,0
GRID,3940,0,375.67,0.0,-170.0,0
GRID,3941,0,375.67,0.0,-165.0,0
GRID,3942,0,375.67,0.0,-160.0,0
GRID,3943,0,375.67,0.0,-155.0,0
GRID,3944,0,375.67,0.0,-150.0,0
GRID,3945,0,375.67,0.0,-145.0,0
GRID,3946,0,375.67,0.0,-140.0,0
GRID,3947,0,375.67,0.0,-135.0,0
GRID,3948,0,375.67,0.0,-130.0,0
GRID,3949,0,375.67,0.0,-125.0,0
GRID,3950,0,375.67,0.0,-120.0,0
GRID,3951,0,375.67,0.0,-115.0,0
GRID,3952,0,375.67,0.0,-110.0,0
GRID,3953,0,375.67,0.0,-105.0,0
GRID,3954,0,375.67,0.0,-100.0,0
GRID,3955,0,375.67,0.0,-95.0,0
GRID,3956,0,375.67,0.0,-90.0,0
GRID,3957,0,375.67,0.0,-85.0,0
GRID,3958,0,375.67,0.0,-80.0,0
GRID,3959,0,375.67,0.0,-75.0,0
GRID,3960,0,375.67,0.0,-70.0,0
GRID,3961,0,375.67,0.0,-65.0,0
GRID,3962,0,375.67,0.0,-60.0,0
GRID,3963,0,375.67,0.0,-55.0,0
GRID,3964,0,375.67,0.0,-50.0,0
GRID,3965,0,375.67,0.0,-45.0,0
GRID,3966,0,375.67,0.0,-40.0,0
GRID,3967,0,375.67,0.0,-35.0,0
GRID,3968,0,375.67,0.0,-30.0,0
GRID,3969,0,375.67,0.0,-25.0,0
GRID,3970,0,375.67,0.0,-20.0,0
GRID,3971,0,375.67,0.0,-15.0,0
GRID,3972,0,375.67,0.0,-10.0,0
GRID,3973,0,375.67,0.0,-5.0,0
GRID,3974,0,386.48,0.0,-1045.0,0
GRID,3975,0,386.48,0.0,-1040.0,0
GRID,3976,0,386.48,0.0,-1035.0,0
GRID,3977,0,386.48,0.0,-1030.0,0
GRID,3978,0,386.48,0.0,-1025.0,0
GRID,3979,0,386.48,0.0,-1020.0,0
GRID,3980,0,386.48,0.0,-1015.0,0
GRID,3981,0,386.48,0.0,-1010.0,0
GRID,3982,0,386.48,0.0,-1005.0,0
GRID,3983,0,386.48,0.0,-1000.0,0
GRID,3984,0,386.48,0.0,-995.0,0
GRID,3985,0,386.48,0.0,-990.0,0
GRID,3986,0,386.48,0.0,-985.0,0
GRID,3987,0,386.48,0.0,-980.0,0
GRID,3988,0,386.48,0.0,-975.0,0
GRID,3989,0,386.48,0.0,-970.0,0
GRID,3990,0,386.48,0.0,-965.0,0
GRID,3991,0,386.48,0.0,-960.0,0
GRID,3992,0,386.48,0.0,-955.0,0
GRID,3993,0,386.48,0.0,-950.0,0
GRID,3994,0,386.48,0.0,-945.0,0
GRID,3995,0,386.48,0.0,-940.0,0
GRID,3996,0,386.48,0.0,-935.0,0
GRID,3997,0,386.48,0.0,-930.0,0
GRID,3998,0,386.48,0.0,-925.0,0
GRID,3999,0,386.48,0.0,-920.0,0
GRID,4000,0,386.48,0.0,-915.0,0
GRID,4001,0,386.48,0.0,-910.0,0
GRID,4002,0,386.48,0.0,-905.0,0
GRID,4003,0,386.48,0.0,-900.0,0
GRID,4004,0,386.48,0.0,-895.0,0
GRID,4005,0,386.48,0.0,-890.0,0
GRID,4006,0,386.48,0.0,-885.0,0
GRID,4007,0,386.48,0.0,-880.0,0
GRID,4008,0,386.48,0.0,-875.0,0
GRID,4009,0,386.48,0.0,-870.0,0
GRID,4010,0,386.48,0.0,-865.0,0
GRID,4011,0,386.48,0.0,-860.0,0
GRID,4012,0,386.48,0.0,-855.0,0
GRID,4013,0,386.48,0.0,-850.0,0
GRID,4014,0,386.48,0.0,-845.0,0
GRID,4015,0,386.48,0.0,-840.0,0
GRID,4016,0,386.48,0.0,-835.0,0
GRID,4017,0,386.48,0.0,-830.0,0
GRID,4018,0,386.48,0.0,-825.0,0
GRID,4019,0,386.48,0.0,-820.0,0
GRID,4020,0,386.48,0.0,-815.0,0
GRID,4021,0,386.48,0.0,-810.0,0
GRID,4022,0,386.48,0.0,-805.0,0
GRID,4023,0,386.48,0.0,-800.0,0
GRID,4024,0,386.48,0.0,-795.0,0
GRID,4025,0,386.48,0.0,-790.0,0
GRID,4026,0,386.48,0.0,-785.0,0
GRID,4027,0,386.48,0.0,-780.0,0
GRID,4028,0,386.48,0.0,-775.0,0
GRID,4029,0,386.48,0.0,-770.0,0
GRID,4030,0,386.48,0.0,-765.0,0
GRID,4031,0,386.48,0.0,-760.0,0
GRID,4032,0,386.48,0.0,-755.0,0
GRID,4033,0,386.48,0.0,-750.0,0
GRID,4034,0,386.48,0.0,-745.0,0
GRID,4035,0,386.48,0.0,-740.0,0
GRID,4036,0,386.48,0.0,-735.0,0
GRID,4037,0,386.48,0.0,-730.0,0
GRID,4038,0,386.48,0.0,-725.0,0
GRID,4039,0,386.48,0.0,-720.0,0
GRID,4040,0,386.48,0.0,-715.0,0
GRID,4041,0,386.48,0.0,-710.0,0
GRID,4042,0,386.48,0.0,-705.0,0
GRID,4043,0,386.48,0.0,-700.0,0
GRID,4044,0,386.48,0.0,-695.0,0
GRID,4045,0,386.48,0.0,-690.0,0
GRID,4046,0,386.48,0.0,-685.0,0
GRID,4047,0,386.48,0.0,-680.0,0
GRID,4048,0,386.48,0.0,-675.0,0
GRID,4049,0,386.48,0.0,-670.0,0
GRID,4050,0,386.48,0.0,-665.0,0
GRID,4051,0,386.48,0.0,-660.0,0
GRID,4052,0,386.48,0.0,-655.0,0
GRID,4053,0,386.48,0.0,-650.0,0
GRID,4054,0,386.48,0.0,-645.0,0
GRID,4055,0,386.48,0.0,-640.0,0
GRID,4056,0,386.48,0.0,-635.0,0
GRID,4057,0,386.48,0.0,-630.0,0
GRID,4058,0,386.48,0.0,-625.0,0
GRID,4059,0,386.48,0.0,-620.0,0
GRID,4060,0,386.48,0.0,-615.0,0
GRID,4061,0,386.48,0.0,-610.0,0
GRID,4062,0,386.48,0.0,-605.0,0
GRID,4063,0,386.48,0.0,-600.0,0
GRID,4064,0,386.48,0.0,-595.0,0
GRID,4065,0,386.48,0.0,-590.0,0
GRID,4066,0,386.48,0.0,-585.0,0
GRID,4067,0,386.48,0.0,-580.0,0
GRID,4068,0,386.48,0.0,-575.0,0
GRID,4069,0,386.48,0.0,-570.0,0
GRID,4070,0,386.48,0.0,-565.0,0
GRID,4071,0,386.48,0.0,-560.0,0
GRID,4072,0,386.48,0.0,-555.0,0
GRID,4073,0,386.48,0.0,-550.0,0
GRID,4074,0,386.48,0.0,-545.0,0
GRID,4075,0,386.48,0.0,-540.0,0
GRID,4076,0,386.48,0.0,-535.0,0
GRID,4077,0,386.48,0.0,-530.0,0
GRID,4078,0,386.48,0.0,-525.0,0
GRID,4079,0,386.48,0.0,-520.0,0
GRID,4080,0,386.48,0.0,-515.0,0
GRID,4081,0,386.48,0.0,-510.0,0
GRID,4082,0,386.48,0.0,-505.0,0
GRID,4083,0,386.48,0.0,-500.0,0
GRID,4084,0,386.48,0.0,-495.0,0
GRID,4085,0,386.48,0.0,-490.0,0
GRID,4086,0,386.48,0.0,-485.0,0
GRID,4087,0,386.48,0.0,-480.0,0
GRID,4088,0,386.48,0.0,-475.0,0
GRID,4089,0,386.48,0.0,-470.0,0
GRID,4090,0,386.48,0.0,-465.0,0
GRID,4091,0,386.48,0.0,-460.0,0
GRID,4092,0,386.48,0.0,-455.0,0
GRID,4093,0,386.48,0.0,-450.0,0
GRID,4094,0,386.48,0.0,-445.0,0
GRID,4095,0,386.48,0.0,-440.0,0
GRID,4096,0,386.48,0.0,-435.0,0
GRID,4097,0,386.48,0.0,-430.0,0
GRID,4098,0,386.48,0.0,-425.0,0
GRID,4099,0,386.48,0.0,-420.0,0
GRID,4100,0,386.48,0.0,-415.0,0
GRID,4101,0,386.48,0.0,-410.0,0
GRID,4102,0,386.48,0.0,-405.0,0
GRID,4103,0,386.48,0.0,-400.0,0
GRID,4104,0,386.48,0.0,-395.0,0
GRID,4105,0,386.48,0.0,-390.0,0
GRID,4106,0,386.48,0.0,-385.0,0
GRID,4107,0,386.48,0.0,-380.0,0
GRID,4108,0,386.48,0.0,-375.0,0
GRID,4109,0,386.48,0.0,-370.0,0
GRID,4110,0,386.48,0.0,-365.0,0
GRID,4111,0,386.48,0.0,-360.0,0
GRID,4112,0,386.48,0.0,-355.0,0
GRID,4113,0,386.48,0.0,-350.0,0
GRID,4114,0,386.48,0.0,-345.0,0
GRID,4115,0,386.48,0.0,-340.0,0
GRID,4116,0,386.48,0.0,-335.0,0
GRID,4117,0,386.48,0.0,-330.0,0
GRID,4118,0,386.48,0.0,-325.0,0
GRID,4119,0,386.48,0.0,-320.0,0
GRID,4120,0,386.48,0.0,-315.0,0
GRID,4121,0,386.48,0.0,-310.0,0
GRID,4122,0,386.48,0.0,-305.0,0
GRID,4123,0,386.48,0.0,-300.0,0
GRID,4124,0,386.48,0.0,-295.0,0
GRID,4125,0,386.48,0.0,-290.0,0
GRID,4126,0,386.48,0.0,-285.0,0
GRID,4127,0,386.48,0.0,-280.0,0
GRID,4128,0,386.48,0.0,-275.0,0
GRID,4129,0,386.48,0.0,-270.0,0
GRID,4130,0,386.48,0.0,-265.0,0
GRID,4131,0,386.48,0.0,-260.0,0
GRID,4132,0,386.48,0.0,-255.0,0
GRID,4133,0,386.48,0.0,-250.0,0
GRID,4134,0,386.48,0.0,-245.0,0
GRID,4135,0,386.48,0.0,-240.0,0
GRID,4136,0,386.48,0.0,-235.0,0
GRID,4137,0,386.48,0.0,-230.0,0
GRID,4138,0,386.48,0.0,-225.0,0
GRID,4139,0,386.48,0.0,-220.0,0
GRID,4140,0,386.48,0.0,-215.0,0
GRID,4141,0,386.48,0.0,-210.0,0
GRID,4142,0,386.48,0.0,-205.0,0
GRID,4143,0,386.48,0.0,-200.0,0
GRID,4144,0,386.48,0.0,-195.0,0
GRID,4145,0,386.48,0.0,-190.0,0
GRID,4146,0,386.48,0.0,-185.0,0
GRID,4147,0,386.48,0.0,-180.0,0
GRID,4148,0,386.48,0.0,-175.0,0
GRID,4149,0,386.48,0.0,-170.0,0
GRID,4150,0,386.48,0.0,-165.0,0
GRID,4151,0,386.48,0.0,-160.0,0
GRID,4152,0,386.48,0.0,-155.0,0
GRID,4153,0,386.48,0.0,-150.0,0
GRID,4154,0,386.48,0.0,-145.0,0
GRID,4155,0,386.48,0.0,-140.0,0
GRID,4156,0,386.48,0.0,-135.0,0
GRID,4157,0,386.48,0.0,-130.0,0
GRID,4158,0,386.48,0.0,-125.0,0
GRID,4159,0,386.48,0.0,-120.0,0
GRID,4160,0,386.48,0.0,-115.0,0
GRID,4161,0,386.48,0.0,-110.0,0
GRID,4162,0,386.48,0.0,-105.0,0
GRID,4163,0,386.48,0.0,-100.0,0
GRID,4164,0,386.48,0.0,-95.0,0
GRID,4165,0,386.48,0.0,-90.0,0
GRID,4166,0,386.48,0.0,-85.0,0
GRID,4167,0,386.48,0.0,-80.0,0
GRID,4168,0,386.48,0.0,-75.0,0
GRID,4169,0,386.48,0.0,-70.0,0
GRID,4170,0,386.48,0.0,-65.0,0
GRID,4171,0,386.48,0.0,-60.0,0
GRID,4172,0,386.48,0.0,-55.0,0
GRID,4173,0,386.48,0.0,-50.0,0
GRID,4174,0,386.48,0.0,-45.0,0
GRID,4175,0,386.48,0.0,-40.0,0
GRID,4176,0,386.48,0.0,-35.0,0
GRID,4177,0,386.48,0.0,-30.0,0
GRID,4178,0,386.48,0.0,-25.0,0
GRID,4179,0,386.48,0.0,-20.0,0
GRID,4180,0,386.48,0.0,-15.0,0
GRID,4181,0,386.48,0.0,-10.0,0
GRID,4182,0,386.48,0.0,-5.0,0
GRID,4183,0,397.29,0.0,-1045.0,0
GRID,4184,0,397.29,0.0,-1040.0,0
GRID,4185,0,397.29,0.0,-1035.0,0
GRID,4186,0,397.29,0.0,-1030.0,0
GRID,4187,0,397.29,0.0,-1025.0,0
GRID,4188,0,397.29,0.0,-1020.0,0
GRID,4189,0,397.29,0.0,-1015.0,0
GRID,4190,0,397.29,0.0,-1010.0,0
GRID,4191,0,397.29,0.0,-1005.0,0
GRID,4192,0,397.29,0.0,-1000.0,0
GRID,4193,0,397.29,0.0,-995.0,0
GRID,4194,0,397.29,0.0,-990.0,0
GRID,4195,0,397.29,0.0,-985.0,0
GRID,4196,0,397.29,0.0,-980.0,0
GRID,4197,0,397.29,0.0,-975.0,0
GRID,4198,0,397.29,0.0,-970.0,0
GRID,4199,0,397.29,0.0,-965.0,0
GRID,4200,0,397.29,0.0,-960.0,0
GRID,4201,0,397.29,0.0,-955.0,0
GRID,4202,0,397.29,0.0,-950.0,0
GRID,4203,0,397.29,0.0,-945.0,0
GRID,4204,0,397.29,0.0,-940.0,0
GRID,4205,0,397.29,0.0,-935.0,0
GRID,4206,0,397.29,0.0,-930.0,0
GRID,4207,0,397.29,0.0,-925.0,0
GRID,4208,0,397.29,0.0,-920.0,0
GRID,4209,0,397.29,0.0,-915.0,0
GRID,4210,0,397.29,0.0,-910.0,0
GRID,4211,0,397.29,0.0,-905.0,0
GRID,4212,0,397.29,0.0,-900.0,0
GRID,4213,0,397.29,0.0,-895.0,0
GRID,4214,0,397.29,0.0,-890.0,0
GRID,4215,0,397.29,0.0,-885.0,0
GRID,4216,0,397.29,0.0,-880.0,0
GRID,4217,0,397.29,0.0,-875.0,0
GRID,4218,0,397.29,0.0,-870.0,0
GRID,4219,0,397.29,0.0,-865.0,0
GRID,4220,0,397.29,0.0,-860.0,0
GRID,4221,0,397.29,0.0,-855.0,0
GRID,4222,0,397.29,0.0,-850.0,0
GRID,4223,0,397.29,0.0,-845.0,0
GRID,4224,0,397.29,0.0,-840.0,0
GRID,4225,0,397.29,0.0,-835.0,0
GRID,4226,0,397.29,0.0,-830.0,0
GRID,4227,0,397.29,0.0,-825.0,0
GRID,4228,0,397.29,0.0,-820.0,0
GRID,4229,0,397.29,0.0,-815.0,0
GRID,4230,0,397.29,0.0,-810.0,0
GRID,4231,0,397.29,0.0,-805.0,0
GRID,4232,0,397.29,0.0,-800.0,0
GRID,4233,0,397.29,0.0,-795.0,0
GRID,4234,0,397.29,0.0,-790.0,0
GRID,4235,0,397.29,0.0,-785.0,0
GRID,4236,0,397.29,0.0,-780.0,0
GRID,4237,0,397.29,0.0,-775.0,0
GRID,4238,0,397.29,0.0,-770.0,0
GRID,4239,0,397.29,0.0,-765.0,0
GRID,4240,0,397.29,0.0,-760.0,0
GRID,4241,0,397.29,0.0,-755.0,0
GRID,4242,0,397.29,0.0,-750.0,0
GRID,4243,0,397.29,0.0,-745.0,0
GRID,4244,0,397.29,0.0,-740.0,0
GRID,4245,0,397.29,0.0,-735.0,0
GRID,4246,0,397.29,0.0,-730.0,0
GRID,4247,0,397.29,0.0,-725.0,0
GRID,4248,0,397.29,0.0,-720.0,0
GRID,4249,0,397.29,0.0,-715.0,0
GRID,4250,0,397.29,0.0,-710.0,0
GRID,4251,0,397.29,0.0,-705.0,0
GRID,4252,0,397.29,0.0,-700.0,0
GRID,4253,0,397.29,0.0,-695.0,0
GRID,4254,0,397.29,0.0,-690.0,0
GRID,4255,0,397.29,0.0,-685.0,0
GRID,4256,0,397.29,0.0,-680.0,0
GRID,4257,0,397.29,0.0,-675.0,0
GRID,4258,0,397.29,0.0,-670.0,0
GRID,4259,0,397.29,0.0,-665.0,0
GRID,4260,0,397.29,0.0,-660.0,0
GRID,4261,0,397.29,0.0,-655.0,0
GRID,4262,0,397.29,0.0,-650.0,0
GRID,4263,0,397.29,0.0,-645.0,0
GRID,4264,0,397.29,0.0,-640.0,0
GRID,4265,0,397.29,0.0,-635.0,0
GRID,4266,0,397.29,0.0,-630.0,0
GRID,4267,0,397.29,0.0,-625.0,0
GRID,4268,0,397.29,0.0,-620.0,0
GRID,4269,0,397.29,0.0,-615.0,0
GRID,4270,0,397.29,0.0,-610.0,0
GRID,4271,0,397.29,0.0,-605.0,0
GRID,4272,0,397.29,0.0,-600.0,0
GRID,4273,0,397.29,0.0,-595.0,0
GRID,4274,0,397.29,0.0,-590.0,0
GRID,4275,0,397.29,0.0,-585.0,0
GRID,4276,0,397.29,0.0,-580.0,0
GRID,4277,0,397.29,0.0,-575.0,0
GRID,4278,0,397.29,0.0,-570.0,0
GRID,4279,0,397.29,0.0,-565.0,0
GRID,4280,0,397.29,0.0,-560.0,0
GRID,4281,0,397.29,0.0,-555.0,0
GRID,4282,0,397.29,0.0,-550.0,0
GRID,4283,0,397.29,0.0,-545.0,0
GRID,4284,0,397.29,0.0,-540.0,0
GRID,4285,0,397.29,0.0,-535.0,0
GRID,4286,0,397.29,0.0,-530.0,0
GRID,4287,0,397.29,0.0,-525.0,0
GRID,4288,0,397.29,0.0,-520.0,0
GRID,4289,0,397.29,0.0,-515.0,0
GRID,4290,0,397.29,0.0,-510.0,0
GRID,4291,0,397.29,0.0,-505.0,0
GRID,4292,0,397.29,0.0,-500.0,0
GRID,4293,0,397.29,0.0,-495.0,0
GRID,4294,0,397.29,0.0,-490.0,0
GRID,4295,0,397.29,0.0,-485.0,0
GRID,4296,0,397.29,0.0,-480.0,0
GRID,4297,0,397.29,0.0,-475.0,0
GRID,4298,0,397.29,0.0,-470.0,0
GRID,4299,0,397.29,0.0,-465.0,0
GRID,4300,0,397.29,0.0,-460.0,0
GRID,4301,0,397.29,0.0,-455.0,0
GRID,4302,0,397.29,0.0,-450.0,0
GRID,4303,0,397.29,0.0,-445.0,0
GRID,4304,0,397.29,0.0,-440.0,0
GRID,4305,0,397.29,0.0,-435.0,0
GRID,4306,0,397.29,0.0,-430.0,0
GRID,4307,0,397.29,0.0,-425.0,0
GRID,4308,0,397.29,0.0,-420.0,0
GRID,4309,0,397.29,0.0,-415.0,0
GRID,4310,0,397.29,0.0,-410.0,0
GRID,4311,0,397.29,0.0,-405.0,0
GRID,4312,0,397.29,0.0,-400.0,0
GRID,4313,0,397.29,0.0,-395.0,0
GRID,4314,0,397.29,0.0,-390.0,0
GRID,4315,0,397.29,0.0,-385.0,0
GRID,4316,0,397.29,0.0,-380.0,0
GRID,4317,0,397.29,0.0,-375.0,0
GRID,4318,0,397.29,0.0,-370.0,0
GRID,4319,0,397.29,0.0,-365.0,0
GRID,4320,0,397.29,0.0,-360.0,0
GRID,4321,0,397.29,0.0,-355.0,0
GRID,4322,0,397.29,0.0,-350.0,0
GRID,4323,0,397.29,0.0,-345.0,0
GRID,4324,0,397.29,0.0,-340.0,0
GRID,4325,0,397.29,0.0,-335.0,0
GRID,4326,0,397.29,0.0,-330.0,0
GRID,4327,0,397.29,0.0,-325.0,0
GRID,4328,0,397.29,0.0,-320.0,0
GRID,4329,0,397.29,0.0,-315.0,0
GRID,4330,0,397.29,0.0,-310.0,0
GRID,4331,0,397.29,0.0,-305.0,0
GRID,4332,0,397.29,0.0,-300.0,0
GRID,4333,0,397.29,0.0,-295.0,0
GRID,4334,0,397.29,0.0,-290.0,0
GRID,4335,0,397.29,0.0,-285.0,0
GRID,4336,0,397.29,0.0,-280.0,0
GRID,4337,0,397.29,0.0,-275.0,0
GRID,4338,0,397.29,0.0,-270.0,0
GRID,4339,0,397.29,0.0,-265.0,0
GRID,4340,0,397.29,0.0,-260.0,0
GRID,4341,0,397.29,0.0,-255.0,0
GRID,4342,0,397.29,0.0,-250.0,0
GRID,4343,0,397.29,0.0,-245.0,0
GRID,4344,0,397.29,0.0,-240.0,0
GRID,4345,0,397.29,0.0,-235.0,0
GRID,4346,0,397.29,0.0,-230.0,0
GRID,4347,0,397.29,0.0,-225.0,0
GRID,4348,0,397.29,0.0,-220.0,0
GRID,4349,0,397.29,0.0,-215.0,0
GRID,4350,0,397.29,0.0,-210.0,0
GRID,4351,0,397.29,0.0,-205.0,0
GRID,4352,0,397.29,0.0,-200.0,0
GRID,4353,0,397.29,0.0,-195.0,0
GRID,4354,0,397.29,0.0,-190.0,0
GRID,4355,0,397.29,0.0,-185.0,0
GRID,4356,0,397.29,0.0,-180.0,0
GRID,4357,0,397.29,0.0,-175.0,0
GRID,4358,0,397.29,0.0,-170.0,0
GRID,4359,0,397.29,0.0,-165.0,0
GRID,4360,0,397.29,0.0,-160.0,0
GRID,4361,0,397.29,0.0,-155.0,0
GRID,4362,0,397.29,0.0,-150.0,0
GRID,4363,0,397.29,0.0,-145.0,0
GRID,4364,0,397.29,0.0,-140.0,0
GRID,4365,0,397.29,0.0,-135.0,0
GRID,4366,0,397.29,0.0,-130.0,0
GRID,4367,0,397.29,0.0,-125.0,0
GRID,4368,0,397.29,0.0,-120.0,0
GRID,4369,0,397.29,0.0,-115.0,0
GRID,4370,0,397.29,0.0,-110.0,0
GRID,4371,0,397.29,0.0,-105.0,0
GRID,4372,0,397.29,0.0,-100.0,0
GRID,4373,0,397.29,0.0,-95.0,0
GRID,4374,0,397.29,0.0,-90.0,0
GRID,4375,0,397.29,0.0,-85.0,0
GRID,4376,0,397.29,0.0,-80.0,0
GRID,4377,0,397.29,0.0,-75.0,0
GRID,4378,0,397.29,0.0,-70.0,0
GRID,4379,0,397.29,0.0,-65.0,0
GRID,4380,0,397.29,0.0,-60.0,0
GRID,4381,0,397.29,0.0,-55.0,0
GRID,4382,0,397.29,0.0,-50.0,0
GRID,4383,0,397.29,0.0,-45.0,0
GRID,4384,0,397.29,0.0,-40.0,0
GRID,4385,0,397.29,0.0,-35.0,0
GRID,4386,0,397.29,0.0,-30.0,0
GRID,4387,0,397.29,0.0,-25.0,0
GRID,4388,0,397.29,0.0,-20.0,0
GRID,4389,0,397.29,0.0,-15.0,0
GRID,4390,0,397.29,0.0,-10.0,0
GRID,4391,0,397.29,0.0,-5.0,0
GRID,4392,0,397.29,0.0,-1056.73,0
GRID,4393,0,397.29,0.0,-1063.47,0
GRID,4394,0,397.29,0.0,-1070.2,0
GRID,4395,0,397.2865,0.0,-1076.89,0
GRID,4396,0,397.2762,0.0,-1083.57,0
GRID,4397,0,397.2591,0.0,-1090.26,0
GRID,4398,0,397.2351,0.0,-1096.94,0
GRID,4399,0,397.2043,0.0,-1103.62,0
GRID,4400,0,397.1666,0.0,-1110.31,0
GRID,4401,0,397.1221,0.0,-1116.99,0
GRID,4402,0,397.0707,0.0,-1123.67,0
GRID,4403,0,397.0126,0.0,-1130.35,0
GRID,4404,0,396.9476,0.0,-1137.03,0
GRID,4405,0,396.8758,0.0,-1143.71,0
GRID,4406,0,396.7973,0.0,-1150.39,0
GRID,4407,0,396.712,0.0,-1157.06,0
GRID,4408,0,396.62,0.0,-1163.74,0
GRID,4409,0,396.5213,0.0,-1170.41,0
GRID,4410,0,396.4158,0.0,-1177.09,0
GRID,4411,0,396.3037,0.0,-1183.76,0
GRID,4412,0,396.185,0.0,-1190.43,0
GRID,4413,0,396.0596,0.0,-1197.09,0
GRID,4414,0,395.9276,0.0,-1203.76,0
GRID,4415,0,395.789,0.0,-1210.42,0
GRID,4416,0,395.5714,0.0,-1217.1,0
GRID,4417,0,395.204,0.0,-1223.77,0
GRID,4418,0,394.6867,0.0,-1230.44,0
GRID,4419,0,394.0191,0.0,-1237.09,0
GRID,4420,0,393.2017,0.0,-1243.73,0
GRID,4421,0,392.235,0.0,-1250.34,0
GRID,4422,0,391.1194,0.0,-1256.94,0
GRID,4423,0,389.8554,0.0,-1263.51,0
GRID,4424,0,388.4438,0.0,-1270.05,0
GRID,4425,0,386.8851,0.0,-1276.55,0
GRID,4426,0,385.1801,0.0,-1283.02,0
GRID,4427,0,383.3297,0.0,-1289.45,0
GRID,4428,0,381.3348,0.0,-1295.84,0
GRID,4429,0,379.1964,0.0,-1302.19,0
GRID,4430,0,376.9156,0.0,-1308.48,0
GRID,4431,0,374.4934,0.0,-1314.72,0
GRID,4432,0,371.9312,0.0,-1320.91,0
GRID,4433,0,369.2302,0.0,-1327.04,0
GRID,4434,0,366.3918,0.0,-1333.1,0
GRID,4435,0,363.4173,0.0,-1339.1,0
GRID,4436,0,360.3083,0.0,-1345.04,0
GRID,4437,0,357.0664,0.0,-1350.9,0
GRID,4438,0,353.6932,0.0,-1356.69,0
GRID,4439,0,350.1905,0.0,-1362.4,0
GRID,4440,0,346.5599,0.0,-1368.03,0
GRID,4441,0,342.8034,0.0,-1373.58,0
GRID,4442,0,338.9228,0.0,-1379.04,0
GRID,4443,0,334.9202,0.0,-1384.41,0
GRID,4444,0,330.7975,0.0,-1389.69,0
GRID,4445,0,326.5569,0.0,-1394.88,0
GRID,4446,0,322.2004,0.0,-1399.98,0
GRID,4447,0,317.7302,0.0,-1404.97,0
GRID,4448,0,313.1489,0.0,-1409.86,0
GRID,4449,0,308.4524,0.0,-1414.66,0
GRID,4450,0,303.9114,0.0,-1419.2,0
GRID,4451,0,299.3704,0.0,-1423.74,0
GRID,4452,0,294.8294,0.0,-1428.28,0
GRID,4453,0,290.2884,0.0,-1432.82,0
GRID,4454,0,285.5595,0.0,-1437.46,0
GRID,4455,0,280.7405,0.0,-1442.0,0
GRID,4456,0,275.8332,0.0,-1446.45,0
GRID,4457,0,270.8395,0.0,-1450.79,0
GRID,4458,0,265.7613,0.0,-1455.04,0
GRID,4459,0,260.601,0.0,-1459.19,0
GRID,4460,0,255.3608,0.0,-1463.23,0
GRID,4461,0,250.0429,0.0,-1467.16,0
GRID,4462,0,244.6496,0.0,-1470.99,0
GRID,4463,0,239.183,0.0,-1474.71,0
GRID,4464,0,233.6457,0.0,-1478.33,0
GRID,4465,0,228.0398,0.0,-1481.83,0
GRID,4466,0,222.3679,0.0,-1485.21,0
GRID,4467,0,216.6323,0.0,-1488.49,0
GRID,4468,0,210.8356,0.0,-1491.64,0
GRID,4469,0,204.98,0.0,-1494.68,0
GRID,4470,0,199.0683,0.0,-1497.61,0
GRID,4471,0,193.1028,0.0,-1500.41,0
GRID,4472,0,187.0862,0.0,-1503.09,0
GRID,4473,0,181.021,0.0,-1505.65,0
GRID,4474,0,174.9099,0.0,-1508.09,0
GRID,4475,0,168.7554,0.0,-1510.41,0
GRID,4476,0,162.5581,0.0,-1512.59,0
GRID,4477,0,156.3131,0.0,-1514.64,0
GRID,4478,0,150.023,0.0,-1516.55,0
GRID,4479,0,143.691,0.0,-1518.32,0
GRID,4480,0,137.3202,0.0,-1519.95,0
GRID,4481,0,130.9135,0.0,-1521.45,0
GRID,4482,0,124.474,0.0,-1522.8,0
GRID,4483,0,118.0049,0.0,-1524.02,0
GRID,4484,0,111.5094,0.0,-1525.09,0
GRID,4485,0,104.9904,0.0,-1526.02,0
GRID,4486,0,98.45118,0.0,-1526.8,0
GRID,4487,0,91.8949,0.0,-1527.45,0
GRID,4488,0,85.32473,0.0,-1527.95,0
GRID,4489,0,78.74384,0.0,-1528.3,0
GRID,4490,0,72.15541,0.0,-1528.51,0
GRID,4491,0,65.56265,0.0,-1528.58,0
GRID,4492,0,58.96876,0.0,-1528.5,0
GRID,4493,0,52.37692,0.0,-1528.28,0
GRID,4494,0,45.79035,0.0,-1527.91,0
GRID,4495,0,39.21224,0.0,-1527.4,0
GRID,4496,0,32.64579,0.0,-1526.75,0
GRID,4497,0,26.0942,0.0,-1525.95,0
GRID,4498,0,19.56069,0.0,-1525.0,0
GRID,4499,0,13.04843,0.0,-1523.92,0
GRID,4500,0,6.560506,0.0,-1522.69,0
GRID,4501,0,386.48,0.0,-1056.57,0
GRID,4502,0,386.48,0.0,-1063.13,0
GRID,4503,0,386.48,0.0,-1069.7,0
GRID,4504,0,386.473,0.0,-1076.17,0
GRID,4505,0,386.4524,0.0,-1082.63,0
GRID,4506,0,386.4181,0.0,-1089.1,0
GRID,4507,0,386.3702,0.0,-1095.56,0
GRID,4508,0,386.3085,0.0,-1102.03,0
GRID,4509,0,386.2332,0.0,-1108.49,0
GRID,4510,0,386.1441,0.0,-1114.95,0
GRID,4511,0,386.0414,0.0,-1121.41,0
GRID,4512,0,385.9251,0.0,-1127.87,0
GRID,4513,0,385.7952,0.0,-1134.32,0
GRID,4514,0,385.6517,0.0,-1140.78,0
GRID,4515,0,385.4946,0.0,-1147.23,0
GRID,4516,0,385.3241,0.0,-1153.68,0
GRID,4517,0,385.14,0.0,-1160.13,0
GRID,4518,0,384.9426,0.0,-1166.57,0
GRID,4519,0,384.7317,0.0,-1173.02,0
GRID,4520,0,384.5075,0.0,-1179.46,0
GRID,4521,0,384.27,0.0,-1185.89,0
GRID,4522,0,384.0192,0.0,-1192.32,0
GRID,4523,0,383.7552,0.0,-1198.75,0
GRID,4524,0,383.4781,0.0,-1205.17,0
GRID,4525,0,383.1234,0.0,-1211.61,0
GRID,4526,0,382.6284,0.0,-1218.04,0
GRID,4527,0,381.9929,0.0,-1224.45,0
GRID,4528,0,381.2167,0.0,-1230.86,0
GRID,4529,0,380.3001,0.0,-1237.25,0
GRID,4530,0,379.2437,0.0,-1243.61,0
GRID,4531,0,378.0481,0.0,-1249.96,0
GRID,4532,0,376.7135,0.0,-1256.28,0
GRID,4533,0,375.2406,0.0,-1262.57,0
GRID,4534,0,373.6302,0.0,-1268.82,0
GRID,4535,0,371.8829,0.0,-1275.04,0
GRID,4536,0,369.9995,0.0,-1281.23,0
GRID,4537,0,367.9809,0.0,-1287.37,0
GRID,4538,0,365.828,0.0,-1293.47,0
GRID,4539,0,363.5419,0.0,-1299.52,0
GRID,4540,0,361.1235,0.0,-1305.52,0
GRID,4541,0,358.5741,0.0,-1311.47,0
GRID,4542,0,355.8948,0.0,-1317.36,0
GRID,4543,0,353.087,0.0,-1323.19,0
GRID,4544,0,350.1518,0.0,-1328.96,0
GRID,4545,0,347.0908,0.0,-1334.66,0
GRID,4546,0,343.9054,0.0,-1340.3,0
GRID,4547,0,340.5972,0.0,-1345.87,0
GRID,4548,0,337.1676,0.0,-1351.36,0
GRID,4549,0,333.6183,0.0,-1356.78,0
GRID,4550,0,329.9512,0.0,-1362.12,0
GRID,4551,0,326.1679,0.0,-1367.38,0
GRID,4552,0,322.2701,0.0,-1372.56,0
GRID,4553,0,318.26,0.0,-1377.65,0
GRID,4554,0,314.1393,0.0,-1382.65,0
GRID,4555,0,309.91,0.0,-1387.56,0
GRID,4556,0,305.5741,0.0,-1392.37,0
GRID,4557,0,301.134,0.0,-1397.1,0
GRID,4558,0,296.5785,0.0,-1401.74,0
GRID,4559,0,292.1612,0.0,-1406.16,0
GRID,4560,0,287.7439,0.0,-1410.58,0
GRID,4561,0,283.3266,0.0,-1414.99,0
GRID,4562,0,278.9093,0.0,-1419.41,0
GRID,4563,0,274.325,0.0,-1423.91,0
GRID,4564,0,269.6606,0.0,-1428.33,0
GRID,4565,0,264.9177,0.0,-1432.66,0
GRID,4566,0,260.098,0.0,-1436.91,0
GRID,4567,0,255.2032,0.0,-1441.06,0
GRID,4568,0,250.2354,0.0,-1445.13,0
GRID,4569,0,245.1966,0.0,-1449.1,0
GRID,4570,0,240.0887,0.0,-1452.98,0
GRID,4571,0,234.9138,0.0,-1456.77,0
GRID,4572,0,229.6738,0.0,-1460.46,0
GRID,4573,0,224.3708,0.0,-1464.05,0
GRID,4574,0,219.007,0.0,-1467.54,0
GRID,4575,0,213.5845,0.0,-1470.93,0
GRID,4576,0,208.1053,0.0,-1474.22,0
GRID,4577,0,202.5718,0.0,-1477.41,0
GRID,4578,0,196.986,0.0,-1480.49,0
GRID,4579,0,191.3503,0.0,-1483.47,0
GRID,4580,0,185.6668,0.0,-1486.34,0
GRID,4581,0,179.9379,0.0,-1489.11,0
GRID,4582,0,174.1658,0.0,-1491.77,0
GRID,4583,0,168.3528,0.0,-1494.31,0
GRID,4584,0,162.5012,0.0,-1496.75,0
GRID,4585,0,156.6095,0.0,-1499.07,0
GRID,4586,0,150.6643,0.0,-1501.25,0
GRID,4587,0,144.6686,0.0,-1503.29,0
GRID,4588,0,138.6253,0.0,-1505.2,0
GRID,4589,0,132.5375,0.0,-1506.98,0
GRID,4590,0,126.4083,0.0,-1508.62,0
GRID,4591,0,120.241,0.0,-1510.12,0
GRID,4592,0,114.0386,0.0,-1511.48,0
GRID,4593,0,107.8043,0.0,-1512.7,0
GRID,4594,0,101.5413,0.0,-1513.78,0
GRID,4595,0,95.25285,0.0,-1514.73,0
GRID,4596,0,88.9422,0.0,-1515.52,0
GRID,4597,0,82.61258,0.0,-1516.18,0
GRID,4598,0,76.26727,0.0,-1516.7,0
GRID,4599,0,69.90955,0.0,-1517.07,0
GRID,4600,0,63.5427,0.0,-1517.29,0
GRID,4601,0,57.17003,0.0,-1517.38,0
GRID,4602,0,50.79484,0.0,-1517.32,0
GRID,4603,0,44.42045,0.0,-1517.11,0
GRID,4604,0,38.05015,0.0,-1516.76,0
GRID,4605,0,31.68728,0.0,-1516.27,0
GRID,4606,0,25.33514,0.0,-1515.64,0
GRID,4607,0,18.99708,0.0,-1514.86,0
GRID,4608,0,12.67639,0.0,-1513.93,0
GRID,4609,0,6.376284,0.0,-1512.87,0
GRID,4610,0,375.67,0.0,-1056.4,0
GRID,4611,0,375.67,0.0,-1062.8,0
GRID,4612,0,375.67,0.0,-1069.2,0
GRID,4613,0,375.6595,0.0,-1075.44,0
GRID,4614,0,375.6286,0.0,-1081.69,0
GRID,4615,0,375.5772,0.0,-1087.94,0
GRID,4616,0,375.5053,0.0,-1094.18,0
GRID,4617,0,375.4128,0.0,-1100.43,0
GRID,4618,0,375.2998,0.0,-1106.67,0
GRID,4619,0,375.1662,0.0,-1112.91,0
GRID,4620,0,375.0122,0.0,-1119.15,0
GRID,4621,0,374.8377,0.0,-1125.38,0
GRID,4622,0,374.6428,0.0,-1131.62,0
GRID,4623,0,374.4275,0.0,-1137.85,0
GRID,4624,0,374.1919,0.0,-1144.08,0
GRID,4625,0,373.9361,0.0,-1150.3,0
GRID,4626,0,373.66,0.0,-1156.52,0
GRID,4627,0,373.3638,0.0,-1162.74,0
GRID,4628,0,373.0475,0.0,-1168.95,0
GRID,4629,0,372.7112,0.0,-1175.15,0
GRID,4630,0,372.3549,0.0,-1181.35,0
GRID,4631,0,371.9788,0.0,-1187.55,0
GRID,4632,0,371.5828,0.0,-1193.74,0
GRID,4633,0,371.1671,0.0,-1199.93,0
GRID,4634,0,370.6754,0.0,-1206.12,0
GRID,4635,0,370.0527,0.0,-1212.3,0
GRID,4636,0,369.2991,0.0,-1218.47,0
GRID,4637,0,368.4142,0.0,-1224.63,0
GRID,4638,0,367.3985,0.0,-1230.77,0
GRID,4639,0,366.2525,0.0,-1236.88,0
GRID,4640,0,364.9767,0.0,-1242.98,0
GRID,4641,0,363.5715,0.0,-1249.05,0
GRID,4642,0,362.0375,0.0,-1255.09,0
GRID,4643,0,360.3753,0.0,-1261.09,0
GRID,4644,0,358.5857,0.0,-1267.07,0
GRID,4645,0,356.6693,0.0,-1273.0,0
GRID,4646,0,354.6269,0.0,-1278.9,0
GRID,4647,0,352.4596,0.0,-1284.75,0
GRID,4648,0,350.1681,0.0,-1290.56,0
GRID,4649,0,347.7536,0.0,-1296.32,0
GRID,4650,0,345.2169,0.0,-1302.02,0
GRID,4651,0,342.5594,0.0,-1307.68,0
GRID,4652,0,339.7822,0.0,-1313.27,0
GRID,4653,0,336.8864,0.0,-1318.81,0
GRID,4654,0,333.8733,0.0,-1324.29,0
GRID,4655,0,330.7444,0.0,-1329.7,0
GRID,4656,0,327.5011,0.0,-1335.05,0
GRID,4657,0,324.1447,0.0,-1340.33,0
GRID,4658,0,320.6768,0.0,-1345.54,0
GRID,4659,0,317.099,0.0,-1350.67,0
GRID,4660,0,313.4129,0.0,-1355.72,0
GRID,4661,0,309.6201,0.0,-1360.7,0
GRID,4662,0,305.7225,0.0,-1365.6,0
GRID,4663,0,301.7217,0.0,-1370.41,0
GRID,4664,0,297.6196,0.0,-1375.14,0
GRID,4665,0,293.418,0.0,-1379.78,0
GRID,4666,0,289.1191,0.0,-1384.33,0
GRID,4667,0,284.7045,0.0,-1388.83,0
GRID,4668,0,280.411,0.0,-1393.12,0
GRID,4669,0,276.1174,0.0,-1397.41,0
GRID,4670,0,271.8238,0.0,-1401.71,0
GRID,4671,0,267.5302,0.0,-1406.0,0
GRID,4672,0,263.0905,0.0,-1410.37,0
GRID,4673,0,258.5806,0.0,-1414.66,0
GRID,4674,0,254.0022,0.0,-1418.88,0
GRID,4675,0,249.3565,0.0,-1423.02,0
GRID,4676,0,244.6451,0.0,-1427.09,0
GRID,4677,0,239.8698,0.0,-1431.08,0
GRID,4678,0,235.0324,0.0,-1434.98,0
GRID,4679,0,230.1346,0.0,-1438.8,0
GRID,4680,0,225.178,0.0,-1442.54,0
GRID,4681,0,220.1646,0.0,-1446.2,0
GRID,4682,0,215.096,0.0,-1449.77,0
GRID,4683,0,209.9742,0.0,-1453.25,0
GRID,4684,0,204.801,0.0,-1456.65,0
GRID,4685,0,199.5783,0.0,-1459.96,0
GRID,4686,0,194.308,0.0,-1463.18,0
GRID,4687,0,188.992,0.0,-1466.3,0
GRID,4688,0,183.6323,0.0,-1469.34,0
GRID,4689,0,178.2308,0.0,-1472.28,0
GRID,4690,0,172.7895,0.0,-1475.13,0
GRID,4691,0,167.3105,0.0,-1477.88,0
GRID,4692,0,161.7956,0.0,-1480.54,0
GRID,4693,0,156.2471,0.0,-1483.1,0
GRID,4694,0,150.6608,0.0,-1485.54,0
GRID,4695,0,145.0156,0.0,-1487.85,0
GRID,4696,0,139.3141,0.0,-1490.04,0
GRID,4697,0,133.5595,0.0,-1492.09,0
GRID,4698,0,127.7548,0.0,-1494.0,0
GRID,4699,0,121.9032,0.0,-1495.79,0
GRID,4700,0,116.0079,0.0,-1497.43,0
GRID,4701,0,110.0722,0.0,-1498.95,0
GRID,4702,0,104.0992,0.0,-1500.32,0
GRID,4703,0,98.09218,0.0,-1501.55,0
GRID,4704,0,92.05452,0.0,-1502.65,0
GRID,4705,0,85.98949,0.0,-1503.6,0
GRID,4706,0,79.90043,0.0,-1504.42,0
GRID,4707,0,73.79071,0.0,-1505.09,0
GRID,4708,0,67.66369,0.0,-1505.62,0
GRID,4709,0,61.52275,0.0,-1506.01,0
GRID,4710,0,55.3713,0.0,-1506.25,0
GRID,4711,0,49.21276,0.0,-1506.35,0
GRID,4712,0,43.05054,0.0,-1506.31,0
GRID,4713,0,36.88807,0.0,-1506.13,0
GRID,4714,0,30.72877,0.0,-1505.8,0
GRID,4715,0,24.57608,0.0,-1505.32,0
GRID,4716,0,18.43347,0.0,-1504.71,0
GRID,4717,0,12.30434,0.0,-1503.95,0
GRID,4718,0,6.192062,0.0,-1503.05,0
GRID,4719,0,364.86,0.0,-1056.23,0
GRID,4720,0,364.86,0.0,-1062.46,0
GRID,4721,0,364.86,0.0,-1068.69,0
GRID,4722,0,364.8461,0.0,-1074.72,0
GRID,4723,0,364.8048,0.0,-1080.75,0
GRID,4724,0,364.7363,0.0,-1086.78,0
GRID,4725,0,364.6404,0.0,-1092.8,0
GRID,4726,0,364.5171,0.0,-1098.83,0
GRID,4727,0,364.3664,0.0,-1104.85,0
GRID,4728,0,364.1883,0.0,-1110.87,0
GRID,4729,0,363.9829,0.0,-1116.89,0
GRID,4730,0,363.7502,0.0,-1122.9,0
GRID,4731,0,363.4904,0.0,-1128.91,0
GRID,4732,0,363.2034,0.0,-1134.92,0
GRID,4733,0,362.8893,0.0,-1140.92,0
GRID,4734,0,362.5481,0.0,-1146.92,0
GRID,4735,0,362.1801,0.0,-1152.91,0
GRID,4736,0,361.7851,0.0,-1158.9,0
GRID,4737,0,361.3634,0.0,-1164.88,0
GRID,4738,0,360.9149,0.0,-1170.85,0
GRID,4739,0,360.4399,0.0,-1176.82,0
GRID,4740,0,359.9383,0.0,-1182.78,0
GRID,4741,0,359.4104,0.0,-1188.73,0
GRID,4742,0,358.8561,0.0,-1194.68,0
GRID,4743,0,358.2274,0.0,-1200.63,0
GRID,4744,0,357.4771,0.0,-1206.56,0
GRID,4745,0,356.6052,0.0,-1212.49,0
GRID,4746,0,355.6117,0.0,-1218.4,0
GRID,4747,0,354.4969,0.0,-1224.29,0
GRID,4748,0,353.2613,0.0,-1230.15,0
GRID,4749,0,351.9054,0.0,-1236.0,0
GRID,4750,0,350.4296,0.0,-1241.82,0
GRID,4751,0,348.8344,0.0,-1247.61,0
GRID,4752,0,347.1204,0.0,-1253.36,0
GRID,4753,0,345.2884,0.0,-1259.09,0
GRID,4754,0,343.339,0.0,-1264.78,0
GRID,4755,0,341.273,0.0,-1270.42,0
GRID,4756,0,339.0912,0.0,-1276.03,0
GRID,4757,0,336.7944,0.0,-1281.59,0
GRID,4758,0,334.3836,0.0,-1287.11,0
GRID,4759,0,331.8598,0.0,-1292.58,0
GRID,4760,0,329.2241,0.0,-1298.0,0
GRID,4761,0,326.4774,0.0,-1303.36,0
GRID,4762,0,323.6209,0.0,-1308.67,0
GRID,4763,0,320.6558,0.0,-1313.92,0
GRID,4764,0,317.5835,0.0,-1319.11,0
GRID,4765,0,314.405,0.0,-1324.23,0
GRID,4766,0,311.1218,0.0,-1329.3,0
GRID,4767,0,307.7352,0.0,-1334.29,0
GRID,4768,0,304.2468,0.0,-1339.21,0
GRID,4769,0,300.6579,0.0,-1344.07,0
GRID,4770,0,296.9701,0.0,-1348.85,0
GRID,4771,0,293.185,0.0,-1353.55,0
GRID,4772,0,289.3041,0.0,-1358.18,0
GRID,4773,0,285.3292,0.0,-1362.72,0
GRID,4774,0,281.2619,0.0,-1367.19,0
GRID,4775,0,277.1042,0.0,-1371.57,0
GRID,4776,0,272.8306,0.0,-1375.91,0
GRID,4777,0,268.6607,0.0,-1380.08,0
GRID,4778,0,264.4909,0.0,-1384.25,0
GRID,4779,0,260.321,0.0,-1388.42,0
GRID,4780,0,256.1511,0.0,-1392.59,0
GRID,4781,0,251.8559,0.0,-1396.82,0
GRID,4782,0,247.5007,0.0,-1400.99,0
GRID,4783,0,243.0866,0.0,-1405.1,0
GRID,4784,0,238.6149,0.0,-1409.14,0
GRID,4785,0,234.0869,0.0,-1413.11,0
GRID,4786,0,229.5042,0.0,-1417.02,0
GRID,4787,0,224.8682,0.0,-1420.86,0
GRID,4788,0,220.1804,0.0,-1424.62,0
GRID,4789,0,215.4422,0.0,-1428.32,0
GRID,4790,0,210.6553,0.0,-1431.94,0
GRID,4791,0,205.8212,0.0,-1435.49,0
GRID,4792,0,200.9414,0.0,-1438.97,0
GRID,4793,0,196.0176,0.0,-1442.37,0
GRID,4794,0,191.0513,0.0,-1445.69,0
GRID,4795,0,186.0443,0.0,-1448.94,0
GRID,4796,0,180.998,0.0,-1452.11,0
GRID,4797,0,175.9143,0.0,-1455.2,0
GRID,4798,0,170.7948,0.0,-1458.21,0
GRID,4799,0,165.6412,0.0,-1461.14,0
GRID,4800,0,160.4552,0.0,-1463.99,0
GRID,4801,0,155.2385,0.0,-1466.76,0
GRID,4802,0,149.993,0.0,-1469.45,0
GRID,4803,0,144.7122,0.0,-1472.02,0
GRID,4804,0,139.3668,0.0,-1474.46,0
GRID,4805,0,133.9597,0.0,-1476.78,0
GRID,4806,0,128.4937,0.0,-1478.97,0
GRID,4807,0,122.9721,0.0,-1481.03,0
GRID,4808,0,117.3981,0.0,-1482.96,0
GRID,4809,0,111.7749,0.0,-1484.75,0
GRID,4810,0,106.1058,0.0,-1486.41,0
GRID,4811,0,100.3941,0.0,-1487.93,0
GRID,4812,0,94.64308,0.0,-1489.32,0
GRID,4813,0,88.85619,0.0,-1490.57,0
GRID,4814,0,83.03678,0.0,-1491.68,0
GRID,4815,0,77.18828,0.0,-1492.65,0
GRID,4816,0,71.31414,0.0,-1493.48,0
GRID,4817,0,65.41782,0.0,-1494.17,0
GRID,4818,0,59.5028,0.0,-1494.72,0
GRID,4819,0,53.57258,0.0,-1495.13,0
GRID,4820,0,47.63069,0.0,-1495.39,0
GRID,4821,0,41.68064,0.0,-1495.51,0
GRID,4822,0,35.72598,0.0,-1495.49,0
GRID,4823,0,29.77026,0.0,-1495.32,0
GRID,4824,0,23.81702,0.0,-1495.01,0
GRID,4825,0,17.86985,0.0,-1494.56,0
GRID,4826,0,11.93229,0.0,-1493.96,0
GRID,4827,0,6.00784,0.0,-1493.22,0
GRID,4828,0,354.05,0.0,-1056.06,0
GRID,4829,0,354.05,0.0,-1062.13,0
GRID,4830,0,354.05,0.0,-1068.19,0
GRID,4831,0,354.0326,0.0,-1074.0,0
GRID,4832,0,353.981,0.0,-1079.81,0
GRID,4833,0,353.8954,0.0,-1085.62,0
GRID,4834,0,353.7755,0.0,-1091.42,0
GRID,4835,0,353.6214,0.0,-1097.23,0
GRID,4836,0,353.433,0.0,-1103.03,0
GRID,4837,0,353.2103,0.0,-1108.83,0
GRID,4838,0,352.9536,0.0,-1114.63,0
GRID,4839,0,352.6628,0.0,-1120.42,0
GRID,4840,0,352.3379,0.0,-1126.21,0
GRID,4841,0,351.9792,0.0,-1131.99,0
GRID,4842,0,351.5866,0.0,-1137.76,0
GRID,4843,0,351.1602,0.0,-1143.54,0
GRID,4844,0,350.7001,0.0,-1149.3,0
GRID,4845,0,350.2064,0.0,-1155.06,0
GRID,4846,0,349.6792,0.0,-1160.81,0
GRID,4847,0,349.1187,0.0,-1166.55,0
GRID,4848,0,348.5249,0.0,-1172.28,0
GRID,4849,0,347.8979,0.0,-1178.01,0
GRID,4850,0,347.238,0.0,-1183.72,0
GRID,4851,0,346.5452,0.0,-1189.43,0
GRID,4852,0,345.7794,0.0,-1195.13,0
GRID,4853,0,344.9015,0.0,-1200.83,0
GRID,4854,0,343.9114,0.0,-1206.5,0
GRID,4855,0,342.8093,0.0,-1212.16,0
GRID,4856,0,341.5953,0.0,-1217.81,0
GRID,4857,0,340.2701,0.0,-1223.42,0
GRID,4858,0,338.8341,0.0,-1229.02,0
GRID,4859,0,337.2876,0.0,-1234.59,0
GRID,4860,0,335.6312,0.0,-1240.13,0
GRID,4861,0,333.8656,0.0,-1245.63,0
GRID,4862,0,331.9912,0.0,-1251.11,0
GRID,4863,0,330.0088,0.0,-1256.55,0
GRID,4864,0,327.919,0.0,-1261.95,0
GRID,4865,0,325.7227,0.0,-1267.31,0
GRID,4866,0,323.4207,0.0,-1272.63,0
GRID,4867,0,321.0137,0.0,-1277.91,0
GRID,4868,0,318.5027,0.0,-1283.14,0
GRID,4869,0,315.8887,0.0,-1288.32,0
GRID,4870,0,313.1726,0.0,-1293.45,0
GRID,4871,0,310.3555,0.0,-1298.52,0
GRID,4872,0,307.4384,0.0,-1303.55,0
GRID,4873,0,304.4225,0.0,-1308.51,0
GRID,4874,0,301.3089,0.0,-1313.42,0
GRID,4875,0,298.0989,0.0,-1318.26,0
GRID,4876,0,294.7937,0.0,-1323.04,0
GRID,4877,0,291.3946,0.0,-1327.76,0
GRID,4878,0,287.903,0.0,-1332.41,0
GRID,4879,0,284.3201,0.0,-1336.99,0
GRID,4880,0,280.6475,0.0,-1341.5,0
GRID,4881,0,276.8865,0.0,-1345.94,0
GRID,4882,0,273.0388,0.0,-1350.31,0
GRID,4883,0,269.1058,0.0,-1354.59,0
GRID,4884,0,265.0893,0.0,-1358.8,0
GRID,4885,0,260.9567,0.0,-1362.99,0
GRID,4886,0,256.9105,0.0,-1367.04,0
GRID,4887,0,252.8643,0.0,-1371.09,0
GRID,4888,0,248.8182,0.0,-1375.13,0
GRID,4889,0,244.772,0.0,-1379.18,0
GRID,4890,0,240.6214,0.0,-1383.28,0
GRID,4891,0,236.4208,0.0,-1387.32,0
GRID,4892,0,232.1711,0.0,-1391.32,0
GRID,4893,0,227.8734,0.0,-1395.26,0
GRID,4894,0,223.5288,0.0,-1399.14,0
GRID,4895,0,219.1386,0.0,-1402.96,0
GRID,4896,0,214.704,0.0,-1406.73,0
GRID,4897,0,210.2262,0.0,-1410.44,0
GRID,4898,0,205.7065,0.0,-1414.1,0
GRID,4899,0,201.1461,0.0,-1417.69,0
GRID,4900,0,196.5464,0.0,-1421.22,0
GRID,4901,0,191.9086,0.0,-1424.68,0
GRID,4902,0,187.2342,0.0,-1428.09,0
GRID,4903,0,182.5243,0.0,-1431.43,0
GRID,4904,0,177.7805,0.0,-1434.71,0
GRID,4905,0,173.004,0.0,-1437.92,0
GRID,4906,0,168.1963,0.0,-1441.07,0
GRID,4907,0,163.3588,0.0,-1444.15,0
GRID,4908,0,158.4928,0.0,-1447.16,0
GRID,4909,0,153.5999,0.0,-1450.11,0
GRID,4910,0,148.6814,0.0,-1452.99,0
GRID,4911,0,143.7388,0.0,-1455.8,0
GRID,4912,0,138.7635,0.0,-1458.49,0
GRID,4913,0,133.7181,0.0,-1461.07,0
GRID,4914,0,128.6053,0.0,-1463.53,0
GRID,4915,0,123.428,0.0,-1465.85,0
GRID,4916,0,118.1894,0.0,-1468.05,0
GRID,4917,0,112.893,0.0,-1470.13,0
GRID,4918,0,107.5419,0.0,-1472.07,0
GRID,4919,0,102.1394,0.0,-1473.87,0
GRID,4920,0,96.68897,0.0,-1475.55,0
GRID,4921,0,91.19398,0.0,-1477.09,0
GRID,4922,0,85.65787,0.0,-1478.49,0
GRID,4923,0,80.08408,0.0,-1479.76,0
GRID,4924,0,74.47613,0.0,-1480.89,0
GRID,4925,0,68.83758,0.0,-1481.88,0
GRID,4926,0,63.17196,0.0,-1482.73,0
GRID,4927,0,57.48284,0.0,-1483.44,0
GRID,4928,0,51.77385,0.0,-1484.0,0
GRID,4929,0,46.04861,0.0,-1484.43,0
GRID,4930,0,40.31074,0.0,-1484.71,0
GRID,4931,0,34.56389,0.0,-1484.85,0
GRID,4932,0,28.81174,0.0,-1484.85,0
GRID,4933,0,23.05796,0.0,-1484.7,0
GRID,4934,0,17.30624,0.0,-1484.41,0
GRID,4935,0,11.56025,0.0,-1483.98,0
GRID,4936,0,5.823618,0.0,-1483.4,0
GRID,4937,0,343.24,0.0,-1055.9,0
GRID,4938,0,343.24,0.0,-1061.79,0
GRID,4939,0,343.24,0.0,-1067.69,0
GRID,4940,0,343.2191,0.0,-1073.28,0
GRID,4941,0,343.1572,0.0,-1078.87,0
GRID,4942,0,343.0544,0.0,-1084.46,0
GRID,4943,0,342.9106,0.0,-1090.04,0
GRID,4944,0,342.7256,0.0,-1095.63,0
GRID,4945,0,342.4996,0.0,-1101.21,0
GRID,4946,0,342.2324,0.0,-1106.79,0
GRID,4947,0,341.9243,0.0,-1112.36,0
GRID,4948,0,341.5753,0.0,-1117.93,0
GRID,4949,0,341.1855,0.0,-1123.5,0
GRID,4950,0,340.755,0.0,-1129.06,0
GRID,4951,0,340.2839,0.0,-1134.61,0
GRID,4952,0,339.7722,0.0,-1140.15,0
GRID,4953,0,339.2201,0.0,-1145.69,0
GRID,4954,0,338.6276,0.0,-1151.22,0
GRID,4955,0,337.995,0.0,-1156.74,0
GRID,4956,0,337.3224,0.0,-1162.25,0
GRID,4957,0,336.6098,0.0,-1167.75,0
GRID,4958,0,335.8575,0.0,-1173.24,0
GRID,4959,0,335.0656,0.0,-1178.72,0
GRID,4960,0,334.2342,0.0,-1184.18,0
GRID,4961,0,333.3314,0.0,-1189.64,0
GRID,4962,0,332.3258,0.0,-1195.09,0
GRID,4963,0,331.2176,0.0,-1200.52,0
GRID,4964,0,330.0068,0.0,-1205.93,0
GRID,4965,0,328.6937,0.0,-1211.33,0
GRID,4966,0,327.2789,0.0,-1216.69,0
GRID,4967,0,325.7628,0.0,-1222.04,0
GRID,4968,0,324.1457,0.0,-1227.36,0
GRID,4969,0,322.4281,0.0,-1232.65,0
GRID,4970,0,320.6107,0.0,-1237.9,0
GRID,4971,0,318.694,0.0,-1243.13,0
GRID,4972,0,316.6785,0.0,-1248.32,0
GRID,4973,0,314.5651,0.0,-1253.48,0
GRID,4974,0,312.3543,0.0,-1258.59,0
GRID,4975,0,310.047,0.0,-1263.67,0
GRID,4976,0,307.6438,0.0,-1268.7,0
GRID,4977,0,305.1456,0.0,-1273.69,0
GRID,4978,0,302.5533,0.0,-1278.64,0
GRID,4979,0,299.8678,0.0,-1283.53,0
GRID,4980,0,297.09,0.0,-1288.38,0
GRID,4981,0,294.2209,0.0,-1293.17,0
GRID,4982,0,291.2615,0.0,-1297.91,0
GRID,4983,0,288.2128,0.0,-1302.6,0
GRID,4984,0,285.076,0.0,-1307.23,0
GRID,4985,0,281.8521,0.0,-1311.8,0
GRID,4986,0,278.5424,0.0,-1316.31,0
GRID,4987,0,275.148,0.0,-1320.75,0
GRID,4988,0,271.6701,0.0,-1325.14,0
GRID,4989,0,268.11,0.0,-1329.46,0
GRID,4990,0,264.4689,0.0,-1333.71,0
GRID,4991,0,260.7484,0.0,-1337.89,0
GRID,4992,0,256.9496,0.0,-1342.0,0
GRID,4993,0,253.0744,0.0,-1346.04,0
GRID,4994,0,249.0828,0.0,-1350.08,0
GRID,4995,0,245.1603,0.0,-1354.0,0
GRID,4996,0,241.2378,0.0,-1357.92,0
GRID,4997,0,237.3154,0.0,-1361.85,0
GRID,4998,0,233.3929,0.0,-1365.77,0
GRID,4999,0,229.3869,0.0,-1369.73,0
GRID,5000,0,225.3409,0.0,-1373.65,0
GRID,5001,0,221.2556,0.0,-1377.54,0
GRID,5002,0,217.1319,0.0,-1381.37,0
GRID,5003,0,212.9707,0.0,-1385.16,0
GRID,5004,0,208.773,0.0,-1388.91,0
GRID,5005,0,204.5398,0.0,-1392.61,0
GRID,5006,0,200.272,0.0,-1396.26,0
GRID,5007,0,195.9707,0.0,-1399.87,0
GRID,5008,0,191.6369,0.0,-1403.43,0
GRID,5009,0,187.2716,0.0,-1406.94,0
GRID,5010,0,182.8758,0.0,-1410.4,0
GRID,5011,0,178.4507,0.0,-1413.81,0
GRID,5012,0,173.9973,0.0,-1417.17,0
GRID,5013,0,169.5167,0.0,-1420.47,0
GRID,5014,0,165.01,0.0,-1423.73,0
GRID,5015,0,160.4783,0.0,-1426.93,0
GRID,5016,0,155.9228,0.0,-1430.08,0
GRID,5017,0,151.3445,0.0,-1433.18,0
GRID,5018,0,146.7446,0.0,-1436.22,0
GRID,5019,0,142.1243,0.0,-1439.21,0
GRID,5020,0,137.4847,0.0,-1442.14,0
GRID,5021,0,132.8149,0.0,-1444.97,0
GRID,5022,0,128.0693,0.0,-1447.68,0
GRID,5023,0,123.2508,0.0,-1450.27,0
GRID,5024,0,118.3622,0.0,-1452.74,0
GRID,5025,0,113.4068,0.0,-1455.08,0
GRID,5026,0,108.3878,0.0,-1457.29,0
GRID,5027,0,103.3088,0.0,-1459.38,0
GRID,5028,0,98.17302,0.0,-1461.34,0
GRID,5029,0,92.98387,0.0,-1463.16,0
GRID,5030,0,87.74488,0.0,-1464.86,0
GRID,5031,0,82.45954,0.0,-1466.42,0
GRID,5032,0,77.13137,0.0,-1467.84,0
GRID,5033,0,71.76398,0.0,-1469.12,0
GRID,5034,0,66.36101,0.0,-1470.27,0
GRID,5035,0,60.92609,0.0,-1471.28,0
GRID,5036,0,55.46289,0.0,-1472.15,0
GRID,5037,0,49.97513,0.0,-1472.88,0
GRID,5038,0,44.46653,0.0,-1473.47,0
GRID,5039,0,38.94084,0.0,-1473.91,0
GRID,5040,0,33.40181,0.0,-1474.21,0
GRID,5041,0,27.85323,0.0,-1474.37,0
GRID,5042,0,22.2989,0.0,-1474.39,0
GRID,5043,0,16.74263,0.0,-1474.27,0
GRID,5044,0,11.1882,0.0,-1473.99,0
GRID,5045,0,5.639396,0.0,-1473.58,0
GRID,5046,0,332.43,0.0,-1055.73,0
GRID,5047,0,332.43,0.0,-1061.45,0
GRID,5048,0,332.43,0.0,-1067.18,0
GRID,5049,0,332.4056,0.0,-1072.55,0
GRID,5050,0,332.3335,0.0,-1077.93,0
GRID,5051,0,332.2135,0.0,-1083.3,0
GRID,5052,0,332.0457,0.0,-1088.67,0
GRID,5053,0,331.8299,0.0,-1094.03,0
GRID,5054,0,331.5662,0.0,-1099.39,0
GRID,5055,0,331.2545,0.0,-1104.75,0
GRID,5056,0,330.895,0.0,-1110.1,0
GRID,5057,0,330.4879,0.0,-1115.45,0
GRID,5058,0,330.0331,0.0,-1120.79,0
GRID,5059,0,329.5309,0.0,-1126.13,0
GRID,5060,0,328.9812,0.0,-1131.45,0
GRID,5061,0,328.3842,0.0,-1136.77,0
GRID,5062,0,327.7401,0.0,-1142.08,0
GRID,5063,0,327.0489,0.0,-1147.38,0
GRID,5064,0,326.3109,0.0,-1152.67,0
GRID,5065,0,325.5261,0.0,-1157.95,0
GRID,5066,0,324.6948,0.0,-1163.21,0
GRID,5067,0,323.8171,0.0,-1168.47,0
GRID,5068,0,322.8932,0.0,-1173.71,0
GRID,5069,0,321.9232,0.0,-1178.93,0
GRID,5070,0,320.8834,0.0,-1184.15,0
GRID,5071,0,319.7502,0.0,-1189.35,0
GRID,5072,0,318.5238,0.0,-1194.54,0
GRID,5073,0,317.2043,0.0,-1199.7,0
GRID,5074,0,315.7921,0.0,-1204.84,0
GRID,5075,0,314.2877,0.0,-1209.96,0
GRID,5076,0,312.6914,0.0,-1215.06,0
GRID,5077,0,311.0037,0.0,-1220.13,0
GRID,5078,0,309.225,0.0,-1225.17,0
GRID,5079,0,307.3558,0.0,-1230.17,0
GRID,5080,0,305.3967,0.0,-1235.15,0
GRID,5081,0,303.3483,0.0,-1240.1,0
GRID,5082,0,301.2111,0.0,-1245.0,0
GRID,5083,0,298.9859,0.0,-1249.87,0
GRID,5084,0,296.6732,0.0,-1254.71,0
GRID,5085,0,294.2738,0.0,-1259.5,0
GRID,5086,0,291.7885,0.0,-1264.25,0
GRID,5087,0,289.2179,0.0,-1268.96,0
GRID,5088,0,286.563,0.0,-1273.62,0
GRID,5089,0,283.8245,0.0,-1278.23,0
GRID,5090,0,281.0034,0.0,-1282.8,0
GRID,5091,0,278.1005,0.0,-1287.32,0
GRID,5092,0,275.1167,0.0,-1291.78,0
GRID,5093,0,272.0531,0.0,-1296.19,0
GRID,5094,0,268.9106,0.0,-1300.55,0
GRID,5095,0,265.6902,0.0,-1304.85,0
GRID,5096,0,262.3931,0.0,-1309.1,0
GRID,5097,0,259.0201,0.0,-1313.28,0
GRID,5098,0,255.5725,0.0,-1317.41,0
GRID,5099,0,252.0513,0.0,-1321.47,0
GRID,5100,0,248.458,0.0,-1325.47,0
GRID,5101,0,244.7935,0.0,-1329.41,0
GRID,5102,0,241.0595,0.0,-1333.28,0
GRID,5103,0,237.2088,0.0,-1337.16,0
GRID,5104,0,233.4101,0.0,-1340.96,0
GRID,5105,0,229.6113,0.0,-1344.76,0
GRID,5106,0,225.8126,0.0,-1348.56,0
GRID,5107,0,222.0138,0.0,-1352.36,0
GRID,5108,0,218.1524,0.0,-1356.19,0
GRID,5109,0,214.2609,0.0,-1359.99,0
GRID,5110,0,210.3401,0.0,-1363.75,0
GRID,5111,0,206.3904,0.0,-1367.49,0
GRID,5112,0,202.4126,0.0,-1371.19,0
GRID,5113,0,198.4074,0.0,-1374.85,0
GRID,5114,0,194.3755,0.0,-1378.49,0
GRID,5115,0,190.3178,0.0,-1382.08,0
GRID,5116,0,186.2349,0.0,-1385.65,0
GRID,5117,0,182.1276,0.0,-1389.17,0
GRID,5118,0,177.9968,0.0,-1392.66,0
GRID,5119,0,173.843,0.0,-1396.11,0
GRID,5120,0,169.6673,0.0,-1399.53,0
GRID,5121,0,165.4703,0.0,-1402.9,0
GRID,5122,0,161.253,0.0,-1406.24,0
GRID,5123,0,157.016,0.0,-1409.54,0
GRID,5124,0,152.7603,0.0,-1412.8,0
GRID,5125,0,148.4868,0.0,-1416.02,0
GRID,5126,0,144.1961,0.0,-1419.2,0
GRID,5127,0,139.8893,0.0,-1422.34,0
GRID,5128,0,135.5671,0.0,-1425.43,0
GRID,5129,0,131.2305,0.0,-1428.49,0
GRID,5130,0,126.8663,0.0,-1431.45,0
GRID,5131,0,122.4206,0.0,-1434.29,0
GRID,5132,0,117.8964,0.0,-1437.02,0
GRID,5133,0,113.2965,0.0,-1439.62,0
GRID,5134,0,108.6241,0.0,-1442.1,0
GRID,5135,0,103.8827,0.0,-1444.46,0
GRID,5136,0,99.07578,0.0,-1446.7,0
GRID,5137,0,94.20663,0.0,-1448.8,0
GRID,5138,0,89.27878,0.0,-1450.78,0
GRID,5139,0,84.29578,0.0,-1452.63,0
GRID,5140,0,79.26121,0.0,-1454.34,0
GRID,5141,0,74.17866,0.0,-1455.92,0
GRID,5142,0,69.05184,0.0,-1457.36,0
GRID,5143,0,63.88445,0.0,-1458.67,0
GRID,5144,0,58.68023,0.0,-1459.84,0
GRID,5145,0,53.44294,0.0,-1460.87,0
GRID,5146,0,48.1764,0.0,-1461.76,0
GRID,5147,0,42.88445,0.0,-1462.5,0
GRID,5148,0,37.57093,0.0,-1463.11,0
GRID,5149,0,32.23972,0.0,-1463.58,0
GRID,5150,0,26.89472,0.0,-1463.9,0
GRID,5151,0,21.53984,0.0,-1464.08,0
GRID,5152,0,16.17901,0.0,-1464.12,0
GRID,5153,0,10.81615,0.0,-1464.01,0
GRID,5154,0,5.455174,0.0,-1463.76,0
GRID,5155,0,321.62,0.0,-1055.56,0
GRID,5156,0,321.62,0.0,-1061.12,0
GRID,5157,0,321.62,0.0,-1066.68,0
GRID,5158,0,321.5921,0.0,-1071.83,0
GRID,5159,0,321.5097,0.0,-1076.99,0
GRID,5160,0,321.3726,0.0,-1082.14,0
GRID,5161,0,321.1808,0.0,-1087.29,0
GRID,5162,0,320.9342,0.0,-1092.43,0
GRID,5163,0,320.6327,0.0,-1097.57,0
GRID,5164,0,320.2765,0.0,-1102.71,0
GRID,5165,0,319.8657,0.0,-1107.84,0
GRID,5166,0,319.4004,0.0,-1112.97,0
GRID,5167,0,318.8807,0.0,-1118.09,0
GRID,5168,0,318.3067,0.0,-1123.2,0
GRID,5169,0,317.6785,0.0,-1128.3,0
GRID,5170,0,316.9963,0.0,-1133.39,0
GRID,5171,0,316.2601,0.0,-1138.47,0
GRID,5172,0,315.4702,0.0,-1143.54,0
GRID,5173,0,314.6267,0.0,-1148.6,0
GRID,5174,0,313.7299,0.0,-1153.64,0
GRID,5175,0,312.7798,0.0,-1158.68,0
GRID,5176,0,311.7767,0.0,-1163.69,0
GRID,5177,0,310.7208,0.0,-1168.7,0
GRID,5178,0,309.6123,0.0,-1173.69,0
GRID,5179,0,308.4354,0.0,-1178.66,0
GRID,5180,0,307.1745,0.0,-1183.62,0
GRID,5181,0,305.8299,0.0,-1188.55,0
GRID,5182,0,304.4018,0.0,-1193.47,0
GRID,5183,0,302.8905,0.0,-1198.36,0
GRID,5184,0,301.2965,0.0,-1203.23,0
GRID,5185,0,299.6201,0.0,-1208.08,0
GRID,5186,0,297.8617,0.0,-1212.9,0
GRID,5187,0,296.0219,0.0,-1217.69,0
GRID,5188,0,294.1009,0.0,-1222.45,0
GRID,5189,0,292.0995,0.0,-1227.17,0
GRID,5190,0,290.018,0.0,-1231.87,0
GRID,5191,0,287.8572,0.0,-1236.53,0
GRID,5192,0,285.6175,0.0,-1241.16,0
GRID,5193,0,283.2995,0.0,-1245.75,0
GRID,5194,0,280.9039,0.0,-1250.3,0
GRID,5195,0,278.4313,0.0,-1254.81,0
GRID,5196,0,275.8825,0.0,-1259.28,0
GRID,5197,0,273.2582,0.0,-1263.7,0
GRID,5198,0,270.5591,0.0,-1268.09,0
GRID,5199,0,267.7859,0.0,-1272.43,0
GRID,5200,0,264.9395,0.0,-1276.72,0
GRID,5201,0,262.0207,0.0,-1280.96,0
GRID,5202,0,259.0302,0.0,-1285.16,0
GRID,5203,0,255.969,0.0,-1289.31,0
GRID,5204,0,252.838,0.0,-1293.4,0
GRID,5205,0,249.6381,0.0,-1297.44,0
GRID,5206,0,246.3701,0.0,-1301.43,0
GRID,5207,0,243.0349,0.0,-1305.36,0
GRID,5208,0,239.6338,0.0,-1309.24,0
GRID,5209,0,236.1676,0.0,-1313.05,0
GRID,5210,0,232.6374,0.0,-1316.81,0
GRID,5211,0,229.0446,0.0,-1320.51,0
GRID,5212,0,225.3349,0.0,-1324.25,0
GRID,5213,0,221.6599,0.0,-1327.92,0
GRID,5214,0,217.9848,0.0,-1331.6,0
GRID,5215,0,214.3097,0.0,-1335.27,0
GRID,5216,0,210.6347,0.0,-1338.95,0
GRID,5217,0,206.9179,0.0,-1342.64,0
GRID,5218,0,203.181,0.0,-1346.32,0
GRID,5219,0,199.4246,0.0,-1349.97,0
GRID,5220,0,195.6489,0.0,-1353.6,0
GRID,5221,0,191.8545,0.0,-1357.21,0
GRID,5222,0,188.0418,0.0,-1360.8,0
GRID,5223,0,184.2113,0.0,-1364.36,0
GRID,5224,0,180.3636,0.0,-1367.9,0
GRID,5225,0,176.4991,0.0,-1371.42,0
GRID,5226,0,172.6184,0.0,-1374.91,0
GRID,5227,0,168.7219,0.0,-1378.38,0
GRID,5228,0,164.8102,0.0,-1381.83,0
GRID,5229,0,160.8839,0.0,-1385.25,0
GRID,5230,0,156.9433,0.0,-1388.64,0
GRID,5231,0,152.9892,0.0,-1392.01,0
GRID,5232,0,149.022,0.0,-1395.35,0
GRID,5233,0,145.0424,0.0,-1398.66,0
GRID,5234,0,141.0507,0.0,-1401.95,0
GRID,5235,0,137.0478,0.0,-1405.21,0
GRID,5236,0,133.034,0.0,-1408.45,0
GRID,5237,0,129.01,0.0,-1411.66,0
GRID,5238,0,124.9764,0.0,-1414.84,0
GRID,5239,0,120.9176,0.0,-1417.92,0
GRID,5240,0,116.7719,0.0,-1420.9,0
GRID,5241,0,112.542,0.0,-1423.76,0
GRID,5242,0,108.2307,0.0,-1426.5,0
GRID,5243,0,103.8414,0.0,-1429.13,0
GRID,5244,0,99.3776,0.0,-1431.63,0
GRID,5245,0,94.84274,0.0,-1434.01,0
GRID,5246,0,90.24025,0.0,-1436.27,0
GRID,5247,0,85.57368,0.0,-1438.4,0
GRID,5248,0,80.84668,0.0,-1440.39,0
GRID,5249,0,76.06288,0.0,-1442.26,0
GRID,5250,0,71.22596,0.0,-1444.0,0
GRID,5251,0,66.33969,0.0,-1445.6,0
GRID,5252,0,61.40788,0.0,-1447.06,0
GRID,5253,0,56.43437,0.0,-1448.39,0
GRID,5254,0,51.42298,0.0,-1449.58,0
GRID,5255,0,46.37767,0.0,-1450.63,0
GRID,5256,0,41.30237,0.0,-1451.54,0
GRID,5257,0,36.20103,0.0,-1452.31,0
GRID,5258,0,31.07763,0.0,-1452.94,0
GRID,5259,0,25.93621,0.0,-1453.43,0
GRID,5260,0,20.78078,0.0,-1453.77,0
GRID,5261,0,15.6154,0.0,-1453.97,0
GRID,5262,0,10.44411,0.0,-1454.03,0
GRID,5263,0,5.270952,0.0,-1453.94,0
GRID,5264,0,310.81,0.0,-1055.39,0
GRID,5265,0,310.81,0.0,-1060.78,0
GRID,5266,0,310.81,0.0,-1066.17,0
GRID,5267,0,310.7786,0.0,-1071.11,0
GRID,5268,0,310.6859,0.0,-1076.04,0
GRID,5269,0,310.5316,0.0,-1080.98,0
GRID,5270,0,310.3159,0.0,-1085.91,0
GRID,5271,0,310.0384,0.0,-1090.83,0
GRID,5272,0,309.6993,0.0,-1095.75,0
GRID,5273,0,309.2986,0.0,-1100.67,0
GRID,5274,0,308.8364,0.0,-1105.58,0
GRID,5275,0,308.313,0.0,-1110.48,0
GRID,5276,0,307.7283,0.0,-1115.38,0
GRID,5277,0,307.0825,0.0,-1120.26,0
GRID,5278,0,306.3758,0.0,-1125.14,0
GRID,5279,0,305.6083,0.0,-1130.01,0
GRID,5280,0,304.7801,0.0,-1134.86,0
GRID,5281,0,303.8915,0.0,-1139.7,0
GRID,5282,0,302.9426,0.0,-1144.53,0
GRID,5283,0,301.9336,0.0,-1149.34,0
GRID,5284,0,300.8648,0.0,-1154.14,0
GRID,5285,0,299.7363,0.0,-1158.92,0
GRID,5286,0,298.5484,0.0,-1163.69,0
GRID,5287,0,297.3013,0.0,-1168.44,0
GRID,5288,0,295.9873,0.0,-1173.17,0
GRID,5289,0,294.5989,0.0,-1177.88,0
GRID,5290,0,293.1361,0.0,-1182.57,0
GRID,5291,0,291.5994,0.0,-1187.24,0
GRID,5292,0,289.989,0.0,-1191.88,0
GRID,5293,0,288.3053,0.0,-1196.5,0
GRID,5294,0,286.5488,0.0,-1201.1,0
GRID,5295,0,284.7198,0.0,-1205.67,0
GRID,5296,0,282.8187,0.0,-1210.21,0
GRID,5297,0,280.8461,0.0,-1214.72,0
GRID,5298,0,278.8023,0.0,-1219.19,0
GRID,5299,0,276.6878,0.0,-1223.64,0
GRID,5300,0,274.5032,0.0,-1228.06,0
GRID,5301,0,272.249,0.0,-1232.44,0
GRID,5302,0,269.9258,0.0,-1236.78,0
GRID,5303,0,267.5339,0.0,-1241.09,0
GRID,5304,0,265.0742,0.0,-1245.36,0
GRID,5305,0,262.5472,0.0,-1249.6,0
GRID,5306,0,259.9534,0.0,-1253.79,0
GRID,5307,0,257.2936,0.0,-1257.94,0
GRID,5308,0,254.5685,0.0,-1262.05,0
GRID,5309,0,251.7785,0.0,-1266.12,0
GRID,5310,0,248.9246,0.0,-1270.15,0
GRID,5311,0,246.0073,0.0,-1274.13,0
GRID,5312,0,243.0275,0.0,-1278.06,0
GRID,5313,0,239.9859,0.0,-1281.95,0
GRID,5314,0,236.8831,0.0,-1285.78,0
GRID,5315,0,233.7201,0.0,-1289.57,0
GRID,5316,0,230.4974,0.0,-1293.31,0
GRID,5317,0,227.2162,0.0,-1297.0,0
GRID,5318,0,223.8771,0.0,-1300.64,0
GRID,5319,0,220.4813,0.0,-1304.22,0
GRID,5320,0,217.0297,0.0,-1307.75,0
GRID,5321,0,213.461,0.0,-1311.33,0
GRID,5322,0,209.9097,0.0,-1314.88,0
GRID,5323,0,206.3583,0.0,-1318.43,0
GRID,5324,0,202.8069,0.0,-1321.98,0
GRID,5325,0,199.2556,0.0,-1325.53,0
GRID,5326,0,195.6833,0.0,-1329.1,0
GRID,5327,0,192.1011,0.0,-1332.65,0
GRID,5328,0,188.509,0.0,-1336.19,0
GRID,5329,0,184.9074,0.0,-1339.72,0
GRID,5330,0,181.2963,0.0,-1343.24,0
GRID,5331,0,177.6762,0.0,-1346.74,0
GRID,5332,0,174.0471,0.0,-1350.24,0
GRID,5333,0,170.4094,0.0,-1353.72,0
GRID,5334,0,166.7634,0.0,-1357.2,0
GRID,5335,0,163.1092,0.0,-1360.66,0
GRID,5336,0,159.4471,0.0,-1364.11,0
GRID,5337,0,155.7774,0.0,-1367.54,0
GRID,5338,0,152.1004,0.0,-1370.96,0
GRID,5339,0,148.4163,0.0,-1374.37,0
GRID,5340,0,144.7254,0.0,-1377.77,0
GRID,5341,0,141.028,0.0,-1381.16,0
GRID,5342,0,137.3244,0.0,-1384.53,0
GRID,5343,0,133.6147,0.0,-1387.89,0
GRID,5344,0,129.8994,0.0,-1391.23,0
GRID,5345,0,126.1787,0.0,-1394.56,0
GRID,5346,0,122.4529,0.0,-1397.88,0
GRID,5347,0,118.7223,0.0,-1401.18,0
GRID,5348,0,114.969,0.0,-1404.4,0
GRID,5349,0,111.1231,0.0,-1407.51,0
GRID,5350,0,107.1875,0.0,-1410.5,0
GRID,5351,0,103.1649,0.0,-1413.39,0
GRID,5352,0,99.05871,0.0,-1416.15,0
GRID,5353,0,94.87248,0.0,-1418.8,0
GRID,5354,0,90.6097,0.0,-1421.33,0
GRID,5355,0,86.27386,0.0,-1423.73,0
GRID,5356,0,81.86858,0.0,-1426.01,0
GRID,5357,0,77.39757,0.0,-1428.16,0
GRID,5358,0,72.86455,0.0,-1430.18,0
GRID,5359,0,68.27325,0.0,-1432.07,0
GRID,5360,0,63.62754,0.0,-1433.83,0
GRID,5361,0,58.93132,0.0,-1435.46,0
GRID,5362,0,54.1885,0.0,-1436.94,0
GRID,5363,0,49.40303,0.0,-1438.29,0
GRID,5364,0,44.57895,0.0,-1439.51,0
GRID,5365,0,39.7203,0.0,-1440.58,0
GRID,5366,0,34.83113,0.0,-1441.51,0
GRID,5367,0,29.91555,0.0,-1442.3,0
GRID,5368,0,24.9777,0.0,-1442.95,0
GRID,5369,0,20.02172,0.0,-1443.46,0
GRID,5370,0,15.05179,0.0,-1443.82,0
GRID,5371,0,10.07206,0.0,-1444.04,0
GRID,5372,0,5.08673,0.0,-1444.12,0
GRID,5373,0,.1,0.0,397.29,0
GRID,5374,0,.1,0.0,386.48,0
GRID,5375,0,.1,0.0,375.67,0
GRID,5376,0,.1,0.0,364.86,0
GRID,5377,0,.1,0.0,354.05,0
GRID,5378,0,.1,0.0,343.24,0
GRID,5379,0,.1,0.0,332.43,0
GRID,5380,0,.1,0.0,321.62,0
GRID,5381,0,.1,0.0,310.81,0
GRID,5382,0,5.111865,0.0,299.9559,0
GRID,5383,0,10.12231,0.0,299.8285,0
GRID,5384,0,15.12993,0.0,299.6177,0
GRID,5385,0,20.13332,0.0,299.3234,0
GRID,5386,0,25.1311,0.0,298.9455,0
GRID,5387,0,30.12185,0.0,298.4839,0
GRID,5388,0,35.1042,0.0,297.939,0
GRID,5389,0,40.07675,0.0,297.311,0
GRID,5390,0,45.03812,0.0,296.6,0
GRID,5391,0,49.98692,0.0,295.8062,0
GRID,5392,0,54.92176,0.0,294.9298,0
GRID,5393,0,59.84127,0.0,293.9711,0
GRID,5394,0,64.74408,0.0,292.9303,0
GRID,5395,0,69.62882,0.0,291.8078,0
GRID,5396,0,74.49413,0.0,290.6039,0
GRID,5397,0,79.33865,0.0,289.3188,0
GRID,5398,0,84.16101,0.0,287.953,0
GRID,5399,0,88.95988,0.0,286.5067,0
GRID,5400,0,93.73392,0.0,284.9806,0
GRID,5401,0,98.48181,0.0,283.3749,0
GRID,5402,0,103.2022,0.0,281.6901,0
GRID,5403,0,107.8938,0.0,279.9266,0
GRID,5404,0,112.5553,0.0,278.085,0
GRID,5405,0,117.1853,0.0,276.1658,0
GRID,5406,0,121.7827,0.0,274.1696,0
GRID,5407,0,126.3461,0.0,272.0968,0
GRID,5408,0,130.8741,0.0,269.9481,0
GRID,5409,0,135.3657,0.0,267.7239,0
GRID,5410,0,139.8195,0.0,265.4251,0
GRID,5411,0,144.2342,0.0,263.0522,0
GRID,5412,0,148.6087,0.0,260.6059,0
GRID,5413,0,152.9417,0.0,258.0868,0
GRID,5414,0,157.232,0.0,255.4957,0
GRID,5415,0,161.4785,0.0,252.8333,0
GRID,5416,0,165.6799,0.0,250.1003,0
GRID,5417,0,169.835,0.0,247.2975,0
GRID,5418,0,173.9427,0.0,244.4257,0
GRID,5419,0,178.0019,0.0,241.4857,0
GRID,5420,0,182.0113,0.0,238.4782,0
GRID,5421,0,185.97,0.0,235.4042,0
GRID,5422,0,189.8768,0.0,232.2645,0
GRID,5423,0,193.7306,0.0,229.0599,0
GRID,5424,0,197.5303,0.0,225.7914,0
GRID,5425,0,201.2748,0.0,222.4599,0
GRID,5426,0,204.9632,0.0,219.0663,0
GRID,5427,0,208.5944,0.0,215.6116,0
GRID,5428,0,212.1674,0.0,212.0967,0
GRID,5429,0,215.6811,0.0,208.5225,0
GRID,5430,0,219.1346,0.0,204.8902,0
GRID,5431,0,222.527,0.0,201.2007,0
GRID,5432,0,225.8573,0.0,197.455,0
GRID,5433,0,229.1245,0.0,193.6542,0
GRID,5434,0,232.3278,0.0,189.7994,0
GRID,5435,0,235.4662,0.0,185.8915,0
GRID,5436,0,238.5388,0.0,181.9318,0
GRID,5437,0,241.545,0.0,177.9214,0
GRID,5438,0,244.4837,0.0,173.8612,0
GRID,5439,0,247.3541,0.0,169.7525,0
GRID,5440,0,250.1555,0.0,165.5965,0
GRID,5441,0,252.8871,0.0,161.3942,0
GRID,5442,0,255.5481,0.0,157.1469,0
GRID,5443,0,258.1378,0.0,152.8557,0
GRID,5444,0,260.6554,0.0,148.5218,0
GRID,5445,0,263.1003,0.0,144.1465,0
GRID,5446,0,265.4717,0.0,139.731,0
GRID,5447,0,267.7691,0.0,135.2764,0
GRID,5448,0,269.9917,0.0,130.7841,0
GRID,5449,0,272.1389,0.0,126.2553,0
GRID,5450,0,274.2102,0.0,121.6913,0
GRID,5451,0,276.2049,0.0,117.0933,0
GRID,5452,0,278.1225,0.0,112.4626,0
GRID,5453,0,279.9626,0.0,107.8005,0
GRID,5454,0,281.7245,0.0,103.1083,0
GRID,5455,0,283.4077,0.0,98.38735,0
GRID,5456,0,285.0118,0.0,93.63893,0
GRID,5457,0,286.5364,0.0,88.86437,0
GRID,5458,0,287.981,0.0,84.06502,0
GRID,5459,0,289.3453,0.0,79.24221,0
GRID,5460,0,290.6287,0.0,74.39727,0
GRID,5461,0,291.831,0.0,69.53155,0
GRID,5462,0,292.9519,0.0,64.64644,0
GRID,5463,0,293.991,0.0,59.74328,0
GRID,5464,0,294.9481,0.0,54.82345,0
GRID,5465,0,295.8228,0.0,49.88831,0
GRID,5466,0,296.615,0.0,44.93925,0
GRID,5467,0,297.3243,0.0,39.97764,0
GRID,5468,0,297.9507,0.0,35.00488,0
GRID,5469,0,298.494,0.0,30.02235,0
GRID,5470,0,298.9539,0.0,25.03144,0
GRID,5471,0,299.3301,0.0,20.03355,0
GRID,5472,0,299.6228,0.0,15.03005,0
GRID,5473,0,299.8319,0.0,10.02236,0
GRID,5474,0,299.9576,0.0,5.011879,0
GRID,5475,0,408.0426,0.0,6.818212,0
GRID,5476,0,407.8717,0.0,13.63452,0
GRID,5477,0,407.5872,0.0,20.44703,0
GRID,5478,0,407.1889,0.0,27.25383,0
GRID,5479,0,406.6768,0.0,34.05302,0
GRID,5480,0,406.0511,0.0,40.8427,0
GRID,5481,0,405.312,0.0,47.62098,0
GRID,5482,0,404.4598,0.0,54.38597,0
GRID,5483,0,403.4948,0.0,61.13578,0
GRID,5484,0,402.417,0.0,67.86851,0
GRID,5485,0,401.2269,0.0,74.58231,0
GRID,5486,0,399.9249,0.0,81.27528,0
GRID,5487,0,398.5112,0.0,87.94557,0
GRID,5488,0,396.9862,0.0,94.59131,0
GRID,5489,0,395.3505,0.0,101.2106,0
GRID,5490,0,393.6043,0.0,107.8017,0
GRID,5491,0,391.7484,0.0,114.3627,0
GRID,5492,0,389.783,0.0,120.8918,0
GRID,5493,0,387.7088,0.0,127.3871,0
GRID,5494,0,385.5264,0.0,133.8468,0
GRID,5495,0,383.2364,0.0,140.2692,0
GRID,5496,0,380.8394,0.0,146.6525,0
GRID,5497,0,378.3361,0.0,152.9948,0
GRID,5498,0,375.7271,0.0,159.2943,0
GRID,5499,0,373.0133,0.0,165.5495,0
GRID,5500,0,370.1954,0.0,171.7584,0
GRID,5501,0,367.2742,0.0,177.9193,0
GRID,5502,0,364.2504,0.0,184.0306,0
GRID,5503,0,361.1249,0.0,190.0905,0
GRID,5504,0,357.8986,0.0,196.0974,0
GRID,5505,0,354.5724,0.0,202.0495,0
GRID,5506,0,351.1472,0.0,207.9453,0
GRID,5507,0,347.624,0.0,213.7829,0
GRID,5508,0,344.0038,0.0,219.5609,0
GRID,5509,0,340.2875,0.0,225.2776,0
GRID,5510,0,336.4763,0.0,230.9314,0
GRID,5511,0,332.5711,0.0,236.5208,0
GRID,5512,0,328.573,0.0,242.0441,0
GRID,5513,0,324.4833,0.0,247.4999,0
GRID,5514,0,320.303,0.0,252.8865,0
GRID,5515,0,316.0333,0.0,258.2026,0
GRID,5516,0,311.6753,0.0,263.4466,0
GRID,5517,0,307.2303,0.0,268.617,0
GRID,5518,0,302.6996,0.0,273.7125,0
GRID,5519,0,298.0844,0.0,278.7316,0
GRID,5520,0,293.3859,0.0,283.6728,0
GRID,5521,0,288.6056,0.0,288.5349,0
GRID,5522,0,283.7447,0.0,293.3164,0
GRID,5523,0,278.8046,0.0,298.0161,0
GRID,5524,0,273.7867,0.0,302.6325,0
GRID,5525,0,268.6923,0.0,307.1645,0
GRID,5526,0,263.5229,0.0,311.6107,0
GRID,5527,0,258.28,0.0,315.97,0
GRID,5528,0,252.965,0.0,320.241,0
GRID,5529,0,247.5794,0.0,324.4226,0
GRID,5530,0,242.1246,0.0,328.5137,0
GRID,5531,0,236.6023,0.0,332.5131,0
GRID,5532,0,231.0139,0.0,336.4197,0
GRID,5533,0,225.361,0.0,340.2323,0
GRID,5534,0,219.6452,0.0,343.95,0
GRID,5535,0,213.8681,0.0,347.5716,0
GRID,5536,0,208.0313,0.0,351.0963,0
GRID,5537,0,202.1364,0.0,354.5229,0
GRID,5538,0,196.1851,0.0,357.8505,0
GRID,5539,0,190.179,0.0,361.0783,0
GRID,5540,0,184.1199,0.0,364.2052,0
GRID,5541,0,178.0093,0.0,367.2306,0
GRID,5542,0,171.8491,0.0,370.1533,0
GRID,5543,0,165.6409,0.0,372.9728,0
GRID,5544,0,159.3864,0.0,375.6881,0
GRID,5545,0,153.0875,0.0,378.2986,0
GRID,5546,0,146.7458,0.0,380.8035,0
GRID,5547,0,140.3631,0.0,383.202,0
GRID,5548,0,133.9413,0.0,385.4936,0
GRID,5549,0,127.4821,0.0,387.6776,0
GRID,5550,0,120.9873,0.0,389.7533,0
GRID,5551,0,114.4587,0.0,391.7203,0
GRID,5552,0,107.8982,0.0,393.5779,0
GRID,5553,0,101.3075,0.0,395.3257,0
GRID,5554,0,94.68859,0.0,396.9631,0
GRID,5555,0,88.04322,0.0,398.4896,0
GRID,5556,0,81.37328,0.0,399.905,0
GRID,5557,0,74.68062,0.0,401.2087,0
GRID,5558,0,67.96712,0.0,402.4004,0
GRID,5559,0,61.23465,0.0,403.4798,0
GRID,5560,0,54.48507,0.0,404.4465,0
GRID,5561,0,47.72029,0.0,405.3003,0
GRID,5562,0,40.94219,0.0,406.041,0
GRID,5563,0,34.15267,0.0,406.6684,0
GRID,5564,0,27.35361,0.0,407.1822,0
GRID,5565,0,20.54691,0.0,407.5822,0
GRID,5566,0,13.73447,0.0,407.8684,0
GRID,5567,0,6.918198,0.0,408.0409,0
GRID,5568,0,310.81,0.0,5.0E-15,0
GRID,5569,0,321.62,0.0,1.0E-14,0
GRID,5570,0,332.43,0.0,1.5E-14,0
GRID,5571,0,343.24,0.0,2.0E-14,0
GRID,5572,0,354.05,0.0,2.5E-14,0
GRID,5573,0,364.86,0.0,3.0E-14,0
GRID,5574,0,375.67,0.0,3.5E-14,0
GRID,5575,0,386.48,0.0,4.0E-14,0
GRID,5576,0,397.29,0.0,4.5E-14,0
GRID,5577,0,407.79,0.0,-5.0,0
GRID,5578,0,407.79,0.0,-10.0,0
GRID,5579,0,407.79,0.0,-15.0,0
GRID,5580,0,407.79,0.0,-20.0,0
GRID,5581,0,407.79,0.0,-25.0,0
GRID,5582,0,407.79,0.0,-30.0,0
GRID,5583,0,407.79,0.0,-35.0,0
GRID,5584,0,407.79,0.0,-40.0,0
GRID,5585,0,407.79,0.0,-45.0,0
GRID,5586,0,407.79,0.0,-50.0,0
GRID,5587,0,407.79,0.0,-55.0,0
GRID,5588,0,407.79,0.0,-60.0,0
GRID,5589,0,407.79,0.0,-65.0,0
GRID,5590,0,407.79,0.0,-70.0,0
GRID,5591,0,407.79,0.0,-75.0,0
GRID,5592,0,407.79,0.0,-80.0,0
GRID,5593,0,407.79,0.0,-85.0,0
GRID,5594,0,407.79,0.0,-90.0,0
GRID,5595,0,407.79,0.0,-95.0,0
GRID,5596,0,407.79,0.0,-100.0,0
GRID,5597,0,407.79,0.0,-105.0,0
GRID,5598,0,407.79,0.0,-110.0,0
GRID,5599,0,407.79,0.0,-115.0,0
GRID,5600,0,407.79,0.0,-120.0,0
GRID,5601,0,407.79,0.0,-125.0,0
GRID,5602,0,407.79,0.0,-130.0,0
GRID,5603,0,407.79,0.0,-135.0,0
GRID,5604,0,407.79,0.0,-140.0,0
GRID,5605,0,407.79,0.0,-145.0,0
GRID,5606,0,407.79,0.0,-150.0,0
GRID,5607,0,407.79,0.0,-155.0,0
GRID,5608,0,407.79,0.0,-160.0,0
GRID,5609,0,407.79,0.0,-165.0,0
GRID,5610,0,407.79,0.0,-170.0,0
GRID,5611,0,407.79,0.0,-175.0,0
GRID,5612,0,407.79,0.0,-180.0,0
GRID,5613,0,407.79,0.0,-185.0,0
GRID,5614,0,407.79,0.0,-190.0,0
GRID,5615,0,407.79,0.0,-195.0,0
GRID,5616,0,407.79,0.0,-200.0,0
GRID,5617,0,407.79,0.0,-205.0,0
GRID,5618,0,407.79,0.0,-210.0,0
GRID,5619,0,407.79,0.0,-215.0,0
GRID,5620,0,407.79,0.0,-220.0,0
GRID,5621,0,407.79,0.0,-225.0,0
GRID,5622,0,407.79,0.0,-230.0,0
GRID,5623,0,407.79,0.0,-235.0,0
GRID,5624,0,407.79,0.0,-240.0,0
GRID,5625,0,407.79,0.0,-245.0,0
GRID,5626,0,407.79,0.0,-250.0,0
GRID,5627,0,407.79,0.0,-255.0,0
GRID,5628,0,407.79,0.0,-260.0,0
GRID,5629,0,407.79,0.0,-265.0,0
GRID,5630,0,407.79,0.0,-270.0,0
GRID,5631,0,407.79,0.0,-275.0,0
GRID,5632,0,407.79,0.0,-280.0,0
GRID,5633,0,407.79,0.0,-285.0,0
GRID,5634,0,407.79,0.0,-290.0,0
GRID,5635,0,407.79,0.0,-295.0,0
GRID,5636,0,407.79,0.0,-300.0,0
GRID,5637,0,407.79,0.0,-305.0,0
GRID,5638,0,407.79,0.0,-310.0,0
GRID,5639,0,407.79,0.0,-315.0,0
GRID,5640,0,407.79,0.0,-320.0,0
GRID,5641,0,407.79,0.0,-325.0,0
GRID,5642,0,407.79,0.0,-330.0,0
GRID,5643,0,407.79,0.0,-335.0,0
GRID,5644,0,407.79,0.0,-340.0,0
GRID,5645,0,407.79,0.0,-345.0,0
GRID,5646,0,407.79,0.0,-350.0,0
GRID,5647,0,407.79,0.0,-355.0,0
GRID,5648,0,407.79,0.0,-360.0,0
GRID,5649,0,407.79,0.0,-365.0,0
GRID,5650,0,407.79,0.0,-370.0,0
GRID,5651,0,407.79,0.0,-375.0,0
GRID,5652,0,407.79,0.0,-380.0,0
GRID,5653,0,407.79,0.0,-385.0,0
GRID,5654,0,407.79,0.0,-390.0,0
GRID,5655,0,407.79,0.0,-395.0,0
GRID,5656,0,407.79,0.0,-400.0,0
GRID,5657,0,407.79,0.0,-405.0,0
GRID,5658,0,407.79,0.0,-410.0,0
GRID,5659,0,407.79,0.0,-415.0,0
GRID,5660,0,407.79,0.0,-420.0,0
GRID,5661,0,407.79,0.0,-425.0,0
GRID,5662,0,407.79,0.0,-430.0,0
GRID,5663,0,407.79,0.0,-435.0,0
GRID,5664,0,407.79,0.0,-440.0,0
GRID,5665,0,407.79,0.0,-445.0,0
GRID,5666,0,407.79,0.0,-450.0,0
GRID,5667,0,407.79,0.0,-455.0,0
GRID,5668,0,407.79,0.0,-460.0,0
GRID,5669,0,407.79,0.0,-465.0,0
GRID,5670,0,407.79,0.0,-470.0,0
GRID,5671,0,407.79,0.0,-475.0,0
GRID,5672,0,407.79,0.0,-480.0,0
GRID,5673,0,407.79,0.0,-485.0,0
GRID,5674,0,407.79,0.0,-490.0,0
GRID,5675,0,407.79,0.0,-495.0,0
GRID,5676,0,407.79,0.0,-500.0,0
GRID,5677,0,407.79,0.0,-505.0,0
GRID,5678,0,407.79,0.0,-510.0,0
GRID,5679,0,407.79,0.0,-515.0,0
GRID,5680,0,407.79,0.0,-520.0,0
GRID,5681,0,407.79,0.0,-525.0,0
GRID,5682,0,407.79,0.0,-530.0,0
GRID,5683,0,407.79,0.0,-535.0,0
GRID,5684,0,407.79,0.0,-540.0,0
GRID,5685,0,407.79,0.0,-545.0,0
GRID,5686,0,407.79,0.0,-550.0,0
GRID,5687,0,407.79,0.0,-555.0,0
GRID,5688,0,407.79,0.0,-560.0,0
GRID,5689,0,407.79,0.0,-565.0,0
GRID,5690,0,407.79,0.0,-570.0,0
GRID,5691,0,407.79,0.0,-575.0,0
GRID,5692,0,407.79,0.0,-580.0,0
GRID,5693,0,407.79,0.0,-585.0,0
GRID,5694,0,407.79,0.0,-590.0,0
GRID,5695,0,407.79,0.0,-595.0,0
GRID,5696,0,407.79,0.0,-600.0,0
GRID,5697,0,407.79,0.0,-605.0,0
GRID,5698,0,407.79,0.0,-610.0,0
GRID,5699,0,407.79,0.0,-615.0,0
GRID,5700,0,407.79,0.0,-620.0,0
GRID,5701,0,407.79,0.0,-625.0,0
GRID,5702,0,407.79,0.0,-630.0,0
GRID,5703,0,407.79,0.0,-635.0,0
GRID,5704,0,407.79,0.0,-640.0,0
GRID,5705,0,407.79,0.0,-645.0,0
GRID,5706,0,407.79,0.0,-650.0,0
GRID,5707,0,407.79,0.0,-655.0,0
GRID,5708,0,407.79,0.0,-660.0,0
GRID,5709,0,407.79,0.0,-665.0,0
GRID,5710,0,407.79,0.0,-670.0,0
GRID,5711,0,407.79,0.0,-675.0,0
GRID,5712,0,407.79,0.0,-680.0,0
GRID,5713,0,407.79,0.0,-685.0,0
GRID,5714,0,407.79,0.0,-690.0,0
GRID,5715,0,407.79,0.0,-695.0,0
GRID,5716,0,407.79,0.0,-700.0,0
GRID,5717,0,407.79,0.0,-705.0,0
GRID,5718,0,407.79,0.0,-710.0,0
GRID,5719,0,407.79,0.0,-715.0,0
GRID,5720,0,407.79,0.0,-720.0,0
GRID,5721,0,407.79,0.0,-725.0,0
GRID,5722,0,407.79,0.0,-730.0,0
GRID,5723,0,407.79,0.0,-735.0,0
GRID,5724,0,407.79,0.0,-740.0,0
GRID,5725,0,407.79,0.0,-745.0,0
GRID,5726,0,407.79,0.0,-750.0,0
GRID,5727,0,407.79,0.0,-755.0,0
GRID,5728,0,407.79,0.0,-760.0,0
GRID,5729,0,407.79,0.0,-765.0,0
GRID,5730,0,407.79,0.0,-770.0,0
GRID,5731,0,407.79,0.0,-775.0,0
GRID,5732,0,407.79,0.0,-780.0,0
GRID,5733,0,407.79,0.0,-785.0,0
GRID,5734,0,407.79,0.0,-790.0,0
GRID,5735,0,407.79,0.0,-795.0,0
GRID,5736,0,407.79,0.0,-800.0,0
GRID,5737,0,407.79,0.0,-805.0,0
GRID,5738,0,407.79,0.0,-810.0,0
GRID,5739,0,407.79,0.0,-815.0,0
GRID,5740,0,407.79,0.0,-820.0,0
GRID,5741,0,407.79,0.0,-825.0,0
GRID,5742,0,407.79,0.0,-830.0,0
GRID,5743,0,407.79,0.0,-835.0,0
GRID,5744,0,407.79,0.0,-840.0,0
GRID,5745,0,407.79,0.0,-845.0,0
GRID,5746,0,407.79,0.0,-850.0,0
GRID,5747,0,407.79,0.0,-855.0,0
GRID,5748,0,407.79,0.0,-860.0,0
GRID,5749,0,407.79,0.0,-865.0,0
GRID,5750,0,407.79,0.0,-870.0,0
GRID,5751,0,407.79,0.0,-875.0,0
GRID,5752,0,407.79,0.0,-880.0,0
GRID,5753,0,407.79,0.0,-885.0,0
GRID,5754,0,407.79,0.0,-890.0,0
GRID,5755,0,407.79,0.0,-895.0,0
GRID,5756,0,407.79,0.0,-900.0,0
GRID,5757,0,407.79,0.0,-905.0,0
GRID,5758,0,407.79,0.0,-910.0,0
GRID,5759,0,407.79,0.0,-915.0,0
GRID,5760,0,407.79,0.0,-920.0,0
GRID,5761,0,407.79,0.0,-925.0,0
GRID,5762,0,407.79,0.0,-930.0,0
GRID,5763,0,407.79,0.0,-935.0,0
GRID,5764,0,407.79,0.0,-940.0,0
GRID,5765,0,407.79,0.0,-945.0,0
GRID,5766,0,407.79,0.0,-950.0,0
GRID,5767,0,407.79,0.0,-955.0,0
GRID,5768,0,407.79,0.0,-960.0,0
GRID,5769,0,407.79,0.0,-965.0,0
GRID,5770,0,407.79,0.0,-970.0,0
GRID,5771,0,407.79,0.0,-975.0,0
GRID,5772,0,407.79,0.0,-980.0,0
GRID,5773,0,407.79,0.0,-985.0,0
GRID,5774,0,407.79,0.0,-990.0,0
GRID,5775,0,407.79,0.0,-995.0,0
GRID,5776,0,407.79,0.0,-1000.0,0
GRID,5777,0,407.79,0.0,-1005.0,0
GRID,5778,0,407.79,0.0,-1010.0,0
GRID,5779,0,407.79,0.0,-1015.0,0
GRID,5780,0,407.79,0.0,-1020.0,0
GRID,5781,0,407.79,0.0,-1025.0,0
GRID,5782,0,407.79,0.0,-1030.0,0
GRID,5783,0,407.79,0.0,-1035.0,0
GRID,5784,0,407.79,0.0,-1040.0,0
GRID,5785,0,407.79,0.0,-1045.0,0
GRID,5786,0,407.79,0.0,-1050.0,0
GRID,5787,0,407.79,0.0,-1055.0,0
GRID,5788,0,407.79,0.0,-1060.0,0
GRID,5789,0,407.79,0.0,-1065.0,0
GRID,5790,0,407.79,0.0,-1070.0,0
GRID,5791,0,407.79,0.0,-1075.0,0
GRID,5792,0,407.79,0.0,-1080.0,0
GRID,5793,0,407.79,0.0,-1085.0,0
GRID,5794,0,407.79,0.0,-1090.0,0
GRID,5795,0,407.79,0.0,-1095.0,0
GRID,5796,0,407.79,0.0,-1100.0,0
GRID,5797,0,407.79,0.0,-1105.0,0
GRID,5798,0,407.79,0.0,-1110.0,0
GRID,5799,0,407.79,0.0,-1115.0,0
GRID,5800,0,407.79,0.0,-1120.0,0
GRID,5801,0,407.79,0.0,-1125.0,0
GRID,5802,0,407.79,0.0,-1130.0,0
GRID,5803,0,407.79,0.0,-1135.0,0
GRID,5804,0,407.79,0.0,-1140.0,0
GRID,5805,0,407.79,0.0,-1145.0,0
GRID,5806,0,407.79,0.0,-1150.0,0
GRID,5807,0,407.79,0.0,-1155.0,0
GRID,5808,0,407.79,0.0,-1160.0,0
GRID,5809,0,407.79,0.0,-1165.0,0
GRID,5810,0,407.79,0.0,-1170.0,0
GRID,5811,0,407.79,0.0,-1175.0,0
GRID,5812,0,407.79,0.0,-1180.0,0
GRID,5813,0,407.79,0.0,-1185.0,0
GRID,5814,0,407.79,0.0,-1190.0,0
GRID,5815,0,407.79,0.0,-1195.0,0
GRID,5816,0,417.6775,0.0,-1200.0,0
GRID,5817,0,427.565,0.0,-1200.0,0
GRID,5818,0,437.4525,0.0,-1200.0,0
GRID,5819,0,447.34,0.0,-1200.0,0
GRID,5820,0,457.2275,0.0,-1200.0,0
GRID,5821,0,467.115,0.0,-1200.0,0
GRID,5822,0,477.0025,0.0,-1200.0,0
GRID,5823,0,477.0025,0.0,0.0,0
GRID,5824,0,467.115,0.0,0.0,0
GRID,5825,0,457.2275,0.0,0.0,0
GRID,5826,0,447.34,0.0,0.0,0
GRID,5827,0,437.4525,0.0,0.0,0
GRID,5828,0,427.565,0.0,0.0,0
GRID,5829,0,417.6775,0.0,0.0,0
GRID,5830,0,486.89,0.0,-1195.0,0
GRID,5831,0,486.89,0.0,-1190.0,0
GRID,5832,0,486.89,0.0,-1185.0,0
GRID,5833,0,486.89,0.0,-1180.0,0
GRID,5834,0,486.89,0.0,-1175.0,0
GRID,5835,0,486.89,0.0,-1170.0,0
GRID,5836,0,486.89,0.0,-1165.0,0
GRID,5837,0,486.89,0.0,-1160.0,0
GRID,5838,0,486.89,0.0,-1155.0,0
GRID,5839,0,486.89,0.0,-1150.0,0
GRID,5840,0,486.89,0.0,-1145.0,0
GRID,5841,0,486.89,0.0,-1140.0,0
GRID,5842,0,486.89,0.0,-1135.0,0
GRID,5843,0,486.89,0.0,-1130.0,0
GRID,5844,0,486.89,0.0,-1125.0,0
GRID,5845,0,486.89,0.0,-1120.0,0
GRID,5846,0,486.89,0.0,-1115.0,0
GRID,5847,0,486.89,0.0,-1110.0,0
GRID,5848,0,486.89,0.0,-1105.0,0
GRID,5849,0,486.89,0.0,-1100.0,0
GRID,5850,0,486.89,0.0,-1095.0,0
GRID,5851,0,486.89,0.0,-1090.0,0
GRID,5852,0,486.89,0.0,-1085.0,0
GRID,5853,0,486.89,0.0,-1080.0,0
GRID,5854,0,486.89,0.0,-1075.0,0
GRID,5855,0,486.89,0.0,-1070.0,0
GRID,5856,0,486.89,0.0,-1065.0,0
GRID,5857,0,486.89,0.0,-1060.0,0
GRID,5858,0,486.89,0.0,-1055.0,0
GRID,5859,0,486.89,0.0,-1050.0,0
GRID,5860,0,486.89,0.0,-1045.0,0
GRID,5861,0,486.89,0.0,-1040.0,0
GRID,5862,0,486.89,0.0,-1035.0,0
GRID,5863,0,486.89,0.0,-1030.0,0
GRID,5864,0,486.89,0.0,-1025.0,0
GRID,5865,0,486.89,0.0,-1020.0,0
GRID,5866,0,486.89,0.0,-1015.0,0
GRID,5867,0,486.89,0.0,-1010.0,0
GRID,5868,0,486.89,0.0,-1005.0,0
GRID,5869,0,486.89,0.0,-1000.0,0
GRID,5870,0,486.89,0.0,-995.0,0
GRID,5871,0,486.89,0.0,-990.0,0
GRID,5872,0,486.89,0.0,-985.0,0
GRID,5873,0,486.89,0.0,-980.0,0
GRID,5874,0,486.89,0.0,-975.0,0
GRID,5875,0,486.89,0.0,-970.0,0
GRID,5876,0,486.89,0.0,-965.0,0
GRID,5877,0,486.89,0.0,-960.0,0
GRID,5878,0,486.89,0.0,-955.0,0
GRID,5879,0,486.89,0.0,-950.0,0
GRID,5880,0,486.89,0.0,-945.0,0
GRID,5881,0,486.89,0.0,-940.0,0
GRID,5882,0,486.89,0.0,-935.0,0
GRID,5883,0,486.89,0.0,-930.0,0
GRID,5884,0,486.89,0.0,-925.0,0
GRID,5885,0,486.89,0.0,-920.0,0
GRID,5886,0,486.89,0.0,-915.0,0
GRID,5887,0,486.89,0.0,-910.0,0
GRID,5888,0,486.89,0.0,-905.0,0
GRID,5889,0,486.89,0.0,-900.0,0
GRID,5890,0,486.89,0.0,-895.0,0
GRID,5891,0,486.89,0.0,-890.0,0
GRID,5892,0,486.89,0.0,-885.0,0
GRID,5893,0,486.89,0.0,-880.0,0
GRID,5894,0,486.89,0.0,-875.0,0
GRID,5895,0,486.89,0.0,-870.0,0
GRID,5896,0,486.89,0.0,-865.0,0
GRID,5897,0,486.89,0.0,-860.0,0
GRID,5898,0,486.89,0.0,-855.0,0
GRID,5899,0,486.89,0.0,-850.0,0
GRID,5900,0,486.89,0.0,-845.0,0
GRID,5901,0,486.89,0.0,-840.0,0
GRID,5902,0,486.89,0.0,-835.0,0
GRID,5903,0,486.89,0.0,-830.0,0
GRID,5904,0,486.89,0.0,-825.0,0
GRID,5905,0,486.89,0.0,-820.0,0
GRID,5906,0,486.89,0.0,-815.0,0
GRID,5907,0,486.89,0.0,-810.0,0
GRID,5908,0,486.89,0.0,-805.0,0
GRID,5909,0,486.89,0.0,-800.0,0
GRID,5910,0,486.89,0.0,-795.0,0
GRID,5911,0,486.89,0.0,-790.0,0
GRID,5912,0,486.89,0.0,-785.0,0
GRID,5913,0,486.89,0.0,-780.0,0
GRID,5914,0,486.89,0.0,-775.0,0
GRID,5915,0,486.89,0.0,-770.0,0
GRID,5916,0,486.89,0.0,-765.0,0
GRID,5917,0,486.89,0.0,-760.0,0
GRID,5918,0,486.89,0.0,-755.0,0
GRID,5919,0,486.89,0.0,-750.0,0
GRID,5920,0,486.89,0.0,-745.0,0
GRID,5921,0,486.89,0.0,-740.0,0
GRID,5922,0,486.89,0.0,-735.0,0
GRID,5923,0,486.89,0.0,-730.0,0
GRID,5924,0,486.89,0.0,-725.0,0
GRID,5925,0,486.89,0.0,-720.0,0
GRID,5926,0,486.89,0.0,-715.0,0
GRID,5927,0,486.89,0.0,-710.0,0
GRID,5928,0,486.89,0.0,-705.0,0
GRID,5929,0,486.89,0.0,-700.0,0
GRID,5930,0,486.89,0.0,-695.0,0
GRID,5931,0,486.89,0.0,-690.0,0
GRID,5932,0,486.89,0.0,-685.0,0
GRID,5933,0,486.89,0.0,-680.0,0
GRID,5934,0,486.89,0.0,-675.0,0
GRID,5935,0,486.89,0.0,-670.0,0
GRID,5936,0,486.89,0.0,-665.0,0
GRID,5937,0,486.89,0.0,-660.0,0
GRID,5938,0,486.89,0.0,-655.0,0
GRID,5939,0,486.89,0.0,-650.0,0
GRID,5940,0,486.89,0.0,-645.0,0
GRID,5941,0,486.89,0.0,-640.0,0
GRID,5942,0,486.89,0.0,-635.0,0
GRID,5943,0,486.89,0.0,-630.0,0
GRID,5944,0,486.89,0.0,-625.0,0
GRID,5945,0,486.89,0.0,-620.0,0
GRID,5946,0,486.89,0.0,-615.0,0
GRID,5947,0,486.89,0.0,-610.0,0
GRID,5948,0,486.89,0.0,-605.0,0
GRID,5949,0,486.89,0.0,-600.0,0
GRID,5950,0,486.89,0.0,-595.0,0
GRID,5951,0,486.89,0.0,-590.0,0
GRID,5952,0,486.89,0.0,-585.0,0
GRID,5953,0,486.89,0.0,-580.0,0
GRID,5954,0,486.89,0.0,-575.0,0
GRID,5955,0,486.89,0.0,-570.0,0
GRID,5956,0,486.89,0.0,-565.0,0
GRID,5957,0,486.89,0.0,-560.0,0
GRID,5958,0,486.89,0.0,-555.0,0
GRID,5959,0,486.89,0.0,-550.0,0
GRID,5960,0,486.89,0.0,-545.0,0
GRID,5961,0,486.89,0.0,-540.0,0
GRID,5962,0,486.89,0.0,-535.0,0
GRID,5963,0,486.89,0.0,-530.0,0
GRID,5964,0,486.89,0.0,-525.0,0
GRID,5965,0,486.89,0.0,-520.0,0
GRID,5966,0,486.89,0.0,-515.0,0
GRID,5967,0,486.89,0.0,-510.0,0
GRID,5968,0,486.89,0.0,-505.0,0
GRID,5969,0,486.89,0.0,-500.0,0
GRID,5970,0,486.89,0.0,-495.0,0
GRID,5971,0,486.89,0.0,-490.0,0
GRID,5972,0,486.89,0.0,-485.0,0
GRID,5973,0,486.89,0.0,-480.0,0
GRID,5974,0,486.89,0.0,-475.0,0
GRID,5975,0,486.89,0.0,-470.0,0
GRID,5976,0,486.89,0.0,-465.0,0
GRID,5977,0,486.89,0.0,-460.0,0
GRID,5978,0,486.89,0.0,-455.0,0
GRID,5979,0,486.89,0.0,-450.0,0
GRID,5980,0,486.89,0.0,-445.0,0
GRID,5981,0,486.89,0.0,-440.0,0
GRID,5982,0,486.89,0.0,-435.0,0
GRID,5983,0,486.89,0.0,-430.0,0
GRID,5984,0,486.89,0.0,-425.0,0
GRID,5985,0,486.89,0.0,-420.0,0
GRID,5986,0,486.89,0.0,-415.0,0
GRID,5987,0,486.89,0.0,-410.0,0
GRID,5988,0,486.89,0.0,-405.0,0
GRID,5989,0,486.89,0.0,-400.0,0
GRID,5990,0,486.89,0.0,-395.0,0
GRID,5991,0,486.89,0.0,-390.0,0
GRID,5992,0,486.89,0.0,-385.0,0
GRID,5993,0,486.89,0.0,-380.0,0
GRID,5994,0,486.89,0.0,-375.0,0
GRID,5995,0,486.89,0.0,-370.0,0
GRID,5996,0,486.89,0.0,-365.0,0
GRID,5997,0,486.89,0.0,-360.0,0
GRID,5998,0,486.89,0.0,-355.0,0
GRID,5999,0,486.89,0.0,-350.0,0
GRID,6000,0,486.89,0.0,-345.0,0
GRID,6001,0,486.89,0.0,-340.0,0
GRID,6002,0,486.89,0.0,-335.0,0
GRID,6003,0,486.89,0.0,-330.0,0
GRID,6004,0,486.89,0.0,-325.0,0
GRID,6005,0,486.89,0.0,-320.0,0
GRID,6006,0,486.89,0.0,-315.0,0
GRID,6007,0,486.89,0.0,-310.0,0
GRID,6008,0,486.89,0.0,-305.0,0
GRID,6009,0,486.89,0.0,-300.0,0
GRID,6010,0,486.89,0.0,-295.0,0
GRID,6011,0,486.89,0.0,-290.0,0
GRID,6012,0,486.89,0.0,-285.0,0
GRID,6013,0,486.89,0.0,-280.0,0
GRID,6014,0,486.89,0.0,-275.0,0
GRID,6015,0,486.89,0.0,-270.0,0
GRID,6016,0,486.89,0.0,-265.0,0
GRID,6017,0,486.89,0.0,-260.0,0
GRID,6018,0,486.89,0.0,-255.0,0
GRID,6019,0,486.89,0.0,-250.0,0
GRID,6020,0,486.89,0.0,-245.0,0
GRID,6021,0,486.89,0.0,-240.0,0
GRID,6022,0,486.89,0.0,-235.0,0
GRID,6023,0,486.89,0.0,-230.0,0
GRID,6024,0,486.89,0.0,-225.0,0
GRID,6025,0,486.89,0.0,-220.0,0
GRID,6026,0,486.89,0.0,-215.0,0
GRID,6027,0,486.89,0.0,-210.0,0
GRID,6028,0,486.89,0.0,-205.0,0
GRID,6029,0,486.89,0.0,-200.0,0
GRID,6030,0,486.89,0.0,-195.0,0
GRID,6031,0,486.89,0.0,-190.0,0
GRID,6032,0,486.89,0.0,-185.0,0
GRID,6033,0,486.89,0.0,-180.0,0
GRID,6034,0,486.89,0.0,-175.0,0
GRID,6035,0,486.89,0.0,-170.0,0
GRID,6036,0,486.89,0.0,-165.0,0
GRID,6037,0,486.89,0.0,-160.0,0
GRID,6038,0,486.89,0.0,-155.0,0
GRID,6039,0,486.89,0.0,-150.0,0
GRID,6040,0,486.89,0.0,-145.0,0
GRID,6041,0,486.89,0.0,-140.0,0
GRID,6042,0,486.89,0.0,-135.0,0
GRID,6043,0,486.89,0.0,-130.0,0
GRID,6044,0,486.89,0.0,-125.0,0
GRID,6045,0,486.89,0.0,-120.0,0
GRID,6046,0,486.89,0.0,-115.0,0
GRID,6047,0,486.89,0.0,-110.0,0
GRID,6048,0,486.89,0.0,-105.0,0
GRID,6049,0,486.89,0.0,-100.0,0
GRID,6050,0,486.89,0.0,-95.0,0
GRID,6051,0,486.89,0.0,-90.0,0
GRID,6052,0,486.89,0.0,-85.0,0
GRID,6053,0,486.89,0.0,-80.0,0
GRID,6054,0,486.89,0.0,-75.0,0
GRID,6055,0,486.89,0.0,-70.0,0
GRID,6056,0,486.89,0.0,-65.0,0
GRID,6057,0,486.89,0.0,-60.0,0
GRID,6058,0,486.89,0.0,-55.0,0
GRID,6059,0,486.89,0.0,-50.0,0
GRID,6060,0,486.89,0.0,-45.0,0
GRID,6061,0,486.89,0.0,-40.0,0
GRID,6062,0,486.89,0.0,-35.0,0
GRID,6063,0,486.89,0.0,-30.0,0
GRID,6064,0,486.89,0.0,-25.0,0
GRID,6065,0,486.89,0.0,-20.0,0
GRID,6066,0,486.89,0.0,-15.0,0
GRID,6067,0,486.89,0.0,-10.0,0
GRID,6068,0,486.89,0.0,-5.0,0
GRID,6069,0,.1,0.0,-1444.05,0
GRID,6070,0,.1,0.0,-1453.71,0
GRID,6071,0,.1,0.0,-1463.37,0
GRID,6072,0,.1,0.0,-1473.03,0
GRID,6073,0,.1,0.0,-1482.68,0
GRID,6074,0,.1,0.0,-1492.34,0
GRID,6075,0,.1,0.0,-1502.0,0
GRID,6076,0,.1,0.0,-1511.66,0
GRID,6077,0,.1,0.0,-1521.32,0
GRID,6078,0,109.0203,0.0,-1390.88,0
GRID,6079,0,105.4744,0.0,-1394.12,0
GRID,6080,0,101.8331,0.0,-1397.25,0
GRID,6081,0,98.09915,0.0,-1400.27,0
GRID,6082,0,94.27603,0.0,-1403.18,0
GRID,6083,0,90.36735,0.0,-1405.97,0
GRID,6084,0,86.37666,0.0,-1408.64,0
GRID,6085,0,82.30747,0.0,-1411.2,0
GRID,6086,0,78.16349,0.0,-1413.63,0
GRID,6087,0,73.94847,0.0,-1415.93,0
GRID,6088,0,69.66622,0.0,-1418.11,0
GRID,6089,0,65.32054,0.0,-1420.15,0
GRID,6090,0,60.91539,0.0,-1422.07,0
GRID,6091,0,56.45476,0.0,-1423.85,0
GRID,6092,0,51.94264,0.0,-1425.5,0
GRID,6093,0,47.38308,0.0,-1427.01,0
GRID,6094,0,42.78022,0.0,-1428.38,0
GRID,6095,0,38.13822,0.0,-1429.62,0
GRID,6096,0,33.46123,0.0,-1430.71,0
GRID,6097,0,28.75346,0.0,-1431.67,0
GRID,6098,0,24.01918,0.0,-1432.48,0
GRID,6099,0,19.26266,0.0,-1433.15,0
GRID,6100,0,14.48817,0.0,-1433.68,0
GRID,6101,0,9.700012,0.0,-1434.06,0
GRID,6102,0,4.902508,0.0,-1434.3,0
GRID,6103,0,201.5871,0.0,-1298.41,0
GRID,6104,0,198.1594,0.0,-1301.84,0
GRID,6105,0,194.7318,0.0,-1305.27,0
GRID,6106,0,191.3041,0.0,-1308.7,0
GRID,6107,0,187.8765,0.0,-1312.12,0
GRID,6108,0,184.4488,0.0,-1315.55,0
GRID,6109,0,181.0212,0.0,-1318.98,0
GRID,6110,0,177.5935,0.0,-1322.41,0
GRID,6111,0,174.1659,0.0,-1325.83,0
GRID,6112,0,170.7382,0.0,-1329.26,0
GRID,6113,0,167.3106,0.0,-1332.69,0
GRID,6114,0,163.8829,0.0,-1336.12,0
GRID,6115,0,160.4553,0.0,-1339.54,0
GRID,6116,0,157.0276,0.0,-1342.97,0
GRID,6117,0,153.5999,0.0,-1346.4,0
GRID,6118,0,150.1723,0.0,-1349.83,0
GRID,6119,0,146.7446,0.0,-1353.26,0
GRID,6120,0,143.317,0.0,-1356.68,0
GRID,6121,0,139.8893,0.0,-1360.11,0
GRID,6122,0,136.4617,0.0,-1363.54,0
GRID,6123,0,133.034,0.0,-1366.97,0
GRID,6124,0,129.6064,0.0,-1370.39,0
GRID,6125,0,126.1787,0.0,-1373.82,0
GRID,6126,0,122.7511,0.0,-1377.25,0
GRID,6127,0,119.3234,0.0,-1380.68,0
GRID,6128,0,115.8958,0.0,-1384.1,0
GRID,6129,0,6.744728,0.0,-1532.51,0
GRID,6130,0,13.42048,0.0,-1533.9,0
GRID,6131,0,20.12431,0.0,-1535.15,0
GRID,6132,0,26.85326,0.0,-1536.26,0
GRID,6133,0,33.6043,0.0,-1537.22,0
GRID,6134,0,40.37433,0.0,-1538.04,0
GRID,6135,0,47.16025,0.0,-1538.71,0
GRID,6136,0,53.959,0.0,-1539.24,0
GRID,6137,0,60.76748,0.0,-1539.63,0
GRID,6138,0,67.58261,0.0,-1539.86,0
GRID,6139,0,74.40128,0.0,-1539.96,0
GRID,6140,0,81.2204,0.0,-1539.91,0
GRID,6141,0,88.03688,0.0,-1539.71,0
GRID,6142,0,94.84761,0.0,-1539.37,0
GRID,6143,0,101.6495,0.0,-1538.88,0
GRID,6144,0,108.4395,0.0,-1538.25,0
GRID,6145,0,115.2145,0.0,-1537.47,0
GRID,6146,0,121.9713,0.0,-1536.55,0
GRID,6147,0,128.7071,0.0,-1535.49,0
GRID,6148,0,135.4186,0.0,-1534.28,0
GRID,6149,0,142.1028,0.0,-1532.93,0
GRID,6150,0,148.7568,0.0,-1531.44,0
GRID,6151,0,155.3775,0.0,-1529.8,0
GRID,6152,0,161.9618,0.0,-1528.03,0
GRID,6153,0,168.5068,0.0,-1526.11,0
GRID,6154,0,175.0095,0.0,-1524.06,0
GRID,6155,0,181.467,0.0,-1521.87,0
GRID,6156,0,187.8763,0.0,-1519.54,0
GRID,6157,0,194.2346,0.0,-1517.07,0
GRID,6158,0,200.5388,0.0,-1514.47,0
GRID,6159,0,206.7863,0.0,-1511.74,0
GRID,6160,0,212.974,0.0,-1508.87,0
GRID,6161,0,219.0993,0.0,-1505.88,0
GRID,6162,0,225.1593,0.0,-1502.75,0
GRID,6163,0,231.1514,0.0,-1499.49,0
GRID,6164,0,237.0726,0.0,-1496.11,0
GRID,6165,0,242.9205,0.0,-1492.6,0
GRID,6166,0,248.6922,0.0,-1488.97,0
GRID,6167,0,254.3853,0.0,-1485.22,0
GRID,6168,0,259.9971,0.0,-1481.34,0
GRID,6169,0,265.5251,0.0,-1477.35,0
GRID,6170,0,270.9666,0.0,-1473.24,0
GRID,6171,0,276.3194,0.0,-1469.02,0
GRID,6172,0,281.581,0.0,-1464.68,0
GRID,6173,0,286.7487,0.0,-1460.23,0
GRID,6174,0,291.8204,0.0,-1455.67,0
GRID,6175,0,296.794,0.0,-1451.0,0
GRID,6176,0,299.9651,0.0,-1070.39,0
GRID,6177,0,299.8621,0.0,-1075.1,0
GRID,6178,0,299.6907,0.0,-1079.82,0
GRID,6179,0,299.4509,0.0,-1084.53,0
GRID,6180,0,299.1427,0.0,-1089.23,0
GRID,6181,0,298.7659,0.0,-1093.94,0
GRID,6182,0,298.3207,0.0,-1098.63,0
GRID,6183,0,297.8072,0.0,-1103.32,0
GRID,6184,0,297.2255,0.0,-1108.0,0
GRID,6185,0,296.5759,0.0,-1112.67,0
GRID,6186,0,295.8584,0.0,-1117.33,0
GRID,6187,0,295.0731,0.0,-1121.98,0
GRID,6188,0,294.2203,0.0,-1126.62,0
GRID,6189,0,293.3001,0.0,-1131.25,0
GRID,6190,0,292.3127,0.0,-1135.86,0
GRID,6191,0,291.2584,0.0,-1140.46,0
GRID,6192,0,290.1373,0.0,-1145.04,0
GRID,6193,0,288.9497,0.0,-1149.61,0
GRID,6194,0,287.6959,0.0,-1154.15,0
GRID,6195,0,286.376,0.0,-1158.68,0
GRID,6196,0,284.9904,0.0,-1163.19,0
GRID,6197,0,283.5393,0.0,-1167.68,0
GRID,6198,0,282.0232,0.0,-1172.14,0
GRID,6199,0,280.4423,0.0,-1176.59,0
GRID,6200,0,278.7969,0.0,-1181.01,0
GRID,6201,0,277.0874,0.0,-1185.4,0
GRID,6202,0,275.3141,0.0,-1189.77,0
GRID,6203,0,273.4774,0.0,-1194.12,0
GRID,6204,0,271.5778,0.0,-1198.44,0
GRID,6205,0,269.6156,0.0,-1202.73,0
GRID,6206,0,267.5912,0.0,-1206.99,0
GRID,6207,0,265.505,0.0,-1211.22,0
GRID,6208,0,263.3576,0.0,-1215.42,0
GRID,6209,0,261.1493,0.0,-1219.58,0
GRID,6210,0,258.8806,0.0,-1223.72,0
GRID,6211,0,256.552,0.0,-1227.82,0
GRID,6212,0,254.164,0.0,-1231.89,0
GRID,6213,0,251.7171,0.0,-1235.92,0
GRID,6214,0,249.2118,0.0,-1239.92,0
GRID,6215,0,246.6486,0.0,-1243.88,0
GRID,6216,0,244.0282,0.0,-1247.8,0
GRID,6217,0,241.351,0.0,-1251.68,0
GRID,6218,0,238.6175,0.0,-1255.53,0
GRID,6219,0,235.8285,0.0,-1259.33,0
GRID,6220,0,232.9844,0.0,-1263.09,0
GRID,6221,0,230.0859,0.0,-1266.81,0
GRID,6222,0,227.1337,0.0,-1270.49,0
GRID,6223,0,224.1282,0.0,-1274.13,0
GRID,6224,0,221.0701,0.0,-1277.72,0
GRID,6225,0,217.9599,0.0,-1281.26,0
GRID,6226,0,214.7986,0.0,-1284.76,0
GRID,6227,0,211.5867,0.0,-1288.22,0
GRID,6228,0,208.3252,0.0,-1291.63,0
GRID,6229,0,300.0,0.0,-1055.22,0
GRID,6230,0,300.0,0.0,-1060.45,0
GRID,6231,0,306.3322,0.0,-1441.57,0
GRID,6232,0,310.9969,0.0,-1436.9,0
GRID,6233,0,315.6616,0.0,-1432.24,0
GRID,6234,0,325.1639,0.0,-1422.62,0
GRID,6235,0,329.8863,0.0,-1417.56,0
GRID,6236,0,334.4908,0.0,-1412.39,0
GRID,6237,0,338.9744,0.0,-1407.12,0
GRID,6238,0,343.335,0.0,-1401.74,0
GRID,6239,0,347.5702,0.0,-1396.27,0
GRID,6240,0,351.6778,0.0,-1390.69,0
GRID,6241,0,355.6556,0.0,-1385.03,0
GRID,6242,0,359.5014,0.0,-1379.27,0
GRID,6243,0,363.2133,0.0,-1373.43,0
GRID,6244,0,366.7893,0.0,-1367.5,0
GRID,6245,0,370.2274,0.0,-1361.5,0
GRID,6246,0,373.5258,0.0,-1355.41,0
GRID,6247,0,376.6827,0.0,-1349.25,0
GRID,6248,0,379.6965,0.0,-1343.02,0
GRID,6249,0,382.5656,0.0,-1336.72,0
GRID,6250,0,385.2883,0.0,-1330.35,0
GRID,6251,0,387.8634,0.0,-1323.93,0
GRID,6252,0,390.2893,0.0,-1317.44,0
GRID,6253,0,392.5649,0.0,-1310.91,0
GRID,6254,0,394.6888,0.0,-1304.32,0
GRID,6255,0,396.66,0.0,-1297.68,0
GRID,6256,0,398.4774,0.0,-1291.0,0
GRID,6257,0,400.1399,0.0,-1284.28,0
GRID,6258,0,401.6469,0.0,-1277.53,0
GRID,6259,0,402.9974,0.0,-1270.74,0
GRID,6260,0,404.1907,0.0,-1263.92,0
GRID,6261,0,405.2262,0.0,-1257.07,0
GRID,6262,0,406.1033,0.0,-1250.21,0
GRID,6263,0,406.8216,0.0,-1243.32,0
GRID,6264,0,407.3805,0.0,-1236.42,0
GRID,6265,0,407.7797,0.0,-1229.51,0
GRID,6266,0,408.0194,0.0,-1222.59,0
GRID,6267,0,408.1,0.0,-1208.77,0
GRID,6268,0,408.1,0.0,-1201.86,0
GRID,6269,0,408.1,0.0,-1194.96,0
GRID,6270,0,408.1,0.0,-1188.06,0
GRID,6271,0,408.1,0.0,-1181.16,0
GRID,6272,0,408.1,0.0,-1174.25,0
GRID,6273,0,408.1,0.0,-1167.35,0
GRID,6274,0,408.1,0.0,-1160.45,0
GRID,6275,0,408.1,0.0,-1153.54,0
GRID,6276,0,408.1,0.0,-1146.64,0
GRID,6277,0,408.1,0.0,-1139.74,0
GRID,6278,0,408.1,0.0,-1132.84,0
GRID,6279,0,408.1,0.0,-1125.93,0
GRID,6280,0,408.1,0.0,-1119.03,0
GRID,6281,0,408.1,0.0,-1112.13,0
GRID,6282,0,408.1,0.0,-1105.22,0
GRID,6283,0,408.1,0.0,-1098.32,0
GRID,6284,0,408.1,0.0,-1091.42,0
GRID,6285,0,408.1,0.0,-1084.51,0
GRID,6286,0,408.1,0.0,-1077.61,0
GRID,6287,0,408.1,0.0,-1070.71,0
GRID,6288,0,408.1,0.0,-1063.81,0
GRID,6289,0,408.1,0.0,-1056.9,0
GRID,6290,0,300.0,0.0,-5.0,0
GRID,6291,0,300.0,0.0,-10.0,0
GRID,6292,0,300.0,0.0,-15.0,0
GRID,6293,0,300.0,0.0,-20.0,0
GRID,6294,0,300.0,0.0,-25.0,0
GRID,6295,0,300.0,0.0,-30.0,0
GRID,6296,0,300.0,0.0,-35.0,0
GRID,6297,0,300.0,0.0,-40.0,0
GRID,6298,0,300.0,0.0,-45.0,0
GRID,6299,0,300.0,0.0,-50.0,0
GRID,6300,0,300.0,0.0,-55.0,0
GRID,6301,0,300.0,0.0,-60.0,0
GRID,6302,0,300.0,0.0,-65.0,0
GRID,6303,0,300.0,0.0,-70.0,0
GRID,6304,0,300.0,0.0,-75.0,0
GRID,6305,0,300.0,0.0,-80.0,0
GRID,6306,0,300.0,0.0,-85.0,0
GRID,6307,0,300.0,0.0,-90.0,0
GRID,6308,0,300.0,0.0,-95.0,0
GRID,6309,0,300.0,0.0,-100.0,0
GRID,6310,0,300.0,0.0,-105.0,0
GRID,6311,0,300.0,0.0,-110.0,0
GRID,6312,0,300.0,0.0,-115.0,0
GRID,6313,0,300.0,0.0,-120.0,0
GRID,6314,0,300.0,0.0,-125.0,0
GRID,6315,0,300.0,0.0,-130.0,0
GRID,6316,0,300.0,0.0,-135.0,0
GRID,6317,0,300.0,0.0,-140.0,0
GRID,6318,0,300.0,0.0,-145.0,0
GRID,6319,0,300.0,0.0,-150.0,0
GRID,6320,0,300.0,0.0,-155.0,0
GRID,6321,0,300.0,0.0,-160.0,0
GRID,6322,0,300.0,0.0,-165.0,0
GRID,6323,0,300.0,0.0,-170.0,0
GRID,6324,0,300.0,0.0,-175.0,0
GRID,6325,0,300.0,0.0,-180.0,0
GRID,6326,0,300.0,0.0,-185.0,0
GRID,6327,0,300.0,0.0,-190.0,0
GRID,6328,0,300.0,0.0,-195.0,0
GRID,6329,0,300.0,0.0,-200.0,0
GRID,6330,0,300.0,0.0,-205.0,0
GRID,6331,0,300.0,0.0,-210.0,0
GRID,6332,0,300.0,0.0,-215.0,0
GRID,6333,0,300.0,0.0,-220.0,0
GRID,6334,0,300.0,0.0,-225.0,0
GRID,6335,0,300.0,0.0,-230.0,0
GRID,6336,0,300.0,0.0,-235.0,0
GRID,6337,0,300.0,0.0,-240.0,0
GRID,6338,0,300.0,0.0,-245.0,0
GRID,6339,0,300.0,0.0,-250.0,0
GRID,6340,0,300.0,0.0,-255.0,0
GRID,6341,0,300.0,0.0,-260.0,0
GRID,6342,0,300.0,0.0,-265.0,0
GRID,6343,0,300.0,0.0,-270.0,0
GRID,6344,0,300.0,0.0,-275.0,0
GRID,6345,0,300.0,0.0,-280.0,0
GRID,6346,0,300.0,0.0,-285.0,0
GRID,6347,0,300.0,0.0,-290.0,0
GRID,6348,0,300.0,0.0,-295.0,0
GRID,6349,0,300.0,0.0,-300.0,0
GRID,6350,0,300.0,0.0,-305.0,0
GRID,6351,0,300.0,0.0,-310.0,0
GRID,6352,0,300.0,0.0,-315.0,0
GRID,6353,0,300.0,0.0,-320.0,0
GRID,6354,0,300.0,0.0,-325.0,0
GRID,6355,0,300.0,0.0,-330.0,0
GRID,6356,0,300.0,0.0,-335.0,0
GRID,6357,0,300.0,0.0,-340.0,0
GRID,6358,0,300.0,0.0,-345.0,0
GRID,6359,0,300.0,0.0,-350.0,0
GRID,6360,0,300.0,0.0,-355.0,0
GRID,6361,0,300.0,0.0,-360.0,0
GRID,6362,0,300.0,0.0,-365.0,0
GRID,6363,0,300.0,0.0,-370.0,0
GRID,6364,0,300.0,0.0,-375.0,0
GRID,6365,0,300.0,0.0,-380.0,0
GRID,6366,0,300.0,0.0,-385.0,0
GRID,6367,0,300.0,0.0,-390.0,0
GRID,6368,0,300.0,0.0,-395.0,0
GRID,6369,0,300.0,0.0,-400.0,0
GRID,6370,0,300.0,0.0,-405.0,0
GRID,6371,0,300.0,0.0,-410.0,0
GRID,6372,0,300.0,0.0,-415.0,0
GRID,6373,0,300.0,0.0,-420.0,0
GRID,6374,0,300.0,0.0,-425.0,0
GRID,6375,0,300.0,0.0,-430.0,0
GRID,6376,0,300.0,0.0,-435.0,0
GRID,6377,0,300.0,0.0,-440.0,0
GRID,6378,0,300.0,0.0,-445.0,0
GRID,6379,0,300.0,0.0,-450.0,0
GRID,6380,0,300.0,0.0,-455.0,0
GRID,6381,0,300.0,0.0,-460.0,0
GRID,6382,0,300.0,0.0,-465.0,0
GRID,6383,0,300.0,0.0,-470.0,0
GRID,6384,0,300.0,0.0,-475.0,0
GRID,6385,0,300.0,0.0,-480.0,0
GRID,6386,0,300.0,0.0,-485.0,0
GRID,6387,0,300.0,0.0,-490.0,0
GRID,6388,0,300.0,0.0,-495.0,0
GRID,6389,0,300.0,0.0,-500.0,0
GRID,6390,0,300.0,0.0,-505.0,0
GRID,6391,0,300.0,0.0,-510.0,0
GRID,6392,0,300.0,0.0,-515.0,0
GRID,6393,0,300.0,0.0,-520.0,0
GRID,6394,0,300.0,0.0,-525.0,0
GRID,6395,0,300.0,0.0,-530.0,0
GRID,6396,0,300.0,0.0,-535.0,0
GRID,6397,0,300.0,0.0,-540.0,0
GRID,6398,0,300.0,0.0,-545.0,0
GRID,6399,0,300.0,0.0,-550.0,0
GRID,6400,0,300.0,0.0,-555.0,0
GRID,6401,0,300.0,0.0,-560.0,0
GRID,6402,0,300.0,0.0,-565.0,0
GRID,6403,0,300.0,0.0,-570.0,0
GRID,6404,0,300.0,0.0,-575.0,0
GRID,6405,0,300.0,0.0,-580.0,0
GRID,6406,0,300.0,0.0,-585.0,0
GRID,6407,0,300.0,0.0,-590.0,0
GRID,6408,0,300.0,0.0,-595.0,0
GRID,6409,0,300.0,0.0,-600.0,0
GRID,6410,0,300.0,0.0,-605.0,0
GRID,6411,0,300.0,0.0,-610.0,0
GRID,6412,0,300.0,0.0,-615.0,0
GRID,6413,0,300.0,0.0,-620.0,0
GRID,6414,0,300.0,0.0,-625.0,0
GRID,6415,0,300.0,0.0,-630.0,0
GRID,6416,0,300.0,0.0,-635.0,0
GRID,6417,0,300.0,0.0,-640.0,0
GRID,6418,0,300.0,0.0,-645.0,0
GRID,6419,0,300.0,0.0,-650.0,0
GRID,6420,0,300.0,0.0,-655.0,0
GRID,6421,0,300.0,0.0,-660.0,0
GRID,6422,0,300.0,0.0,-665.0,0
GRID,6423,0,300.0,0.0,-670.0,0
GRID,6424,0,300.0,0.0,-675.0,0
GRID,6425,0,300.0,0.0,-680.0,0
GRID,6426,0,300.0,0.0,-685.0,0
GRID,6427,0,300.0,0.0,-690.0,0
GRID,6428,0,300.0,0.0,-695.0,0
GRID,6429,0,300.0,0.0,-700.0,0
GRID,6430,0,300.0,0.0,-705.0,0
GRID,6431,0,300.0,0.0,-710.0,0
GRID,6432,0,300.0,0.0,-715.0,0
GRID,6433,0,300.0,0.0,-720.0,0
GRID,6434,0,300.0,0.0,-725.0,0
GRID,6435,0,300.0,0.0,-730.0,0
GRID,6436,0,300.0,0.0,-735.0,0
GRID,6437,0,300.0,0.0,-740.0,0
GRID,6438,0,300.0,0.0,-745.0,0
GRID,6439,0,300.0,0.0,-750.0,0
GRID,6440,0,300.0,0.0,-755.0,0
GRID,6441,0,300.0,0.0,-760.0,0
GRID,6442,0,300.0,0.0,-765.0,0
GRID,6443,0,300.0,0.0,-770.0,0
GRID,6444,0,300.0,0.0,-775.0,0
GRID,6445,0,300.0,0.0,-780.0,0
GRID,6446,0,300.0,0.0,-785.0,0
GRID,6447,0,300.0,0.0,-790.0,0
GRID,6448,0,300.0,0.0,-795.0,0
GRID,6449,0,300.0,0.0,-800.0,0
GRID,6450,0,300.0,0.0,-805.0,0
GRID,6451,0,300.0,0.0,-810.0,0
GRID,6452,0,300.0,0.0,-815.0,0
GRID,6453,0,300.0,0.0,-820.0,0
GRID,6454,0,300.0,0.0,-825.0,0
GRID,6455,0,300.0,0.0,-830.0,0
GRID,6456,0,300.0,0.0,-835.0,0
GRID,6457,0,300.0,0.0,-840.0,0
GRID,6458,0,300.0,0.0,-845.0,0
GRID,6459,0,300.0,0.0,-850.0,0
GRID,6460,0,300.0,0.0,-855.0,0
GRID,6461,0,300.0,0.0,-860.0,0
GRID,6462,0,300.0,0.0,-865.0,0
GRID,6463,0,300.0,0.0,-870.0,0
GRID,6464,0,300.0,0.0,-875.0,0
GRID,6465,0,300.0,0.0,-880.0,0
GRID,6466,0,300.0,0.0,-885.0,0
GRID,6467,0,300.0,0.0,-890.0,0
GRID,6468,0,300.0,0.0,-895.0,0
GRID,6469,0,300.0,0.0,-900.0,0
GRID,6470,0,300.0,0.0,-905.0,0
GRID,6471,0,300.0,0.0,-910.0,0
GRID,6472,0,300.0,0.0,-915.0,0
GRID,6473,0,300.0,0.0,-920.0,0
GRID,6474,0,300.0,0.0,-925.0,0
GRID,6475,0,300.0,0.0,-930.0,0
GRID,6476,0,300.0,0.0,-935.0,0
GRID,6477,0,300.0,0.0,-940.0,0
GRID,6478,0,300.0,0.0,-945.0,0
GRID,6479,0,300.0,0.0,-950.0,0
GRID,6480,0,300.0,0.0,-955.0,0
GRID,6481,0,300.0,0.0,-960.0,0
GRID,6482,0,300.0,0.0,-965.0,0
GRID,6483,0,300.0,0.0,-970.0,0
GRID,6484,0,300.0,0.0,-975.0,0
GRID,6485,0,300.0,0.0,-980.0,0
GRID,6486,0,300.0,0.0,-985.0,0
GRID,6487,0,300.0,0.0,-990.0,0
GRID,6488,0,300.0,0.0,-995.0,0
GRID,6489,0,300.0,0.0,-1000.0,0
GRID,6490,0,300.0,0.0,-1005.0,0
GRID,6491,0,300.0,0.0,-1010.0,0
GRID,6492,0,300.0,0.0,-1015.0,0
GRID,6493,0,300.0,0.0,-1020.0,0
GRID,6494,0,300.0,0.0,-1025.0,0
GRID,6495,0,300.0,0.0,-1030.0,0
GRID,6496,0,300.0,0.0,-1035.0,0
GRID,6497,0,300.0,0.0,-1040.0,0
GRID,6498,0,300.0,0.0,-1045.0,0
GRID,6499,0,310.81,0.0,-1050.0,0
GRID,6500,0,321.62,0.0,-1050.0,0
GRID,6501,0,332.43,0.0,-1050.0,0
GRID,6502,0,343.24,0.0,-1050.0,0
GRID,6503,0,354.05,0.0,-1050.0,0
GRID,6504,0,364.86,0.0,-1050.0,0
GRID,6505,0,375.67,0.0,-1050.0,0
GRID,6506,0,386.48,0.0,-1050.0,0
GRID,6507,0,397.29,0.0,-1050.0,0
GRID,6508,0,408.1,0.0,-1045.0,0
GRID,6509,0,408.1,0.0,-1040.0,0
GRID,6510,0,408.1,0.0,-1035.0,0
GRID,6511,0,408.1,0.0,-1030.0,0
GRID,6512,0,408.1,0.0,-1025.0,0
GRID,6513,0,408.1,0.0,-1020.0,0
GRID,6514,0,408.1,0.0,-1015.0,0
GRID,6515,0,408.1,0.0,-1010.0,0
GRID,6516,0,408.1,0.0,-1005.0,0
GRID,6517,0,408.1,0.0,-1000.0,0
GRID,6518,0,408.1,0.0,-995.0,0
GRID,6519,0,408.1,0.0,-990.0,0
GRID,6520,0,408.1,0.0,-985.0,0
GRID,6521,0,408.1,0.0,-980.0,0
GRID,6522,0,408.1,0.0,-975.0,0
GRID,6523,0,408.1,0.0,-970.0,0
GRID,6524,0,408.1,0.0,-965.0,0
GRID,6525,0,408.1,0.0,-960.0,0
GRID,6526,0,408.1,0.0,-955.0,0
GRID,6527,0,408.1,0.0,-950.0,0
GRID,6528,0,408.1,0.0,-945.0,0
GRID,6529,0,408.1,0.0,-940.0,0
GRID,6530,0,408.1,0.0,-935.0,0
GRID,6531,0,408.1,0.0,-930.0,0
GRID,6532,0,408.1,0.0,-925.0,0
GRID,6533,0,408.1,0.0,-920.0,0
GRID,6534,0,408.1,0.0,-915.0,0
GRID,6535,0,408.1,0.0,-910.0,0
GRID,6536,0,408.1,0.0,-905.0,0
GRID,6537,0,408.1,0.0,-900.0,0
GRID,6538,0,408.1,0.0,-895.0,0
GRID,6539,0,408.1,0.0,-890.0,0
GRID,6540,0,408.1,0.0,-885.0,0
GRID,6541,0,408.1,0.0,-880.0,0
GRID,6542,0,408.1,0.0,-875.0,0
GRID,6543,0,408.1,0.0,-870.0,0
GRID,6544,0,408.1,0.0,-865.0,0
GRID,6545,0,408.1,0.0,-860.0,0
GRID,6546,0,408.1,0.0,-855.0,0
GRID,6547,0,408.1,0.0,-850.0,0
GRID,6548,0,408.1,0.0,-845.0,0
GRID,6549,0,408.1,0.0,-840.0,0
GRID,6550,0,408.1,0.0,-835.0,0
GRID,6551,0,408.1,0.0,-830.0,0
GRID,6552,0,408.1,0.0,-825.0,0
GRID,6553,0,408.1,0.0,-820.0,0
GRID,6554,0,408.1,0.0,-815.0,0
GRID,6555,0,408.1,0.0,-810.0,0
GRID,6556,0,408.1,0.0,-805.0,0
GRID,6557,0,408.1,0.0,-800.0,0
GRID,6558,0,408.1,0.0,-795.0,0
GRID,6559,0,408.1,0.0,-790.0,0
GRID,6560,0,408.1,0.0,-785.0,0
GRID,6561,0,408.1,0.0,-780.0,0
GRID,6562,0,408.1,0.0,-775.0,0
GRID,6563,0,408.1,0.0,-770.0,0
GRID,6564,0,408.1,0.0,-765.0,0
GRID,6565,0,408.1,0.0,-760.0,0
GRID,6566,0,408.1,0.0,-755.0,0
GRID,6567,0,408.1,0.0,-750.0,0
GRID,6568,0,408.1,0.0,-745.0,0
GRID,6569,0,408.1,0.0,-740.0,0
GRID,6570,0,408.1,0.0,-735.0,0
GRID,6571,0,408.1,0.0,-730.0,0
GRID,6572,0,408.1,0.0,-725.0,0
GRID,6573,0,408.1,0.0,-720.0,0
GRID,6574,0,408.1,0.0,-715.0,0
GRID,6575,0,408.1,0.0,-710.0,0
GRID,6576,0,408.1,0.0,-705.0,0
GRID,6577,0,408.1,0.0,-700.0,0
GRID,6578,0,408.1,0.0,-695.0,0
GRID,6579,0,408.1,0.0,-690.0,0
GRID,6580,0,408.1,0.0,-685.0,0
GRID,6581,0,408.1,0.0,-680.0,0
GRID,6582,0,408.1,0.0,-675.0,0
GRID,6583,0,408.1,0.0,-670.0,0
GRID,6584,0,408.1,0.0,-665.0,0
GRID,6585,0,408.1,0.0,-660.0,0
GRID,6586,0,408.1,0.0,-655.0,0
GRID,6587,0,408.1,0.0,-650.0,0
GRID,6588,0,408.1,0.0,-645.0,0
GRID,6589,0,408.1,0.0,-640.0,0
GRID,6590,0,408.1,0.0,-635.0,0
GRID,6591,0,408.1,0.0,-630.0,0
GRID,6592,0,408.1,0.0,-625.0,0
GRID,6593,0,408.1,0.0,-620.0,0
GRID,6594,0,408.1,0.0,-615.0,0
GRID,6595,0,408.1,0.0,-610.0,0
GRID,6596,0,408.1,0.0,-605.0,0
GRID,6597,0,408.1,0.0,-600.0,0
GRID,6598,0,408.1,0.0,-595.0,0
GRID,6599,0,408.1,0.0,-590.0,0
GRID,6600,0,408.1,0.0,-585.0,0
GRID,6601,0,408.1,0.0,-580.0,0
GRID,6602,0,408.1,0.0,-575.0,0
GRID,6603,0,408.1,0.0,-570.0,0
GRID,6604,0,408.1,0.0,-565.0,0
GRID,6605,0,408.1,0.0,-560.0,0
GRID,6606,0,408.1,0.0,-555.0,0
GRID,6607,0,408.1,0.0,-550.0,0
GRID,6608,0,408.1,0.0,-545.0,0
GRID,6609,0,408.1,0.0,-540.0,0
GRID,6610,0,408.1,0.0,-535.0,0
GRID,6611,0,408.1,0.0,-530.0,0
GRID,6612,0,408.1,0.0,-525.0,0
GRID,6613,0,408.1,0.0,-520.0,0
GRID,6614,0,408.1,0.0,-515.0,0
GRID,6615,0,408.1,0.0,-510.0,0
GRID,6616,0,408.1,0.0,-505.0,0
GRID,6617,0,408.1,0.0,-500.0,0
GRID,6618,0,408.1,0.0,-495.0,0
GRID,6619,0,408.1,0.0,-490.0,0
GRID,6620,0,408.1,0.0,-485.0,0
GRID,6621,0,408.1,0.0,-480.0,0
GRID,6622,0,408.1,0.0,-475.0,0
GRID,6623,0,408.1,0.0,-470.0,0
GRID,6624,0,408.1,0.0,-465.0,0
GRID,6625,0,408.1,0.0,-460.0,0
GRID,6626,0,408.1,0.0,-455.0,0
GRID,6627,0,408.1,0.0,-450.0,0
GRID,6628,0,408.1,0.0,-445.0,0
GRID,6629,0,408.1,0.0,-440.0,0
GRID,6630,0,408.1,0.0,-435.0,0
GRID,6631,0,408.1,0.0,-430.0,0
GRID,6632,0,408.1,0.0,-425.0,0
GRID,6633,0,408.1,0.0,-420.0,0
GRID,6634,0,408.1,0.0,-415.0,0
GRID,6635,0,408.1,0.0,-410.0,0
GRID,6636,0,408.1,0.0,-405.0,0
GRID,6637,0,408.1,0.0,-400.0,0
GRID,6638,0,408.1,0.0,-395.0,0
GRID,6639,0,408.1,0.0,-390.0,0
GRID,6640,0,408.1,0.0,-385.0,0
GRID,6641,0,408.1,0.0,-380.0,0
GRID,6642,0,408.1,0.0,-375.0,0
GRID,6643,0,408.1,0.0,-370.0,0
GRID,6644,0,408.1,0.0,-365.0,0
GRID,6645,0,408.1,0.0,-360.0,0
GRID,6646,0,408.1,0.0,-355.0,0
GRID,6647,0,408.1,0.0,-350.0,0
GRID,6648,0,408.1,0.0,-345.0,0
GRID,6649,0,408.1,0.0,-340.0,0
GRID,6650,0,408.1,0.0,-335.0,0
GRID,6651,0,408.1,0.0,-330.0,0
GRID,6652,0,408.1,0.0,-325.0,0
GRID,6653,0,408.1,0.0,-320.0,0
GRID,6654,0,408.1,0.0,-315.0,0
GRID,6655,0,408.1,0.0,-310.0,0
GRID,6656,0,408.1,0.0,-305.0,0
GRID,6657,0,408.1,0.0,-300.0,0
GRID,6658,0,408.1,0.0,-295.0,0
GRID,6659,0,408.1,0.0,-290.0,0
GRID,6660,0,408.1,0.0,-285.0,0
GRID,6661,0,408.1,0.0,-280.0,0
GRID,6662,0,408.1,0.0,-275.0,0
GRID,6663,0,408.1,0.0,-270.0,0
GRID,6664,0,408.1,0.0,-265.0,0
GRID,6665,0,408.1,0.0,-260.0,0
GRID,6666,0,408.1,0.0,-255.0,0
GRID,6667,0,408.1,0.0,-250.0,0
GRID,6668,0,408.1,0.0,-245.0,0
GRID,6669,0,408.1,0.0,-240.0,0
GRID,6670,0,408.1,0.0,-235.0,0
GRID,6671,0,408.1,0.0,-230.0,0
GRID,6672,0,408.1,0.0,-225.0,0
GRID,6673,0,408.1,0.0,-220.0,0
GRID,6674,0,408.1,0.0,-215.0,0
GRID,6675,0,408.1,0.0,-210.0,0
GRID,6676,0,408.1,0.0,-205.0,0
GRID,6677,0,408.1,0.0,-200.0,0
GRID,6678,0,408.1,0.0,-195.0,0
GRID,6679,0,408.1,0.0,-190.0,0
GRID,6680,0,408.1,0.0,-185.0,0
GRID,6681,0,408.1,0.0,-180.0,0
GRID,6682,0,408.1,0.0,-175.0,0
GRID,6683,0,408.1,0.0,-170.0,0
GRID,6684,0,408.1,0.0,-165.0,0
GRID,6685,0,408.1,0.0,-160.0,0
GRID,6686,0,408.1,0.0,-155.0,0
GRID,6687,0,408.1,0.0,-150.0,0
GRID,6688,0,408.1,0.0,-145.0,0
GRID,6689,0,408.1,0.0,-140.0,0
GRID,6690,0,408.1,0.0,-135.0,0
GRID,6691,0,408.1,0.0,-130.0,0
GRID,6692,0,408.1,0.0,-125.0,0
GRID,6693,0,408.1,0.0,-120.0,0
GRID,6694,0,408.1,0.0,-115.0,0
GRID,6695,0,408.1,0.0,-110.0,0
GRID,6696,0,408.1,0.0,-105.0,0
GRID,6697,0,408.1,0.0,-100.0,0
GRID,6698,0,408.1,0.0,-95.0,0
GRID,6699,0,408.1,0.0,-90.0,0
GRID,6700,0,408.1,0.0,-85.0,0
GRID,6701,0,408.1,0.0,-80.0,0
GRID,6702,0,408.1,0.0,-75.0,0
GRID,6703,0,408.1,0.0,-70.0,0
GRID,6704,0,408.1,0.0,-65.0,0
GRID,6705,0,408.1,0.0,-60.0,0
GRID,6706,0,408.1,0.0,-55.0,0
GRID,6707,0,408.1,0.0,-50.0,0
GRID,6708,0,408.1,0.0,-45.0,0
GRID,6709,0,408.1,0.0,-40.0,0
GRID,6710,0,408.1,0.0,-35.0,0
GRID,6711,0,408.1,0.0,-30.0,0
GRID,6712,0,408.1,0.0,-25.0,0
GRID,6713,0,408.1,0.0,-20.0,0
GRID,6714,0,408.1,0.0,-15.0,0
GRID,6715,0,408.1,0.0,-10.0,0
GRID,6716,0,408.1,0.0,-5.0,0
GRID,6717,0,.1,0.0,408.1,0
GRID,6718,0,.1,0.0,300.0,0
GRID,6719,0,300.0,0.0,0.0,0
GRID,6720,0,408.1,0.0,5.0E-14,0
GRID,6721,0,407.79,0.0,0.0,0
GRID,6722,0,407.79,0.0,-1200.0,0
GRID,6723,0,486.89,0.0,-1200.0,0
GRID,6724,0,486.89,0.0,0.0,0
GRID,6725,0,.1,0.0,-1434.39,0
GRID,6726,0,.1,0.0,-1530.98,0
GRID,6727,0,112.4681,0.0,-1387.53,0
GRID,6728,0,205.0147,0.0,-1294.99,0
GRID,6729,0,301.6675,0.0,-1446.23,0
GRID,6730,0,300.0,0.0,-1065.67,0
GRID,6731,0,320.3263,0.0,-1427.57,0
GRID,6732,0,408.1,0.0,-1215.67,0
GRID,6733,0,300.0,0.0,-1050.0,0
GRID,6734,0,408.1,0.0,-1050.0,0
CQUADX4,1,1,1,10,11,2
CQUADX4,2,1,2,11,12,3
CQUADX4,3,1,3,12,13,4
CQUADX4,4,1,4,13,14,5
CQUADX4,5,1,5,14,15,6
CQUADX4,6,1,6,15,16,7
CQUADX4,7,1,7,16,17,8
CQUADX4,8,1,8,17,18,9
CQUADX4,9,1,10,19,20,11
CQUADX4,10,1,11,20,21,12
CQUADX4,11,1,12,21,22,13
CQUADX4,12,1,13,22,23,14
CQUADX4,13,1,14,23,24,15
CQUADX4,14,1,15,24,25,16
CQUADX4,15,1,16,25,26,17
CQUADX4,16,1,17,26,27,18
CQUADX4,17,1,19,28,29,20
CQUADX4,18,1,20,29,30,21
CQUADX4,19,1,21,30,31,22
CQUADX4,20,1,22,31,32,23
CQUADX4,21,1,23,32,33,24
CQUADX4,22,1,24,33,34,25
CQUADX4,23,1,25,34,35,26
CQUADX4,24,1,26,35,36,27
CQUADX4,25,1,28,37,38,29
CQUADX4,26,1,29,38,39,30
CQUADX4,27,1,30,39,40,31
CQUADX4,28,1,31,40,41,32
CQUADX4,29,1,32,41,42,33
CQUADX4,30,1,33,42,43,34
CQUADX4,31,1,34,43,44,35
CQUADX4,32,1,35,44,45,36
CQUADX4,33,1,37,46,47,38
CQUADX4,34,1,38,47,48,39
CQUADX4,35,1,39,48,49,40
CQUADX4,36,1,40,49,50,41
CQUADX4,37,1,41,50,51,42
CQUADX4,38,1,42,51,52,43
CQUADX4,39,1,43,52,53,44
CQUADX4,40,1,44,53,54,45
CQUADX4,41,1,46,55,56,47
CQUADX4,42,1,47,56,57,48
CQUADX4,43,1,48,57,58,49
CQUADX4,44,1,49,58,59,50
CQUADX4,45,1,50,59,60,51
CQUADX4,46,1,51,60,61,52
CQUADX4,47,1,52,61,62,53
CQUADX4,48,1,53,62,63,54
CQUADX4,49,1,55,64,65,56
CQUADX4,50,1,56,65,66,57
CQUADX4,51,1,57,66,67,58
CQUADX4,52,1,58,67,68,59
CQUADX4,53,1,59,68,69,60
CQUADX4,54,1,60,69,70,61
CQUADX4,55,1,61,70,71,62
CQUADX4,56,1,62,71,72,63
CQUADX4,57,1,64,73,74,65
CQUADX4,58,1,65,74,75,66
CQUADX4,59,1,66,75,76,67
CQUADX4,60,1,67,76,77,68
CQUADX4,61,1,68,77,78,69
CQUADX4,62,1,69,78,79,70
CQUADX4,63,1,70,79,80,71
CQUADX4,64,1,71,80,81,72
CQUADX4,65,1,73,82,83,74
CQUADX4,66,1,74,83,84,75
CQUADX4,67,1,75,84,85,76
CQUADX4,68,1,76,85,86,77
CQUADX4,69,1,77,86,87,78
CQUADX4,70,1,78,87,88,79
CQUADX4,71,1,79,88,89,80
CQUADX4,72,1,80,89,90,81
CQUADX4,73,1,82,91,92,83
CQUADX4,74,1,83,92,93,84
CQUADX4,75,1,84,93,94,85
CQUADX4,76,1,85,94,95,86
CQUADX4,77,1,86,95,96,87
CQUADX4,78,1,87,96,97,88
CQUADX4,79,1,88,97,98,89
CQUADX4,80,1,89,98,99,90
CQUADX4,81,1,91,100,101,92
CQUADX4,82,1,92,101,102,93
CQUADX4,83,1,93,102,103,94
CQUADX4,84,1,94,103,104,95
CQUADX4,85,1,95,104,105,96
CQUADX4,86,1,96,105,106,97
CQUADX4,87,1,97,106,107,98
CQUADX4,88,1,98,107,108,99
CQUADX4,89,1,100,109,110,101
CQUADX4,90,1,101,110,111,102
CQUADX4,91,1,102,111,112,103
CQUADX4,92,1,103,112,113,104
CQUADX4,93,1,104,113,114,105
CQUADX4,94,1,105,114,115,106
CQUADX4,95,1,106,115,116,107
CQUADX4,96,1,107,116,117,108
CQUADX4,97,1,109,118,119,110
CQUADX4,98,1,110,119,120,111
CQUADX4,99,1,111,120,121,112
CQUADX4,100,1,112,121,122,113
CQUADX4,101,1,113,122,123,114
CQUADX4,102,1,114,123,124,115
CQUADX4,103,1,115,124,125,116
CQUADX4,104,1,116,125,126,117
CQUADX4,105,1,118,127,128,119
CQUADX4,106,1,119,128,129,120
CQUADX4,107,1,120,129,130,121
CQUADX4,108,1,121,130,131,122
CQUADX4,109,1,122,131,132,123
CQUADX4,110,1,123,132,133,124
CQUADX4,111,1,124,133,134,125
CQUADX4,112,1,125,134,135,126
CQUADX4,113,1,127,136,137,128
CQUADX4,114,1,128,137,138,129
CQUADX4,115,1,129,138,139,130
CQUADX4,116,1,130,139,140,131
CQUADX4,117,1,131,140,141,132
CQUADX4,118,1,132,141,142,133
CQUADX4,119,1,133,142,143,134
CQUADX4,120,1,134,143,144,135
CQUADX4,121,1,136,145,146,137
CQUADX4,122,1,137,146,147,138
CQUADX4,123,1,138,147,148,139
CQUADX4,124,1,139,148,149,140
CQUADX4,125,1,140,149,150,141
CQUADX4,126,1,141,150,151,142
CQUADX4,127,1,142,151,152,143
CQUADX4,128,1,143,152,153,144
CQUADX4,129,1,145,154,155,146
CQUADX4,130,1,146,155,156,147
CQUADX4,131,1,147,156,157,148
CQUADX4,132,1,148,157,158,149
CQUADX4,133,1,149,158,159,150
CQUADX4,134,1,150,159,160,151
CQUADX4,135,1,151,160,161,152
CQUADX4,136,1,152,161,162,153
CQUADX4,137,1,154,163,164,155
CQUADX4,138,1,155,164,165,156
CQUADX4,139,1,156,165,166,157
CQUADX4,140,1,157,166,167,158
CQUADX4,141,1,158,167,168,159
CQUADX4,142,1,159,168,169,160
CQUADX4,143,1,160,169,170,161
CQUADX4,144,1,161,170,171,162
CQUADX4,145,1,163,172,173,164
CQUADX4,146,1,164,173,174,165
CQUADX4,147,1,165,174,175,166
CQUADX4,148,1,166,175,176,167
CQUADX4,149,1,167,176,177,168
CQUADX4,150,1,168,177,178,169
CQUADX4,151,1,169,178,179,170
CQUADX4,152,1,170,179,180,171
CQUADX4,153,1,172,181,182,173
CQUADX4,154,1,173,182,183,174
CQUADX4,155,1,174,183,184,175
CQUADX4,156,1,175,184,185,176
CQUADX4,157,1,176,185,186,177
CQUADX4,158,1,177,186,187,178
CQUADX4,159,1,178,187,188,179
CQUADX4,160,1,179,188,189,180
CQUADX4,161,1,181,190,191,182
CQUADX4,162,1,182,191,192,183
CQUADX4,163,1,183,192,193,184
CQUADX4,164,1,184,193,194,185
CQUADX4,165,1,185,194,195,186
CQUADX4,166,1,186,195,196,187
CQUADX4,167,1,187,196,197,188
CQUADX4,168,1,188,197,198,189
CQUADX4,169,1,190,199,200,191
CQUADX4,170,1,191,200,201,192
CQUADX4,171,1,192,201,202,193
CQUADX4,172,1,193,202,203,194
CQUADX4,173,1,194,203,204,195
CQUADX4,174,1,195,204,205,196
CQUADX4,175,1,196,205,206,197
CQUADX4,176,1,197,206,207,198
CQUADX4,177,1,199,208,209,200
CQUADX4,178,1,200,209,210,201
CQUADX4,179,1,201,210,211,202
CQUADX4,180,1,202,211,212,203
CQUADX4,181,1,203,212,213,204
CQUADX4,182,1,204,213,214,205
CQUADX4,183,1,205,214,215,206
CQUADX4,184,1,206,215,216,207
CQUADX4,185,1,208,217,218,209
CQUADX4,186,1,209,218,219,210
CQUADX4,187,1,210,219,220,211
CQUADX4,188,1,211,220,221,212
CQUADX4,189,1,212,221,222,213
CQUADX4,190,1,213,222,223,214
CQUADX4,191,1,214,223,224,215
CQUADX4,192,1,215,224,225,216
CQUADX4,193,1,217,226,227,218
CQUADX4,194,1,218,227,228,219
CQUADX4,195,1,219,228,229,220
CQUADX4,196,1,220,229,230,221
CQUADX4,197,1,221,230,231,222
CQUADX4,198,1,222,231,232,223
CQUADX4,199,1,223,232,233,224
CQUADX4,200,1,224,233,234,225
CQUADX4,201,1,226,235,236,227
CQUADX4,202,1,227,236,237,228
CQUADX4,203,1,228,237,238,229
CQUADX4,204,1,229,238,239,230
CQUADX4,205,1,230,239,240,231
CQUADX4,206,1,231,240,241,232
CQUADX4,207,1,232,241,242,233
CQUADX4,208,1,233,242,243,234
CQUADX4,209,1,235,244,245,236
CQUADX4,210,1,236,245,246,237
CQUADX4,211,1,237,246,247,238
CQUADX4,212,1,238,247,248,239
CQUADX4,213,1,239,248,249,240
CQUADX4,214,1,240,249,250,241
CQUADX4,215,1,241,250,251,242
CQUADX4,216,1,242,251,252,243
CQUADX4,217,1,244,253,254,245
CQUADX4,218,1,245,254,255,246
CQUADX4,219,1,246,255,256,247
CQUADX4,220,1,247,256,257,248
CQUADX4,221,1,248,257,258,249
CQUADX4,222,1,249,258,259,250
CQUADX4,223,1,250,259,260,251
CQUADX4,224,1,251,260,261,252
CQUADX4,225,1,253,262,263,254
CQUADX4,226,1,254,263,264,255
CQUADX4,227,1,255,264,265,256
CQUADX4,228,1,256,265,266,257
CQUADX4,229,1,257,266,267,258
CQUADX4,230,1,258,267,268,259
CQUADX4,231,1,259,268,269,260
CQUADX4,232,1,260,269,270,261
CQUADX4,233,1,262,271,272,263
CQUADX4,234,1,263,272,273,264
CQUADX4,235,1,264,273,274,265
CQUADX4,236,1,265,274,275,266
CQUADX4,237,1,266,275,276,267
CQUADX4,238,1,267,276,277,268
CQUADX4,239,1,268,277,278,269
CQUADX4,240,1,269,278,279,270
CQUADX4,241,1,271,280,281,272
CQUADX4,242,1,272,281,282,273
CQUADX4,243,1,273,282,283,274
CQUADX4,244,1,274,283,284,275
CQUADX4,245,1,275,284,285,276
CQUADX4,246,1,276,285,286,277
CQUADX4,247,1,277,286,287,278
CQUADX4,248,1,278,287,288,279
CQUADX4,249,1,280,289,290,281
CQUADX4,250,1,281,290,291,282
CQUADX4,251,1,282,291,292,283
CQUADX4,252,1,283,292,293,284
CQUADX4,253,1,284,293,294,285
CQUADX4,254,1,285,294,295,286
CQUADX4,255,1,286,295,296,287
CQUADX4,256,1,287,296,297,288
CQUADX4,257,1,289,298,299,290
CQUADX4,258,1,290,299,300,291
CQUADX4,259,1,291,300,301,292
CQUADX4,260,1,292,301,302,293
CQUADX4,261,1,293,302,303,294
CQUADX4,262,1,294,303,304,295
CQUADX4,263,1,295,304,305,296
CQUADX4,264,1,296,305,306,297
CQUADX4,265,1,298,307,308,299
CQUADX4,266,1,299,308,309,300
CQUADX4,267,1,300,309,310,301
CQUADX4,268,1,301,310,311,302
CQUADX4,269,1,302,311,312,303
CQUADX4,270,1,303,312,313,304
CQUADX4,271,1,304,313,314,305
CQUADX4,272,1,305,314,315,306
CQUADX4,273,1,307,316,317,308
CQUADX4,274,1,308,317,318,309
CQUADX4,275,1,309,318,319,310
CQUADX4,276,1,310,319,320,311
CQUADX4,277,1,311,320,321,312
CQUADX4,278,1,312,321,322,313
CQUADX4,279,1,313,322,323,314
CQUADX4,280,1,314,323,324,315
CQUADX4,281,1,316,325,326,317
CQUADX4,282,1,317,326,327,318
CQUADX4,283,1,318,327,328,319
CQUADX4,284,1,319,328,329,320
CQUADX4,285,1,320,329,330,321
CQUADX4,286,1,321,330,331,322
CQUADX4,287,1,322,331,332,323
CQUADX4,288,1,323,332,333,324
CQUADX4,289,1,325,334,335,326
CQUADX4,290,1,326,335,336,327
CQUADX4,291,1,327,336,337,328
CQUADX4,292,1,328,337,338,329
CQUADX4,293,1,329,338,339,330
CQUADX4,294,1,330,339,340,331
CQUADX4,295,1,331,340,341,332
CQUADX4,296,1,332,341,342,333
CQUADX4,297,1,334,343,344,335
CQUADX4,298,1,335,344,345,336
CQUADX4,299,1,336,345,346,337
CQUADX4,300,1,337,346,347,338
CQUADX4,301,1,338,347,348,339
CQUADX4,302,1,339,348,349,340
CQUADX4,303,1,340,349,350,341
CQUADX4,304,1,341,350,351,342
CQUADX4,305,1,343,352,353,344
CQUADX4,306,1,344,353,354,345
CQUADX4,307,1,345,354,355,346
CQUADX4,308,1,346,355,356,347
CQUADX4,309,1,347,356,357,348
CQUADX4,310,1,348,357,358,349
CQUADX4,311,1,349,358,359,350
CQUADX4,312,1,350,359,360,351
CQUADX4,313,1,352,361,362,353
CQUADX4,314,1,353,362,363,354
CQUADX4,315,1,354,363,364,355
CQUADX4,316,1,355,364,365,356
CQUADX4,317,1,356,365,366,357
CQUADX4,318,1,357,366,367,358
CQUADX4,319,1,358,367,368,359
CQUADX4,320,1,359,368,369,360
CQUADX4,321,1,361,370,371,362
CQUADX4,322,1,362,371,372,363
CQUADX4,323,1,363,372,373,364
CQUADX4,324,1,364,373,374,365
CQUADX4,325,1,365,374,375,366
CQUADX4,326,1,366,375,376,367
CQUADX4,327,1,367,376,377,368
CQUADX4,328,1,368,377,378,369
CQUADX4,329,1,370,379,380,371
CQUADX4,330,1,371,380,381,372
CQUADX4,331,1,372,381,382,373
CQUADX4,332,1,373,382,383,374
CQUADX4,333,1,374,383,384,375
CQUADX4,334,1,375,384,385,376
CQUADX4,335,1,376,385,386,377
CQUADX4,336,1,377,386,387,378
CQUADX4,337,1,379,388,389,380
CQUADX4,338,1,380,389,390,381
CQUADX4,339,1,381,390,391,382
CQUADX4,340,1,382,391,392,383
CQUADX4,341,1,383,392,393,384
CQUADX4,342,1,384,393,394,385
CQUADX4,343,1,385,394,395,386
CQUADX4,344,1,386,395,396,387
CQUADX4,345,1,388,397,398,389
CQUADX4,346,1,389,398,399,390
CQUADX4,347,1,390,399,400,391
CQUADX4,348,1,391,400,401,392
CQUADX4,349,1,392,401,402,393
CQUADX4,350,1,393,402,403,394
CQUADX4,351,1,394,403,404,395
CQUADX4,352,1,395,404,405,396
CQUADX4,353,1,397,406,407,398
CQUADX4,354,1,398,407,408,399
CQUADX4,355,1,399,408,409,400
CQUADX4,356,1,400,409,410,401
CQUADX4,357,1,401,410,411,402
CQUADX4,358,1,402,411,412,403
CQUADX4,359,1,403,412,413,404
CQUADX4,360,1,404,413,414,405
CQUADX4,361,1,406,415,416,407
CQUADX4,362,1,407,416,417,408
CQUADX4,363,1,408,417,418,409
CQUADX4,364,1,409,418,419,410
CQUADX4,365,1,410,419,420,411
CQUADX4,366,1,411,420,421,412
CQUADX4,367,1,412,421,422,413
CQUADX4,368,1,413,422,423,414
CQUADX4,369,1,415,424,425,416
CQUADX4,370,1,416,425,426,417
CQUADX4,371,1,417,426,427,418
CQUADX4,372,1,418,427,428,419
CQUADX4,373,1,419,428,429,420
CQUADX4,374,1,420,429,430,421
CQUADX4,375,1,421,430,431,422
CQUADX4,376,1,422,431,432,423
CQUADX4,377,1,424,433,434,425
CQUADX4,378,1,425,434,435,426
CQUADX4,379,1,426,435,436,427
CQUADX4,380,1,427,436,437,428
CQUADX4,381,1,428,437,438,429
CQUADX4,382,1,429,438,439,430
CQUADX4,383,1,430,439,440,431
CQUADX4,384,1,431,440,441,432
CQUADX4,385,1,433,442,443,434
CQUADX4,386,1,434,443,444,435
CQUADX4,387,1,435,444,445,436
CQUADX4,388,1,436,445,446,437
CQUADX4,389,1,437,446,447,438
CQUADX4,390,1,438,447,448,439
CQUADX4,391,1,439,448,449,440
CQUADX4,392,1,440,449,450,441
CQUADX4,393,1,442,451,452,443
CQUADX4,394,1,443,452,453,444
CQUADX4,395,1,444,453,454,445
CQUADX4,396,1,445,454,455,446
CQUADX4,397,1,446,455,456,447
CQUADX4,398,1,447,456,457,448
CQUADX4,399,1,448,457,458,449
CQUADX4,400,1,449,458,459,450
CQUADX4,401,1,451,460,461,452
CQUADX4,402,1,452,461,462,453
CQUADX4,403,1,453,462,463,454
CQUADX4,404,1,454,463,464,455
CQUADX4,405,1,455,464,465,456
CQUADX4,406,1,456,465,466,457
CQUADX4,407,1,457,466,467,458
CQUADX4,408,1,458,467,468,459
CQUADX4,409,1,460,469,470,461
CQUADX4,410,1,461,470,471,462
CQUADX4,411,1,462,471,472,463
CQUADX4,412,1,463,472,473,464
CQUADX4,413,1,464,473,474,465
CQUADX4,414,1,465,474,475,466
CQUADX4,415,1,466,475,476,467
CQUADX4,416,1,467,476,477,468
CQUADX4,417,1,469,478,479,470
CQUADX4,418,1,470,479,480,471
CQUADX4,419,1,471,480,481,472
CQUADX4,420,1,472,481,482,473
CQUADX4,421,1,473,482,483,474
CQUADX4,422,1,474,483,484,475
CQUADX4,423,1,475,484,485,476
CQUADX4,424,1,476,485,486,477
CQUADX4,425,1,478,487,488,479
CQUADX4,426,1,479,488,489,480
CQUADX4,427,1,480,489,490,481
CQUADX4,428,1,481,490,491,482
CQUADX4,429,1,482,491,492,483
CQUADX4,430,1,483,492,493,484
CQUADX4,431,1,484,493,494,485
CQUADX4,432,1,485,494,495,486
CQUADX4,433,1,487,496,497,488
CQUADX4,434,1,488,497,498,489
CQUADX4,435,1,489,498,499,490
CQUADX4,436,1,490,499,500,491
CQUADX4,437,1,491,500,501,492
CQUADX4,438,1,492,501,502,493
CQUADX4,439,1,493,502,503,494
CQUADX4,440,1,494,503,504,495
CQUADX4,441,1,496,505,506,497
CQUADX4,442,1,497,506,507,498
CQUADX4,443,1,498,507,508,499
CQUADX4,444,1,499,508,509,500
CQUADX4,445,1,500,509,510,501
CQUADX4,446,1,501,510,511,502
CQUADX4,447,1,502,511,512,503
CQUADX4,448,1,503,512,513,504
CQUADX4,449,1,505,514,515,506
CQUADX4,450,1,506,515,516,507
CQUADX4,451,1,507,516,517,508
CQUADX4,452,1,508,517,518,509
CQUADX4,453,1,509,518,519,510
CQUADX4,454,1,510,519,520,511
CQUADX4,455,1,511,520,521,512
CQUADX4,456,1,512,521,522,513
CQUADX4,457,1,514,523,524,515
CQUADX4,458,1,515,524,525,516
CQUADX4,459,1,516,525,526,517
CQUADX4,460,1,517,526,527,518
CQUADX4,461,1,518,527,528,519
CQUADX4,462,1,519,528,529,520
CQUADX4,463,1,520,529,530,521
CQUADX4,464,1,521,530,531,522
CQUADX4,465,1,523,532,533,524
CQUADX4,466,1,524,533,534,525
CQUADX4,467,1,525,534,535,526
CQUADX4,468,1,526,535,536,527
CQUADX4,469,1,527,536,537,528
CQUADX4,470,1,528,537,538,529
CQUADX4,471,1,529,538,539,530
CQUADX4,472,1,530,539,540,531
CQUADX4,473,1,532,541,542,533
CQUADX4,474,1,533,542,543,534
CQUADX4,475,1,534,543,544,535
CQUADX4,476,1,535,544,545,536
CQUADX4,477,1,536,545,546,537
CQUADX4,478,1,537,546,547,538
CQUADX4,479,1,538,547,548,539
CQUADX4,480,1,539,548,549,540
CQUADX4,481,1,541,550,551,542
CQUADX4,482,1,542,551,552,543
CQUADX4,483,1,543,552,553,544
CQUADX4,484,1,544,553,554,545
CQUADX4,485,1,545,554,555,546
CQUADX4,486,1,546,555,556,547
CQUADX4,487,1,547,556,557,548
CQUADX4,488,1,548,557,558,549
CQUADX4,489,1,550,559,560,551
CQUADX4,490,1,551,560,561,552
CQUADX4,491,1,552,561,562,553
CQUADX4,492,1,553,562,563,554
CQUADX4,493,1,554,563,564,555
CQUADX4,494,1,555,564,565,556
CQUADX4,495,1,556,565,566,557
CQUADX4,496,1,557,566,567,558
CQUADX4,497,1,559,568,569,560
CQUADX4,498,1,560,569,570,561
CQUADX4,499,1,561,570,571,562
CQUADX4,500,1,562,571,572,563
CQUADX4,501,1,563,572,573,564
CQUADX4,502,1,564,573,574,565
CQUADX4,503,1,565,574,575,566
CQUADX4,504,1,566,575,576,567
CQUADX4,505,1,568,577,578,569
CQUADX4,506,1,569,578,579,570
CQUADX4,507,1,570,579,580,571
CQUADX4,508,1,571,580,581,572
CQUADX4,509,1,572,581,582,573
CQUADX4,510,1,573,582,583,574
CQUADX4,511,1,574,583,584,575
CQUADX4,512,1,575,584,585,576
CQUADX4,513,1,577,586,587,578
CQUADX4,514,1,578,587,588,579
CQUADX4,515,1,579,588,589,580
CQUADX4,516,1,580,589,590,581
CQUADX4,517,1,581,590,591,582
CQUADX4,518,1,582,591,592,583
CQUADX4,519,1,583,592,593,584
CQUADX4,520,1,584,593,594,585
CQUADX4,521,1,586,595,596,587
CQUADX4,522,1,587,596,597,588
CQUADX4,523,1,588,597,598,589
CQUADX4,524,1,589,598,599,590
CQUADX4,525,1,590,599,600,591
CQUADX4,526,1,591,600,601,592
CQUADX4,527,1,592,601,602,593
CQUADX4,528,1,593,602,603,594
CQUADX4,529,1,595,604,605,596
CQUADX4,530,1,596,605,606,597
CQUADX4,531,1,597,606,607,598
CQUADX4,532,1,598,607,608,599
CQUADX4,533,1,599,608,609,600
CQUADX4,534,1,600,609,610,601
CQUADX4,535,1,601,610,611,602
CQUADX4,536,1,602,611,612,603
CQUADX4,537,1,604,613,614,605
CQUADX4,538,1,605,614,615,606
CQUADX4,539,1,606,615,616,607
CQUADX4,540,1,607,616,617,608
CQUADX4,541,1,608,617,618,609
CQUADX4,542,1,609,618,619,610
CQUADX4,543,1,610,619,620,611
CQUADX4,544,1,611,620,621,612
CQUADX4,545,1,613,622,623,614
CQUADX4,546,1,614,623,624,615
CQUADX4,547,1,615,624,625,616
CQUADX4,548,1,616,625,626,617
CQUADX4,549,1,617,626,627,618
CQUADX4,550,1,618,627,628,619
CQUADX4,551,1,619,628,629,620
CQUADX4,552,1,620,629,630,621
CQUADX4,553,1,622,631,632,623
CQUADX4,554,1,623,632,633,624
CQUADX4,555,1,624,633,634,625
CQUADX4,556,1,625,634,635,626
CQUADX4,557,1,626,635,636,627
CQUADX4,558,1,627,636,637,628
CQUADX4,559,1,628,637,638,629
CQUADX4,560,1,629,638,639,630
CQUADX4,561,1,631,640,641,632
CQUADX4,562,1,632,641,642,633
CQUADX4,563,1,633,642,643,634
CQUADX4,564,1,634,643,644,635
CQUADX4,565,1,635,644,645,636
CQUADX4,566,1,636,645,646,637
CQUADX4,567,1,637,646,647,638
CQUADX4,568,1,638,647,648,639
CQUADX4,569,1,640,649,650,641
CQUADX4,570,1,641,650,651,642
CQUADX4,571,1,642,651,652,643
CQUADX4,572,1,643,652,653,644
CQUADX4,573,1,644,653,654,645
CQUADX4,574,1,645,654,655,646
CQUADX4,575,1,646,655,656,647
CQUADX4,576,1,647,656,657,648
CQUADX4,577,1,649,658,659,650
CQUADX4,578,1,650,659,660,651
CQUADX4,579,1,651,660,661,652
CQUADX4,580,1,652,661,662,653
CQUADX4,581,1,653,662,663,654
CQUADX4,582,1,654,663,664,655
CQUADX4,583,1,655,664,665,656
CQUADX4,584,1,656,665,666,657
CQUADX4,585,1,658,667,668,659
CQUADX4,586,1,659,668,669,660
CQUADX4,587,1,660,669,670,661
CQUADX4,588,1,661,670,671,662
CQUADX4,589,1,662,671,672,663
CQUADX4,590,1,663,672,673,664
CQUADX4,591,1,664,673,674,665
CQUADX4,592,1,665,674,675,666
CQUADX4,593,1,667,676,677,668
CQUADX4,594,1,668,677,678,669
CQUADX4,595,1,669,678,679,670
CQUADX4,596,1,670,679,680,671
CQUADX4,597,1,671,680,681,672
CQUADX4,598,1,672,681,682,673
CQUADX4,599,1,673,682,683,674
CQUADX4,600,1,674,683,684,675
CQUADX4,601,1,676,685,686,677
CQUADX4,602,1,677,686,687,678
CQUADX4,603,1,678,687,688,679
CQUADX4,604,1,679,688,689,680
CQUADX4,605,1,680,689,690,681
CQUADX4,606,1,681,690,691,682
CQUADX4,607,1,682,691,692,683
CQUADX4,608,1,683,692,693,684
CQUADX4,609,1,685,694,695,686
CQUADX4,610,1,686,695,696,687
CQUADX4,611,1,687,696,697,688
CQUADX4,612,1,688,697,698,689
CQUADX4,613,1,689,698,699,690
CQUADX4,614,1,690,699,700,691
CQUADX4,615,1,691,700,701,692
CQUADX4,616,1,692,701,702,693
CQUADX4,617,1,694,703,704,695
CQUADX4,618,1,695,704,705,696
CQUADX4,619,1,696,705,706,697
CQUADX4,620,1,697,706,707,698
CQUADX4,621,1,698,707,708,699
CQUADX4,622,1,699,708,709,700
CQUADX4,623,1,700,709,710,701
CQUADX4,624,1,701,710,711,702
CQUADX4,625,1,703,712,713,704
CQUADX4,626,1,704,713,714,705
CQUADX4,627,1,705,714,715,706
CQUADX4,628,1,706,715,716,707
CQUADX4,629,1,707,716,717,708
CQUADX4,630,1,708,717,718,709
CQUADX4,631,1,709,718,719,710
CQUADX4,632,1,710,719,720,711
CQUADX4,633,1,712,721,722,713
CQUADX4,634,1,713,722,723,714
CQUADX4,635,1,714,723,724,715
CQUADX4,636,1,715,724,725,716
CQUADX4,637,1,716,725,726,717
CQUADX4,638,1,717,726,727,718
CQUADX4,639,1,718,727,728,719
CQUADX4,640,1,719,728,729,720
CQUADX4,641,1,721,730,731,722
CQUADX4,642,1,722,731,732,723
CQUADX4,643,1,723,732,733,724
CQUADX4,644,1,724,733,734,725
CQUADX4,645,1,725,734,735,726
CQUADX4,646,1,726,735,736,727
CQUADX4,647,1,727,736,737,728
CQUADX4,648,1,728,737,738,729
CQUADX4,649,1,730,739,740,731
CQUADX4,650,1,731,740,741,732
CQUADX4,651,1,732,741,742,733
CQUADX4,652,1,733,742,743,734
CQUADX4,653,1,734,743,744,735
CQUADX4,654,1,735,744,745,736
CQUADX4,655,1,736,745,746,737
CQUADX4,656,1,737,746,747,738
CQUADX4,657,1,739,748,749,740
CQUADX4,658,1,740,749,750,741
CQUADX4,659,1,741,750,751,742
CQUADX4,660,1,742,751,752,743
CQUADX4,661,1,743,752,753,744
CQUADX4,662,1,744,753,754,745
CQUADX4,663,1,745,754,755,746
CQUADX4,664,1,746,755,756,747
CQUADX4,665,1,748,757,758,749
CQUADX4,666,1,749,758,759,750
CQUADX4,667,1,750,759,760,751
CQUADX4,668,1,751,760,761,752
CQUADX4,669,1,752,761,762,753
CQUADX4,670,1,753,762,763,754
CQUADX4,671,1,754,763,764,755
CQUADX4,672,1,755,764,765,756
CQUADX4,673,1,757,766,767,758
CQUADX4,674,1,758,767,768,759
CQUADX4,675,1,759,768,769,760
CQUADX4,676,1,760,769,770,761
CQUADX4,677,1,761,770,771,762
CQUADX4,678,1,762,771,772,763
CQUADX4,679,1,763,772,773,764
CQUADX4,680,1,764,773,774,765
CQUADX4,681,1,766,775,776,767
CQUADX4,682,1,767,776,777,768
CQUADX4,683,1,768,777,778,769
CQUADX4,684,1,769,778,779,770
CQUADX4,685,1,770,779,780,771
CQUADX4,686,1,771,780,781,772
CQUADX4,687,1,772,781,782,773
CQUADX4,688,1,773,782,783,774
CQUADX4,689,1,775,784,785,776
CQUADX4,690,1,776,785,786,777
CQUADX4,691,1,777,786,787,778
CQUADX4,692,1,778,787,788,779
CQUADX4,693,1,779,788,789,780
CQUADX4,694,1,780,789,790,781
CQUADX4,695,1,781,790,791,782
CQUADX4,696,1,782,791,792,783
CQUADX4,697,1,784,793,794,785
CQUADX4,698,1,785,794,795,786
CQUADX4,699,1,786,795,796,787
CQUADX4,700,1,787,796,797,788
CQUADX4,701,1,788,797,798,789
CQUADX4,702,1,789,798,799,790
CQUADX4,703,1,790,799,800,791
CQUADX4,704,1,791,800,801,792
CQUADX4,705,1,793,802,803,794
CQUADX4,706,1,794,803,804,795
CQUADX4,707,1,795,804,805,796
CQUADX4,708,1,796,805,806,797
CQUADX4,709,1,797,806,807,798
CQUADX4,710,1,798,807,808,799
CQUADX4,711,1,799,808,809,800
CQUADX4,712,1,800,809,810,801
CQUADX4,713,1,802,811,812,803
CQUADX4,714,1,803,812,813,804
CQUADX4,715,1,804,813,814,805
CQUADX4,716,1,805,814,815,806
CQUADX4,717,1,806,815,816,807
CQUADX4,718,1,807,816,817,808
CQUADX4,719,1,808,817,818,809
CQUADX4,720,1,809,818,819,810
CQUADX4,721,1,811,820,821,812
CQUADX4,722,1,812,821,822,813
CQUADX4,723,1,813,822,823,814
CQUADX4,724,1,814,823,824,815
CQUADX4,725,1,815,824,825,816
CQUADX4,726,1,816,825,826,817
CQUADX4,727,1,817,826,827,818
CQUADX4,728,1,818,827,828,819
CQUADX4,729,1,820,829,830,821
CQUADX4,730,1,821,830,831,822
CQUADX4,731,1,822,831,832,823
CQUADX4,732,1,823,832,833,824
CQUADX4,733,1,824,833,834,825
CQUADX4,734,1,825,834,835,826
CQUADX4,735,1,826,835,836,827
CQUADX4,736,1,827,836,837,828
CQUADX4,737,1,6720,5475,1,5576
CQUADX4,738,1,5475,5476,10,1
CQUADX4,739,1,5476,5477,19,10
CQUADX4,740,1,5477,5478,28,19
CQUADX4,741,1,5478,5479,37,28
CQUADX4,742,1,5479,5480,46,37
CQUADX4,743,1,5480,5481,55,46
CQUADX4,744,1,5481,5482,64,55
CQUADX4,745,1,5482,5483,73,64
CQUADX4,746,1,5483,5484,82,73
CQUADX4,747,1,5484,5485,91,82
CQUADX4,748,1,5485,5486,100,91
CQUADX4,749,1,5486,5487,109,100
CQUADX4,750,1,5487,5488,118,109
CQUADX4,751,1,5488,5489,127,118
CQUADX4,752,1,5489,5490,136,127
CQUADX4,753,1,5490,5491,145,136
CQUADX4,754,1,5491,5492,154,145
CQUADX4,755,1,5492,5493,163,154
CQUADX4,756,1,5493,5494,172,163
CQUADX4,757,1,5494,5495,181,172
CQUADX4,758,1,5495,5496,190,181
CQUADX4,759,1,5496,5497,199,190
CQUADX4,760,1,5497,5498,208,199
CQUADX4,761,1,5498,5499,217,208
CQUADX4,762,1,5499,5500,226,217
CQUADX4,763,1,5500,5501,235,226
CQUADX4,764,1,5501,5502,244,235
CQUADX4,765,1,5502,5503,253,244
CQUADX4,766,1,5503,5504,262,253
CQUADX4,767,1,5504,5505,271,262
CQUADX4,768,1,5505,5506,280,271
CQUADX4,769,1,5506,5507,289,280
CQUADX4,770,1,5507,5508,298,289
CQUADX4,771,1,5508,5509,307,298
CQUADX4,772,1,5509,5510,316,307
CQUADX4,773,1,5510,5511,325,316
CQUADX4,774,1,5511,5512,334,325
CQUADX4,775,1,5512,5513,343,334
CQUADX4,776,1,5513,5514,352,343
CQUADX4,777,1,5514,5515,361,352
CQUADX4,778,1,5515,5516,370,361
CQUADX4,779,1,5516,5517,379,370
CQUADX4,780,1,5517,5518,388,379
CQUADX4,781,1,5518,5519,397,388
CQUADX4,782,1,5519,5520,406,397
CQUADX4,783,1,5520,5521,415,406
CQUADX4,784,1,5521,5522,424,415
CQUADX4,785,1,5522,5523,433,424
CQUADX4,786,1,5523,5524,442,433
CQUADX4,787,1,5524,5525,451,442
CQUADX4,788,1,5525,5526,460,451
CQUADX4,789,1,5526,5527,469,460
CQUADX4,790,1,5527,5528,478,469
CQUADX4,791,1,5528,5529,487,478
CQUADX4,792,1,5529,5530,496,487
CQUADX4,793,1,5530,5531,505,496
CQUADX4,794,1,5531,5532,514,505
CQUADX4,795,1,5532,5533,523,514
CQUADX4,796,1,5533,5534,532,523
CQUADX4,797,1,5534,5535,541,532
CQUADX4,798,1,5535,5536,550,541
CQUADX4,799,1,5536,5537,559,550
CQUADX4,800,1,5537,5538,568,559
CQUADX4,801,1,5538,5539,577,568
CQUADX4,802,1,5539,5540,586,577
CQUADX4,803,1,5540,5541,595,586
CQUADX4,804,1,5541,5542,604,595
CQUADX4,805,1,5542,5543,613,604
CQUADX4,806,1,5543,5544,622,613
CQUADX4,807,1,5544,5545,631,622
CQUADX4,808,1,5545,5546,640,631
CQUADX4,809,1,5546,5547,649,640
CQUADX4,810,1,5547,5548,658,649
CQUADX4,811,1,5548,5549,667,658
CQUADX4,812,1,5549,5550,676,667
CQUADX4,813,1,5550,5551,685,676
CQUADX4,814,1,5551,5552,694,685
CQUADX4,815,1,5552,5553,703,694
CQUADX4,816,1,5553,5554,712,703
CQUADX4,817,1,5554,5555,721,712
CQUADX4,818,1,5555,5556,730,721
CQUADX4,819,1,5556,5557,739,730
CQUADX4,820,1,5557,5558,748,739
CQUADX4,821,1,5558,5559,757,748
CQUADX4,822,1,5559,5560,766,757
CQUADX4,823,1,5560,5561,775,766
CQUADX4,824,1,5561,5562,784,775
CQUADX4,825,1,5562,5563,793,784
CQUADX4,826,1,5563,5564,802,793
CQUADX4,827,1,5564,5565,811,802
CQUADX4,828,1,5565,5566,820,811
CQUADX4,829,1,5566,5567,829,820
CQUADX4,830,1,5567,6717,5373,829
CQUADX4,831,1,829,5373,5374,830
CQUADX4,832,1,830,5374,5375,831
CQUADX4,833,1,831,5375,5376,832
CQUADX4,834,1,832,5376,5377,833
CQUADX4,835,1,833,5377,5378,834
CQUADX4,836,1,834,5378,5379,835
CQUADX4,837,1,835,5379,5380,836
CQUADX4,838,1,836,5380,5381,837
CQUADX4,839,1,837,5381,6718,5382
CQUADX4,840,1,828,837,5382,5383
CQUADX4,841,1,819,828,5383,5384
CQUADX4,842,1,810,819,5384,5385
CQUADX4,843,1,801,810,5385,5386
CQUADX4,844,1,792,801,5386,5387
CQUADX4,845,1,783,792,5387,5388
CQUADX4,846,1,774,783,5388,5389
CQUADX4,847,1,765,774,5389,5390
CQUADX4,848,1,756,765,5390,5391
CQUADX4,849,1,747,756,5391,5392
CQUADX4,850,1,738,747,5392,5393
CQUADX4,851,1,729,738,5393,5394
CQUADX4,852,1,720,729,5394,5395
CQUADX4,853,1,711,720,5395,5396
CQUADX4,854,1,702,711,5396,5397
CQUADX4,855,1,693,702,5397,5398
CQUADX4,856,1,684,693,5398,5399
CQUADX4,857,1,675,684,5399,5400
CQUADX4,858,1,666,675,5400,5401
CQUADX4,859,1,657,666,5401,5402
CQUADX4,860,1,648,657,5402,5403
CQUADX4,861,1,639,648,5403,5404
CQUADX4,862,1,630,639,5404,5405
CQUADX4,863,1,621,630,5405,5406
CQUADX4,864,1,612,621,5406,5407
CQUADX4,865,1,603,612,5407,5408
CQUADX4,866,1,594,603,5408,5409
CQUADX4,867,1,585,594,5409,5410
CQUADX4,868,1,576,585,5410,5411
CQUADX4,869,1,567,576,5411,5412
CQUADX4,870,1,558,567,5412,5413
CQUADX4,871,1,549,558,5413,5414
CQUADX4,872,1,540,549,5414,5415
CQUADX4,873,1,531,540,5415,5416
CQUADX4,874,1,522,531,5416,5417
CQUADX4,875,1,513,522,5417,5418
CQUADX4,876,1,504,513,5418,5419
CQUADX4,877,1,495,504,5419,5420
CQUADX4,878,1,486,495,5420,5421
CQUADX4,879,1,477,486,5421,5422
CQUADX4,880,1,468,477,5422,5423
CQUADX4,881,1,459,468,5423,5424
CQUADX4,882,1,450,459,5424,5425
CQUADX4,883,1,441,450,5425,5426
CQUADX4,884,1,432,441,5426,5427
CQUADX4,885,1,423,432,5427,5428
CQUADX4,886,1,414,423,5428,5429
CQUADX4,887,1,405,414,5429,5430
CQUADX4,888,1,396,405,5430,5431
CQUADX4,889,1,387,396,5431,5432
CQUADX4,890,1,378,387,5432,5433
CQUADX4,891,1,369,378,5433,5434
CQUADX4,892,1,360,369,5434,5435
CQUADX4,893,1,351,360,5435,5436
CQUADX4,894,1,342,351,5436,5437
CQUADX4,895,1,333,342,5437,5438
CQUADX4,896,1,324,333,5438,5439
CQUADX4,897,1,315,324,5439,5440
CQUADX4,898,1,306,315,5440,5441
CQUADX4,899,1,297,306,5441,5442
CQUADX4,900,1,288,297,5442,5443
CQUADX4,901,1,279,288,5443,5444
CQUADX4,902,1,270,279,5444,5445
CQUADX4,903,1,261,270,5445,5446
CQUADX4,904,1,252,261,5446,5447
CQUADX4,905,1,243,252,5447,5448
CQUADX4,906,1,234,243,5448,5449
CQUADX4,907,1,225,234,5449,5450
CQUADX4,908,1,216,225,5450,5451
CQUADX4,909,1,207,216,5451,5452
CQUADX4,910,1,198,207,5452,5453
CQUADX4,911,1,189,198,5453,5454
CQUADX4,912,1,180,189,5454,5455
CQUADX4,913,1,171,180,5455,5456
CQUADX4,914,1,162,171,5456,5457
CQUADX4,915,1,153,162,5457,5458
CQUADX4,916,1,144,153,5458,5459
CQUADX4,917,1,135,144,5459,5460
CQUADX4,918,1,126,135,5460,5461
CQUADX4,919,1,117,126,5461,5462
CQUADX4,920,1,108,117,5462,5463
CQUADX4,921,1,99,108,5463,5464
CQUADX4,922,1,90,99,5464,5465
CQUADX4,923,1,81,90,5465,5466
CQUADX4,924,1,72,81,5466,5467
CQUADX4,925,1,63,72,5467,5468
CQUADX4,926,1,54,63,5468,5469
CQUADX4,927,1,45,54,5469,5470
CQUADX4,928,1,36,45,5470,5471
CQUADX4,929,1,27,36,5471,5472
CQUADX4,930,1,18,27,5472,5473
CQUADX4,931,1,9,18,5473,5474
CQUADX4,932,1,5568,9,5474,6719
CQUADX4,933,1,5569,8,9,5568
CQUADX4,934,1,5570,7,8,5569
CQUADX4,935,1,5571,6,7,5570
CQUADX4,936,1,5572,5,6,5571
CQUADX4,937,1,5573,4,5,5572
CQUADX4,938,1,5574,3,4,5573
CQUADX4,939,1,5575,2,3,5574
CQUADX4,940,1,5576,1,2,5575
CQUADX4,941,1,838,845,846,839
CQUADX4,942,1,839,846,847,840
CQUADX4,943,1,840,847,848,841
CQUADX4,944,1,841,848,849,842
CQUADX4,945,1,842,849,850,843
CQUADX4,946,1,843,850,851,844
CQUADX4,947,1,845,852,853,846
CQUADX4,948,1,846,853,854,847
CQUADX4,949,1,847,854,855,848
CQUADX4,950,1,848,855,856,849
CQUADX4,951,1,849,856,857,850
CQUADX4,952,1,850,857,858,851
CQUADX4,953,1,852,859,860,853
CQUADX4,954,1,853,860,861,854
CQUADX4,955,1,854,861,862,855
CQUADX4,956,1,855,862,863,856
CQUADX4,957,1,856,863,864,857
CQUADX4,958,1,857,864,865,858
CQUADX4,959,1,859,866,867,860
CQUADX4,960,1,860,867,868,861
CQUADX4,961,1,861,868,869,862
CQUADX4,962,1,862,869,870,863
CQUADX4,963,1,863,870,871,864
CQUADX4,964,1,864,871,872,865
CQUADX4,965,1,866,873,874,867
CQUADX4,966,1,867,874,875,868
CQUADX4,967,1,868,875,876,869
CQUADX4,968,1,869,876,877,870
CQUADX4,969,1,870,877,878,871
CQUADX4,970,1,871,878,879,872
CQUADX4,971,1,873,880,881,874
CQUADX4,972,1,874,881,882,875
CQUADX4,973,1,875,882,883,876
CQUADX4,974,1,876,883,884,877
CQUADX4,975,1,877,884,885,878
CQUADX4,976,1,878,885,886,879
CQUADX4,977,1,880,887,888,881
CQUADX4,978,1,881,888,889,882
CQUADX4,979,1,882,889,890,883
CQUADX4,980,1,883,890,891,884
CQUADX4,981,1,884,891,892,885
CQUADX4,982,1,885,892,893,886
CQUADX4,983,1,887,894,895,888
CQUADX4,984,1,888,895,896,889
CQUADX4,985,1,889,896,897,890
CQUADX4,986,1,890,897,898,891
CQUADX4,987,1,891,898,899,892
CQUADX4,988,1,892,899,900,893
CQUADX4,989,1,894,901,902,895
CQUADX4,990,1,895,902,903,896
CQUADX4,991,1,896,903,904,897
CQUADX4,992,1,897,904,905,898
CQUADX4,993,1,898,905,906,899
CQUADX4,994,1,899,906,907,900
CQUADX4,995,1,901,908,909,902
CQUADX4,996,1,902,909,910,903
CQUADX4,997,1,903,910,911,904
CQUADX4,998,1,904,911,912,905
CQUADX4,999,1,905,912,913,906
CQUADX4,1000,1,906,913,914,907
CQUADX4,1001,1,908,915,916,909
CQUADX4,1002,1,909,916,917,910
CQUADX4,1003,1,910,917,918,911
CQUADX4,1004,1,911,918,919,912
CQUADX4,1005,1,912,919,920,913
CQUADX4,1006,1,913,920,921,914
CQUADX4,1007,1,915,922,923,916
CQUADX4,1008,1,916,923,924,917
CQUADX4,1009,1,917,924,925,918
CQUADX4,1010,1,918,925,926,919
CQUADX4,1011,1,919,926,927,920
CQUADX4,1012,1,920,927,928,921
CQUADX4,1013,1,922,929,930,923
CQUADX4,1014,1,923,930,931,924
CQUADX4,1015,1,924,931,932,925
CQUADX4,1016,1,925,932,933,926
CQUADX4,1017,1,926,933,934,927
CQUADX4,1018,1,927,934,935,928
CQUADX4,1019,1,929,936,937,930
CQUADX4,1020,1,930,937,938,931
CQUADX4,1021,1,931,938,939,932
CQUADX4,1022,1,932,939,940,933
CQUADX4,1023,1,933,940,941,934
CQUADX4,1024,1,934,941,942,935
CQUADX4,1025,1,936,943,944,937
CQUADX4,1026,1,937,944,945,938
CQUADX4,1027,1,938,945,946,939
CQUADX4,1028,1,939,946,947,940
CQUADX4,1029,1,940,947,948,941
CQUADX4,1030,1,941,948,949,942
CQUADX4,1031,1,943,950,951,944
CQUADX4,1032,1,944,951,952,945
CQUADX4,1033,1,945,952,953,946
CQUADX4,1034,1,946,953,954,947
CQUADX4,1035,1,947,954,955,948
CQUADX4,1036,1,948,955,956,949
CQUADX4,1037,1,950,957,958,951
CQUADX4,1038,1,951,958,959,952
CQUADX4,1039,1,952,959,960,953
CQUADX4,1040,1,953,960,961,954
CQUADX4,1041,1,954,961,962,955
CQUADX4,1042,1,955,962,963,956
CQUADX4,1043,1,957,964,965,958
CQUADX4,1044,1,958,965,966,959
CQUADX4,1045,1,959,966,967,960
CQUADX4,1046,1,960,967,968,961
CQUADX4,1047,1,961,968,969,962
CQUADX4,1048,1,962,969,970,963
CQUADX4,1049,1,964,971,972,965
CQUADX4,1050,1,965,972,973,966
CQUADX4,1051,1,966,973,974,967
CQUADX4,1052,1,967,974,975,968
CQUADX4,1053,1,968,975,976,969
CQUADX4,1054,1,969,976,977,970
CQUADX4,1055,1,971,978,979,972
CQUADX4,1056,1,972,979,980,973
CQUADX4,1057,1,973,980,981,974
CQUADX4,1058,1,974,981,982,975
CQUADX4,1059,1,975,982,983,976
CQUADX4,1060,1,976,983,984,977
CQUADX4,1061,1,978,985,986,979
CQUADX4,1062,1,979,986,987,980
CQUADX4,1063,1,980,987,988,981
CQUADX4,1064,1,981,988,989,982
CQUADX4,1065,1,982,989,990,983
CQUADX4,1066,1,983,990,991,984
CQUADX4,1067,1,985,992,993,986
CQUADX4,1068,1,986,993,994,987
CQUADX4,1069,1,987,994,995,988
CQUADX4,1070,1,988,995,996,989
CQUADX4,1071,1,989,996,997,990
CQUADX4,1072,1,990,997,998,991
CQUADX4,1073,1,992,999,1000,993
CQUADX4,1074,1,993,1000,1001,994
CQUADX4,1075,1,994,1001,1002,995
CQUADX4,1076,1,995,1002,1003,996
CQUADX4,1077,1,996,1003,1004,997
CQUADX4,1078,1,997,1004,1005,998
CQUADX4,1079,1,999,1006,1007,1000
CQUADX4,1080,1,1000,1007,1008,1001
CQUADX4,1081,1,1001,1008,1009,1002
CQUADX4,1082,1,1002,1009,1010,1003
CQUADX4,1083,1,1003,1010,1011,1004
CQUADX4,1084,1,1004,1011,1012,1005
CQUADX4,1085,1,1006,1013,1014,1007
CQUADX4,1086,1,1007,1014,1015,1008
CQUADX4,1087,1,1008,1015,1016,1009
CQUADX4,1088,1,1009,1016,1017,1010
CQUADX4,1089,1,1010,1017,1018,1011
CQUADX4,1090,1,1011,1018,1019,1012
CQUADX4,1091,1,1013,1020,1021,1014
CQUADX4,1092,1,1014,1021,1022,1015
CQUADX4,1093,1,1015,1022,1023,1016
CQUADX4,1094,1,1016,1023,1024,1017
CQUADX4,1095,1,1017,1024,1025,1018
CQUADX4,1096,1,1018,1025,1026,1019
CQUADX4,1097,1,1020,1027,1028,1021
CQUADX4,1098,1,1021,1028,1029,1022
CQUADX4,1099,1,1022,1029,1030,1023
CQUADX4,1100,1,1023,1030,1031,1024
CQUADX4,1101,1,1024,1031,1032,1025
CQUADX4,1102,1,1025,1032,1033,1026
CQUADX4,1103,1,1027,1034,1035,1028
CQUADX4,1104,1,1028,1035,1036,1029
CQUADX4,1105,1,1029,1036,1037,1030
CQUADX4,1106,1,1030,1037,1038,1031
CQUADX4,1107,1,1031,1038,1039,1032
CQUADX4,1108,1,1032,1039,1040,1033
CQUADX4,1109,1,1034,1041,1042,1035
CQUADX4,1110,1,1035,1042,1043,1036
CQUADX4,1111,1,1036,1043,1044,1037
CQUADX4,1112,1,1037,1044,1045,1038
CQUADX4,1113,1,1038,1045,1046,1039
CQUADX4,1114,1,1039,1046,1047,1040
CQUADX4,1115,1,1041,1048,1049,1042
CQUADX4,1116,1,1042,1049,1050,1043
CQUADX4,1117,1,1043,1050,1051,1044
CQUADX4,1118,1,1044,1051,1052,1045
CQUADX4,1119,1,1045,1052,1053,1046
CQUADX4,1120,1,1046,1053,1054,1047
CQUADX4,1121,1,1048,1055,1056,1049
CQUADX4,1122,1,1049,1056,1057,1050
CQUADX4,1123,1,1050,1057,1058,1051
CQUADX4,1124,1,1051,1058,1059,1052
CQUADX4,1125,1,1052,1059,1060,1053
CQUADX4,1126,1,1053,1060,1061,1054
CQUADX4,1127,1,1055,1062,1063,1056
CQUADX4,1128,1,1056,1063,1064,1057
CQUADX4,1129,1,1057,1064,1065,1058
CQUADX4,1130,1,1058,1065,1066,1059
CQUADX4,1131,1,1059,1066,1067,1060
CQUADX4,1132,1,1060,1067,1068,1061
CQUADX4,1133,1,1062,1069,1070,1063
CQUADX4,1134,1,1063,1070,1071,1064
CQUADX4,1135,1,1064,1071,1072,1065
CQUADX4,1136,1,1065,1072,1073,1066
CQUADX4,1137,1,1066,1073,1074,1067
CQUADX4,1138,1,1067,1074,1075,1068
CQUADX4,1139,1,1069,1076,1077,1070
CQUADX4,1140,1,1070,1077,1078,1071
CQUADX4,1141,1,1071,1078,1079,1072
CQUADX4,1142,1,1072,1079,1080,1073
CQUADX4,1143,1,1073,1080,1081,1074
CQUADX4,1144,1,1074,1081,1082,1075
CQUADX4,1145,1,1076,1083,1084,1077
CQUADX4,1146,1,1077,1084,1085,1078
CQUADX4,1147,1,1078,1085,1086,1079
CQUADX4,1148,1,1079,1086,1087,1080
CQUADX4,1149,1,1080,1087,1088,1081
CQUADX4,1150,1,1081,1088,1089,1082
CQUADX4,1151,1,1083,1090,1091,1084
CQUADX4,1152,1,1084,1091,1092,1085
CQUADX4,1153,1,1085,1092,1093,1086
CQUADX4,1154,1,1086,1093,1094,1087
CQUADX4,1155,1,1087,1094,1095,1088
CQUADX4,1156,1,1088,1095,1096,1089
CQUADX4,1157,1,1090,1097,1098,1091
CQUADX4,1158,1,1091,1098,1099,1092
CQUADX4,1159,1,1092,1099,1100,1093
CQUADX4,1160,1,1093,1100,1101,1094
CQUADX4,1161,1,1094,1101,1102,1095
CQUADX4,1162,1,1095,1102,1103,1096
CQUADX4,1163,1,1097,1104,1105,1098
CQUADX4,1164,1,1098,1105,1106,1099
CQUADX4,1165,1,1099,1106,1107,1100
CQUADX4,1166,1,1100,1107,1108,1101
CQUADX4,1167,1,1101,1108,1109,1102
CQUADX4,1168,1,1102,1109,1110,1103
CQUADX4,1169,1,1104,1111,1112,1105
CQUADX4,1170,1,1105,1112,1113,1106
CQUADX4,1171,1,1106,1113,1114,1107
CQUADX4,1172,1,1107,1114,1115,1108
CQUADX4,1173,1,1108,1115,1116,1109
CQUADX4,1174,1,1109,1116,1117,1110
CQUADX4,1175,1,1111,1118,1119,1112
CQUADX4,1176,1,1112,1119,1120,1113
CQUADX4,1177,1,1113,1120,1121,1114
CQUADX4,1178,1,1114,1121,1122,1115
CQUADX4,1179,1,1115,1122,1123,1116
CQUADX4,1180,1,1116,1123,1124,1117
CQUADX4,1181,1,1118,1125,1126,1119
CQUADX4,1182,1,1119,1126,1127,1120
CQUADX4,1183,1,1120,1127,1128,1121
CQUADX4,1184,1,1121,1128,1129,1122
CQUADX4,1185,1,1122,1129,1130,1123
CQUADX4,1186,1,1123,1130,1131,1124
CQUADX4,1187,1,1125,1132,1133,1126
CQUADX4,1188,1,1126,1133,1134,1127
CQUADX4,1189,1,1127,1134,1135,1128
CQUADX4,1190,1,1128,1135,1136,1129
CQUADX4,1191,1,1129,1136,1137,1130
CQUADX4,1192,1,1130,1137,1138,1131
CQUADX4,1193,1,1132,1139,1140,1133
CQUADX4,1194,1,1133,1140,1141,1134
CQUADX4,1195,1,1134,1141,1142,1135
CQUADX4,1196,1,1135,1142,1143,1136
CQUADX4,1197,1,1136,1143,1144,1137
CQUADX4,1198,1,1137,1144,1145,1138
CQUADX4,1199,1,1139,1146,1147,1140
CQUADX4,1200,1,1140,1147,1148,1141
CQUADX4,1201,1,1141,1148,1149,1142
CQUADX4,1202,1,1142,1149,1150,1143
CQUADX4,1203,1,1143,1150,1151,1144
CQUADX4,1204,1,1144,1151,1152,1145
CQUADX4,1205,1,1146,1153,1154,1147
CQUADX4,1206,1,1147,1154,1155,1148
CQUADX4,1207,1,1148,1155,1156,1149
CQUADX4,1208,1,1149,1156,1157,1150
CQUADX4,1209,1,1150,1157,1158,1151
CQUADX4,1210,1,1151,1158,1159,1152
CQUADX4,1211,1,1153,1160,1161,1154
CQUADX4,1212,1,1154,1161,1162,1155
CQUADX4,1213,1,1155,1162,1163,1156
CQUADX4,1214,1,1156,1163,1164,1157
CQUADX4,1215,1,1157,1164,1165,1158
CQUADX4,1216,1,1158,1165,1166,1159
CQUADX4,1217,1,1160,1167,1168,1161
CQUADX4,1218,1,1161,1168,1169,1162
CQUADX4,1219,1,1162,1169,1170,1163
CQUADX4,1220,1,1163,1170,1171,1164
CQUADX4,1221,1,1164,1171,1172,1165
CQUADX4,1222,1,1165,1172,1173,1166
CQUADX4,1223,1,1167,1174,1175,1168
CQUADX4,1224,1,1168,1175,1176,1169
CQUADX4,1225,1,1169,1176,1177,1170
CQUADX4,1226,1,1170,1177,1178,1171
CQUADX4,1227,1,1171,1178,1179,1172
CQUADX4,1228,1,1172,1179,1180,1173
CQUADX4,1229,1,1174,1181,1182,1175
CQUADX4,1230,1,1175,1182,1183,1176
CQUADX4,1231,1,1176,1183,1184,1177
CQUADX4,1232,1,1177,1184,1185,1178
CQUADX4,1233,1,1178,1185,1186,1179
CQUADX4,1234,1,1179,1186,1187,1180
CQUADX4,1235,1,1181,1188,1189,1182
CQUADX4,1236,1,1182,1189,1190,1183
CQUADX4,1237,1,1183,1190,1191,1184
CQUADX4,1238,1,1184,1191,1192,1185
CQUADX4,1239,1,1185,1192,1193,1186
CQUADX4,1240,1,1186,1193,1194,1187
CQUADX4,1241,1,1188,1195,1196,1189
CQUADX4,1242,1,1189,1196,1197,1190
CQUADX4,1243,1,1190,1197,1198,1191
CQUADX4,1244,1,1191,1198,1199,1192
CQUADX4,1245,1,1192,1199,1200,1193
CQUADX4,1246,1,1193,1200,1201,1194
CQUADX4,1247,1,1195,1202,1203,1196
CQUADX4,1248,1,1196,1203,1204,1197
CQUADX4,1249,1,1197,1204,1205,1198
CQUADX4,1250,1,1198,1205,1206,1199
CQUADX4,1251,1,1199,1206,1207,1200
CQUADX4,1252,1,1200,1207,1208,1201
CQUADX4,1253,1,1202,1209,1210,1203
CQUADX4,1254,1,1203,1210,1211,1204
CQUADX4,1255,1,1204,1211,1212,1205
CQUADX4,1256,1,1205,1212,1213,1206
CQUADX4,1257,1,1206,1213,1214,1207
CQUADX4,1258,1,1207,1214,1215,1208
CQUADX4,1259,1,1209,1216,1217,1210
CQUADX4,1260,1,1210,1217,1218,1211
CQUADX4,1261,1,1211,1218,1219,1212
CQUADX4,1262,1,1212,1219,1220,1213
CQUADX4,1263,1,1213,1220,1221,1214
CQUADX4,1264,1,1214,1221,1222,1215
CQUADX4,1265,1,1216,1223,1224,1217
CQUADX4,1266,1,1217,1224,1225,1218
CQUADX4,1267,1,1218,1225,1226,1219
CQUADX4,1268,1,1219,1226,1227,1220
CQUADX4,1269,1,1220,1227,1228,1221
CQUADX4,1270,1,1221,1228,1229,1222
CQUADX4,1271,1,1223,1230,1231,1224
CQUADX4,1272,1,1224,1231,1232,1225
CQUADX4,1273,1,1225,1232,1233,1226
CQUADX4,1274,1,1226,1233,1234,1227
CQUADX4,1275,1,1227,1234,1235,1228
CQUADX4,1276,1,1228,1235,1236,1229
CQUADX4,1277,1,1230,1237,1238,1231
CQUADX4,1278,1,1231,1238,1239,1232
CQUADX4,1279,1,1232,1239,1240,1233
CQUADX4,1280,1,1233,1240,1241,1234
CQUADX4,1281,1,1234,1241,1242,1235
CQUADX4,1282,1,1235,1242,1243,1236
CQUADX4,1283,1,1237,1244,1245,1238
CQUADX4,1284,1,1238,1245,1246,1239
CQUADX4,1285,1,1239,1246,1247,1240
CQUADX4,1286,1,1240,1247,1248,1241
CQUADX4,1287,1,1241,1248,1249,1242
CQUADX4,1288,1,1242,1249,1250,1243
CQUADX4,1289,1,1244,1251,1252,1245
CQUADX4,1290,1,1245,1252,1253,1246
CQUADX4,1291,1,1246,1253,1254,1247
CQUADX4,1292,1,1247,1254,1255,1248
CQUADX4,1293,1,1248,1255,1256,1249
CQUADX4,1294,1,1249,1256,1257,1250
CQUADX4,1295,1,1251,1258,1259,1252
CQUADX4,1296,1,1252,1259,1260,1253
CQUADX4,1297,1,1253,1260,1261,1254
CQUADX4,1298,1,1254,1261,1262,1255
CQUADX4,1299,1,1255,1262,1263,1256
CQUADX4,1300,1,1256,1263,1264,1257
CQUADX4,1301,1,1258,1265,1266,1259
CQUADX4,1302,1,1259,1266,1267,1260
CQUADX4,1303,1,1260,1267,1268,1261
CQUADX4,1304,1,1261,1268,1269,1262
CQUADX4,1305,1,1262,1269,1270,1263
CQUADX4,1306,1,1263,1270,1271,1264
CQUADX4,1307,1,1265,1272,1273,1266
CQUADX4,1308,1,1266,1273,1274,1267
CQUADX4,1309,1,1267,1274,1275,1268
CQUADX4,1310,1,1268,1275,1276,1269
CQUADX4,1311,1,1269,1276,1277,1270
CQUADX4,1312,1,1270,1277,1278,1271
CQUADX4,1313,1,1272,1279,1280,1273
CQUADX4,1314,1,1273,1280,1281,1274
CQUADX4,1315,1,1274,1281,1282,1275
CQUADX4,1316,1,1275,1282,1283,1276
CQUADX4,1317,1,1276,1283,1284,1277
CQUADX4,1318,1,1277,1284,1285,1278
CQUADX4,1319,1,1279,1286,1287,1280
CQUADX4,1320,1,1280,1287,1288,1281
CQUADX4,1321,1,1281,1288,1289,1282
CQUADX4,1322,1,1282,1289,1290,1283
CQUADX4,1323,1,1283,1290,1291,1284
CQUADX4,1324,1,1284,1291,1292,1285
CQUADX4,1325,1,1286,1293,1294,1287
CQUADX4,1326,1,1287,1294,1295,1288
CQUADX4,1327,1,1288,1295,1296,1289
CQUADX4,1328,1,1289,1296,1297,1290
CQUADX4,1329,1,1290,1297,1298,1291
CQUADX4,1330,1,1291,1298,1299,1292
CQUADX4,1331,1,1293,1300,1301,1294
CQUADX4,1332,1,1294,1301,1302,1295
CQUADX4,1333,1,1295,1302,1303,1296
CQUADX4,1334,1,1296,1303,1304,1297
CQUADX4,1335,1,1297,1304,1305,1298
CQUADX4,1336,1,1298,1305,1306,1299
CQUADX4,1337,1,1300,1307,1308,1301
CQUADX4,1338,1,1301,1308,1309,1302
CQUADX4,1339,1,1302,1309,1310,1303
CQUADX4,1340,1,1303,1310,1311,1304
CQUADX4,1341,1,1304,1311,1312,1305
CQUADX4,1342,1,1305,1312,1313,1306
CQUADX4,1343,1,1307,1314,1315,1308
CQUADX4,1344,1,1308,1315,1316,1309
CQUADX4,1345,1,1309,1316,1317,1310
CQUADX4,1346,1,1310,1317,1318,1311
CQUADX4,1347,1,1311,1318,1319,1312
CQUADX4,1348,1,1312,1319,1320,1313
CQUADX4,1349,1,1314,1321,1322,1315
CQUADX4,1350,1,1315,1322,1323,1316
CQUADX4,1351,1,1316,1323,1324,1317
CQUADX4,1352,1,1317,1324,1325,1318
CQUADX4,1353,1,1318,1325,1326,1319
CQUADX4,1354,1,1319,1326,1327,1320
CQUADX4,1355,1,1321,1328,1329,1322
CQUADX4,1356,1,1322,1329,1330,1323
CQUADX4,1357,1,1323,1330,1331,1324
CQUADX4,1358,1,1324,1331,1332,1325
CQUADX4,1359,1,1325,1332,1333,1326
CQUADX4,1360,1,1326,1333,1334,1327
CQUADX4,1361,1,1328,1335,1336,1329
CQUADX4,1362,1,1329,1336,1337,1330
CQUADX4,1363,1,1330,1337,1338,1331
CQUADX4,1364,1,1331,1338,1339,1332
CQUADX4,1365,1,1332,1339,1340,1333
CQUADX4,1366,1,1333,1340,1341,1334
CQUADX4,1367,1,1335,1342,1343,1336
CQUADX4,1368,1,1336,1343,1344,1337
CQUADX4,1369,1,1337,1344,1345,1338
CQUADX4,1370,1,1338,1345,1346,1339
CQUADX4,1371,1,1339,1346,1347,1340
CQUADX4,1372,1,1340,1347,1348,1341
CQUADX4,1373,1,1342,1349,1350,1343
CQUADX4,1374,1,1343,1350,1351,1344
CQUADX4,1375,1,1344,1351,1352,1345
CQUADX4,1376,1,1345,1352,1353,1346
CQUADX4,1377,1,1346,1353,1354,1347
CQUADX4,1378,1,1347,1354,1355,1348
CQUADX4,1379,1,1349,1356,1357,1350
CQUADX4,1380,1,1350,1357,1358,1351
CQUADX4,1381,1,1351,1358,1359,1352
CQUADX4,1382,1,1352,1359,1360,1353
CQUADX4,1383,1,1353,1360,1361,1354
CQUADX4,1384,1,1354,1361,1362,1355
CQUADX4,1385,1,1356,1363,1364,1357
CQUADX4,1386,1,1357,1364,1365,1358
CQUADX4,1387,1,1358,1365,1366,1359
CQUADX4,1388,1,1359,1366,1367,1360
CQUADX4,1389,1,1360,1367,1368,1361
CQUADX4,1390,1,1361,1368,1369,1362
CQUADX4,1391,1,1363,1370,1371,1364
CQUADX4,1392,1,1364,1371,1372,1365
CQUADX4,1393,1,1365,1372,1373,1366
CQUADX4,1394,1,1366,1373,1374,1367
CQUADX4,1395,1,1367,1374,1375,1368
CQUADX4,1396,1,1368,1375,1376,1369
CQUADX4,1397,1,1370,1377,1378,1371
CQUADX4,1398,1,1371,1378,1379,1372
CQUADX4,1399,1,1372,1379,1380,1373
CQUADX4,1400,1,1373,1380,1381,1374
CQUADX4,1401,1,1374,1381,1382,1375
CQUADX4,1402,1,1375,1382,1383,1376
CQUADX4,1403,1,1377,1384,1385,1378
CQUADX4,1404,1,1378,1385,1386,1379
CQUADX4,1405,1,1379,1386,1387,1380
CQUADX4,1406,1,1380,1387,1388,1381
CQUADX4,1407,1,1381,1388,1389,1382
CQUADX4,1408,1,1382,1389,1390,1383
CQUADX4,1409,1,1384,1391,1392,1385
CQUADX4,1410,1,1385,1392,1393,1386
CQUADX4,1411,1,1386,1393,1394,1387
CQUADX4,1412,1,1387,1394,1395,1388
CQUADX4,1413,1,1388,1395,1396,1389
CQUADX4,1414,1,1389,1396,1397,1390
CQUADX4,1415,1,1391,1398,1399,1392
CQUADX4,1416,1,1392,1399,1400,1393
CQUADX4,1417,1,1393,1400,1401,1394
CQUADX4,1418,1,1394,1401,1402,1395
CQUADX4,1419,1,1395,1402,1403,1396
CQUADX4,1420,1,1396,1403,1404,1397
CQUADX4,1421,1,1398,1405,1406,1399
CQUADX4,1422,1,1399,1406,1407,1400
CQUADX4,1423,1,1400,1407,1408,1401
CQUADX4,1424,1,1401,1408,1409,1402
CQUADX4,1425,1,1402,1409,1410,1403
CQUADX4,1426,1,1403,1410,1411,1404
CQUADX4,1427,1,1405,1412,1413,1406
CQUADX4,1428,1,1406,1413,1414,1407
CQUADX4,1429,1,1407,1414,1415,1408
CQUADX4,1430,1,1408,1415,1416,1409
CQUADX4,1431,1,1409,1416,1417,1410
CQUADX4,1432,1,1410,1417,1418,1411
CQUADX4,1433,1,1412,1419,1420,1413
CQUADX4,1434,1,1413,1420,1421,1414
CQUADX4,1435,1,1414,1421,1422,1415
CQUADX4,1436,1,1415,1422,1423,1416
CQUADX4,1437,1,1416,1423,1424,1417
CQUADX4,1438,1,1417,1424,1425,1418
CQUADX4,1439,1,1419,1426,1427,1420
CQUADX4,1440,1,1420,1427,1428,1421
CQUADX4,1441,1,1421,1428,1429,1422
CQUADX4,1442,1,1422,1429,1430,1423
CQUADX4,1443,1,1423,1430,1431,1424
CQUADX4,1444,1,1424,1431,1432,1425
CQUADX4,1445,1,1426,1433,1434,1427
CQUADX4,1446,1,1427,1434,1435,1428
CQUADX4,1447,1,1428,1435,1436,1429
CQUADX4,1448,1,1429,1436,1437,1430
CQUADX4,1449,1,1430,1437,1438,1431
CQUADX4,1450,1,1431,1438,1439,1432
CQUADX4,1451,1,1433,1440,1441,1434
CQUADX4,1452,1,1434,1441,1442,1435
CQUADX4,1453,1,1435,1442,1443,1436
CQUADX4,1454,1,1436,1443,1444,1437
CQUADX4,1455,1,1437,1444,1445,1438
CQUADX4,1456,1,1438,1445,1446,1439
CQUADX4,1457,1,1440,1447,1448,1441
CQUADX4,1458,1,1441,1448,1449,1442
CQUADX4,1459,1,1442,1449,1450,1443
CQUADX4,1460,1,1443,1450,1451,1444
CQUADX4,1461,1,1444,1451,1452,1445
CQUADX4,1462,1,1445,1452,1453,1446
CQUADX4,1463,1,1447,1454,1455,1448
CQUADX4,1464,1,1448,1455,1456,1449
CQUADX4,1465,1,1449,1456,1457,1450
CQUADX4,1466,1,1450,1457,1458,1451
CQUADX4,1467,1,1451,1458,1459,1452
CQUADX4,1468,1,1452,1459,1460,1453
CQUADX4,1469,1,1454,1461,1462,1455
CQUADX4,1470,1,1455,1462,1463,1456
CQUADX4,1471,1,1456,1463,1464,1457
CQUADX4,1472,1,1457,1464,1465,1458
CQUADX4,1473,1,1458,1465,1466,1459
CQUADX4,1474,1,1459,1466,1467,1460
CQUADX4,1475,1,1461,1468,1469,1462
CQUADX4,1476,1,1462,1469,1470,1463
CQUADX4,1477,1,1463,1470,1471,1464
CQUADX4,1478,1,1464,1471,1472,1465
CQUADX4,1479,1,1465,1472,1473,1466
CQUADX4,1480,1,1466,1473,1474,1467
CQUADX4,1481,1,1468,1475,1476,1469
CQUADX4,1482,1,1469,1476,1477,1470
CQUADX4,1483,1,1470,1477,1478,1471
CQUADX4,1484,1,1471,1478,1479,1472
CQUADX4,1485,1,1472,1479,1480,1473
CQUADX4,1486,1,1473,1480,1481,1474
CQUADX4,1487,1,1475,1482,1483,1476
CQUADX4,1488,1,1476,1483,1484,1477
CQUADX4,1489,1,1477,1484,1485,1478
CQUADX4,1490,1,1478,1485,1486,1479
CQUADX4,1491,1,1479,1486,1487,1480
CQUADX4,1492,1,1480,1487,1488,1481
CQUADX4,1493,1,1482,1489,1490,1483
CQUADX4,1494,1,1483,1490,1491,1484
CQUADX4,1495,1,1484,1491,1492,1485
CQUADX4,1496,1,1485,1492,1493,1486
CQUADX4,1497,1,1486,1493,1494,1487
CQUADX4,1498,1,1487,1494,1495,1488
CQUADX4,1499,1,1489,1496,1497,1490
CQUADX4,1500,1,1490,1497,1498,1491
CQUADX4,1501,1,1491,1498,1499,1492
CQUADX4,1502,1,1492,1499,1500,1493
CQUADX4,1503,1,1493,1500,1501,1494
CQUADX4,1504,1,1494,1501,1502,1495
CQUADX4,1505,1,1496,1503,1504,1497
CQUADX4,1506,1,1497,1504,1505,1498
CQUADX4,1507,1,1498,1505,1506,1499
CQUADX4,1508,1,1499,1506,1507,1500
CQUADX4,1509,1,1500,1507,1508,1501
CQUADX4,1510,1,1501,1508,1509,1502
CQUADX4,1511,1,1503,1510,1511,1504
CQUADX4,1512,1,1504,1511,1512,1505
CQUADX4,1513,1,1505,1512,1513,1506
CQUADX4,1514,1,1506,1513,1514,1507
CQUADX4,1515,1,1507,1514,1515,1508
CQUADX4,1516,1,1508,1515,1516,1509
CQUADX4,1517,1,1510,1517,1518,1511
CQUADX4,1518,1,1511,1518,1519,1512
CQUADX4,1519,1,1512,1519,1520,1513
CQUADX4,1520,1,1513,1520,1521,1514
CQUADX4,1521,1,1514,1521,1522,1515
CQUADX4,1522,1,1515,1522,1523,1516
CQUADX4,1523,1,1517,1524,1525,1518
CQUADX4,1524,1,1518,1525,1526,1519
CQUADX4,1525,1,1519,1526,1527,1520
CQUADX4,1526,1,1520,1527,1528,1521
CQUADX4,1527,1,1521,1528,1529,1522
CQUADX4,1528,1,1522,1529,1530,1523
CQUADX4,1529,1,1524,1531,1532,1525
CQUADX4,1530,1,1525,1532,1533,1526
CQUADX4,1531,1,1526,1533,1534,1527
CQUADX4,1532,1,1527,1534,1535,1528
CQUADX4,1533,1,1528,1535,1536,1529
CQUADX4,1534,1,1529,1536,1537,1530
CQUADX4,1535,1,1531,1538,1539,1532
CQUADX4,1536,1,1532,1539,1540,1533
CQUADX4,1537,1,1533,1540,1541,1534
CQUADX4,1538,1,1534,1541,1542,1535
CQUADX4,1539,1,1535,1542,1543,1536
CQUADX4,1540,1,1536,1543,1544,1537
CQUADX4,1541,1,1538,1545,1546,1539
CQUADX4,1542,1,1539,1546,1547,1540
CQUADX4,1543,1,1540,1547,1548,1541
CQUADX4,1544,1,1541,1548,1549,1542
CQUADX4,1545,1,1542,1549,1550,1543
CQUADX4,1546,1,1543,1550,1551,1544
CQUADX4,1547,1,1545,1552,1553,1546
CQUADX4,1548,1,1546,1553,1554,1547
CQUADX4,1549,1,1547,1554,1555,1548
CQUADX4,1550,1,1548,1555,1556,1549
CQUADX4,1551,1,1549,1556,1557,1550
CQUADX4,1552,1,1550,1557,1558,1551
CQUADX4,1553,1,1552,1559,1560,1553
CQUADX4,1554,1,1553,1560,1561,1554
CQUADX4,1555,1,1554,1561,1562,1555
CQUADX4,1556,1,1555,1562,1563,1556
CQUADX4,1557,1,1556,1563,1564,1557
CQUADX4,1558,1,1557,1564,1565,1558
CQUADX4,1559,1,1559,1566,1567,1560
CQUADX4,1560,1,1560,1567,1568,1561
CQUADX4,1561,1,1561,1568,1569,1562
CQUADX4,1562,1,1562,1569,1570,1563
CQUADX4,1563,1,1563,1570,1571,1564
CQUADX4,1564,1,1564,1571,1572,1565
CQUADX4,1565,1,1566,1573,1574,1567
CQUADX4,1566,1,1567,1574,1575,1568
CQUADX4,1567,1,1568,1575,1576,1569
CQUADX4,1568,1,1569,1576,1577,1570
CQUADX4,1569,1,1570,1577,1578,1571
CQUADX4,1570,1,1571,1578,1579,1572
CQUADX4,1571,1,1573,1580,1581,1574
CQUADX4,1572,1,1574,1581,1582,1575
CQUADX4,1573,1,1575,1582,1583,1576
CQUADX4,1574,1,1576,1583,1584,1577
CQUADX4,1575,1,1577,1584,1585,1578
CQUADX4,1576,1,1578,1585,1586,1579
CQUADX4,1577,1,1580,1587,1588,1581
CQUADX4,1578,1,1581,1588,1589,1582
CQUADX4,1579,1,1582,1589,1590,1583
CQUADX4,1580,1,1583,1590,1591,1584
CQUADX4,1581,1,1584,1591,1592,1585
CQUADX4,1582,1,1585,1592,1593,1586
CQUADX4,1583,1,1587,1594,1595,1588
CQUADX4,1584,1,1588,1595,1596,1589
CQUADX4,1585,1,1589,1596,1597,1590
CQUADX4,1586,1,1590,1597,1598,1591
CQUADX4,1587,1,1591,1598,1599,1592
CQUADX4,1588,1,1592,1599,1600,1593
CQUADX4,1589,1,1594,1601,1602,1595
CQUADX4,1590,1,1595,1602,1603,1596
CQUADX4,1591,1,1596,1603,1604,1597
CQUADX4,1592,1,1597,1604,1605,1598
CQUADX4,1593,1,1598,1605,1606,1599
CQUADX4,1594,1,1599,1606,1607,1600
CQUADX4,1595,1,1601,1608,1609,1602
CQUADX4,1596,1,1602,1609,1610,1603
CQUADX4,1597,1,1603,1610,1611,1604
CQUADX4,1598,1,1604,1611,1612,1605
CQUADX4,1599,1,1605,1612,1613,1606
CQUADX4,1600,1,1606,1613,1614,1607
CQUADX4,1601,1,1608,1615,1616,1609
CQUADX4,1602,1,1609,1616,1617,1610
CQUADX4,1603,1,1610,1617,1618,1611
CQUADX4,1604,1,1611,1618,1619,1612
CQUADX4,1605,1,1612,1619,1620,1613
CQUADX4,1606,1,1613,1620,1621,1614
CQUADX4,1607,1,1615,1622,1623,1616
CQUADX4,1608,1,1616,1623,1624,1617
CQUADX4,1609,1,1617,1624,1625,1618
CQUADX4,1610,1,1618,1625,1626,1619
CQUADX4,1611,1,1619,1626,1627,1620
CQUADX4,1612,1,1620,1627,1628,1621
CQUADX4,1613,1,1622,1629,1630,1623
CQUADX4,1614,1,1623,1630,1631,1624
CQUADX4,1615,1,1624,1631,1632,1625
CQUADX4,1616,1,1625,1632,1633,1626
CQUADX4,1617,1,1626,1633,1634,1627
CQUADX4,1618,1,1627,1634,1635,1628
CQUADX4,1619,1,1629,1636,1637,1630
CQUADX4,1620,1,1630,1637,1638,1631
CQUADX4,1621,1,1631,1638,1639,1632
CQUADX4,1622,1,1632,1639,1640,1633
CQUADX4,1623,1,1633,1640,1641,1634
CQUADX4,1624,1,1634,1641,1642,1635
CQUADX4,1625,1,1636,1643,1644,1637
CQUADX4,1626,1,1637,1644,1645,1638
CQUADX4,1627,1,1638,1645,1646,1639
CQUADX4,1628,1,1639,1646,1647,1640
CQUADX4,1629,1,1640,1647,1648,1641
CQUADX4,1630,1,1641,1648,1649,1642
CQUADX4,1631,1,1643,1650,1651,1644
CQUADX4,1632,1,1644,1651,1652,1645
CQUADX4,1633,1,1645,1652,1653,1646
CQUADX4,1634,1,1646,1653,1654,1647
CQUADX4,1635,1,1647,1654,1655,1648
CQUADX4,1636,1,1648,1655,1656,1649
CQUADX4,1637,1,1650,1657,1658,1651
CQUADX4,1638,1,1651,1658,1659,1652
CQUADX4,1639,1,1652,1659,1660,1653
CQUADX4,1640,1,1653,1660,1661,1654
CQUADX4,1641,1,1654,1661,1662,1655
CQUADX4,1642,1,1655,1662,1663,1656
CQUADX4,1643,1,1657,1664,1665,1658
CQUADX4,1644,1,1658,1665,1666,1659
CQUADX4,1645,1,1659,1666,1667,1660
CQUADX4,1646,1,1660,1667,1668,1661
CQUADX4,1647,1,1661,1668,1669,1662
CQUADX4,1648,1,1662,1669,1670,1663
CQUADX4,1649,1,1664,1671,1672,1665
CQUADX4,1650,1,1665,1672,1673,1666
CQUADX4,1651,1,1666,1673,1674,1667
CQUADX4,1652,1,1667,1674,1675,1668
CQUADX4,1653,1,1668,1675,1676,1669
CQUADX4,1654,1,1669,1676,1677,1670
CQUADX4,1655,1,1671,1678,1679,1672
CQUADX4,1656,1,1672,1679,1680,1673
CQUADX4,1657,1,1673,1680,1681,1674
CQUADX4,1658,1,1674,1681,1682,1675
CQUADX4,1659,1,1675,1682,1683,1676
CQUADX4,1660,1,1676,1683,1684,1677
CQUADX4,1661,1,1678,1685,1686,1679
CQUADX4,1662,1,1679,1686,1687,1680
CQUADX4,1663,1,1680,1687,1688,1681
CQUADX4,1664,1,1681,1688,1689,1682
CQUADX4,1665,1,1682,1689,1690,1683
CQUADX4,1666,1,1683,1690,1691,1684
CQUADX4,1667,1,1685,1692,1693,1686
CQUADX4,1668,1,1686,1693,1694,1687
CQUADX4,1669,1,1687,1694,1695,1688
CQUADX4,1670,1,1688,1695,1696,1689
CQUADX4,1671,1,1689,1696,1697,1690
CQUADX4,1672,1,1690,1697,1698,1691
CQUADX4,1673,1,1692,1699,1700,1693
CQUADX4,1674,1,1693,1700,1701,1694
CQUADX4,1675,1,1694,1701,1702,1695
CQUADX4,1676,1,1695,1702,1703,1696
CQUADX4,1677,1,1696,1703,1704,1697
CQUADX4,1678,1,1697,1704,1705,1698
CQUADX4,1679,1,1699,1706,1707,1700
CQUADX4,1680,1,1700,1707,1708,1701
CQUADX4,1681,1,1701,1708,1709,1702
CQUADX4,1682,1,1702,1709,1710,1703
CQUADX4,1683,1,1703,1710,1711,1704
CQUADX4,1684,1,1704,1711,1712,1705
CQUADX4,1685,1,1706,1713,1714,1707
CQUADX4,1686,1,1707,1714,1715,1708
CQUADX4,1687,1,1708,1715,1716,1709
CQUADX4,1688,1,1709,1716,1717,1710
CQUADX4,1689,1,1710,1717,1718,1711
CQUADX4,1690,1,1711,1718,1719,1712
CQUADX4,1691,1,1713,1720,1721,1714
CQUADX4,1692,1,1714,1721,1722,1715
CQUADX4,1693,1,1715,1722,1723,1716
CQUADX4,1694,1,1716,1723,1724,1717
CQUADX4,1695,1,1717,1724,1725,1718
CQUADX4,1696,1,1718,1725,1726,1719
CQUADX4,1697,1,1720,1727,1728,1721
CQUADX4,1698,1,1721,1728,1729,1722
CQUADX4,1699,1,1722,1729,1730,1723
CQUADX4,1700,1,1723,1730,1731,1724
CQUADX4,1701,1,1724,1731,1732,1725
CQUADX4,1702,1,1725,1732,1733,1726
CQUADX4,1703,1,1727,1734,1735,1728
CQUADX4,1704,1,1728,1735,1736,1729
CQUADX4,1705,1,1729,1736,1737,1730
CQUADX4,1706,1,1730,1737,1738,1731
CQUADX4,1707,1,1731,1738,1739,1732
CQUADX4,1708,1,1732,1739,1740,1733
CQUADX4,1709,1,1734,1741,1742,1735
CQUADX4,1710,1,1735,1742,1743,1736
CQUADX4,1711,1,1736,1743,1744,1737
CQUADX4,1712,1,1737,1744,1745,1738
CQUADX4,1713,1,1738,1745,1746,1739
CQUADX4,1714,1,1739,1746,1747,1740
CQUADX4,1715,1,1741,1748,1749,1742
CQUADX4,1716,1,1742,1749,1750,1743
CQUADX4,1717,1,1743,1750,1751,1744
CQUADX4,1718,1,1744,1751,1752,1745
CQUADX4,1719,1,1745,1752,1753,1746
CQUADX4,1720,1,1746,1753,1754,1747
CQUADX4,1721,1,1748,1755,1756,1749
CQUADX4,1722,1,1749,1756,1757,1750
CQUADX4,1723,1,1750,1757,1758,1751
CQUADX4,1724,1,1751,1758,1759,1752
CQUADX4,1725,1,1752,1759,1760,1753
CQUADX4,1726,1,1753,1760,1761,1754
CQUADX4,1727,1,1755,1762,1763,1756
CQUADX4,1728,1,1756,1763,1764,1757
CQUADX4,1729,1,1757,1764,1765,1758
CQUADX4,1730,1,1758,1765,1766,1759
CQUADX4,1731,1,1759,1766,1767,1760
CQUADX4,1732,1,1760,1767,1768,1761
CQUADX4,1733,1,1762,1769,1770,1763
CQUADX4,1734,1,1763,1770,1771,1764
CQUADX4,1735,1,1764,1771,1772,1765
CQUADX4,1736,1,1765,1772,1773,1766
CQUADX4,1737,1,1766,1773,1774,1767
CQUADX4,1738,1,1767,1774,1775,1768
CQUADX4,1739,1,1769,1776,1777,1770
CQUADX4,1740,1,1770,1777,1778,1771
CQUADX4,1741,1,1771,1778,1779,1772
CQUADX4,1742,1,1772,1779,1780,1773
CQUADX4,1743,1,1773,1780,1781,1774
CQUADX4,1744,1,1774,1781,1782,1775
CQUADX4,1745,1,1776,1783,1784,1777
CQUADX4,1746,1,1777,1784,1785,1778
CQUADX4,1747,1,1778,1785,1786,1779
CQUADX4,1748,1,1779,1786,1787,1780
CQUADX4,1749,1,1780,1787,1788,1781
CQUADX4,1750,1,1781,1788,1789,1782
CQUADX4,1751,1,1783,1790,1791,1784
CQUADX4,1752,1,1784,1791,1792,1785
CQUADX4,1753,1,1785,1792,1793,1786
CQUADX4,1754,1,1786,1793,1794,1787
CQUADX4,1755,1,1787,1794,1795,1788
CQUADX4,1756,1,1788,1795,1796,1789
CQUADX4,1757,1,1790,1797,1798,1791
CQUADX4,1758,1,1791,1798,1799,1792
CQUADX4,1759,1,1792,1799,1800,1793
CQUADX4,1760,1,1793,1800,1801,1794
CQUADX4,1761,1,1794,1801,1802,1795
CQUADX4,1762,1,1795,1802,1803,1796
CQUADX4,1763,1,1797,1804,1805,1798
CQUADX4,1764,1,1798,1805,1806,1799
CQUADX4,1765,1,1799,1806,1807,1800
CQUADX4,1766,1,1800,1807,1808,1801
CQUADX4,1767,1,1801,1808,1809,1802
CQUADX4,1768,1,1802,1809,1810,1803
CQUADX4,1769,1,1804,1811,1812,1805
CQUADX4,1770,1,1805,1812,1813,1806
CQUADX4,1771,1,1806,1813,1814,1807
CQUADX4,1772,1,1807,1814,1815,1808
CQUADX4,1773,1,1808,1815,1816,1809
CQUADX4,1774,1,1809,1816,1817,1810
CQUADX4,1775,1,1811,1818,1819,1812
CQUADX4,1776,1,1812,1819,1820,1813
CQUADX4,1777,1,1813,1820,1821,1814
CQUADX4,1778,1,1814,1821,1822,1815
CQUADX4,1779,1,1815,1822,1823,1816
CQUADX4,1780,1,1816,1823,1824,1817
CQUADX4,1781,1,1818,1825,1826,1819
CQUADX4,1782,1,1819,1826,1827,1820
CQUADX4,1783,1,1820,1827,1828,1821
CQUADX4,1784,1,1821,1828,1829,1822
CQUADX4,1785,1,1822,1829,1830,1823
CQUADX4,1786,1,1823,1830,1831,1824
CQUADX4,1787,1,1825,1832,1833,1826
CQUADX4,1788,1,1826,1833,1834,1827
CQUADX4,1789,1,1827,1834,1835,1828
CQUADX4,1790,1,1828,1835,1836,1829
CQUADX4,1791,1,1829,1836,1837,1830
CQUADX4,1792,1,1830,1837,1838,1831
CQUADX4,1793,1,1832,1839,1840,1833
CQUADX4,1794,1,1833,1840,1841,1834
CQUADX4,1795,1,1834,1841,1842,1835
CQUADX4,1796,1,1835,1842,1843,1836
CQUADX4,1797,1,1836,1843,1844,1837
CQUADX4,1798,1,1837,1844,1845,1838
CQUADX4,1799,1,1839,1846,1847,1840
CQUADX4,1800,1,1840,1847,1848,1841
CQUADX4,1801,1,1841,1848,1849,1842
CQUADX4,1802,1,1842,1849,1850,1843
CQUADX4,1803,1,1843,1850,1851,1844
CQUADX4,1804,1,1844,1851,1852,1845
CQUADX4,1805,1,1846,1853,1854,1847
CQUADX4,1806,1,1847,1854,1855,1848
CQUADX4,1807,1,1848,1855,1856,1849
CQUADX4,1808,1,1849,1856,1857,1850
CQUADX4,1809,1,1850,1857,1858,1851
CQUADX4,1810,1,1851,1858,1859,1852
CQUADX4,1811,1,1853,1860,1861,1854
CQUADX4,1812,1,1854,1861,1862,1855
CQUADX4,1813,1,1855,1862,1863,1856
CQUADX4,1814,1,1856,1863,1864,1857
CQUADX4,1815,1,1857,1864,1865,1858
CQUADX4,1816,1,1858,1865,1866,1859
CQUADX4,1817,1,1860,1867,1868,1861
CQUADX4,1818,1,1861,1868,1869,1862
CQUADX4,1819,1,1862,1869,1870,1863
CQUADX4,1820,1,1863,1870,1871,1864
CQUADX4,1821,1,1864,1871,1872,1865
CQUADX4,1822,1,1865,1872,1873,1866
CQUADX4,1823,1,1867,1874,1875,1868
CQUADX4,1824,1,1868,1875,1876,1869
CQUADX4,1825,1,1869,1876,1877,1870
CQUADX4,1826,1,1870,1877,1878,1871
CQUADX4,1827,1,1871,1878,1879,1872
CQUADX4,1828,1,1872,1879,1880,1873
CQUADX4,1829,1,1874,1881,1882,1875
CQUADX4,1830,1,1875,1882,1883,1876
CQUADX4,1831,1,1876,1883,1884,1877
CQUADX4,1832,1,1877,1884,1885,1878
CQUADX4,1833,1,1878,1885,1886,1879
CQUADX4,1834,1,1879,1886,1887,1880
CQUADX4,1835,1,1881,1888,1889,1882
CQUADX4,1836,1,1882,1889,1890,1883
CQUADX4,1837,1,1883,1890,1891,1884
CQUADX4,1838,1,1884,1891,1892,1885
CQUADX4,1839,1,1885,1892,1893,1886
CQUADX4,1840,1,1886,1893,1894,1887
CQUADX4,1841,1,1888,1895,1896,1889
CQUADX4,1842,1,1889,1896,1897,1890
CQUADX4,1843,1,1890,1897,1898,1891
CQUADX4,1844,1,1891,1898,1899,1892
CQUADX4,1845,1,1892,1899,1900,1893
CQUADX4,1846,1,1893,1900,1901,1894
CQUADX4,1847,1,1895,1902,1903,1896
CQUADX4,1848,1,1896,1903,1904,1897
CQUADX4,1849,1,1897,1904,1905,1898
CQUADX4,1850,1,1898,1905,1906,1899
CQUADX4,1851,1,1899,1906,1907,1900
CQUADX4,1852,1,1900,1907,1908,1901
CQUADX4,1853,1,1902,1909,1910,1903
CQUADX4,1854,1,1903,1910,1911,1904
CQUADX4,1855,1,1904,1911,1912,1905
CQUADX4,1856,1,1905,1912,1913,1906
CQUADX4,1857,1,1906,1913,1914,1907
CQUADX4,1858,1,1907,1914,1915,1908
CQUADX4,1859,1,1909,1916,1917,1910
CQUADX4,1860,1,1910,1917,1918,1911
CQUADX4,1861,1,1911,1918,1919,1912
CQUADX4,1862,1,1912,1919,1920,1913
CQUADX4,1863,1,1913,1920,1921,1914
CQUADX4,1864,1,1914,1921,1922,1915
CQUADX4,1865,1,1916,1923,1924,1917
CQUADX4,1866,1,1917,1924,1925,1918
CQUADX4,1867,1,1918,1925,1926,1919
CQUADX4,1868,1,1919,1926,1927,1920
CQUADX4,1869,1,1920,1927,1928,1921
CQUADX4,1870,1,1921,1928,1929,1922
CQUADX4,1871,1,1923,1930,1931,1924
CQUADX4,1872,1,1924,1931,1932,1925
CQUADX4,1873,1,1925,1932,1933,1926
CQUADX4,1874,1,1926,1933,1934,1927
CQUADX4,1875,1,1927,1934,1935,1928
CQUADX4,1876,1,1928,1935,1936,1929
CQUADX4,1877,1,1930,1937,1938,1931
CQUADX4,1878,1,1931,1938,1939,1932
CQUADX4,1879,1,1932,1939,1940,1933
CQUADX4,1880,1,1933,1940,1941,1934
CQUADX4,1881,1,1934,1941,1942,1935
CQUADX4,1882,1,1935,1942,1943,1936
CQUADX4,1883,1,1937,1944,1945,1938
CQUADX4,1884,1,1938,1945,1946,1939
CQUADX4,1885,1,1939,1946,1947,1940
CQUADX4,1886,1,1940,1947,1948,1941
CQUADX4,1887,1,1941,1948,1949,1942
CQUADX4,1888,1,1942,1949,1950,1943
CQUADX4,1889,1,1944,1951,1952,1945
CQUADX4,1890,1,1945,1952,1953,1946
CQUADX4,1891,1,1946,1953,1954,1947
CQUADX4,1892,1,1947,1954,1955,1948
CQUADX4,1893,1,1948,1955,1956,1949
CQUADX4,1894,1,1949,1956,1957,1950
CQUADX4,1895,1,1951,1958,1959,1952
CQUADX4,1896,1,1952,1959,1960,1953
CQUADX4,1897,1,1953,1960,1961,1954
CQUADX4,1898,1,1954,1961,1962,1955
CQUADX4,1899,1,1955,1962,1963,1956
CQUADX4,1900,1,1956,1963,1964,1957
CQUADX4,1901,1,1958,1965,1966,1959
CQUADX4,1902,1,1959,1966,1967,1960
CQUADX4,1903,1,1960,1967,1968,1961
CQUADX4,1904,1,1961,1968,1969,1962
CQUADX4,1905,1,1962,1969,1970,1963
CQUADX4,1906,1,1963,1970,1971,1964
CQUADX4,1907,1,1965,1972,1973,1966
CQUADX4,1908,1,1966,1973,1974,1967
CQUADX4,1909,1,1967,1974,1975,1968
CQUADX4,1910,1,1968,1975,1976,1969
CQUADX4,1911,1,1969,1976,1977,1970
CQUADX4,1912,1,1970,1977,1978,1971
CQUADX4,1913,1,1972,1979,1980,1973
CQUADX4,1914,1,1973,1980,1981,1974
CQUADX4,1915,1,1974,1981,1982,1975
CQUADX4,1916,1,1975,1982,1983,1976
CQUADX4,1917,1,1976,1983,1984,1977
CQUADX4,1918,1,1977,1984,1985,1978
CQUADX4,1919,1,1979,1986,1987,1980
CQUADX4,1920,1,1980,1987,1988,1981
CQUADX4,1921,1,1981,1988,1989,1982
CQUADX4,1922,1,1982,1989,1990,1983
CQUADX4,1923,1,1983,1990,1991,1984
CQUADX4,1924,1,1984,1991,1992,1985
CQUADX4,1925,1,1986,1993,1994,1987
CQUADX4,1926,1,1987,1994,1995,1988
CQUADX4,1927,1,1988,1995,1996,1989
CQUADX4,1928,1,1989,1996,1997,1990
CQUADX4,1929,1,1990,1997,1998,1991
CQUADX4,1930,1,1991,1998,1999,1992
CQUADX4,1931,1,1993,2000,2001,1994
CQUADX4,1932,1,1994,2001,2002,1995
CQUADX4,1933,1,1995,2002,2003,1996
CQUADX4,1934,1,1996,2003,2004,1997
CQUADX4,1935,1,1997,2004,2005,1998
CQUADX4,1936,1,1998,2005,2006,1999
CQUADX4,1937,1,2000,2007,2008,2001
CQUADX4,1938,1,2001,2008,2009,2002
CQUADX4,1939,1,2002,2009,2010,2003
CQUADX4,1940,1,2003,2010,2011,2004
CQUADX4,1941,1,2004,2011,2012,2005
CQUADX4,1942,1,2005,2012,2013,2006
CQUADX4,1943,1,2007,2014,2015,2008
CQUADX4,1944,1,2008,2015,2016,2009
CQUADX4,1945,1,2009,2016,2017,2010
CQUADX4,1946,1,2010,2017,2018,2011
CQUADX4,1947,1,2011,2018,2019,2012
CQUADX4,1948,1,2012,2019,2020,2013
CQUADX4,1949,1,2014,2021,2022,2015
CQUADX4,1950,1,2015,2022,2023,2016
CQUADX4,1951,1,2016,2023,2024,2017
CQUADX4,1952,1,2017,2024,2025,2018
CQUADX4,1953,1,2018,2025,2026,2019
CQUADX4,1954,1,2019,2026,2027,2020
CQUADX4,1955,1,2021,2028,2029,2022
CQUADX4,1956,1,2022,2029,2030,2023
CQUADX4,1957,1,2023,2030,2031,2024
CQUADX4,1958,1,2024,2031,2032,2025
CQUADX4,1959,1,2025,2032,2033,2026
CQUADX4,1960,1,2026,2033,2034,2027
CQUADX4,1961,1,2028,2035,2036,2029
CQUADX4,1962,1,2029,2036,2037,2030
CQUADX4,1963,1,2030,2037,2038,2031
CQUADX4,1964,1,2031,2038,2039,2032
CQUADX4,1965,1,2032,2039,2040,2033
CQUADX4,1966,1,2033,2040,2041,2034
CQUADX4,1967,1,2035,2042,2043,2036
CQUADX4,1968,1,2036,2043,2044,2037
CQUADX4,1969,1,2037,2044,2045,2038
CQUADX4,1970,1,2038,2045,2046,2039
CQUADX4,1971,1,2039,2046,2047,2040
CQUADX4,1972,1,2040,2047,2048,2041
CQUADX4,1973,1,2042,2049,2050,2043
CQUADX4,1974,1,2043,2050,2051,2044
CQUADX4,1975,1,2044,2051,2052,2045
CQUADX4,1976,1,2045,2052,2053,2046
CQUADX4,1977,1,2046,2053,2054,2047
CQUADX4,1978,1,2047,2054,2055,2048
CQUADX4,1979,1,2049,2056,2057,2050
CQUADX4,1980,1,2050,2057,2058,2051
CQUADX4,1981,1,2051,2058,2059,2052
CQUADX4,1982,1,2052,2059,2060,2053
CQUADX4,1983,1,2053,2060,2061,2054
CQUADX4,1984,1,2054,2061,2062,2055
CQUADX4,1985,1,2056,2063,2064,2057
CQUADX4,1986,1,2057,2064,2065,2058
CQUADX4,1987,1,2058,2065,2066,2059
CQUADX4,1988,1,2059,2066,2067,2060
CQUADX4,1989,1,2060,2067,2068,2061
CQUADX4,1990,1,2061,2068,2069,2062
CQUADX4,1991,1,2063,2070,2071,2064
CQUADX4,1992,1,2064,2071,2072,2065
CQUADX4,1993,1,2065,2072,2073,2066
CQUADX4,1994,1,2066,2073,2074,2067
CQUADX4,1995,1,2067,2074,2075,2068
CQUADX4,1996,1,2068,2075,2076,2069
CQUADX4,1997,1,2070,2077,2078,2071
CQUADX4,1998,1,2071,2078,2079,2072
CQUADX4,1999,1,2072,2079,2080,2073
CQUADX4,2000,1,2073,2080,2081,2074
CQUADX4,2001,1,2074,2081,2082,2075
CQUADX4,2002,1,2075,2082,2083,2076
CQUADX4,2003,1,2077,2084,2085,2078
CQUADX4,2004,1,2078,2085,2086,2079
CQUADX4,2005,1,2079,2086,2087,2080
CQUADX4,2006,1,2080,2087,2088,2081
CQUADX4,2007,1,2081,2088,2089,2082
CQUADX4,2008,1,2082,2089,2090,2083
CQUADX4,2009,1,2084,2091,2092,2085
CQUADX4,2010,1,2085,2092,2093,2086
CQUADX4,2011,1,2086,2093,2094,2087
CQUADX4,2012,1,2087,2094,2095,2088
CQUADX4,2013,1,2088,2095,2096,2089
CQUADX4,2014,1,2089,2096,2097,2090
CQUADX4,2015,1,2091,2098,2099,2092
CQUADX4,2016,1,2092,2099,2100,2093
CQUADX4,2017,1,2093,2100,2101,2094
CQUADX4,2018,1,2094,2101,2102,2095
CQUADX4,2019,1,2095,2102,2103,2096
CQUADX4,2020,1,2096,2103,2104,2097
CQUADX4,2021,1,2098,2105,2106,2099
CQUADX4,2022,1,2099,2106,2107,2100
CQUADX4,2023,1,2100,2107,2108,2101
CQUADX4,2024,1,2101,2108,2109,2102
CQUADX4,2025,1,2102,2109,2110,2103
CQUADX4,2026,1,2103,2110,2111,2104
CQUADX4,2027,1,2105,2112,2113,2106
CQUADX4,2028,1,2106,2113,2114,2107
CQUADX4,2029,1,2107,2114,2115,2108
CQUADX4,2030,1,2108,2115,2116,2109
CQUADX4,2031,1,2109,2116,2117,2110
CQUADX4,2032,1,2110,2117,2118,2111
CQUADX4,2033,1,2112,2119,2120,2113
CQUADX4,2034,1,2113,2120,2121,2114
CQUADX4,2035,1,2114,2121,2122,2115
CQUADX4,2036,1,2115,2122,2123,2116
CQUADX4,2037,1,2116,2123,2124,2117
CQUADX4,2038,1,2117,2124,2125,2118
CQUADX4,2039,1,2119,2126,2127,2120
CQUADX4,2040,1,2120,2127,2128,2121
CQUADX4,2041,1,2121,2128,2129,2122
CQUADX4,2042,1,2122,2129,2130,2123
CQUADX4,2043,1,2123,2130,2131,2124
CQUADX4,2044,1,2124,2131,2132,2125
CQUADX4,2045,1,2126,2133,2134,2127
CQUADX4,2046,1,2127,2134,2135,2128
CQUADX4,2047,1,2128,2135,2136,2129
CQUADX4,2048,1,2129,2136,2137,2130
CQUADX4,2049,1,2130,2137,2138,2131
CQUADX4,2050,1,2131,2138,2139,2132
CQUADX4,2051,1,2133,2140,2141,2134
CQUADX4,2052,1,2134,2141,2142,2135
CQUADX4,2053,1,2135,2142,2143,2136
CQUADX4,2054,1,2136,2143,2144,2137
CQUADX4,2055,1,2137,2144,2145,2138
CQUADX4,2056,1,2138,2145,2146,2139
CQUADX4,2057,1,2140,2147,2148,2141
CQUADX4,2058,1,2141,2148,2149,2142
CQUADX4,2059,1,2142,2149,2150,2143
CQUADX4,2060,1,2143,2150,2151,2144
CQUADX4,2061,1,2144,2151,2152,2145
CQUADX4,2062,1,2145,2152,2153,2146
CQUADX4,2063,1,2147,2154,2155,2148
CQUADX4,2064,1,2148,2155,2156,2149
CQUADX4,2065,1,2149,2156,2157,2150
CQUADX4,2066,1,2150,2157,2158,2151
CQUADX4,2067,1,2151,2158,2159,2152
CQUADX4,2068,1,2152,2159,2160,2153
CQUADX4,2069,1,2154,2161,2162,2155
CQUADX4,2070,1,2155,2162,2163,2156
CQUADX4,2071,1,2156,2163,2164,2157
CQUADX4,2072,1,2157,2164,2165,2158
CQUADX4,2073,1,2158,2165,2166,2159
CQUADX4,2074,1,2159,2166,2167,2160
CQUADX4,2075,1,2161,2168,2169,2162
CQUADX4,2076,1,2162,2169,2170,2163
CQUADX4,2077,1,2163,2170,2171,2164
CQUADX4,2078,1,2164,2171,2172,2165
CQUADX4,2079,1,2165,2172,2173,2166
CQUADX4,2080,1,2166,2173,2174,2167
CQUADX4,2081,1,2168,2175,2176,2169
CQUADX4,2082,1,2169,2176,2177,2170
CQUADX4,2083,1,2170,2177,2178,2171
CQUADX4,2084,1,2171,2178,2179,2172
CQUADX4,2085,1,2172,2179,2180,2173
CQUADX4,2086,1,2173,2180,2181,2174
CQUADX4,2087,1,2175,2182,2183,2176
CQUADX4,2088,1,2176,2183,2184,2177
CQUADX4,2089,1,2177,2184,2185,2178
CQUADX4,2090,1,2178,2185,2186,2179
CQUADX4,2091,1,2179,2186,2187,2180
CQUADX4,2092,1,2180,2187,2188,2181
CQUADX4,2093,1,2182,2189,2190,2183
CQUADX4,2094,1,2183,2190,2191,2184
CQUADX4,2095,1,2184,2191,2192,2185
CQUADX4,2096,1,2185,2192,2193,2186
CQUADX4,2097,1,2186,2193,2194,2187
CQUADX4,2098,1,2187,2194,2195,2188
CQUADX4,2099,1,2189,2196,2197,2190
CQUADX4,2100,1,2190,2197,2198,2191
CQUADX4,2101,1,2191,2198,2199,2192
CQUADX4,2102,1,2192,2199,2200,2193
CQUADX4,2103,1,2193,2200,2201,2194
CQUADX4,2104,1,2194,2201,2202,2195
CQUADX4,2105,1,2196,2203,2204,2197
CQUADX4,2106,1,2197,2204,2205,2198
CQUADX4,2107,1,2198,2205,2206,2199
CQUADX4,2108,1,2199,2206,2207,2200
CQUADX4,2109,1,2200,2207,2208,2201
CQUADX4,2110,1,2201,2208,2209,2202
CQUADX4,2111,1,2203,2210,2211,2204
CQUADX4,2112,1,2204,2211,2212,2205
CQUADX4,2113,1,2205,2212,2213,2206
CQUADX4,2114,1,2206,2213,2214,2207
CQUADX4,2115,1,2207,2214,2215,2208
CQUADX4,2116,1,2208,2215,2216,2209
CQUADX4,2117,1,2210,2217,2218,2211
CQUADX4,2118,1,2211,2218,2219,2212
CQUADX4,2119,1,2212,2219,2220,2213
CQUADX4,2120,1,2213,2220,2221,2214
CQUADX4,2121,1,2214,2221,2222,2215
CQUADX4,2122,1,2215,2222,2223,2216
CQUADX4,2123,1,2217,2224,2225,2218
CQUADX4,2124,1,2218,2225,2226,2219
CQUADX4,2125,1,2219,2226,2227,2220
CQUADX4,2126,1,2220,2227,2228,2221
CQUADX4,2127,1,2221,2228,2229,2222
CQUADX4,2128,1,2222,2229,2230,2223
CQUADX4,2129,1,2224,2231,2232,2225
CQUADX4,2130,1,2225,2232,2233,2226
CQUADX4,2131,1,2226,2233,2234,2227
CQUADX4,2132,1,2227,2234,2235,2228
CQUADX4,2133,1,2228,2235,2236,2229
CQUADX4,2134,1,2229,2236,2237,2230
CQUADX4,2135,1,2231,2238,2239,2232
CQUADX4,2136,1,2232,2239,2240,2233
CQUADX4,2137,1,2233,2240,2241,2234
CQUADX4,2138,1,2234,2241,2242,2235
CQUADX4,2139,1,2235,2242,2243,2236
CQUADX4,2140,1,2236,2243,2244,2237
CQUADX4,2141,1,2238,2245,2246,2239
CQUADX4,2142,1,2239,2246,2247,2240
CQUADX4,2143,1,2240,2247,2248,2241
CQUADX4,2144,1,2241,2248,2249,2242
CQUADX4,2145,1,2242,2249,2250,2243
CQUADX4,2146,1,2243,2250,2251,2244
CQUADX4,2147,1,2245,2252,2253,2246
CQUADX4,2148,1,2246,2253,2254,2247
CQUADX4,2149,1,2247,2254,2255,2248
CQUADX4,2150,1,2248,2255,2256,2249
CQUADX4,2151,1,2249,2256,2257,2250
CQUADX4,2152,1,2250,2257,2258,2251
CQUADX4,2153,1,2252,2259,2260,2253
CQUADX4,2154,1,2253,2260,2261,2254
CQUADX4,2155,1,2254,2261,2262,2255
CQUADX4,2156,1,2255,2262,2263,2256
CQUADX4,2157,1,2256,2263,2264,2257
CQUADX4,2158,1,2257,2264,2265,2258
CQUADX4,2159,1,2259,2266,2267,2260
CQUADX4,2160,1,2260,2267,2268,2261
CQUADX4,2161,1,2261,2268,2269,2262
CQUADX4,2162,1,2262,2269,2270,2263
CQUADX4,2163,1,2263,2270,2271,2264
CQUADX4,2164,1,2264,2271,2272,2265
CQUADX4,2165,1,2266,2273,2274,2267
CQUADX4,2166,1,2267,2274,2275,2268
CQUADX4,2167,1,2268,2275,2276,2269
CQUADX4,2168,1,2269,2276,2277,2270
CQUADX4,2169,1,2270,2277,2278,2271
CQUADX4,2170,1,2271,2278,2279,2272
CQUADX4,2171,1,2273,2280,2281,2274
CQUADX4,2172,1,2274,2281,2282,2275
CQUADX4,2173,1,2275,2282,2283,2276
CQUADX4,2174,1,2276,2283,2284,2277
CQUADX4,2175,1,2277,2284,2285,2278
CQUADX4,2176,1,2278,2285,2286,2279
CQUADX4,2177,1,2280,2287,2288,2281
CQUADX4,2178,1,2281,2288,2289,2282
CQUADX4,2179,1,2282,2289,2290,2283
CQUADX4,2180,1,2283,2290,2291,2284
CQUADX4,2181,1,2284,2291,2292,2285
CQUADX4,2182,1,2285,2292,2293,2286
CQUADX4,2183,1,2287,2294,2295,2288
CQUADX4,2184,1,2288,2295,2296,2289
CQUADX4,2185,1,2289,2296,2297,2290
CQUADX4,2186,1,2290,2297,2298,2291
CQUADX4,2187,1,2291,2298,2299,2292
CQUADX4,2188,1,2292,2299,2300,2293
CQUADX4,2189,1,2294,2301,2302,2295
CQUADX4,2190,1,2295,2302,2303,2296
CQUADX4,2191,1,2296,2303,2304,2297
CQUADX4,2192,1,2297,2304,2305,2298
CQUADX4,2193,1,2298,2305,2306,2299
CQUADX4,2194,1,2299,2306,2307,2300
CQUADX4,2195,1,2301,2308,2309,2302
CQUADX4,2196,1,2302,2309,2310,2303
CQUADX4,2197,1,2303,2310,2311,2304
CQUADX4,2198,1,2304,2311,2312,2305
CQUADX4,2199,1,2305,2312,2313,2306
CQUADX4,2200,1,2306,2313,2314,2307
CQUADX4,2201,1,2308,2315,2316,2309
CQUADX4,2202,1,2309,2316,2317,2310
CQUADX4,2203,1,2310,2317,2318,2311
CQUADX4,2204,1,2311,2318,2319,2312
CQUADX4,2205,1,2312,2319,2320,2313
CQUADX4,2206,1,2313,2320,2321,2314
CQUADX4,2207,1,2315,2322,2323,2316
CQUADX4,2208,1,2316,2323,2324,2317
CQUADX4,2209,1,2317,2324,2325,2318
CQUADX4,2210,1,2318,2325,2326,2319
CQUADX4,2211,1,2319,2326,2327,2320
CQUADX4,2212,1,2320,2327,2328,2321
CQUADX4,2213,1,2322,2329,2330,2323
CQUADX4,2214,1,2323,2330,2331,2324
CQUADX4,2215,1,2324,2331,2332,2325
CQUADX4,2216,1,2325,2332,2333,2326
CQUADX4,2217,1,2326,2333,2334,2327
CQUADX4,2218,1,2327,2334,2335,2328
CQUADX4,2219,1,2329,2336,2337,2330
CQUADX4,2220,1,2330,2337,2338,2331
CQUADX4,2221,1,2331,2338,2339,2332
CQUADX4,2222,1,2332,2339,2340,2333
CQUADX4,2223,1,2333,2340,2341,2334
CQUADX4,2224,1,2334,2341,2342,2335
CQUADX4,2225,1,2336,2343,2344,2337
CQUADX4,2226,1,2337,2344,2345,2338
CQUADX4,2227,1,2338,2345,2346,2339
CQUADX4,2228,1,2339,2346,2347,2340
CQUADX4,2229,1,2340,2347,2348,2341
CQUADX4,2230,1,2341,2348,2349,2342
CQUADX4,2231,1,2343,2350,2351,2344
CQUADX4,2232,1,2344,2351,2352,2345
CQUADX4,2233,1,2345,2352,2353,2346
CQUADX4,2234,1,2346,2353,2354,2347
CQUADX4,2235,1,2347,2354,2355,2348
CQUADX4,2236,1,2348,2355,2356,2349
CQUADX4,2237,1,2350,2357,2358,2351
CQUADX4,2238,1,2351,2358,2359,2352
CQUADX4,2239,1,2352,2359,2360,2353
CQUADX4,2240,1,2353,2360,2361,2354
CQUADX4,2241,1,2354,2361,2362,2355
CQUADX4,2242,1,2355,2362,2363,2356
CQUADX4,2243,1,2357,2364,2365,2358
CQUADX4,2244,1,2358,2365,2366,2359
CQUADX4,2245,1,2359,2366,2367,2360
CQUADX4,2246,1,2360,2367,2368,2361
CQUADX4,2247,1,2361,2368,2369,2362
CQUADX4,2248,1,2362,2369,2370,2363
CQUADX4,2249,1,2364,2371,2372,2365
CQUADX4,2250,1,2365,2372,2373,2366
CQUADX4,2251,1,2366,2373,2374,2367
CQUADX4,2252,1,2367,2374,2375,2368
CQUADX4,2253,1,2368,2375,2376,2369
CQUADX4,2254,1,2369,2376,2377,2370
CQUADX4,2255,1,2371,2378,2379,2372
CQUADX4,2256,1,2372,2379,2380,2373
CQUADX4,2257,1,2373,2380,2381,2374
CQUADX4,2258,1,2374,2381,2382,2375
CQUADX4,2259,1,2375,2382,2383,2376
CQUADX4,2260,1,2376,2383,2384,2377
CQUADX4,2261,1,2378,2385,2386,2379
CQUADX4,2262,1,2379,2386,2387,2380
CQUADX4,2263,1,2380,2387,2388,2381
CQUADX4,2264,1,2381,2388,2389,2382
CQUADX4,2265,1,2382,2389,2390,2383
CQUADX4,2266,1,2383,2390,2391,2384
CQUADX4,2267,1,2385,2392,2393,2386
CQUADX4,2268,1,2386,2393,2394,2387
CQUADX4,2269,1,2387,2394,2395,2388
CQUADX4,2270,1,2388,2395,2396,2389
CQUADX4,2271,1,2389,2396,2397,2390
CQUADX4,2272,1,2390,2397,2398,2391
CQUADX4,2273,1,2392,2399,2400,2393
CQUADX4,2274,1,2393,2400,2401,2394
CQUADX4,2275,1,2394,2401,2402,2395
CQUADX4,2276,1,2395,2402,2403,2396
CQUADX4,2277,1,2396,2403,2404,2397
CQUADX4,2278,1,2397,2404,2405,2398
CQUADX4,2279,1,2399,2406,2407,2400
CQUADX4,2280,1,2400,2407,2408,2401
CQUADX4,2281,1,2401,2408,2409,2402
CQUADX4,2282,1,2402,2409,2410,2403
CQUADX4,2283,1,2403,2410,2411,2404
CQUADX4,2284,1,2404,2411,2412,2405
CQUADX4,2285,1,2406,2413,2414,2407
CQUADX4,2286,1,2407,2414,2415,2408
CQUADX4,2287,1,2408,2415,2416,2409
CQUADX4,2288,1,2409,2416,2417,2410
CQUADX4,2289,1,2410,2417,2418,2411
CQUADX4,2290,1,2411,2418,2419,2412
CQUADX4,2291,1,2413,2420,2421,2414
CQUADX4,2292,1,2414,2421,2422,2415
CQUADX4,2293,1,2415,2422,2423,2416
CQUADX4,2294,1,2416,2423,2424,2417
CQUADX4,2295,1,2417,2424,2425,2418
CQUADX4,2296,1,2418,2425,2426,2419
CQUADX4,2297,1,2420,2427,2428,2421
CQUADX4,2298,1,2421,2428,2429,2422
CQUADX4,2299,1,2422,2429,2430,2423
CQUADX4,2300,1,2423,2430,2431,2424
CQUADX4,2301,1,2424,2431,2432,2425
CQUADX4,2302,1,2425,2432,2433,2426
CQUADX4,2303,1,2427,2434,2435,2428
CQUADX4,2304,1,2428,2435,2436,2429
CQUADX4,2305,1,2429,2436,2437,2430
CQUADX4,2306,1,2430,2437,2438,2431
CQUADX4,2307,1,2431,2438,2439,2432
CQUADX4,2308,1,2432,2439,2440,2433
CQUADX4,2309,1,2434,2441,2442,2435
CQUADX4,2310,1,2435,2442,2443,2436
CQUADX4,2311,1,2436,2443,2444,2437
CQUADX4,2312,1,2437,2444,2445,2438
CQUADX4,2313,1,2438,2445,2446,2439
CQUADX4,2314,1,2439,2446,2447,2440
CQUADX4,2315,1,2441,2448,2449,2442
CQUADX4,2316,1,2442,2449,2450,2443
CQUADX4,2317,1,2443,2450,2451,2444
CQUADX4,2318,1,2444,2451,2452,2445
CQUADX4,2319,1,2445,2452,2453,2446
CQUADX4,2320,1,2446,2453,2454,2447
CQUADX4,2321,1,2448,2455,2456,2449
CQUADX4,2322,1,2449,2456,2457,2450
CQUADX4,2323,1,2450,2457,2458,2451
CQUADX4,2324,1,2451,2458,2459,2452
CQUADX4,2325,1,2452,2459,2460,2453
CQUADX4,2326,1,2453,2460,2461,2454
CQUADX4,2327,1,2455,2462,2463,2456
CQUADX4,2328,1,2456,2463,2464,2457
CQUADX4,2329,1,2457,2464,2465,2458
CQUADX4,2330,1,2458,2465,2466,2459
CQUADX4,2331,1,2459,2466,2467,2460
CQUADX4,2332,1,2460,2467,2468,2461
CQUADX4,2333,1,2462,2469,2470,2463
CQUADX4,2334,1,2463,2470,2471,2464
CQUADX4,2335,1,2464,2471,2472,2465
CQUADX4,2336,1,2465,2472,2473,2466
CQUADX4,2337,1,2466,2473,2474,2467
CQUADX4,2338,1,2467,2474,2475,2468
CQUADX4,2339,1,2469,2476,2477,2470
CQUADX4,2340,1,2470,2477,2478,2471
CQUADX4,2341,1,2471,2478,2479,2472
CQUADX4,2342,1,2472,2479,2480,2473
CQUADX4,2343,1,2473,2480,2481,2474
CQUADX4,2344,1,2474,2481,2482,2475
CQUADX4,2345,1,2476,2483,2484,2477
CQUADX4,2346,1,2477,2484,2485,2478
CQUADX4,2347,1,2478,2485,2486,2479
CQUADX4,2348,1,2479,2486,2487,2480
CQUADX4,2349,1,2480,2487,2488,2481
CQUADX4,2350,1,2481,2488,2489,2482
CQUADX4,2351,1,2483,2490,2491,2484
CQUADX4,2352,1,2484,2491,2492,2485
CQUADX4,2353,1,2485,2492,2493,2486
CQUADX4,2354,1,2486,2493,2494,2487
CQUADX4,2355,1,2487,2494,2495,2488
CQUADX4,2356,1,2488,2495,2496,2489
CQUADX4,2357,1,2490,2497,2498,2491
CQUADX4,2358,1,2491,2498,2499,2492
CQUADX4,2359,1,2492,2499,2500,2493
CQUADX4,2360,1,2493,2500,2501,2494
CQUADX4,2361,1,2494,2501,2502,2495
CQUADX4,2362,1,2495,2502,2503,2496
CQUADX4,2363,1,2497,2504,2505,2498
CQUADX4,2364,1,2498,2505,2506,2499
CQUADX4,2365,1,2499,2506,2507,2500
CQUADX4,2366,1,2500,2507,2508,2501
CQUADX4,2367,1,2501,2508,2509,2502
CQUADX4,2368,1,2502,2509,2510,2503
CQUADX4,2369,1,6723,5830,838,5822
CQUADX4,2370,1,5830,5831,845,838
CQUADX4,2371,1,5831,5832,852,845
CQUADX4,2372,1,5832,5833,859,852
CQUADX4,2373,1,5833,5834,866,859
CQUADX4,2374,1,5834,5835,873,866
CQUADX4,2375,1,5835,5836,880,873
CQUADX4,2376,1,5836,5837,887,880
CQUADX4,2377,1,5837,5838,894,887
CQUADX4,2378,1,5838,5839,901,894
CQUADX4,2379,1,5839,5840,908,901
CQUADX4,2380,1,5840,5841,915,908
CQUADX4,2381,1,5841,5842,922,915
CQUADX4,2382,1,5842,5843,929,922
CQUADX4,2383,1,5843,5844,936,929
CQUADX4,2384,1,5844,5845,943,936
CQUADX4,2385,1,5845,5846,950,943
CQUADX4,2386,1,5846,5847,957,950
CQUADX4,2387,1,5847,5848,964,957
CQUADX4,2388,1,5848,5849,971,964
CQUADX4,2389,1,5849,5850,978,971
CQUADX4,2390,1,5850,5851,985,978
CQUADX4,2391,1,5851,5852,992,985
CQUADX4,2392,1,5852,5853,999,992
CQUADX4,2393,1,5853,5854,1006,999
CQUADX4,2394,1,5854,5855,1013,1006
CQUADX4,2395,1,5855,5856,1020,1013
CQUADX4,2396,1,5856,5857,1027,1020
CQUADX4,2397,1,5857,5858,1034,1027
CQUADX4,2398,1,5858,5859,1041,1034
CQUADX4,2399,1,5859,5860,1048,1041
CQUADX4,2400,1,5860,5861,1055,1048
CQUADX4,2401,1,5861,5862,1062,1055
CQUADX4,2402,1,5862,5863,1069,1062
CQUADX4,2403,1,5863,5864,1076,1069
CQUADX4,2404,1,5864,5865,1083,1076
CQUADX4,2405,1,5865,5866,1090,1083
CQUADX4,2406,1,5866,5867,1097,1090
CQUADX4,2407,1,5867,5868,1104,1097
CQUADX4,2408,1,5868,5869,1111,1104
CQUADX4,2409,1,5869,5870,1118,1111
CQUADX4,2410,1,5870,5871,1125,1118
CQUADX4,2411,1,5871,5872,1132,1125
CQUADX4,2412,1,5872,5873,1139,1132
CQUADX4,2413,1,5873,5874,1146,1139
CQUADX4,2414,1,5874,5875,1153,1146
CQUADX4,2415,1,5875,5876,1160,1153
CQUADX4,2416,1,5876,5877,1167,1160
CQUADX4,2417,1,5877,5878,1174,1167
CQUADX4,2418,1,5878,5879,1181,1174
CQUADX4,2419,1,5879,5880,1188,1181
CQUADX4,2420,1,5880,5881,1195,1188
CQUADX4,2421,1,5881,5882,1202,1195
CQUADX4,2422,1,5882,5883,1209,1202
CQUADX4,2423,1,5883,5884,1216,1209
CQUADX4,2424,1,5884,5885,1223,1216
CQUADX4,2425,1,5885,5886,1230,1223
CQUADX4,2426,1,5886,5887,1237,1230
CQUADX4,2427,1,5887,5888,1244,1237
CQUADX4,2428,1,5888,5889,1251,1244
CQUADX4,2429,1,5889,5890,1258,1251
CQUADX4,2430,1,5890,5891,1265,1258
CQUADX4,2431,1,5891,5892,1272,1265
CQUADX4,2432,1,5892,5893,1279,1272
CQUADX4,2433,1,5893,5894,1286,1279
CQUADX4,2434,1,5894,5895,1293,1286
CQUADX4,2435,1,5895,5896,1300,1293
CQUADX4,2436,1,5896,5897,1307,1300
CQUADX4,2437,1,5897,5898,1314,1307
CQUADX4,2438,1,5898,5899,1321,1314
CQUADX4,2439,1,5899,5900,1328,1321
CQUADX4,2440,1,5900,5901,1335,1328
CQUADX4,2441,1,5901,5902,1342,1335
CQUADX4,2442,1,5902,5903,1349,1342
CQUADX4,2443,1,5903,5904,1356,1349
CQUADX4,2444,1,5904,5905,1363,1356
CQUADX4,2445,1,5905,5906,1370,1363
CQUADX4,2446,1,5906,5907,1377,1370
CQUADX4,2447,1,5907,5908,1384,1377
CQUADX4,2448,1,5908,5909,1391,1384
CQUADX4,2449,1,5909,5910,1398,1391
CQUADX4,2450,1,5910,5911,1405,1398
CQUADX4,2451,1,5911,5912,1412,1405
CQUADX4,2452,1,5912,5913,1419,1412
CQUADX4,2453,1,5913,5914,1426,1419
CQUADX4,2454,1,5914,5915,1433,1426
CQUADX4,2455,1,5915,5916,1440,1433
CQUADX4,2456,1,5916,5917,1447,1440
CQUADX4,2457,1,5917,5918,1454,1447
CQUADX4,2458,1,5918,5919,1461,1454
CQUADX4,2459,1,5919,5920,1468,1461
CQUADX4,2460,1,5920,5921,1475,1468
CQUADX4,2461,1,5921,5922,1482,1475
CQUADX4,2462,1,5922,5923,1489,1482
CQUADX4,2463,1,5923,5924,1496,1489
CQUADX4,2464,1,5924,5925,1503,1496
CQUADX4,2465,1,5925,5926,1510,1503
CQUADX4,2466,1,5926,5927,1517,1510
CQUADX4,2467,1,5927,5928,1524,1517
CQUADX4,2468,1,5928,5929,1531,1524
CQUADX4,2469,1,5929,5930,1538,1531
CQUADX4,2470,1,5930,5931,1545,1538
CQUADX4,2471,1,5931,5932,1552,1545
CQUADX4,2472,1,5932,5933,1559,1552
CQUADX4,2473,1,5933,5934,1566,1559
CQUADX4,2474,1,5934,5935,1573,1566
CQUADX4,2475,1,5935,5936,1580,1573
CQUADX4,2476,1,5936,5937,1587,1580
CQUADX4,2477,1,5937,5938,1594,1587
CQUADX4,2478,1,5938,5939,1601,1594
CQUADX4,2479,1,5939,5940,1608,1601
CQUADX4,2480,1,5940,5941,1615,1608
CQUADX4,2481,1,5941,5942,1622,1615
CQUADX4,2482,1,5942,5943,1629,1622
CQUADX4,2483,1,5943,5944,1636,1629
CQUADX4,2484,1,5944,5945,1643,1636
CQUADX4,2485,1,5945,5946,1650,1643
CQUADX4,2486,1,5946,5947,1657,1650
CQUADX4,2487,1,5947,5948,1664,1657
CQUADX4,2488,1,5948,5949,1671,1664
CQUADX4,2489,1,5949,5950,1678,1671
CQUADX4,2490,1,5950,5951,1685,1678
CQUADX4,2491,1,5951,5952,1692,1685
CQUADX4,2492,1,5952,5953,1699,1692
CQUADX4,2493,1,5953,5954,1706,1699
CQUADX4,2494,1,5954,5955,1713,1706
CQUADX4,2495,1,5955,5956,1720,1713
CQUADX4,2496,1,5956,5957,1727,1720
CQUADX4,2497,1,5957,5958,1734,1727
CQUADX4,2498,1,5958,5959,1741,1734
CQUADX4,2499,1,5959,5960,1748,1741
CQUADX4,2500,1,5960,5961,1755,1748
CQUADX4,2501,1,5961,5962,1762,1755
CQUADX4,2502,1,5962,5963,1769,1762
CQUADX4,2503,1,5963,5964,1776,1769
CQUADX4,2504,1,5964,5965,1783,1776
CQUADX4,2505,1,5965,5966,1790,1783
CQUADX4,2506,1,5966,5967,1797,1790
CQUADX4,2507,1,5967,5968,1804,1797
CQUADX4,2508,1,5968,5969,1811,1804
CQUADX4,2509,1,5969,5970,1818,1811
CQUADX4,2510,1,5970,5971,1825,1818
CQUADX4,2511,1,5971,5972,1832,1825
CQUADX4,2512,1,5972,5973,1839,1832
CQUADX4,2513,1,5973,5974,1846,1839
CQUADX4,2514,1,5974,5975,1853,1846
CQUADX4,2515,1,5975,5976,1860,1853
CQUADX4,2516,1,5976,5977,1867,1860
CQUADX4,2517,1,5977,5978,1874,1867
CQUADX4,2518,1,5978,5979,1881,1874
CQUADX4,2519,1,5979,5980,1888,1881
CQUADX4,2520,1,5980,5981,1895,1888
CQUADX4,2521,1,5981,5982,1902,1895
CQUADX4,2522,1,5982,5983,1909,1902
CQUADX4,2523,1,5983,5984,1916,1909
CQUADX4,2524,1,5984,5985,1923,1916
CQUADX4,2525,1,5985,5986,1930,1923
CQUADX4,2526,1,5986,5987,1937,1930
CQUADX4,2527,1,5987,5988,1944,1937
CQUADX4,2528,1,5988,5989,1951,1944
CQUADX4,2529,1,5989,5990,1958,1951
CQUADX4,2530,1,5990,5991,1965,1958
CQUADX4,2531,1,5991,5992,1972,1965
CQUADX4,2532,1,5992,5993,1979,1972
CQUADX4,2533,1,5993,5994,1986,1979
CQUADX4,2534,1,5994,5995,1993,1986
CQUADX4,2535,1,5995,5996,2000,1993
CQUADX4,2536,1,5996,5997,2007,2000
CQUADX4,2537,1,5997,5998,2014,2007
CQUADX4,2538,1,5998,5999,2021,2014
CQUADX4,2539,1,5999,6000,2028,2021
CQUADX4,2540,1,6000,6001,2035,2028
CQUADX4,2541,1,6001,6002,2042,2035
CQUADX4,2542,1,6002,6003,2049,2042
CQUADX4,2543,1,6003,6004,2056,2049
CQUADX4,2544,1,6004,6005,2063,2056
CQUADX4,2545,1,6005,6006,2070,2063
CQUADX4,2546,1,6006,6007,2077,2070
CQUADX4,2547,1,6007,6008,2084,2077
CQUADX4,2548,1,6008,6009,2091,2084
CQUADX4,2549,1,6009,6010,2098,2091
CQUADX4,2550,1,6010,6011,2105,2098
CQUADX4,2551,1,6011,6012,2112,2105
CQUADX4,2552,1,6012,6013,2119,2112
CQUADX4,2553,1,6013,6014,2126,2119
CQUADX4,2554,1,6014,6015,2133,2126
CQUADX4,2555,1,6015,6016,2140,2133
CQUADX4,2556,1,6016,6017,2147,2140
CQUADX4,2557,1,6017,6018,2154,2147
CQUADX4,2558,1,6018,6019,2161,2154
CQUADX4,2559,1,6019,6020,2168,2161
CQUADX4,2560,1,6020,6021,2175,2168
CQUADX4,2561,1,6021,6022,2182,2175
CQUADX4,2562,1,6022,6023,2189,2182
CQUADX4,2563,1,6023,6024,2196,2189
CQUADX4,2564,1,6024,6025,2203,2196
CQUADX4,2565,1,6025,6026,2210,2203
CQUADX4,2566,1,6026,6027,2217,2210
CQUADX4,2567,1,6027,6028,2224,2217
CQUADX4,2568,1,6028,6029,2231,2224
CQUADX4,2569,1,6029,6030,2238,2231
CQUADX4,2570,1,6030,6031,2245,2238
CQUADX4,2571,1,6031,6032,2252,2245
CQUADX4,2572,1,6032,6033,2259,2252
CQUADX4,2573,1,6033,6034,2266,2259
CQUADX4,2574,1,6034,6035,2273,2266
CQUADX4,2575,1,6035,6036,2280,2273
CQUADX4,2576,1,6036,6037,2287,2280
CQUADX4,2577,1,6037,6038,2294,2287
CQUADX4,2578,1,6038,6039,2301,2294
CQUADX4,2579,1,6039,6040,2308,2301
CQUADX4,2580,1,6040,6041,2315,2308
CQUADX4,2581,1,6041,6042,2322,2315
CQUADX4,2582,1,6042,6043,2329,2322
CQUADX4,2583,1,6043,6044,2336,2329
CQUADX4,2584,1,6044,6045,2343,2336
CQUADX4,2585,1,6045,6046,2350,2343
CQUADX4,2586,1,6046,6047,2357,2350
CQUADX4,2587,1,6047,6048,2364,2357
CQUADX4,2588,1,6048,6049,2371,2364
CQUADX4,2589,1,6049,6050,2378,2371
CQUADX4,2590,1,6050,6051,2385,2378
CQUADX4,2591,1,6051,6052,2392,2385
CQUADX4,2592,1,6052,6053,2399,2392
CQUADX4,2593,1,6053,6054,2406,2399
CQUADX4,2594,1,6054,6055,2413,2406
CQUADX4,2595,1,6055,6056,2420,2413
CQUADX4,2596,1,6056,6057,2427,2420
CQUADX4,2597,1,6057,6058,2434,2427
CQUADX4,2598,1,6058,6059,2441,2434
CQUADX4,2599,1,6059,6060,2448,2441
CQUADX4,2600,1,6060,6061,2455,2448
CQUADX4,2601,1,6061,6062,2462,2455
CQUADX4,2602,1,6062,6063,2469,2462
CQUADX4,2603,1,6063,6064,2476,2469
CQUADX4,2604,1,6064,6065,2483,2476
CQUADX4,2605,1,6065,6066,2490,2483
CQUADX4,2606,1,6066,6067,2497,2490
CQUADX4,2607,1,6067,6068,2504,2497
CQUADX4,2608,1,6068,6724,5823,2504
CQUADX4,2609,1,2504,5823,5824,2505
CQUADX4,2610,1,2505,5824,5825,2506
CQUADX4,2611,1,2506,5825,5826,2507
CQUADX4,2612,1,2507,5826,5827,2508
CQUADX4,2613,1,2508,5827,5828,2509
CQUADX4,2614,1,2509,5828,5829,2510
CQUADX4,2615,1,2510,5829,6721,5577
CQUADX4,2616,1,2503,2510,5577,5578
CQUADX4,2617,1,2496,2503,5578,5579
CQUADX4,2618,1,2489,2496,5579,5580
CQUADX4,2619,1,2482,2489,5580,5581
CQUADX4,2620,1,2475,2482,5581,5582
CQUADX4,2621,1,2468,2475,5582,5583
CQUADX4,2622,1,2461,2468,5583,5584
CQUADX4,2623,1,2454,2461,5584,5585
CQUADX4,2624,1,2447,2454,5585,5586
CQUADX4,2625,1,2440,2447,5586,5587
CQUADX4,2626,1,2433,2440,5587,5588
CQUADX4,2627,1,2426,2433,5588,5589
CQUADX4,2628,1,2419,2426,5589,5590
CQUADX4,2629,1,2412,2419,5590,5591
CQUADX4,2630,1,2405,2412,5591,5592
CQUADX4,2631,1,2398,2405,5592,5593
CQUADX4,2632,1,2391,2398,5593,5594
CQUADX4,2633,1,2384,2391,5594,5595
CQUADX4,2634,1,2377,2384,5595,5596
CQUADX4,2635,1,2370,2377,5596,5597
CQUADX4,2636,1,2363,2370,5597,5598
CQUADX4,2637,1,2356,2363,5598,5599
CQUADX4,2638,1,2349,2356,5599,5600
CQUADX4,2639,1,2342,2349,5600,5601
CQUADX4,2640,1,2335,2342,5601,5602
CQUADX4,2641,1,2328,2335,5602,5603
CQUADX4,2642,1,2321,2328,5603,5604
CQUADX4,2643,1,2314,2321,5604,5605
CQUADX4,2644,1,2307,2314,5605,5606
CQUADX4,2645,1,2300,2307,5606,5607
CQUADX4,2646,1,2293,2300,5607,5608
CQUADX4,2647,1,2286,2293,5608,5609
CQUADX4,2648,1,2279,2286,5609,5610
CQUADX4,2649,1,2272,2279,5610,5611
CQUADX4,2650,1,2265,2272,5611,5612
CQUADX4,2651,1,2258,2265,5612,5613
CQUADX4,2652,1,2251,2258,5613,5614
CQUADX4,2653,1,2244,2251,5614,5615
CQUADX4,2654,1,2237,2244,5615,5616
CQUADX4,2655,1,2230,2237,5616,5617
CQUADX4,2656,1,2223,2230,5617,5618
CQUADX4,2657,1,2216,2223,5618,5619
CQUADX4,2658,1,2209,2216,5619,5620
CQUADX4,2659,1,2202,2209,5620,5621
CQUADX4,2660,1,2195,2202,5621,5622
CQUADX4,2661,1,2188,2195,5622,5623
CQUADX4,2662,1,2181,2188,5623,5624
CQUADX4,2663,1,2174,2181,5624,5625
CQUADX4,2664,1,2167,2174,5625,5626
CQUADX4,2665,1,2160,2167,5626,5627
CQUADX4,2666,1,2153,2160,5627,5628
CQUADX4,2667,1,2146,2153,5628,5629
CQUADX4,2668,1,2139,2146,5629,5630
CQUADX4,2669,1,2132,2139,5630,5631
CQUADX4,2670,1,2125,2132,5631,5632
CQUADX4,2671,1,2118,2125,5632,5633
CQUADX4,2672,1,2111,2118,5633,5634
CQUADX4,2673,1,2104,2111,5634,5635
CQUADX4,2674,1,2097,2104,5635,5636
CQUADX4,2675,1,2090,2097,5636,5637
CQUADX4,2676,1,2083,2090,5637,5638
CQUADX4,2677,1,2076,2083,5638,5639
CQUADX4,2678,1,2069,2076,5639,5640
CQUADX4,2679,1,2062,2069,5640,5641
CQUADX4,2680,1,2055,2062,5641,5642
CQUADX4,2681,1,2048,2055,5642,5643
CQUADX4,2682,1,2041,2048,5643,5644
CQUADX4,2683,1,2034,2041,5644,5645
CQUADX4,2684,1,2027,2034,5645,5646
CQUADX4,2685,1,2020,2027,5646,5647
CQUADX4,2686,1,2013,2020,5647,5648
CQUADX4,2687,1,2006,2013,5648,5649
CQUADX4,2688,1,1999,2006,5649,5650
CQUADX4,2689,1,1992,1999,5650,5651
CQUADX4,2690,1,1985,1992,5651,5652
CQUADX4,2691,1,1978,1985,5652,5653
CQUADX4,2692,1,1971,1978,5653,5654
CQUADX4,2693,1,1964,1971,5654,5655
CQUADX4,2694,1,1957,1964,5655,5656
CQUADX4,2695,1,1950,1957,5656,5657
CQUADX4,2696,1,1943,1950,5657,5658
CQUADX4,2697,1,1936,1943,5658,5659
CQUADX4,2698,1,1929,1936,5659,5660
CQUADX4,2699,1,1922,1929,5660,5661
CQUADX4,2700,1,1915,1922,5661,5662
CQUADX4,2701,1,1908,1915,5662,5663
CQUADX4,2702,1,1901,1908,5663,5664
CQUADX4,2703,1,1894,1901,5664,5665
CQUADX4,2704,1,1887,1894,5665,5666
CQUADX4,2705,1,1880,1887,5666,5667
CQUADX4,2706,1,1873,1880,5667,5668
CQUADX4,2707,1,1866,1873,5668,5669
CQUADX4,2708,1,1859,1866,5669,5670
CQUADX4,2709,1,1852,1859,5670,5671
CQUADX4,2710,1,1845,1852,5671,5672
CQUADX4,2711,1,1838,1845,5672,5673
CQUADX4,2712,1,1831,1838,5673,5674
CQUADX4,2713,1,1824,1831,5674,5675
CQUADX4,2714,1,1817,1824,5675,5676
CQUADX4,2715,1,1810,1817,5676,5677
CQUADX4,2716,1,1803,1810,5677,5678
CQUADX4,2717,1,1796,1803,5678,5679
CQUADX4,2718,1,1789,1796,5679,5680
CQUADX4,2719,1,1782,1789,5680,5681
CQUADX4,2720,1,1775,1782,5681,5682
CQUADX4,2721,1,1768,1775,5682,5683
CQUADX4,2722,1,1761,1768,5683,5684
CQUADX4,2723,1,1754,1761,5684,5685
CQUADX4,2724,1,1747,1754,5685,5686
CQUADX4,2725,1,1740,1747,5686,5687
CQUADX4,2726,1,1733,1740,5687,5688
CQUADX4,2727,1,1726,1733,5688,5689
CQUADX4,2728,1,1719,1726,5689,5690
CQUADX4,2729,1,1712,1719,5690,5691
CQUADX4,2730,1,1705,1712,5691,5692
CQUADX4,2731,1,1698,1705,5692,5693
CQUADX4,2732,1,1691,1698,5693,5694
CQUADX4,2733,1,1684,1691,5694,5695
CQUADX4,2734,1,1677,1684,5695,5696
CQUADX4,2735,1,1670,1677,5696,5697
CQUADX4,2736,1,1663,1670,5697,5698
CQUADX4,2737,1,1656,1663,5698,5699
CQUADX4,2738,1,1649,1656,5699,5700
CQUADX4,2739,1,1642,1649,5700,5701
CQUADX4,2740,1,1635,1642,5701,5702
CQUADX4,2741,1,1628,1635,5702,5703
CQUADX4,2742,1,1621,1628,5703,5704
CQUADX4,2743,1,1614,1621,5704,5705
CQUADX4,2744,1,1607,1614,5705,5706
CQUADX4,2745,1,1600,1607,5706,5707
CQUADX4,2746,1,1593,1600,5707,5708
CQUADX4,2747,1,1586,1593,5708,5709
CQUADX4,2748,1,1579,1586,5709,5710
CQUADX4,2749,1,1572,1579,5710,5711
CQUADX4,2750,1,1565,1572,5711,5712
CQUADX4,2751,1,1558,1565,5712,5713
CQUADX4,2752,1,1551,1558,5713,5714
CQUADX4,2753,1,1544,1551,5714,5715
CQUADX4,2754,1,1537,1544,5715,5716
CQUADX4,2755,1,1530,1537,5716,5717
CQUADX4,2756,1,1523,1530,5717,5718
CQUADX4,2757,1,1516,1523,5718,5719
CQUADX4,2758,1,1509,1516,5719,5720
CQUADX4,2759,1,1502,1509,5720,5721
CQUADX4,2760,1,1495,1502,5721,5722
CQUADX4,2761,1,1488,1495,5722,5723
CQUADX4,2762,1,1481,1488,5723,5724
CQUADX4,2763,1,1474,1481,5724,5725
CQUADX4,2764,1,1467,1474,5725,5726
CQUADX4,2765,1,1460,1467,5726,5727
CQUADX4,2766,1,1453,1460,5727,5728
CQUADX4,2767,1,1446,1453,5728,5729
CQUADX4,2768,1,1439,1446,5729,5730
CQUADX4,2769,1,1432,1439,5730,5731
CQUADX4,2770,1,1425,1432,5731,5732
CQUADX4,2771,1,1418,1425,5732,5733
CQUADX4,2772,1,1411,1418,5733,5734
CQUADX4,2773,1,1404,1411,5734,5735
CQUADX4,2774,1,1397,1404,5735,5736
CQUADX4,2775,1,1390,1397,5736,5737
CQUADX4,2776,1,1383,1390,5737,5738
CQUADX4,2777,1,1376,1383,5738,5739
CQUADX4,2778,1,1369,1376,5739,5740
CQUADX4,2779,1,1362,1369,5740,5741
CQUADX4,2780,1,1355,1362,5741,5742
CQUADX4,2781,1,1348,1355,5742,5743
CQUADX4,2782,1,1341,1348,5743,5744
CQUADX4,2783,1,1334,1341,5744,5745
CQUADX4,2784,1,1327,1334,5745,5746
CQUADX4,2785,1,1320,1327,5746,5747
CQUADX4,2786,1,1313,1320,5747,5748
CQUADX4,2787,1,1306,1313,5748,5749
CQUADX4,2788,1,1299,1306,5749,5750
CQUADX4,2789,1,1292,1299,5750,5751
CQUADX4,2790,1,1285,1292,5751,5752
CQUADX4,2791,1,1278,1285,5752,5753
CQUADX4,2792,1,1271,1278,5753,5754
CQUADX4,2793,1,1264,1271,5754,5755
CQUADX4,2794,1,1257,1264,5755,5756
CQUADX4,2795,1,1250,1257,5756,5757
CQUADX4,2796,1,1243,1250,5757,5758
CQUADX4,2797,1,1236,1243,5758,5759
CQUADX4,2798,1,1229,1236,5759,5760
CQUADX4,2799,1,1222,1229,5760,5761
CQUADX4,2800,1,1215,1222,5761,5762
CQUADX4,2801,1,1208,1215,5762,5763
CQUADX4,2802,1,1201,1208,5763,5764
CQUADX4,2803,1,1194,1201,5764,5765
CQUADX4,2804,1,1187,1194,5765,5766
CQUADX4,2805,1,1180,1187,5766,5767
CQUADX4,2806,1,1173,1180,5767,5768
CQUADX4,2807,1,1166,1173,5768,5769
CQUADX4,2808,1,1159,1166,5769,5770
CQUADX4,2809,1,1152,1159,5770,5771
CQUADX4,2810,1,1145,1152,5771,5772
CQUADX4,2811,1,1138,1145,5772,5773
CQUADX4,2812,1,1131,1138,5773,5774
CQUADX4,2813,1,1124,1131,5774,5775
CQUADX4,2814,1,1117,1124,5775,5776
CQUADX4,2815,1,1110,1117,5776,5777
CQUADX4,2816,1,1103,1110,5777,5778
CQUADX4,2817,1,1096,1103,5778,5779
CQUADX4,2818,1,1089,1096,5779,5780
CQUADX4,2819,1,1082,1089,5780,5781
CQUADX4,2820,1,1075,1082,5781,5782
CQUADX4,2821,1,1068,1075,5782,5783
CQUADX4,2822,1,1061,1068,5783,5784
CQUADX4,2823,1,1054,1061,5784,5785
CQUADX4,2824,1,1047,1054,5785,5786
CQUADX4,2825,1,1040,1047,5786,5787
CQUADX4,2826,1,1033,1040,5787,5788
CQUADX4,2827,1,1026,1033,5788,5789
CQUADX4,2828,1,1019,1026,5789,5790
CQUADX4,2829,1,1012,1019,5790,5791
CQUADX4,2830,1,1005,1012,5791,5792
CQUADX4,2831,1,998,1005,5792,5793
CQUADX4,2832,1,991,998,5793,5794
CQUADX4,2833,1,984,991,5794,5795
CQUADX4,2834,1,977,984,5795,5796
CQUADX4,2835,1,970,977,5796,5797
CQUADX4,2836,1,963,970,5797,5798
CQUADX4,2837,1,956,963,5798,5799
CQUADX4,2838,1,949,956,5799,5800
CQUADX4,2839,1,942,949,5800,5801
CQUADX4,2840,1,935,942,5801,5802
CQUADX4,2841,1,928,935,5802,5803
CQUADX4,2842,1,921,928,5803,5804
CQUADX4,2843,1,914,921,5804,5805
CQUADX4,2844,1,907,914,5805,5806
CQUADX4,2845,1,900,907,5806,5807
CQUADX4,2846,1,893,900,5807,5808
CQUADX4,2847,1,886,893,5808,5809
CQUADX4,2848,1,879,886,5809,5810
CQUADX4,2849,1,872,879,5810,5811
CQUADX4,2850,1,865,872,5811,5812
CQUADX4,2851,1,858,865,5812,5813
CQUADX4,2852,1,851,858,5813,5814
CQUADX4,2853,1,844,851,5814,5815
CQUADX4,2854,1,5816,844,5815,6722
CQUADX4,2855,1,5817,843,844,5816
CQUADX4,2856,1,5818,842,843,5817
CQUADX4,2857,1,5819,841,842,5818
CQUADX4,2858,1,5820,840,841,5819
CQUADX4,2859,1,5821,839,840,5820
CQUADX4,2860,1,5822,838,839,5821
CQUADX4,2861,1,2720,2721,2512,2511
CQUADX4,2862,1,2721,2722,2513,2512
CQUADX4,2863,1,2722,2723,2514,2513
CQUADX4,2864,1,2723,2724,2515,2514
CQUADX4,2865,1,2724,2725,2516,2515
CQUADX4,2866,1,2725,2726,2517,2516
CQUADX4,2867,1,2726,2727,2518,2517
CQUADX4,2868,1,2727,2728,2519,2518
CQUADX4,2869,1,2728,2729,2520,2519
CQUADX4,2870,1,2729,2730,2521,2520
CQUADX4,2871,1,2730,2731,2522,2521
CQUADX4,2872,1,2731,2732,2523,2522
CQUADX4,2873,1,2732,2733,2524,2523
CQUADX4,2874,1,2733,2734,2525,2524
CQUADX4,2875,1,2734,2735,2526,2525
CQUADX4,2876,1,2735,2736,2527,2526
CQUADX4,2877,1,2736,2737,2528,2527
CQUADX4,2878,1,2737,2738,2529,2528
CQUADX4,2879,1,2738,2739,2530,2529
CQUADX4,2880,1,2739,2740,2531,2530
CQUADX4,2881,1,2740,2741,2532,2531
CQUADX4,2882,1,2741,2742,2533,2532
CQUADX4,2883,1,2742,2743,2534,2533
CQUADX4,2884,1,2743,2744,2535,2534
CQUADX4,2885,1,2744,2745,2536,2535
CQUADX4,2886,1,2745,2746,2537,2536
CQUADX4,2887,1,2746,2747,2538,2537
CQUADX4,2888,1,2747,2748,2539,2538
CQUADX4,2889,1,2748,2749,2540,2539
CQUADX4,2890,1,2749,2750,2541,2540
CQUADX4,2891,1,2750,2751,2542,2541
CQUADX4,2892,1,2751,2752,2543,2542
CQUADX4,2893,1,2752,2753,2544,2543
CQUADX4,2894,1,2753,2754,2545,2544
CQUADX4,2895,1,2754,2755,2546,2545
CQUADX4,2896,1,2755,2756,2547,2546
CQUADX4,2897,1,2756,2757,2548,2547
CQUADX4,2898,1,2757,2758,2549,2548
CQUADX4,2899,1,2758,2759,2550,2549
CQUADX4,2900,1,2759,2760,2551,2550
CQUADX4,2901,1,2760,2761,2552,2551
CQUADX4,2902,1,2761,2762,2553,2552
CQUADX4,2903,1,2762,2763,2554,2553
CQUADX4,2904,1,2763,2764,2555,2554
CQUADX4,2905,1,2764,2765,2556,2555
CQUADX4,2906,1,2765,2766,2557,2556
CQUADX4,2907,1,2766,2767,2558,2557
CQUADX4,2908,1,2767,2768,2559,2558
CQUADX4,2909,1,2768,2769,2560,2559
CQUADX4,2910,1,2769,2770,2561,2560
CQUADX4,2911,1,2770,2771,2562,2561
CQUADX4,2912,1,2771,2772,2563,2562
CQUADX4,2913,1,2772,2773,2564,2563
CQUADX4,2914,1,2773,2774,2565,2564
CQUADX4,2915,1,2774,2775,2566,2565
CQUADX4,2916,1,2775,2776,2567,2566
CQUADX4,2917,1,2776,2777,2568,2567
CQUADX4,2918,1,2777,2778,2569,2568
CQUADX4,2919,1,2778,2779,2570,2569
CQUADX4,2920,1,2779,2780,2571,2570
CQUADX4,2921,1,2780,2781,2572,2571
CQUADX4,2922,1,2781,2782,2573,2572
CQUADX4,2923,1,2782,2783,2574,2573
CQUADX4,2924,1,2783,2784,2575,2574
CQUADX4,2925,1,2784,2785,2576,2575
CQUADX4,2926,1,2785,2786,2577,2576
CQUADX4,2927,1,2786,2787,2578,2577
CQUADX4,2928,1,2787,2788,2579,2578
CQUADX4,2929,1,2788,2789,2580,2579
CQUADX4,2930,1,2789,2790,2581,2580
CQUADX4,2931,1,2790,2791,2582,2581
CQUADX4,2932,1,2791,2792,2583,2582
CQUADX4,2933,1,2792,2793,2584,2583
CQUADX4,2934,1,2793,2794,2585,2584
CQUADX4,2935,1,2794,2795,2586,2585
CQUADX4,2936,1,2795,2796,2587,2586
CQUADX4,2937,1,2796,2797,2588,2587
CQUADX4,2938,1,2797,2798,2589,2588
CQUADX4,2939,1,2798,2799,2590,2589
CQUADX4,2940,1,2799,2800,2591,2590
CQUADX4,2941,1,2800,2801,2592,2591
CQUADX4,2942,1,2801,2802,2593,2592
CQUADX4,2943,1,2802,2803,2594,2593
CQUADX4,2944,1,2803,2804,2595,2594
CQUADX4,2945,1,2804,2805,2596,2595
CQUADX4,2946,1,2805,2806,2597,2596
CQUADX4,2947,1,2806,2807,2598,2597
CQUADX4,2948,1,2807,2808,2599,2598
CQUADX4,2949,1,2808,2809,2600,2599
CQUADX4,2950,1,2809,2810,2601,2600
CQUADX4,2951,1,2810,2811,2602,2601
CQUADX4,2952,1,2811,2812,2603,2602
CQUADX4,2953,1,2812,2813,2604,2603
CQUADX4,2954,1,2813,2814,2605,2604
CQUADX4,2955,1,2814,2815,2606,2605
CQUADX4,2956,1,2815,2816,2607,2606
CQUADX4,2957,1,2816,2817,2608,2607
CQUADX4,2958,1,2817,2818,2609,2608
CQUADX4,2959,1,2818,2819,2610,2609
CQUADX4,2960,1,2819,2820,2611,2610
CQUADX4,2961,1,2820,2821,2612,2611
CQUADX4,2962,1,2821,2822,2613,2612
CQUADX4,2963,1,2822,2823,2614,2613
CQUADX4,2964,1,2823,2824,2615,2614
CQUADX4,2965,1,2824,2825,2616,2615
CQUADX4,2966,1,2825,2826,2617,2616
CQUADX4,2967,1,2826,2827,2618,2617
CQUADX4,2968,1,2827,2828,2619,2618
CQUADX4,2969,1,2828,2829,2620,2619
CQUADX4,2970,1,2829,2830,2621,2620
CQUADX4,2971,1,2830,2831,2622,2621
CQUADX4,2972,1,2831,2832,2623,2622
CQUADX4,2973,1,2832,2833,2624,2623
CQUADX4,2974,1,2833,2834,2625,2624
CQUADX4,2975,1,2834,2835,2626,2625
CQUADX4,2976,1,2835,2836,2627,2626
CQUADX4,2977,1,2836,2837,2628,2627
CQUADX4,2978,1,2837,2838,2629,2628
CQUADX4,2979,1,2838,2839,2630,2629
CQUADX4,2980,1,2839,2840,2631,2630
CQUADX4,2981,1,2840,2841,2632,2631
CQUADX4,2982,1,2841,2842,2633,2632
CQUADX4,2983,1,2842,2843,2634,2633
CQUADX4,2984,1,2843,2844,2635,2634
CQUADX4,2985,1,2844,2845,2636,2635
CQUADX4,2986,1,2845,2846,2637,2636
CQUADX4,2987,1,2846,2847,2638,2637
CQUADX4,2988,1,2847,2848,2639,2638
CQUADX4,2989,1,2848,2849,2640,2639
CQUADX4,2990,1,2849,2850,2641,2640
CQUADX4,2991,1,2850,2851,2642,2641
CQUADX4,2992,1,2851,2852,2643,2642
CQUADX4,2993,1,2852,2853,2644,2643
CQUADX4,2994,1,2853,2854,2645,2644
CQUADX4,2995,1,2854,2855,2646,2645
CQUADX4,2996,1,2855,2856,2647,2646
CQUADX4,2997,1,2856,2857,2648,2647
CQUADX4,2998,1,2857,2858,2649,2648
CQUADX4,2999,1,2858,2859,2650,2649
CQUADX4,3000,1,2859,2860,2651,2650
CQUADX4,3001,1,2860,2861,2652,2651
CQUADX4,3002,1,2861,2862,2653,2652
CQUADX4,3003,1,2862,2863,2654,2653
CQUADX4,3004,1,2863,2864,2655,2654
CQUADX4,3005,1,2864,2865,2656,2655
CQUADX4,3006,1,2865,2866,2657,2656
CQUADX4,3007,1,2866,2867,2658,2657
CQUADX4,3008,1,2867,2868,2659,2658
CQUADX4,3009,1,2868,2869,2660,2659
CQUADX4,3010,1,2869,2870,2661,2660
CQUADX4,3011,1,2870,2871,2662,2661
CQUADX4,3012,1,2871,2872,2663,2662
CQUADX4,3013,1,2872,2873,2664,2663
CQUADX4,3014,1,2873,2874,2665,2664
CQUADX4,3015,1,2874,2875,2666,2665
CQUADX4,3016,1,2875,2876,2667,2666
CQUADX4,3017,1,2876,2877,2668,2667
CQUADX4,3018,1,2877,2878,2669,2668
CQUADX4,3019,1,2878,2879,2670,2669
CQUADX4,3020,1,2879,2880,2671,2670
CQUADX4,3021,1,2880,2881,2672,2671
CQUADX4,3022,1,2881,2882,2673,2672
CQUADX4,3023,1,2882,2883,2674,2673
CQUADX4,3024,1,2883,2884,2675,2674
CQUADX4,3025,1,2884,2885,2676,2675
CQUADX4,3026,1,2885,2886,2677,2676
CQUADX4,3027,1,2886,2887,2678,2677
CQUADX4,3028,1,2887,2888,2679,2678
CQUADX4,3029,1,2888,2889,2680,2679
CQUADX4,3030,1,2889,2890,2681,2680
CQUADX4,3031,1,2890,2891,2682,2681
CQUADX4,3032,1,2891,2892,2683,2682
CQUADX4,3033,1,2892,2893,2684,2683
CQUADX4,3034,1,2893,2894,2685,2684
CQUADX4,3035,1,2894,2895,2686,2685
CQUADX4,3036,1,2895,2896,2687,2686
CQUADX4,3037,1,2896,2897,2688,2687
CQUADX4,3038,1,2897,2898,2689,2688
CQUADX4,3039,1,2898,2899,2690,2689
CQUADX4,3040,1,2899,2900,2691,2690
CQUADX4,3041,1,2900,2901,2692,2691
CQUADX4,3042,1,2901,2902,2693,2692
CQUADX4,3043,1,2902,2903,2694,2693
CQUADX4,3044,1,2903,2904,2695,2694
CQUADX4,3045,1,2904,2905,2696,2695
CQUADX4,3046,1,2905,2906,2697,2696
CQUADX4,3047,1,2906,2907,2698,2697
CQUADX4,3048,1,2907,2908,2699,2698
CQUADX4,3049,1,2908,2909,2700,2699
CQUADX4,3050,1,2909,2910,2701,2700
CQUADX4,3051,1,2910,2911,2702,2701
CQUADX4,3052,1,2911,2912,2703,2702
CQUADX4,3053,1,2912,2913,2704,2703
CQUADX4,3054,1,2913,2914,2705,2704
CQUADX4,3055,1,2914,2915,2706,2705
CQUADX4,3056,1,2915,2916,2707,2706
CQUADX4,3057,1,2916,2917,2708,2707
CQUADX4,3058,1,2917,2918,2709,2708
CQUADX4,3059,1,2918,2919,2710,2709
CQUADX4,3060,1,2919,2920,2711,2710
CQUADX4,3061,1,2920,2921,2712,2711
CQUADX4,3062,1,2921,2922,2713,2712
CQUADX4,3063,1,2922,2923,2714,2713
CQUADX4,3064,1,2923,2924,2715,2714
CQUADX4,3065,1,2924,2925,2716,2715
CQUADX4,3066,1,2925,2926,2717,2716
CQUADX4,3067,1,2926,2927,2718,2717
CQUADX4,3068,1,2927,2928,2719,2718
CQUADX4,3069,1,2929,2930,2721,2720
CQUADX4,3070,1,2930,2931,2722,2721
CQUADX4,3071,1,2931,2932,2723,2722
CQUADX4,3072,1,2932,2933,2724,2723
CQUADX4,3073,1,2933,2934,2725,2724
CQUADX4,3074,1,2934,2935,2726,2725
CQUADX4,3075,1,2935,2936,2727,2726
CQUADX4,3076,1,2936,2937,2728,2727
CQUADX4,3077,1,2937,2938,2729,2728
CQUADX4,3078,1,2938,2939,2730,2729
CQUADX4,3079,1,2939,2940,2731,2730
CQUADX4,3080,1,2940,2941,2732,2731
CQUADX4,3081,1,2941,2942,2733,2732
CQUADX4,3082,1,2942,2943,2734,2733
CQUADX4,3083,1,2943,2944,2735,2734
CQUADX4,3084,1,2944,2945,2736,2735
CQUADX4,3085,1,2945,2946,2737,2736
CQUADX4,3086,1,2946,2947,2738,2737
CQUADX4,3087,1,2947,2948,2739,2738
CQUADX4,3088,1,2948,2949,2740,2739
CQUADX4,3089,1,2949,2950,2741,2740
CQUADX4,3090,1,2950,2951,2742,2741
CQUADX4,3091,1,2951,2952,2743,2742
CQUADX4,3092,1,2952,2953,2744,2743
CQUADX4,3093,1,2953,2954,2745,2744
CQUADX4,3094,1,2954,2955,2746,2745
CQUADX4,3095,1,2955,2956,2747,2746
CQUADX4,3096,1,2956,2957,2748,2747
CQUADX4,3097,1,2957,2958,2749,2748
CQUADX4,3098,1,2958,2959,2750,2749
CQUADX4,3099,1,2959,2960,2751,2750
CQUADX4,3100,1,2960,2961,2752,2751
CQUADX4,3101,1,2961,2962,2753,2752
CQUADX4,3102,1,2962,2963,2754,2753
CQUADX4,3103,1,2963,2964,2755,2754
CQUADX4,3104,1,2964,2965,2756,2755
CQUADX4,3105,1,2965,2966,2757,2756
CQUADX4,3106,1,2966,2967,2758,2757
CQUADX4,3107,1,2967,2968,2759,2758
CQUADX4,3108,1,2968,2969,2760,2759
CQUADX4,3109,1,2969,2970,2761,2760
CQUADX4,3110,1,2970,2971,2762,2761
CQUADX4,3111,1,2971,2972,2763,2762
CQUADX4,3112,1,2972,2973,2764,2763
CQUADX4,3113,1,2973,2974,2765,2764
CQUADX4,3114,1,2974,2975,2766,2765
CQUADX4,3115,1,2975,2976,2767,2766
CQUADX4,3116,1,2976,2977,2768,2767
CQUADX4,3117,1,2977,2978,2769,2768
CQUADX4,3118,1,2978,2979,2770,2769
CQUADX4,3119,1,2979,2980,2771,2770
CQUADX4,3120,1,2980,2981,2772,2771
CQUADX4,3121,1,2981,2982,2773,2772
CQUADX4,3122,1,2982,2983,2774,2773
CQUADX4,3123,1,2983,2984,2775,2774
CQUADX4,3124,1,2984,2985,2776,2775
CQUADX4,3125,1,2985,2986,2777,2776
CQUADX4,3126,1,2986,2987,2778,2777
CQUADX4,3127,1,2987,2988,2779,2778
CQUADX4,3128,1,2988,2989,2780,2779
CQUADX4,3129,1,2989,2990,2781,2780
CQUADX4,3130,1,2990,2991,2782,2781
CQUADX4,3131,1,2991,2992,2783,2782
CQUADX4,3132,1,2992,2993,2784,2783
CQUADX4,3133,1,2993,2994,2785,2784
CQUADX4,3134,1,2994,2995,2786,2785
CQUADX4,3135,1,2995,2996,2787,2786
CQUADX4,3136,1,2996,2997,2788,2787
CQUADX4,3137,1,2997,2998,2789,2788
CQUADX4,3138,1,2998,2999,2790,2789
CQUADX4,3139,1,2999,3000,2791,2790
CQUADX4,3140,1,3000,3001,2792,2791
CQUADX4,3141,1,3001,3002,2793,2792
CQUADX4,3142,1,3002,3003,2794,2793
CQUADX4,3143,1,3003,3004,2795,2794
CQUADX4,3144,1,3004,3005,2796,2795
CQUADX4,3145,1,3005,3006,2797,2796
CQUADX4,3146,1,3006,3007,2798,2797
CQUADX4,3147,1,3007,3008,2799,2798
CQUADX4,3148,1,3008,3009,2800,2799
CQUADX4,3149,1,3009,3010,2801,2800
CQUADX4,3150,1,3010,3011,2802,2801
CQUADX4,3151,1,3011,3012,2803,2802
CQUADX4,3152,1,3012,3013,2804,2803
CQUADX4,3153,1,3013,3014,2805,2804
CQUADX4,3154,1,3014,3015,2806,2805
CQUADX4,3155,1,3015,3016,2807,2806
CQUADX4,3156,1,3016,3017,2808,2807
CQUADX4,3157,1,3017,3018,2809,2808
CQUADX4,3158,1,3018,3019,2810,2809
CQUADX4,3159,1,3019,3020,2811,2810
CQUADX4,3160,1,3020,3021,2812,2811
CQUADX4,3161,1,3021,3022,2813,2812
CQUADX4,3162,1,3022,3023,2814,2813
CQUADX4,3163,1,3023,3024,2815,2814
CQUADX4,3164,1,3024,3025,2816,2815
CQUADX4,3165,1,3025,3026,2817,2816
CQUADX4,3166,1,3026,3027,2818,2817
CQUADX4,3167,1,3027,3028,2819,2818
CQUADX4,3168,1,3028,3029,2820,2819
CQUADX4,3169,1,3029,3030,2821,2820
CQUADX4,3170,1,3030,3031,2822,2821
CQUADX4,3171,1,3031,3032,2823,2822
CQUADX4,3172,1,3032,3033,2824,2823
CQUADX4,3173,1,3033,3034,2825,2824
CQUADX4,3174,1,3034,3035,2826,2825
CQUADX4,3175,1,3035,3036,2827,2826
CQUADX4,3176,1,3036,3037,2828,2827
CQUADX4,3177,1,3037,3038,2829,2828
CQUADX4,3178,1,3038,3039,2830,2829
CQUADX4,3179,1,3039,3040,2831,2830
CQUADX4,3180,1,3040,3041,2832,2831
CQUADX4,3181,1,3041,3042,2833,2832
CQUADX4,3182,1,3042,3043,2834,2833
CQUADX4,3183,1,3043,3044,2835,2834
CQUADX4,3184,1,3044,3045,2836,2835
CQUADX4,3185,1,3045,3046,2837,2836
CQUADX4,3186,1,3046,3047,2838,2837
CQUADX4,3187,1,3047,3048,2839,2838
CQUADX4,3188,1,3048,3049,2840,2839
CQUADX4,3189,1,3049,3050,2841,2840
CQUADX4,3190,1,3050,3051,2842,2841
CQUADX4,3191,1,3051,3052,2843,2842
CQUADX4,3192,1,3052,3053,2844,2843
CQUADX4,3193,1,3053,3054,2845,2844
CQUADX4,3194,1,3054,3055,2846,2845
CQUADX4,3195,1,3055,3056,2847,2846
CQUADX4,3196,1,3056,3057,2848,2847
CQUADX4,3197,1,3057,3058,2849,2848
CQUADX4,3198,1,3058,3059,2850,2849
CQUADX4,3199,1,3059,3060,2851,2850
CQUADX4,3200,1,3060,3061,2852,2851
CQUADX4,3201,1,3061,3062,2853,2852
CQUADX4,3202,1,3062,3063,2854,2853
CQUADX4,3203,1,3063,3064,2855,2854
CQUADX4,3204,1,3064,3065,2856,2855
CQUADX4,3205,1,3065,3066,2857,2856
CQUADX4,3206,1,3066,3067,2858,2857
CQUADX4,3207,1,3067,3068,2859,2858
CQUADX4,3208,1,3068,3069,2860,2859
CQUADX4,3209,1,3069,3070,2861,2860
CQUADX4,3210,1,3070,3071,2862,2861
CQUADX4,3211,1,3071,3072,2863,2862
CQUADX4,3212,1,3072,3073,2864,2863
CQUADX4,3213,1,3073,3074,2865,2864
CQUADX4,3214,1,3074,3075,2866,2865
CQUADX4,3215,1,3075,3076,2867,2866
CQUADX4,3216,1,3076,3077,2868,2867
CQUADX4,3217,1,3077,3078,2869,2868
CQUADX4,3218,1,3078,3079,2870,2869
CQUADX4,3219,1,3079,3080,2871,2870
CQUADX4,3220,1,3080,3081,2872,2871
CQUADX4,3221,1,3081,3082,2873,2872
CQUADX4,3222,1,3082,3083,2874,2873
CQUADX4,3223,1,3083,3084,2875,2874
CQUADX4,3224,1,3084,3085,2876,2875
CQUADX4,3225,1,3085,3086,2877,2876
CQUADX4,3226,1,3086,3087,2878,2877
CQUADX4,3227,1,3087,3088,2879,2878
CQUADX4,3228,1,3088,3089,2880,2879
CQUADX4,3229,1,3089,3090,2881,2880
CQUADX4,3230,1,3090,3091,2882,2881
CQUADX4,3231,1,3091,3092,2883,2882
CQUADX4,3232,1,3092,3093,2884,2883
CQUADX4,3233,1,3093,3094,2885,2884
CQUADX4,3234,1,3094,3095,2886,2885
CQUADX4,3235,1,3095,3096,2887,2886
CQUADX4,3236,1,3096,3097,2888,2887
CQUADX4,3237,1,3097,3098,2889,2888
CQUADX4,3238,1,3098,3099,2890,2889
CQUADX4,3239,1,3099,3100,2891,2890
CQUADX4,3240,1,3100,3101,2892,2891
CQUADX4,3241,1,3101,3102,2893,2892
CQUADX4,3242,1,3102,3103,2894,2893
CQUADX4,3243,1,3103,3104,2895,2894
CQUADX4,3244,1,3104,3105,2896,2895
CQUADX4,3245,1,3105,3106,2897,2896
CQUADX4,3246,1,3106,3107,2898,2897
CQUADX4,3247,1,3107,3108,2899,2898
CQUADX4,3248,1,3108,3109,2900,2899
CQUADX4,3249,1,3109,3110,2901,2900
CQUADX4,3250,1,3110,3111,2902,2901
CQUADX4,3251,1,3111,3112,2903,2902
CQUADX4,3252,1,3112,3113,2904,2903
CQUADX4,3253,1,3113,3114,2905,2904
CQUADX4,3254,1,3114,3115,2906,2905
CQUADX4,3255,1,3115,3116,2907,2906
CQUADX4,3256,1,3116,3117,2908,2907
CQUADX4,3257,1,3117,3118,2909,2908
CQUADX4,3258,1,3118,3119,2910,2909
CQUADX4,3259,1,3119,3120,2911,2910
CQUADX4,3260,1,3120,3121,2912,2911
CQUADX4,3261,1,3121,3122,2913,2912
CQUADX4,3262,1,3122,3123,2914,2913
CQUADX4,3263,1,3123,3124,2915,2914
CQUADX4,3264,1,3124,3125,2916,2915
CQUADX4,3265,1,3125,3126,2917,2916
CQUADX4,3266,1,3126,3127,2918,2917
CQUADX4,3267,1,3127,3128,2919,2918
CQUADX4,3268,1,3128,3129,2920,2919
CQUADX4,3269,1,3129,3130,2921,2920
CQUADX4,3270,1,3130,3131,2922,2921
CQUADX4,3271,1,3131,3132,2923,2922
CQUADX4,3272,1,3132,3133,2924,2923
CQUADX4,3273,1,3133,3134,2925,2924
CQUADX4,3274,1,3134,3135,2926,2925
CQUADX4,3275,1,3135,3136,2927,2926
CQUADX4,3276,1,3136,3137,2928,2927
CQUADX4,3277,1,3138,3139,2930,2929
CQUADX4,3278,1,3139,3140,2931,2930
CQUADX4,3279,1,3140,3141,2932,2931
CQUADX4,3280,1,3141,3142,2933,2932
CQUADX4,3281,1,3142,3143,2934,2933
CQUADX4,3282,1,3143,3144,2935,2934
CQUADX4,3283,1,3144,3145,2936,2935
CQUADX4,3284,1,3145,3146,2937,2936
CQUADX4,3285,1,3146,3147,2938,2937
CQUADX4,3286,1,3147,3148,2939,2938
CQUADX4,3287,1,3148,3149,2940,2939
CQUADX4,3288,1,3149,3150,2941,2940
CQUADX4,3289,1,3150,3151,2942,2941
CQUADX4,3290,1,3151,3152,2943,2942
CQUADX4,3291,1,3152,3153,2944,2943
CQUADX4,3292,1,3153,3154,2945,2944
CQUADX4,3293,1,3154,3155,2946,2945
CQUADX4,3294,1,3155,3156,2947,2946
CQUADX4,3295,1,3156,3157,2948,2947
CQUADX4,3296,1,3157,3158,2949,2948
CQUADX4,3297,1,3158,3159,2950,2949
CQUADX4,3298,1,3159,3160,2951,2950
CQUADX4,3299,1,3160,3161,2952,2951
CQUADX4,3300,1,3161,3162,2953,2952
CQUADX4,3301,1,3162,3163,2954,2953
CQUADX4,3302,1,3163,3164,2955,2954
CQUADX4,3303,1,3164,3165,2956,2955
CQUADX4,3304,1,3165,3166,2957,2956
CQUADX4,3305,1,3166,3167,2958,2957
CQUADX4,3306,1,3167,3168,2959,2958
CQUADX4,3307,1,3168,3169,2960,2959
CQUADX4,3308,1,3169,3170,2961,2960
CQUADX4,3309,1,3170,3171,2962,2961
CQUADX4,3310,1,3171,3172,2963,2962
CQUADX4,3311,1,3172,3173,2964,2963
CQUADX4,3312,1,3173,3174,2965,2964
CQUADX4,3313,1,3174,3175,2966,2965
CQUADX4,3314,1,3175,3176,2967,2966
CQUADX4,3315,1,3176,3177,2968,2967
CQUADX4,3316,1,3177,3178,2969,2968
CQUADX4,3317,1,3178,3179,2970,2969
CQUADX4,3318,1,3179,3180,2971,2970
CQUADX4,3319,1,3180,3181,2972,2971
CQUADX4,3320,1,3181,3182,2973,2972
CQUADX4,3321,1,3182,3183,2974,2973
CQUADX4,3322,1,3183,3184,2975,2974
CQUADX4,3323,1,3184,3185,2976,2975
CQUADX4,3324,1,3185,3186,2977,2976
CQUADX4,3325,1,3186,3187,2978,2977
CQUADX4,3326,1,3187,3188,2979,2978
CQUADX4,3327,1,3188,3189,2980,2979
CQUADX4,3328,1,3189,3190,2981,2980
CQUADX4,3329,1,3190,3191,2982,2981
CQUADX4,3330,1,3191,3192,2983,2982
CQUADX4,3331,1,3192,3193,2984,2983
CQUADX4,3332,1,3193,3194,2985,2984
CQUADX4,3333,1,3194,3195,2986,2985
CQUADX4,3334,1,3195,3196,2987,2986
CQUADX4,3335,1,3196,3197,2988,2987
CQUADX4,3336,1,3197,3198,2989,2988
CQUADX4,3337,1,3198,3199,2990,2989
CQUADX4,3338,1,3199,3200,2991,2990
CQUADX4,3339,1,3200,3201,2992,2991
CQUADX4,3340,1,3201,3202,2993,2992
CQUADX4,3341,1,3202,3203,2994,2993
CQUADX4,3342,1,3203,3204,2995,2994
CQUADX4,3343,1,3204,3205,2996,2995
CQUADX4,3344,1,3205,3206,2997,2996
CQUADX4,3345,1,3206,3207,2998,2997
CQUADX4,3346,1,3207,3208,2999,2998
CQUADX4,3347,1,3208,3209,3000,2999
CQUADX4,3348,1,3209,3210,3001,3000
CQUADX4,3349,1,3210,3211,3002,3001
CQUADX4,3350,1,3211,3212,3003,3002
CQUADX4,3351,1,3212,3213,3004,3003
CQUADX4,3352,1,3213,3214,3005,3004
CQUADX4,3353,1,3214,3215,3006,3005
CQUADX4,3354,1,3215,3216,3007,3006
CQUADX4,3355,1,3216,3217,3008,3007
CQUADX4,3356,1,3217,3218,3009,3008
CQUADX4,3357,1,3218,3219,3010,3009
CQUADX4,3358,1,3219,3220,3011,3010
CQUADX4,3359,1,3220,3221,3012,3011
CQUADX4,3360,1,3221,3222,3013,3012
CQUADX4,3361,1,3222,3223,3014,3013
CQUADX4,3362,1,3223,3224,3015,3014
CQUADX4,3363,1,3224,3225,3016,3015
CQUADX4,3364,1,3225,3226,3017,3016
CQUADX4,3365,1,3226,3227,3018,3017
CQUADX4,3366,1,3227,3228,3019,3018
CQUADX4,3367,1,3228,3229,3020,3019
CQUADX4,3368,1,3229,3230,3021,3020
CQUADX4,3369,1,3230,3231,3022,3021
CQUADX4,3370,1,3231,3232,3023,3022
CQUADX4,3371,1,3232,3233,3024,3023
CQUADX4,3372,1,3233,3234,3025,3024
CQUADX4,3373,1,3234,3235,3026,3025
CQUADX4,3374,1,3235,3236,3027,3026
CQUADX4,3375,1,3236,3237,3028,3027
CQUADX4,3376,1,3237,3238,3029,3028
CQUADX4,3377,1,3238,3239,3030,3029
CQUADX4,3378,1,3239,3240,3031,3030
CQUADX4,3379,1,3240,3241,3032,3031
CQUADX4,3380,1,3241,3242,3033,3032
CQUADX4,3381,1,3242,3243,3034,3033
CQUADX4,3382,1,3243,3244,3035,3034
CQUADX4,3383,1,3244,3245,3036,3035
CQUADX4,3384,1,3245,3246,3037,3036
CQUADX4,3385,1,3246,3247,3038,3037
CQUADX4,3386,1,3247,3248,3039,3038
CQUADX4,3387,1,3248,3249,3040,3039
CQUADX4,3388,1,3249,3250,3041,3040
CQUADX4,3389,1,3250,3251,3042,3041
CQUADX4,3390,1,3251,3252,3043,3042
CQUADX4,3391,1,3252,3253,3044,3043
CQUADX4,3392,1,3253,3254,3045,3044
CQUADX4,3393,1,3254,3255,3046,3045
CQUADX4,3394,1,3255,3256,3047,3046
CQUADX4,3395,1,3256,3257,3048,3047
CQUADX4,3396,1,3257,3258,3049,3048
CQUADX4,3397,1,3258,3259,3050,3049
CQUADX4,3398,1,3259,3260,3051,3050
CQUADX4,3399,1,3260,3261,3052,3051
CQUADX4,3400,1,3261,3262,3053,3052
CQUADX4,3401,1,3262,3263,3054,3053
CQUADX4,3402,1,3263,3264,3055,3054
CQUADX4,3403,1,3264,3265,3056,3055
CQUADX4,3404,1,3265,3266,3057,3056
CQUADX4,3405,1,3266,3267,3058,3057
CQUADX4,3406,1,3267,3268,3059,3058
CQUADX4,3407,1,3268,3269,3060,3059
CQUADX4,3408,1,3269,3270,3061,3060
CQUADX4,3409,1,3270,3271,3062,3061
CQUADX4,3410,1,3271,3272,3063,3062
CQUADX4,3411,1,3272,3273,3064,3063
CQUADX4,3412,1,3273,3274,3065,3064
CQUADX4,3413,1,3274,3275,3066,3065
CQUADX4,3414,1,3275,3276,3067,3066
CQUADX4,3415,1,3276,3277,3068,3067
CQUADX4,3416,1,3277,3278,3069,3068
CQUADX4,3417,1,3278,3279,3070,3069
CQUADX4,3418,1,3279,3280,3071,3070
CQUADX4,3419,1,3280,3281,3072,3071
CQUADX4,3420,1,3281,3282,3073,3072
CQUADX4,3421,1,3282,3283,3074,3073
CQUADX4,3422,1,3283,3284,3075,3074
CQUADX4,3423,1,3284,3285,3076,3075
CQUADX4,3424,1,3285,3286,3077,3076
CQUADX4,3425,1,3286,3287,3078,3077
CQUADX4,3426,1,3287,3288,3079,3078
CQUADX4,3427,1,3288,3289,3080,3079
CQUADX4,3428,1,3289,3290,3081,3080
CQUADX4,3429,1,3290,3291,3082,3081
CQUADX4,3430,1,3291,3292,3083,3082
CQUADX4,3431,1,3292,3293,3084,3083
CQUADX4,3432,1,3293,3294,3085,3084
CQUADX4,3433,1,3294,3295,3086,3085
CQUADX4,3434,1,3295,3296,3087,3086
CQUADX4,3435,1,3296,3297,3088,3087
CQUADX4,3436,1,3297,3298,3089,3088
CQUADX4,3437,1,3298,3299,3090,3089
CQUADX4,3438,1,3299,3300,3091,3090
CQUADX4,3439,1,3300,3301,3092,3091
CQUADX4,3440,1,3301,3302,3093,3092
CQUADX4,3441,1,3302,3303,3094,3093
CQUADX4,3442,1,3303,3304,3095,3094
CQUADX4,3443,1,3304,3305,3096,3095
CQUADX4,3444,1,3305,3306,3097,3096
CQUADX4,3445,1,3306,3307,3098,3097
CQUADX4,3446,1,3307,3308,3099,3098
CQUADX4,3447,1,3308,3309,3100,3099
CQUADX4,3448,1,3309,3310,3101,3100
CQUADX4,3449,1,3310,3311,3102,3101
CQUADX4,3450,1,3311,3312,3103,3102
CQUADX4,3451,1,3312,3313,3104,3103
CQUADX4,3452,1,3313,3314,3105,3104
CQUADX4,3453,1,3314,3315,3106,3105
CQUADX4,3454,1,3315,3316,3107,3106
CQUADX4,3455,1,3316,3317,3108,3107
CQUADX4,3456,1,3317,3318,3109,3108
CQUADX4,3457,1,3318,3319,3110,3109
CQUADX4,3458,1,3319,3320,3111,3110
CQUADX4,3459,1,3320,3321,3112,3111
CQUADX4,3460,1,3321,3322,3113,3112
CQUADX4,3461,1,3322,3323,3114,3113
CQUADX4,3462,1,3323,3324,3115,3114
CQUADX4,3463,1,3324,3325,3116,3115
CQUADX4,3464,1,3325,3326,3117,3116
CQUADX4,3465,1,3326,3327,3118,3117
CQUADX4,3466,1,3327,3328,3119,3118
CQUADX4,3467,1,3328,3329,3120,3119
CQUADX4,3468,1,3329,3330,3121,3120
CQUADX4,3469,1,3330,3331,3122,3121
CQUADX4,3470,1,3331,3332,3123,3122
CQUADX4,3471,1,3332,3333,3124,3123
CQUADX4,3472,1,3333,3334,3125,3124
CQUADX4,3473,1,3334,3335,3126,3125
CQUADX4,3474,1,3335,3336,3127,3126
CQUADX4,3475,1,3336,3337,3128,3127
CQUADX4,3476,1,3337,3338,3129,3128
CQUADX4,3477,1,3338,3339,3130,3129
CQUADX4,3478,1,3339,3340,3131,3130
CQUADX4,3479,1,3340,3341,3132,3131
CQUADX4,3480,1,3341,3342,3133,3132
CQUADX4,3481,1,3342,3343,3134,3133
CQUADX4,3482,1,3343,3344,3135,3134
CQUADX4,3483,1,3344,3345,3136,3135
CQUADX4,3484,1,3345,3346,3137,3136
CQUADX4,3485,1,3347,3348,3139,3138
CQUADX4,3486,1,3348,3349,3140,3139
CQUADX4,3487,1,3349,3350,3141,3140
CQUADX4,3488,1,3350,3351,3142,3141
CQUADX4,3489,1,3351,3352,3143,3142
CQUADX4,3490,1,3352,3353,3144,3143
CQUADX4,3491,1,3353,3354,3145,3144
CQUADX4,3492,1,3354,3355,3146,3145
CQUADX4,3493,1,3355,3356,3147,3146
CQUADX4,3494,1,3356,3357,3148,3147
CQUADX4,3495,1,3357,3358,3149,3148
CQUADX4,3496,1,3358,3359,3150,3149
CQUADX4,3497,1,3359,3360,3151,3150
CQUADX4,3498,1,3360,3361,3152,3151
CQUADX4,3499,1,3361,3362,3153,3152
CQUADX4,3500,1,3362,3363,3154,3153
CQUADX4,3501,1,3363,3364,3155,3154
CQUADX4,3502,1,3364,3365,3156,3155
CQUADX4,3503,1,3365,3366,3157,3156
CQUADX4,3504,1,3366,3367,3158,3157
CQUADX4,3505,1,3367,3368,3159,3158
CQUADX4,3506,1,3368,3369,3160,3159
CQUADX4,3507,1,3369,3370,3161,3160
CQUADX4,3508,1,3370,3371,3162,3161
CQUADX4,3509,1,3371,3372,3163,3162
CQUADX4,3510,1,3372,3373,3164,3163
CQUADX4,3511,1,3373,3374,3165,3164
CQUADX4,3512,1,3374,3375,3166,3165
CQUADX4,3513,1,3375,3376,3167,3166
CQUADX4,3514,1,3376,3377,3168,3167
CQUADX4,3515,1,3377,3378,3169,3168
CQUADX4,3516,1,3378,3379,3170,3169
CQUADX4,3517,1,3379,3380,3171,3170
CQUADX4,3518,1,3380,3381,3172,3171
CQUADX4,3519,1,3381,3382,3173,3172
CQUADX4,3520,1,3382,3383,3174,3173
CQUADX4,3521,1,3383,3384,3175,3174
CQUADX4,3522,1,3384,3385,3176,3175
CQUADX4,3523,1,3385,3386,3177,3176
CQUADX4,3524,1,3386,3387,3178,3177
CQUADX4,3525,1,3387,3388,3179,3178
CQUADX4,3526,1,3388,3389,3180,3179
CQUADX4,3527,1,3389,3390,3181,3180
CQUADX4,3528,1,3390,3391,3182,3181
CQUADX4,3529,1,3391,3392,3183,3182
CQUADX4,3530,1,3392,3393,3184,3183
CQUADX4,3531,1,3393,3394,3185,3184
CQUADX4,3532,1,3394,3395,3186,3185
CQUADX4,3533,1,3395,3396,3187,3186
CQUADX4,3534,1,3396,3397,3188,3187
CQUADX4,3535,1,3397,3398,3189,3188
CQUADX4,3536,1,3398,3399,3190,3189
CQUADX4,3537,1,3399,3400,3191,3190
CQUADX4,3538,1,3400,3401,3192,3191
CQUADX4,3539,1,3401,3402,3193,3192
CQUADX4,3540,1,3402,3403,3194,3193
CQUADX4,3541,1,3403,3404,3195,3194
CQUADX4,3542,1,3404,3405,3196,3195
CQUADX4,3543,1,3405,3406,3197,3196
CQUADX4,3544,1,3406,3407,3198,3197
CQUADX4,3545,1,3407,3408,3199,3198
CQUADX4,3546,1,3408,3409,3200,3199
CQUADX4,3547,1,3409,3410,3201,3200
CQUADX4,3548,1,3410,3411,3202,3201
CQUADX4,3549,1,3411,3412,3203,3202
CQUADX4,3550,1,3412,3413,3204,3203
CQUADX4,3551,1,3413,3414,3205,3204
CQUADX4,3552,1,3414,3415,3206,3205
CQUADX4,3553,1,3415,3416,3207,3206
CQUADX4,3554,1,3416,3417,3208,3207
CQUADX4,3555,1,3417,3418,3209,3208
CQUADX4,3556,1,3418,3419,3210,3209
CQUADX4,3557,1,3419,3420,3211,3210
CQUADX4,3558,1,3420,3421,3212,3211
CQUADX4,3559,1,3421,3422,3213,3212
CQUADX4,3560,1,3422,3423,3214,3213
CQUADX4,3561,1,3423,3424,3215,3214
CQUADX4,3562,1,3424,3425,3216,3215
CQUADX4,3563,1,3425,3426,3217,3216
CQUADX4,3564,1,3426,3427,3218,3217
CQUADX4,3565,1,3427,3428,3219,3218
CQUADX4,3566,1,3428,3429,3220,3219
CQUADX4,3567,1,3429,3430,3221,3220
CQUADX4,3568,1,3430,3431,3222,3221
CQUADX4,3569,1,3431,3432,3223,3222
CQUADX4,3570,1,3432,3433,3224,3223
CQUADX4,3571,1,3433,3434,3225,3224
CQUADX4,3572,1,3434,3435,3226,3225
CQUADX4,3573,1,3435,3436,3227,3226
CQUADX4,3574,1,3436,3437,3228,3227
CQUADX4,3575,1,3437,3438,3229,3228
CQUADX4,3576,1,3438,3439,3230,3229
CQUADX4,3577,1,3439,3440,3231,3230
CQUADX4,3578,1,3440,3441,3232,3231
CQUADX4,3579,1,3441,3442,3233,3232
CQUADX4,3580,1,3442,3443,3234,3233
CQUADX4,3581,1,3443,3444,3235,3234
CQUADX4,3582,1,3444,3445,3236,3235
CQUADX4,3583,1,3445,3446,3237,3236
CQUADX4,3584,1,3446,3447,3238,3237
CQUADX4,3585,1,3447,3448,3239,3238
CQUADX4,3586,1,3448,3449,3240,3239
CQUADX4,3587,1,3449,3450,3241,3240
CQUADX4,3588,1,3450,3451,3242,3241
CQUADX4,3589,1,3451,3452,3243,3242
CQUADX4,3590,1,3452,3453,3244,3243
CQUADX4,3591,1,3453,3454,3245,3244
CQUADX4,3592,1,3454,3455,3246,3245
CQUADX4,3593,1,3455,3456,3247,3246
CQUADX4,3594,1,3456,3457,3248,3247
CQUADX4,3595,1,3457,3458,3249,3248
CQUADX4,3596,1,3458,3459,3250,3249
CQUADX4,3597,1,3459,3460,3251,3250
CQUADX4,3598,1,3460,3461,3252,3251
CQUADX4,3599,1,3461,3462,3253,3252
CQUADX4,3600,1,3462,3463,3254,3253
CQUADX4,3601,1,3463,3464,3255,3254
CQUADX4,3602,1,3464,3465,3256,3255
CQUADX4,3603,1,3465,3466,3257,3256
CQUADX4,3604,1,3466,3467,3258,3257
CQUADX4,3605,1,3467,3468,3259,3258
CQUADX4,3606,1,3468,3469,3260,3259
CQUADX4,3607,1,3469,3470,3261,3260
CQUADX4,3608,1,3470,3471,3262,3261
CQUADX4,3609,1,3471,3472,3263,3262
CQUADX4,3610,1,3472,3473,3264,3263
CQUADX4,3611,1,3473,3474,3265,3264
CQUADX4,3612,1,3474,3475,3266,3265
CQUADX4,3613,1,3475,3476,3267,3266
CQUADX4,3614,1,3476,3477,3268,3267
CQUADX4,3615,1,3477,3478,3269,3268
CQUADX4,3616,1,3478,3479,3270,3269
CQUADX4,3617,1,3479,3480,3271,3270
CQUADX4,3618,1,3480,3481,3272,3271
CQUADX4,3619,1,3481,3482,3273,3272
CQUADX4,3620,1,3482,3483,3274,3273
CQUADX4,3621,1,3483,3484,3275,3274
CQUADX4,3622,1,3484,3485,3276,3275
CQUADX4,3623,1,3485,3486,3277,3276
CQUADX4,3624,1,3486,3487,3278,3277
CQUADX4,3625,1,3487,3488,3279,3278
CQUADX4,3626,1,3488,3489,3280,3279
CQUADX4,3627,1,3489,3490,3281,3280
CQUADX4,3628,1,3490,3491,3282,3281
CQUADX4,3629,1,3491,3492,3283,3282
CQUADX4,3630,1,3492,3493,3284,3283
CQUADX4,3631,1,3493,3494,3285,3284
CQUADX4,3632,1,3494,3495,3286,3285
CQUADX4,3633,1,3495,3496,3287,3286
CQUADX4,3634,1,3496,3497,3288,3287
CQUADX4,3635,1,3497,3498,3289,3288
CQUADX4,3636,1,3498,3499,3290,3289
CQUADX4,3637,1,3499,3500,3291,3290
CQUADX4,3638,1,3500,3501,3292,3291
CQUADX4,3639,1,3501,3502,3293,3292
CQUADX4,3640,1,3502,3503,3294,3293
CQUADX4,3641,1,3503,3504,3295,3294
CQUADX4,3642,1,3504,3505,3296,3295
CQUADX4,3643,1,3505,3506,3297,3296
CQUADX4,3644,1,3506,3507,3298,3297
CQUADX4,3645,1,3507,3508,3299,3298
CQUADX4,3646,1,3508,3509,3300,3299
CQUADX4,3647,1,3509,3510,3301,3300
CQUADX4,3648,1,3510,3511,3302,3301
CQUADX4,3649,1,3511,3512,3303,3302
CQUADX4,3650,1,3512,3513,3304,3303
CQUADX4,3651,1,3513,3514,3305,3304
CQUADX4,3652,1,3514,3515,3306,3305
CQUADX4,3653,1,3515,3516,3307,3306
CQUADX4,3654,1,3516,3517,3308,3307
CQUADX4,3655,1,3517,3518,3309,3308
CQUADX4,3656,1,3518,3519,3310,3309
CQUADX4,3657,1,3519,3520,3311,3310
CQUADX4,3658,1,3520,3521,3312,3311
CQUADX4,3659,1,3521,3522,3313,3312
CQUADX4,3660,1,3522,3523,3314,3313
CQUADX4,3661,1,3523,3524,3315,3314
CQUADX4,3662,1,3524,3525,3316,3315
CQUADX4,3663,1,3525,3526,3317,3316
CQUADX4,3664,1,3526,3527,3318,3317
CQUADX4,3665,1,3527,3528,3319,3318
CQUADX4,3666,1,3528,3529,3320,3319
CQUADX4,3667,1,3529,3530,3321,3320
CQUADX4,3668,1,3530,3531,3322,3321
CQUADX4,3669,1,3531,3532,3323,3322
CQUADX4,3670,1,3532,3533,3324,3323
CQUADX4,3671,1,3533,3534,3325,3324
CQUADX4,3672,1,3534,3535,3326,3325
CQUADX4,3673,1,3535,3536,3327,3326
CQUADX4,3674,1,3536,3537,3328,3327
CQUADX4,3675,1,3537,3538,3329,3328
CQUADX4,3676,1,3538,3539,3330,3329
CQUADX4,3677,1,3539,3540,3331,3330
CQUADX4,3678,1,3540,3541,3332,3331
CQUADX4,3679,1,3541,3542,3333,3332
CQUADX4,3680,1,3542,3543,3334,3333
CQUADX4,3681,1,3543,3544,3335,3334
CQUADX4,3682,1,3544,3545,3336,3335
CQUADX4,3683,1,3545,3546,3337,3336
CQUADX4,3684,1,3546,3547,3338,3337
CQUADX4,3685,1,3547,3548,3339,3338
CQUADX4,3686,1,3548,3549,3340,3339
CQUADX4,3687,1,3549,3550,3341,3340
CQUADX4,3688,1,3550,3551,3342,3341
CQUADX4,3689,1,3551,3552,3343,3342
CQUADX4,3690,1,3552,3553,3344,3343
CQUADX4,3691,1,3553,3554,3345,3344
CQUADX4,3692,1,3554,3555,3346,3345
CQUADX4,3693,1,3556,3557,3348,3347
CQUADX4,3694,1,3557,3558,3349,3348
CQUADX4,3695,1,3558,3559,3350,3349
CQUADX4,3696,1,3559,3560,3351,3350
CQUADX4,3697,1,3560,3561,3352,3351
CQUADX4,3698,1,3561,3562,3353,3352
CQUADX4,3699,1,3562,3563,3354,3353
CQUADX4,3700,1,3563,3564,3355,3354
CQUADX4,3701,1,3564,3565,3356,3355
CQUADX4,3702,1,3565,3566,3357,3356
CQUADX4,3703,1,3566,3567,3358,3357
CQUADX4,3704,1,3567,3568,3359,3358
CQUADX4,3705,1,3568,3569,3360,3359
CQUADX4,3706,1,3569,3570,3361,3360
CQUADX4,3707,1,3570,3571,3362,3361
CQUADX4,3708,1,3571,3572,3363,3362
CQUADX4,3709,1,3572,3573,3364,3363
CQUADX4,3710,1,3573,3574,3365,3364
CQUADX4,3711,1,3574,3575,3366,3365
CQUADX4,3712,1,3575,3576,3367,3366
CQUADX4,3713,1,3576,3577,3368,3367
CQUADX4,3714,1,3577,3578,3369,3368
CQUADX4,3715,1,3578,3579,3370,3369
CQUADX4,3716,1,3579,3580,3371,3370
CQUADX4,3717,1,3580,3581,3372,3371
CQUADX4,3718,1,3581,3582,3373,3372
CQUADX4,3719,1,3582,3583,3374,3373
CQUADX4,3720,1,3583,3584,3375,3374
CQUADX4,3721,1,3584,3585,3376,3375
CQUADX4,3722,1,3585,3586,3377,3376
CQUADX4,3723,1,3586,3587,3378,3377
CQUADX4,3724,1,3587,3588,3379,3378
CQUADX4,3725,1,3588,3589,3380,3379
CQUADX4,3726,1,3589,3590,3381,3380
CQUADX4,3727,1,3590,3591,3382,3381
CQUADX4,3728,1,3591,3592,3383,3382
CQUADX4,3729,1,3592,3593,3384,3383
CQUADX4,3730,1,3593,3594,3385,3384
CQUADX4,3731,1,3594,3595,3386,3385
CQUADX4,3732,1,3595,3596,3387,3386
CQUADX4,3733,1,3596,3597,3388,3387
CQUADX4,3734,1,3597,3598,3389,3388
CQUADX4,3735,1,3598,3599,3390,3389
CQUADX4,3736,1,3599,3600,3391,3390
CQUADX4,3737,1,3600,3601,3392,3391
CQUADX4,3738,1,3601,3602,3393,3392
CQUADX4,3739,1,3602,3603,3394,3393
CQUADX4,3740,1,3603,3604,3395,3394
CQUADX4,3741,1,3604,3605,3396,3395
CQUADX4,3742,1,3605,3606,3397,3396
CQUADX4,3743,1,3606,3607,3398,3397
CQUADX4,3744,1,3607,3608,3399,3398
CQUADX4,3745,1,3608,3609,3400,3399
CQUADX4,3746,1,3609,3610,3401,3400
CQUADX4,3747,1,3610,3611,3402,3401
CQUADX4,3748,1,3611,3612,3403,3402
CQUADX4,3749,1,3612,3613,3404,3403
CQUADX4,3750,1,3613,3614,3405,3404
CQUADX4,3751,1,3614,3615,3406,3405
CQUADX4,3752,1,3615,3616,3407,3406
CQUADX4,3753,1,3616,3617,3408,3407
CQUADX4,3754,1,3617,3618,3409,3408
CQUADX4,3755,1,3618,3619,3410,3409
CQUADX4,3756,1,3619,3620,3411,3410
CQUADX4,3757,1,3620,3621,3412,3411
CQUADX4,3758,1,3621,3622,3413,3412
CQUADX4,3759,1,3622,3623,3414,3413
CQUADX4,3760,1,3623,3624,3415,3414
CQUADX4,3761,1,3624,3625,3416,3415
CQUADX4,3762,1,3625,3626,3417,3416
CQUADX4,3763,1,3626,3627,3418,3417
CQUADX4,3764,1,3627,3628,3419,3418
CQUADX4,3765,1,3628,3629,3420,3419
CQUADX4,3766,1,3629,3630,3421,3420
CQUADX4,3767,1,3630,3631,3422,3421
CQUADX4,3768,1,3631,3632,3423,3422
CQUADX4,3769,1,3632,3633,3424,3423
CQUADX4,3770,1,3633,3634,3425,3424
CQUADX4,3771,1,3634,3635,3426,3425
CQUADX4,3772,1,3635,3636,3427,3426
CQUADX4,3773,1,3636,3637,3428,3427
CQUADX4,3774,1,3637,3638,3429,3428
CQUADX4,3775,1,3638,3639,3430,3429
CQUADX4,3776,1,3639,3640,3431,3430
CQUADX4,3777,1,3640,3641,3432,3431
CQUADX4,3778,1,3641,3642,3433,3432
CQUADX4,3779,1,3642,3643,3434,3433
CQUADX4,3780,1,3643,3644,3435,3434
CQUADX4,3781,1,3644,3645,3436,3435
CQUADX4,3782,1,3645,3646,3437,3436
CQUADX4,3783,1,3646,3647,3438,3437
CQUADX4,3784,1,3647,3648,3439,3438
CQUADX4,3785,1,3648,3649,3440,3439
CQUADX4,3786,1,3649,3650,3441,3440
CQUADX4,3787,1,3650,3651,3442,3441
CQUADX4,3788,1,3651,3652,3443,3442
CQUADX4,3789,1,3652,3653,3444,3443
CQUADX4,3790,1,3653,3654,3445,3444
CQUADX4,3791,1,3654,3655,3446,3445
CQUADX4,3792,1,3655,3656,3447,3446
CQUADX4,3793,1,3656,3657,3448,3447
CQUADX4,3794,1,3657,3658,3449,3448
CQUADX4,3795,1,3658,3659,3450,3449
CQUADX4,3796,1,3659,3660,3451,3450
CQUADX4,3797,1,3660,3661,3452,3451
CQUADX4,3798,1,3661,3662,3453,3452
CQUADX4,3799,1,3662,3663,3454,3453
CQUADX4,3800,1,3663,3664,3455,3454
CQUADX4,3801,1,3664,3665,3456,3455
CQUADX4,3802,1,3665,3666,3457,3456
CQUADX4,3803,1,3666,3667,3458,3457
CQUADX4,3804,1,3667,3668,3459,3458
CQUADX4,3805,1,3668,3669,3460,3459
CQUADX4,3806,1,3669,3670,3461,3460
CQUADX4,3807,1,3670,3671,3462,3461
CQUADX4,3808,1,3671,3672,3463,3462
CQUADX4,3809,1,3672,3673,3464,3463
CQUADX4,3810,1,3673,3674,3465,3464
CQUADX4,3811,1,3674,3675,3466,3465
CQUADX4,3812,1,3675,3676,3467,3466
CQUADX4,3813,1,3676,3677,3468,3467
CQUADX4,3814,1,3677,3678,3469,3468
CQUADX4,3815,1,3678,3679,3470,3469
CQUADX4,3816,1,3679,3680,3471,3470
CQUADX4,3817,1,3680,3681,3472,3471
CQUADX4,3818,1,3681,3682,3473,3472
CQUADX4,3819,1,3682,3683,3474,3473
CQUADX4,3820,1,3683,3684,3475,3474
CQUADX4,3821,1,3684,3685,3476,3475
CQUADX4,3822,1,3685,3686,3477,3476
CQUADX4,3823,1,3686,3687,3478,3477
CQUADX4,3824,1,3687,3688,3479,3478
CQUADX4,3825,1,3688,3689,3480,3479
CQUADX4,3826,1,3689,3690,3481,3480
CQUADX4,3827,1,3690,3691,3482,3481
CQUADX4,3828,1,3691,3692,3483,3482
CQUADX4,3829,1,3692,3693,3484,3483
CQUADX4,3830,1,3693,3694,3485,3484
CQUADX4,3831,1,3694,3695,3486,3485
CQUADX4,3832,1,3695,3696,3487,3486
CQUADX4,3833,1,3696,3697,3488,3487
CQUADX4,3834,1,3697,3698,3489,3488
CQUADX4,3835,1,3698,3699,3490,3489
CQUADX4,3836,1,3699,3700,3491,3490
CQUADX4,3837,1,3700,3701,3492,3491
CQUADX4,3838,1,3701,3702,3493,3492
CQUADX4,3839,1,3702,3703,3494,3493
CQUADX4,3840,1,3703,3704,3495,3494
CQUADX4,3841,1,3704,3705,3496,3495
CQUADX4,3842,1,3705,3706,3497,3496
CQUADX4,3843,1,3706,3707,3498,3497
CQUADX4,3844,1,3707,3708,3499,3498
CQUADX4,3845,1,3708,3709,3500,3499
CQUADX4,3846,1,3709,3710,3501,3500
CQUADX4,3847,1,3710,3711,3502,3501
CQUADX4,3848,1,3711,3712,3503,3502
CQUADX4,3849,1,3712,3713,3504,3503
CQUADX4,3850,1,3713,3714,3505,3504
CQUADX4,3851,1,3714,3715,3506,3505
CQUADX4,3852,1,3715,3716,3507,3506
CQUADX4,3853,1,3716,3717,3508,3507
CQUADX4,3854,1,3717,3718,3509,3508
CQUADX4,3855,1,3718,3719,3510,3509
CQUADX4,3856,1,3719,3720,3511,3510
CQUADX4,3857,1,3720,3721,3512,3511
CQUADX4,3858,1,3721,3722,3513,3512
CQUADX4,3859,1,3722,3723,3514,3513
CQUADX4,3860,1,3723,3724,3515,3514
CQUADX4,3861,1,3724,3725,3516,3515
CQUADX4,3862,1,3725,3726,3517,3516
CQUADX4,3863,1,3726,3727,3518,3517
CQUADX4,3864,1,3727,3728,3519,3518
CQUADX4,3865,1,3728,3729,3520,3519
CQUADX4,3866,1,3729,3730,3521,3520
CQUADX4,3867,1,3730,3731,3522,3521
CQUADX4,3868,1,3731,3732,3523,3522
CQUADX4,3869,1,3732,3733,3524,3523
CQUADX4,3870,1,3733,3734,3525,3524
CQUADX4,3871,1,3734,3735,3526,3525
CQUADX4,3872,1,3735,3736,3527,3526
CQUADX4,3873,1,3736,3737,3528,3527
CQUADX4,3874,1,3737,3738,3529,3528
CQUADX4,3875,1,3738,3739,3530,3529
CQUADX4,3876,1,3739,3740,3531,3530
CQUADX4,3877,1,3740,3741,3532,3531
CQUADX4,3878,1,3741,3742,3533,3532
CQUADX4,3879,1,3742,3743,3534,3533
CQUADX4,3880,1,3743,3744,3535,3534
CQUADX4,3881,1,3744,3745,3536,3535
CQUADX4,3882,1,3745,3746,3537,3536
CQUADX4,3883,1,3746,3747,3538,3537
CQUADX4,3884,1,3747,3748,3539,3538
CQUADX4,3885,1,3748,3749,3540,3539
CQUADX4,3886,1,3749,3750,3541,3540
CQUADX4,3887,1,3750,3751,3542,3541
CQUADX4,3888,1,3751,3752,3543,3542
CQUADX4,3889,1,3752,3753,3544,3543
CQUADX4,3890,1,3753,3754,3545,3544
CQUADX4,3891,1,3754,3755,3546,3545
CQUADX4,3892,1,3755,3756,3547,3546
CQUADX4,3893,1,3756,3757,3548,3547
CQUADX4,3894,1,3757,3758,3549,3548
CQUADX4,3895,1,3758,3759,3550,3549
CQUADX4,3896,1,3759,3760,3551,3550
CQUADX4,3897,1,3760,3761,3552,3551
CQUADX4,3898,1,3761,3762,3553,3552
CQUADX4,3899,1,3762,3763,3554,3553
CQUADX4,3900,1,3763,3764,3555,3554
CQUADX4,3901,1,3765,3766,3557,3556
CQUADX4,3902,1,3766,3767,3558,3557
CQUADX4,3903,1,3767,3768,3559,3558
CQUADX4,3904,1,3768,3769,3560,3559
CQUADX4,3905,1,3769,3770,3561,3560
CQUADX4,3906,1,3770,3771,3562,3561
CQUADX4,3907,1,3771,3772,3563,3562
CQUADX4,3908,1,3772,3773,3564,3563
CQUADX4,3909,1,3773,3774,3565,3564
CQUADX4,3910,1,3774,3775,3566,3565
CQUADX4,3911,1,3775,3776,3567,3566
CQUADX4,3912,1,3776,3777,3568,3567
CQUADX4,3913,1,3777,3778,3569,3568
CQUADX4,3914,1,3778,3779,3570,3569
CQUADX4,3915,1,3779,3780,3571,3570
CQUADX4,3916,1,3780,3781,3572,3571
CQUADX4,3917,1,3781,3782,3573,3572
CQUADX4,3918,1,3782,3783,3574,3573
CQUADX4,3919,1,3783,3784,3575,3574
CQUADX4,3920,1,3784,3785,3576,3575
CQUADX4,3921,1,3785,3786,3577,3576
CQUADX4,3922,1,3786,3787,3578,3577
CQUADX4,3923,1,3787,3788,3579,3578
CQUADX4,3924,1,3788,3789,3580,3579
CQUADX4,3925,1,3789,3790,3581,3580
CQUADX4,3926,1,3790,3791,3582,3581
CQUADX4,3927,1,3791,3792,3583,3582
CQUADX4,3928,1,3792,3793,3584,3583
CQUADX4,3929,1,3793,3794,3585,3584
CQUADX4,3930,1,3794,3795,3586,3585
CQUADX4,3931,1,3795,3796,3587,3586
CQUADX4,3932,1,3796,3797,3588,3587
CQUADX4,3933,1,3797,3798,3589,3588
CQUADX4,3934,1,3798,3799,3590,3589
CQUADX4,3935,1,3799,3800,3591,3590
CQUADX4,3936,1,3800,3801,3592,3591
CQUADX4,3937,1,3801,3802,3593,3592
CQUADX4,3938,1,3802,3803,3594,3593
CQUADX4,3939,1,3803,3804,3595,3594
CQUADX4,3940,1,3804,3805,3596,3595
CQUADX4,3941,1,3805,3806,3597,3596
CQUADX4,3942,1,3806,3807,3598,3597
CQUADX4,3943,1,3807,3808,3599,3598
CQUADX4,3944,1,3808,3809,3600,3599
CQUADX4,3945,1,3809,3810,3601,3600
CQUADX4,3946,1,3810,3811,3602,3601
CQUADX4,3947,1,3811,3812,3603,3602
CQUADX4,3948,1,3812,3813,3604,3603
CQUADX4,3949,1,3813,3814,3605,3604
CQUADX4,3950,1,3814,3815,3606,3605
CQUADX4,3951,1,3815,3816,3607,3606
CQUADX4,3952,1,3816,3817,3608,3607
CQUADX4,3953,1,3817,3818,3609,3608
CQUADX4,3954,1,3818,3819,3610,3609
CQUADX4,3955,1,3819,3820,3611,3610
CQUADX4,3956,1,3820,3821,3612,3611
CQUADX4,3957,1,3821,3822,3613,3612
CQUADX4,3958,1,3822,3823,3614,3613
CQUADX4,3959,1,3823,3824,3615,3614
CQUADX4,3960,1,3824,3825,3616,3615
CQUADX4,3961,1,3825,3826,3617,3616
CQUADX4,3962,1,3826,3827,3618,3617
CQUADX4,3963,1,3827,3828,3619,3618
CQUADX4,3964,1,3828,3829,3620,3619
CQUADX4,3965,1,3829,3830,3621,3620
CQUADX4,3966,1,3830,3831,3622,3621
CQUADX4,3967,1,3831,3832,3623,3622
CQUADX4,3968,1,3832,3833,3624,3623
CQUADX4,3969,1,3833,3834,3625,3624
CQUADX4,3970,1,3834,3835,3626,3625
CQUADX4,3971,1,3835,3836,3627,3626
CQUADX4,3972,1,3836,3837,3628,3627
CQUADX4,3973,1,3837,3838,3629,3628
CQUADX4,3974,1,3838,3839,3630,3629
CQUADX4,3975,1,3839,3840,3631,3630
CQUADX4,3976,1,3840,3841,3632,3631
CQUADX4,3977,1,3841,3842,3633,3632
CQUADX4,3978,1,3842,3843,3634,3633
CQUADX4,3979,1,3843,3844,3635,3634
CQUADX4,3980,1,3844,3845,3636,3635
CQUADX4,3981,1,3845,3846,3637,3636
CQUADX4,3982,1,3846,3847,3638,3637
CQUADX4,3983,1,3847,3848,3639,3638
CQUADX4,3984,1,3848,3849,3640,3639
CQUADX4,3985,1,3849,3850,3641,3640
CQUADX4,3986,1,3850,3851,3642,3641
CQUADX4,3987,1,3851,3852,3643,3642
CQUADX4,3988,1,3852,3853,3644,3643
CQUADX4,3989,1,3853,3854,3645,3644
CQUADX4,3990,1,3854,3855,3646,3645
CQUADX4,3991,1,3855,3856,3647,3646
CQUADX4,3992,1,3856,3857,3648,3647
CQUADX4,3993,1,3857,3858,3649,3648
CQUADX4,3994,1,3858,3859,3650,3649
CQUADX4,3995,1,3859,3860,3651,3650
CQUADX4,3996,1,3860,3861,3652,3651
CQUADX4,3997,1,3861,3862,3653,3652
CQUADX4,3998,1,3862,3863,3654,3653
CQUADX4,3999,1,3863,3864,3655,3654
CQUADX4,4000,1,3864,3865,3656,3655
CQUADX4,4001,1,3865,3866,3657,3656
CQUADX4,4002,1,3866,3867,3658,3657
CQUADX4,4003,1,3867,3868,3659,3658
CQUADX4,4004,1,3868,3869,3660,3659
CQUADX4,4005,1,3869,3870,3661,3660
CQUADX4,4006,1,3870,3871,3662,3661
CQUADX4,4007,1,3871,3872,3663,3662
CQUADX4,4008,1,3872,3873,3664,3663
CQUADX4,4009,1,3873,3874,3665,3664
CQUADX4,4010,1,3874,3875,3666,3665
CQUADX4,4011,1,3875,3876,3667,3666
CQUADX4,4012,1,3876,3877,3668,3667
CQUADX4,4013,1,3877,3878,3669,3668
CQUADX4,4014,1,3878,3879,3670,3669
CQUADX4,4015,1,3879,3880,3671,3670
CQUADX4,4016,1,3880,3881,3672,3671
CQUADX4,4017,1,3881,3882,3673,3672
CQUADX4,4018,1,3882,3883,3674,3673
CQUADX4,4019,1,3883,3884,3675,3674
CQUADX4,4020,1,3884,3885,3676,3675
CQUADX4,4021,1,3885,3886,3677,3676
CQUADX4,4022,1,3886,3887,3678,3677
CQUADX4,4023,1,3887,3888,3679,3678
CQUADX4,4024,1,3888,3889,3680,3679
CQUADX4,4025,1,3889,3890,3681,3680
CQUADX4,4026,1,3890,3891,3682,3681
CQUADX4,4027,1,3891,3892,3683,3682
CQUADX4,4028,1,3892,3893,3684,3683
CQUADX4,4029,1,3893,3894,3685,3684
CQUADX4,4030,1,3894,3895,3686,3685
CQUADX4,4031,1,3895,3896,3687,3686
CQUADX4,4032,1,3896,3897,3688,3687
CQUADX4,4033,1,3897,3898,3689,3688
CQUADX4,4034,1,3898,3899,3690,3689
CQUADX4,4035,1,3899,3900,3691,3690
CQUADX4,4036,1,3900,3901,3692,3691
CQUADX4,4037,1,3901,3902,3693,3692
CQUADX4,4038,1,3902,3903,3694,3693
CQUADX4,4039,1,3903,3904,3695,3694
CQUADX4,4040,1,3904,3905,3696,3695
CQUADX4,4041,1,3905,3906,3697,3696
CQUADX4,4042,1,3906,3907,3698,3697
CQUADX4,4043,1,3907,3908,3699,3698
CQUADX4,4044,1,3908,3909,3700,3699
CQUADX4,4045,1,3909,3910,3701,3700
CQUADX4,4046,1,3910,3911,3702,3701
CQUADX4,4047,1,3911,3912,3703,3702
CQUADX4,4048,1,3912,3913,3704,3703
CQUADX4,4049,1,3913,3914,3705,3704
CQUADX4,4050,1,3914,3915,3706,3705
CQUADX4,4051,1,3915,3916,3707,3706
CQUADX4,4052,1,3916,3917,3708,3707
CQUADX4,4053,1,3917,3918,3709,3708
CQUADX4,4054,1,3918,3919,3710,3709
CQUADX4,4055,1,3919,3920,3711,3710
CQUADX4,4056,1,3920,3921,3712,3711
CQUADX4,4057,1,3921,3922,3713,3712
CQUADX4,4058,1,3922,3923,3714,3713
CQUADX4,4059,1,3923,3924,3715,3714
CQUADX4,4060,1,3924,3925,3716,3715
CQUADX4,4061,1,3925,3926,3717,3716
CQUADX4,4062,1,3926,3927,3718,3717
CQUADX4,4063,1,3927,3928,3719,3718
CQUADX4,4064,1,3928,3929,3720,3719
CQUADX4,4065,1,3929,3930,3721,3720
CQUADX4,4066,1,3930,3931,3722,3721
CQUADX4,4067,1,3931,3932,3723,3722
CQUADX4,4068,1,3932,3933,3724,3723
CQUADX4,4069,1,3933,3934,3725,3724
CQUADX4,4070,1,3934,3935,3726,3725
CQUADX4,4071,1,3935,3936,3727,3726
CQUADX4,4072,1,3936,3937,3728,3727
CQUADX4,4073,1,3937,3938,3729,3728
CQUADX4,4074,1,3938,3939,3730,3729
CQUADX4,4075,1,3939,3940,3731,3730
CQUADX4,4076,1,3940,3941,3732,3731
CQUADX4,4077,1,3941,3942,3733,3732
CQUADX4,4078,1,3942,3943,3734,3733
CQUADX4,4079,1,3943,3944,3735,3734
CQUADX4,4080,1,3944,3945,3736,3735
CQUADX4,4081,1,3945,3946,3737,3736
CQUADX4,4082,1,3946,3947,3738,3737
CQUADX4,4083,1,3947,3948,3739,3738
CQUADX4,4084,1,3948,3949,3740,3739
CQUADX4,4085,1,3949,3950,3741,3740
CQUADX4,4086,1,3950,3951,3742,3741
CQUADX4,4087,1,3951,3952,3743,3742
CQUADX4,4088,1,3952,3953,3744,3743
CQUADX4,4089,1,3953,3954,3745,3744
CQUADX4,4090,1,3954,3955,3746,3745
CQUADX4,4091,1,3955,3956,3747,3746
CQUADX4,4092,1,3956,3957,3748,3747
CQUADX4,4093,1,3957,3958,3749,3748
CQUADX4,4094,1,3958,3959,3750,3749
CQUADX4,4095,1,3959,3960,3751,3750
CQUADX4,4096,1,3960,3961,3752,3751
CQUADX4,4097,1,3961,3962,3753,3752
CQUADX4,4098,1,3962,3963,3754,3753
CQUADX4,4099,1,3963,3964,3755,3754
CQUADX4,4100,1,3964,3965,3756,3755
CQUADX4,4101,1,3965,3966,3757,3756
CQUADX4,4102,1,3966,3967,3758,3757
CQUADX4,4103,1,3967,3968,3759,3758
CQUADX4,4104,1,3968,3969,3760,3759
CQUADX4,4105,1,3969,3970,3761,3760
CQUADX4,4106,1,3970,3971,3762,3761
CQUADX4,4107,1,3971,3972,3763,3762
CQUADX4,4108,1,3972,3973,3764,3763
CQUADX4,4109,1,3974,3975,3766,3765
CQUADX4,4110,1,3975,3976,3767,3766
CQUADX4,4111,1,3976,3977,3768,3767
CQUADX4,4112,1,3977,3978,3769,3768
CQUADX4,4113,1,3978,3979,3770,3769
CQUADX4,4114,1,3979,3980,3771,3770
CQUADX4,4115,1,3980,3981,3772,3771
CQUADX4,4116,1,3981,3982,3773,3772
CQUADX4,4117,1,3982,3983,3774,3773
CQUADX4,4118,1,3983,3984,3775,3774
CQUADX4,4119,1,3984,3985,3776,3775
CQUADX4,4120,1,3985,3986,3777,3776
CQUADX4,4121,1,3986,3987,3778,3777
CQUADX4,4122,1,3987,3988,3779,3778
CQUADX4,4123,1,3988,3989,3780,3779
CQUADX4,4124,1,3989,3990,3781,3780
CQUADX4,4125,1,3990,3991,3782,3781
CQUADX4,4126,1,3991,3992,3783,3782
CQUADX4,4127,1,3992,3993,3784,3783
CQUADX4,4128,1,3993,3994,3785,3784
CQUADX4,4129,1,3994,3995,3786,3785
CQUADX4,4130,1,3995,3996,3787,3786
CQUADX4,4131,1,3996,3997,3788,3787
CQUADX4,4132,1,3997,3998,3789,3788
CQUADX4,4133,1,3998,3999,3790,3789
CQUADX4,4134,1,3999,4000,3791,3790
CQUADX4,4135,1,4000,4001,3792,3791
CQUADX4,4136,1,4001,4002,3793,3792
CQUADX4,4137,1,4002,4003,3794,3793
CQUADX4,4138,1,4003,4004,3795,3794
CQUADX4,4139,1,4004,4005,3796,3795
CQUADX4,4140,1,4005,4006,3797,3796
CQUADX4,4141,1,4006,4007,3798,3797
CQUADX4,4142,1,4007,4008,3799,3798
CQUADX4,4143,1,4008,4009,3800,3799
CQUADX4,4144,1,4009,4010,3801,3800
CQUADX4,4145,1,4010,4011,3802,3801
CQUADX4,4146,1,4011,4012,3803,3802
CQUADX4,4147,1,4012,4013,3804,3803
CQUADX4,4148,1,4013,4014,3805,3804
CQUADX4,4149,1,4014,4015,3806,3805
CQUADX4,4150,1,4015,4016,3807,3806
CQUADX4,4151,1,4016,4017,3808,3807
CQUADX4,4152,1,4017,4018,3809,3808
CQUADX4,4153,1,4018,4019,3810,3809
CQUADX4,4154,1,4019,4020,3811,3810
CQUADX4,4155,1,4020,4021,3812,3811
CQUADX4,4156,1,4021,4022,3813,3812
CQUADX4,4157,1,4022,4023,3814,3813
CQUADX4,4158,1,4023,4024,3815,3814
CQUADX4,4159,1,4024,4025,3816,3815
CQUADX4,4160,1,4025,4026,3817,3816
CQUADX4,4161,1,4026,4027,3818,3817
CQUADX4,4162,1,4027,4028,3819,3818
CQUADX4,4163,1,4028,4029,3820,3819
CQUADX4,4164,1,4029,4030,3821,3820
CQUADX4,4165,1,4030,4031,3822,3821
CQUADX4,4166,1,4031,4032,3823,3822
CQUADX4,4167,1,4032,4033,3824,3823
CQUADX4,4168,1,4033,4034,3825,3824
CQUADX4,4169,1,4034,4035,3826,3825
CQUADX4,4170,1,4035,4036,3827,3826
CQUADX4,4171,1,4036,4037,3828,3827
CQUADX4,4172,1,4037,4038,3829,3828
CQUADX4,4173,1,4038,4039,3830,3829
CQUADX4,4174,1,4039,4040,3831,3830
CQUADX4,4175,1,4040,4041,3832,3831
CQUADX4,4176,1,4041,4042,3833,3832
CQUADX4,4177,1,4042,4043,3834,3833
CQUADX4,4178,1,4043,4044,3835,3834
CQUADX4,4179,1,4044,4045,3836,3835
CQUADX4,4180,1,4045,4046,3837,3836
CQUADX4,4181,1,4046,4047,3838,3837
CQUADX4,4182,1,4047,4048,3839,3838
CQUADX4,4183,1,4048,4049,3840,3839
CQUADX4,4184,1,4049,4050,3841,3840
CQUADX4,4185,1,4050,4051,3842,3841
CQUADX4,4186,1,4051,4052,3843,3842
CQUADX4,4187,1,4052,4053,3844,3843
CQUADX4,4188,1,4053,4054,3845,3844
CQUADX4,4189,1,4054,4055,3846,3845
CQUADX4,4190,1,4055,4056,3847,3846
CQUADX4,4191,1,4056,4057,3848,3847
CQUADX4,4192,1,4057,4058,3849,3848
CQUADX4,4193,1,4058,4059,3850,3849
CQUADX4,4194,1,4059,4060,3851,3850
CQUADX4,4195,1,4060,4061,3852,3851
CQUADX4,4196,1,4061,4062,3853,3852
CQUADX4,4197,1,4062,4063,3854,3853
CQUADX4,4198,1,4063,4064,3855,3854
CQUADX4,4199,1,4064,4065,3856,3855
CQUADX4,4200,1,4065,4066,3857,3856
CQUADX4,4201,1,4066,4067,3858,3857
CQUADX4,4202,1,4067,4068,3859,3858
CQUADX4,4203,1,4068,4069,3860,3859
CQUADX4,4204,1,4069,4070,3861,3860
CQUADX4,4205,1,4070,4071,3862,3861
CQUADX4,4206,1,4071,4072,3863,3862
CQUADX4,4207,1,4072,4073,3864,3863
CQUADX4,4208,1,4073,4074,3865,3864
CQUADX4,4209,1,4074,4075,3866,3865
CQUADX4,4210,1,4075,4076,3867,3866
CQUADX4,4211,1,4076,4077,3868,3867
CQUADX4,4212,1,4077,4078,3869,3868
CQUADX4,4213,1,4078,4079,3870,3869
CQUADX4,4214,1,4079,4080,3871,3870
CQUADX4,4215,1,4080,4081,3872,3871
CQUADX4,4216,1,4081,4082,3873,3872
CQUADX4,4217,1,4082,4083,3874,3873
CQUADX4,4218,1,4083,4084,3875,3874
CQUADX4,4219,1,4084,4085,3876,3875
CQUADX4,4220,1,4085,4086,3877,3876
CQUADX4,4221,1,4086,4087,3878,3877
CQUADX4,4222,1,4087,4088,3879,3878
CQUADX4,4223,1,4088,4089,3880,3879
CQUADX4,4224,1,4089,4090,3881,3880
CQUADX4,4225,1,4090,4091,3882,3881
CQUADX4,4226,1,4091,4092,3883,3882
CQUADX4,4227,1,4092,4093,3884,3883
CQUADX4,4228,1,4093,4094,3885,3884
CQUADX4,4229,1,4094,4095,3886,3885
CQUADX4,4230,1,4095,4096,3887,3886
CQUADX4,4231,1,4096,4097,3888,3887
CQUADX4,4232,1,4097,4098,3889,3888
CQUADX4,4233,1,4098,4099,3890,3889
CQUADX4,4234,1,4099,4100,3891,3890
CQUADX4,4235,1,4100,4101,3892,3891
CQUADX4,4236,1,4101,4102,3893,3892
CQUADX4,4237,1,4102,4103,3894,3893
CQUADX4,4238,1,4103,4104,3895,3894
CQUADX4,4239,1,4104,4105,3896,3895
CQUADX4,4240,1,4105,4106,3897,3896
CQUADX4,4241,1,4106,4107,3898,3897
CQUADX4,4242,1,4107,4108,3899,3898
CQUADX4,4243,1,4108,4109,3900,3899
CQUADX4,4244,1,4109,4110,3901,3900
CQUADX4,4245,1,4110,4111,3902,3901
CQUADX4,4246,1,4111,4112,3903,3902
CQUADX4,4247,1,4112,4113,3904,3903
CQUADX4,4248,1,4113,4114,3905,3904
CQUADX4,4249,1,4114,4115,3906,3905
CQUADX4,4250,1,4115,4116,3907,3906
CQUADX4,4251,1,4116,4117,3908,3907
CQUADX4,4252,1,4117,4118,3909,3908
CQUADX4,4253,1,4118,4119,3910,3909
CQUADX4,4254,1,4119,4120,3911,3910
CQUADX4,4255,1,4120,4121,3912,3911
CQUADX4,4256,1,4121,4122,3913,3912
CQUADX4,4257,1,4122,4123,3914,3913
CQUADX4,4258,1,4123,4124,3915,3914
CQUADX4,4259,1,4124,4125,3916,3915
CQUADX4,4260,1,4125,4126,3917,3916
CQUADX4,4261,1,4126,4127,3918,3917
CQUADX4,4262,1,4127,4128,3919,3918
CQUADX4,4263,1,4128,4129,3920,3919
CQUADX4,4264,1,4129,4130,3921,3920
CQUADX4,4265,1,4130,4131,3922,3921
CQUADX4,4266,1,4131,4132,3923,3922
CQUADX4,4267,1,4132,4133,3924,3923
CQUADX4,4268,1,4133,4134,3925,3924
CQUADX4,4269,1,4134,4135,3926,3925
CQUADX4,4270,1,4135,4136,3927,3926
CQUADX4,4271,1,4136,4137,3928,3927
CQUADX4,4272,1,4137,4138,3929,3928
CQUADX4,4273,1,4138,4139,3930,3929
CQUADX4,4274,1,4139,4140,3931,3930
CQUADX4,4275,1,4140,4141,3932,3931
CQUADX4,4276,1,4141,4142,3933,3932
CQUADX4,4277,1,4142,4143,3934,3933
CQUADX4,4278,1,4143,4144,3935,3934
CQUADX4,4279,1,4144,4145,3936,3935
CQUADX4,4280,1,4145,4146,3937,3936
CQUADX4,4281,1,4146,4147,3938,3937
CQUADX4,4282,1,4147,4148,3939,3938
CQUADX4,4283,1,4148,4149,3940,3939
CQUADX4,4284,1,4149,4150,3941,3940
CQUADX4,4285,1,4150,4151,3942,3941
CQUADX4,4286,1,4151,4152,3943,3942
CQUADX4,4287,1,4152,4153,3944,3943
CQUADX4,4288,1,4153,4154,3945,3944
CQUADX4,4289,1,4154,4155,3946,3945
CQUADX4,4290,1,4155,4156,3947,3946
CQUADX4,4291,1,4156,4157,3948,3947
CQUADX4,4292,1,4157,4158,3949,3948
CQUADX4,4293,1,4158,4159,3950,3949
CQUADX4,4294,1,4159,4160,3951,3950
CQUADX4,4295,1,4160,4161,3952,3951
CQUADX4,4296,1,4161,4162,3953,3952
CQUADX4,4297,1,4162,4163,3954,3953
CQUADX4,4298,1,4163,4164,3955,3954
CQUADX4,4299,1,4164,4165,3956,3955
CQUADX4,4300,1,4165,4166,3957,3956
CQUADX4,4301,1,4166,4167,3958,3957
CQUADX4,4302,1,4167,4168,3959,3958
CQUADX4,4303,1,4168,4169,3960,3959
CQUADX4,4304,1,4169,4170,3961,3960
CQUADX4,4305,1,4170,4171,3962,3961
CQUADX4,4306,1,4171,4172,3963,3962
CQUADX4,4307,1,4172,4173,3964,3963
CQUADX4,4308,1,4173,4174,3965,3964
CQUADX4,4309,1,4174,4175,3966,3965
CQUADX4,4310,1,4175,4176,3967,3966
CQUADX4,4311,1,4176,4177,3968,3967
CQUADX4,4312,1,4177,4178,3969,3968
CQUADX4,4313,1,4178,4179,3970,3969
CQUADX4,4314,1,4179,4180,3971,3970
CQUADX4,4315,1,4180,4181,3972,3971
CQUADX4,4316,1,4181,4182,3973,3972
CQUADX4,4317,1,4183,4184,3975,3974
CQUADX4,4318,1,4184,4185,3976,3975
CQUADX4,4319,1,4185,4186,3977,3976
CQUADX4,4320,1,4186,4187,3978,3977
CQUADX4,4321,1,4187,4188,3979,3978
CQUADX4,4322,1,4188,4189,3980,3979
CQUADX4,4323,1,4189,4190,3981,3980
CQUADX4,4324,1,4190,4191,3982,3981
CQUADX4,4325,1,4191,4192,3983,3982
CQUADX4,4326,1,4192,4193,3984,3983
CQUADX4,4327,1,4193,4194,3985,3984
CQUADX4,4328,1,4194,4195,3986,3985
CQUADX4,4329,1,4195,4196,3987,3986
CQUADX4,4330,1,4196,4197,3988,3987
CQUADX4,4331,1,4197,4198,3989,3988
CQUADX4,4332,1,4198,4199,3990,3989
CQUADX4,4333,1,4199,4200,3991,3990
CQUADX4,4334,1,4200,4201,3992,3991
CQUADX4,4335,1,4201,4202,3993,3992
CQUADX4,4336,1,4202,4203,3994,3993
CQUADX4,4337,1,4203,4204,3995,3994
CQUADX4,4338,1,4204,4205,3996,3995
CQUADX4,4339,1,4205,4206,3997,3996
CQUADX4,4340,1,4206,4207,3998,3997
CQUADX4,4341,1,4207,4208,3999,3998
CQUADX4,4342,1,4208,4209,4000,3999
CQUADX4,4343,1,4209,4210,4001,4000
CQUADX4,4344,1,4210,4211,4002,4001
CQUADX4,4345,1,4211,4212,4003,4002
CQUADX4,4346,1,4212,4213,4004,4003
CQUADX4,4347,1,4213,4214,4005,4004
CQUADX4,4348,1,4214,4215,4006,4005
CQUADX4,4349,1,4215,4216,4007,4006
CQUADX4,4350,1,4216,4217,4008,4007
CQUADX4,4351,1,4217,4218,4009,4008
CQUADX4,4352,1,4218,4219,4010,4009
CQUADX4,4353,1,4219,4220,4011,4010
CQUADX4,4354,1,4220,4221,4012,4011
CQUADX4,4355,1,4221,4222,4013,4012
CQUADX4,4356,1,4222,4223,4014,4013
CQUADX4,4357,1,4223,4224,4015,4014
CQUADX4,4358,1,4224,4225,4016,4015
CQUADX4,4359,1,4225,4226,4017,4016
CQUADX4,4360,1,4226,4227,4018,4017
CQUADX4,4361,1,4227,4228,4019,4018
CQUADX4,4362,1,4228,4229,4020,4019
CQUADX4,4363,1,4229,4230,4021,4020
CQUADX4,4364,1,4230,4231,4022,4021
CQUADX4,4365,1,4231,4232,4023,4022
CQUADX4,4366,1,4232,4233,4024,4023
CQUADX4,4367,1,4233,4234,4025,4024
CQUADX4,4368,1,4234,4235,4026,4025
CQUADX4,4369,1,4235,4236,4027,4026
CQUADX4,4370,1,4236,4237,4028,4027
CQUADX4,4371,1,4237,4238,4029,4028
CQUADX4,4372,1,4238,4239,4030,4029
CQUADX4,4373,1,4239,4240,4031,4030
CQUADX4,4374,1,4240,4241,4032,4031
CQUADX4,4375,1,4241,4242,4033,4032
CQUADX4,4376,1,4242,4243,4034,4033
CQUADX4,4377,1,4243,4244,4035,4034
CQUADX4,4378,1,4244,4245,4036,4035
CQUADX4,4379,1,4245,4246,4037,4036
CQUADX4,4380,1,4246,4247,4038,4037
CQUADX4,4381,1,4247,4248,4039,4038
CQUADX4,4382,1,4248,4249,4040,4039
CQUADX4,4383,1,4249,4250,4041,4040
CQUADX4,4384,1,4250,4251,4042,4041
CQUADX4,4385,1,4251,4252,4043,4042
CQUADX4,4386,1,4252,4253,4044,4043
CQUADX4,4387,1,4253,4254,4045,4044
CQUADX4,4388,1,4254,4255,4046,4045
CQUADX4,4389,1,4255,4256,4047,4046
CQUADX4,4390,1,4256,4257,4048,4047
CQUADX4,4391,1,4257,4258,4049,4048
CQUADX4,4392,1,4258,4259,4050,4049
CQUADX4,4393,1,4259,4260,4051,4050
CQUADX4,4394,1,4260,4261,4052,4051
CQUADX4,4395,1,4261,4262,4053,4052
CQUADX4,4396,1,4262,4263,4054,4053
CQUADX4,4397,1,4263,4264,4055,4054
CQUADX4,4398,1,4264,4265,4056,4055
CQUADX4,4399,1,4265,4266,4057,4056
CQUADX4,4400,1,4266,4267,4058,4057
CQUADX4,4401,1,4267,4268,4059,4058
CQUADX4,4402,1,4268,4269,4060,4059
CQUADX4,4403,1,4269,4270,4061,4060
CQUADX4,4404,1,4270,4271,4062,4061
CQUADX4,4405,1,4271,4272,4063,4062
CQUADX4,4406,1,4272,4273,4064,4063
CQUADX4,4407,1,4273,4274,4065,4064
CQUADX4,4408,1,4274,4275,4066,4065
CQUADX4,4409,1,4275,4276,4067,4066
CQUADX4,4410,1,4276,4277,4068,4067
CQUADX4,4411,1,4277,4278,4069,4068
CQUADX4,4412,1,4278,4279,4070,4069
CQUADX4,4413,1,4279,4280,4071,4070
CQUADX4,4414,1,4280,4281,4072,4071
CQUADX4,4415,1,4281,4282,4073,4072
CQUADX4,4416,1,4282,4283,4074,4073
CQUADX4,4417,1,4283,4284,4075,4074
CQUADX4,4418,1,4284,4285,4076,4075
CQUADX4,4419,1,4285,4286,4077,4076
CQUADX4,4420,1,4286,4287,4078,4077
CQUADX4,4421,1,4287,4288,4079,4078
CQUADX4,4422,1,4288,4289,4080,4079
CQUADX4,4423,1,4289,4290,4081,4080
CQUADX4,4424,1,4290,4291,4082,4081
CQUADX4,4425,1,4291,4292,4083,4082
CQUADX4,4426,1,4292,4293,4084,4083
CQUADX4,4427,1,4293,4294,4085,4084
CQUADX4,4428,1,4294,4295,4086,4085
CQUADX4,4429,1,4295,4296,4087,4086
CQUADX4,4430,1,4296,4297,4088,4087
CQUADX4,4431,1,4297,4298,4089,4088
CQUADX4,4432,1,4298,4299,4090,4089
CQUADX4,4433,1,4299,4300,4091,4090
CQUADX4,4434,1,4300,4301,4092,4091
CQUADX4,4435,1,4301,4302,4093,4092
CQUADX4,4436,1,4302,4303,4094,4093
CQUADX4,4437,1,4303,4304,4095,4094
CQUADX4,4438,1,4304,4305,4096,4095
CQUADX4,4439,1,4305,4306,4097,4096
CQUADX4,4440,1,4306,4307,4098,4097
CQUADX4,4441,1,4307,4308,4099,4098
CQUADX4,4442,1,4308,4309,4100,4099
CQUADX4,4443,1,4309,4310,4101,4100
CQUADX4,4444,1,4310,4311,4102,4101
CQUADX4,4445,1,4311,4312,4103,4102
CQUADX4,4446,1,4312,4313,4104,4103
CQUADX4,4447,1,4313,4314,4105,4104
CQUADX4,4448,1,4314,4315,4106,4105
CQUADX4,4449,1,4315,4316,4107,4106
CQUADX4,4450,1,4316,4317,4108,4107
CQUADX4,4451,1,4317,4318,4109,4108
CQUADX4,4452,1,4318,4319,4110,4109
CQUADX4,4453,1,4319,4320,4111,4110
CQUADX4,4454,1,4320,4321,4112,4111
CQUADX4,4455,1,4321,4322,4113,4112
CQUADX4,4456,1,4322,4323,4114,4113
CQUADX4,4457,1,4323,4324,4115,4114
CQUADX4,4458,1,4324,4325,4116,4115
CQUADX4,4459,1,4325,4326,4117,4116
CQUADX4,4460,1,4326,4327,4118,4117
CQUADX4,4461,1,4327,4328,4119,4118
CQUADX4,4462,1,4328,4329,4120,4119
CQUADX4,4463,1,4329,4330,4121,4120
CQUADX4,4464,1,4330,4331,4122,4121
CQUADX4,4465,1,4331,4332,4123,4122
CQUADX4,4466,1,4332,4333,4124,4123
CQUADX4,4467,1,4333,4334,4125,4124
CQUADX4,4468,1,4334,4335,4126,4125
CQUADX4,4469,1,4335,4336,4127,4126
CQUADX4,4470,1,4336,4337,4128,4127
CQUADX4,4471,1,4337,4338,4129,4128
CQUADX4,4472,1,4338,4339,4130,4129
CQUADX4,4473,1,4339,4340,4131,4130
CQUADX4,4474,1,4340,4341,4132,4131
CQUADX4,4475,1,4341,4342,4133,4132
CQUADX4,4476,1,4342,4343,4134,4133
CQUADX4,4477,1,4343,4344,4135,4134
CQUADX4,4478,1,4344,4345,4136,4135
CQUADX4,4479,1,4345,4346,4137,4136
CQUADX4,4480,1,4346,4347,4138,4137
CQUADX4,4481,1,4347,4348,4139,4138
CQUADX4,4482,1,4348,4349,4140,4139
CQUADX4,4483,1,4349,4350,4141,4140
CQUADX4,4484,1,4350,4351,4142,4141
CQUADX4,4485,1,4351,4352,4143,4142
CQUADX4,4486,1,4352,4353,4144,4143
CQUADX4,4487,1,4353,4354,4145,4144
CQUADX4,4488,1,4354,4355,4146,4145
CQUADX4,4489,1,4355,4356,4147,4146
CQUADX4,4490,1,4356,4357,4148,4147
CQUADX4,4491,1,4357,4358,4149,4148
CQUADX4,4492,1,4358,4359,4150,4149
CQUADX4,4493,1,4359,4360,4151,4150
CQUADX4,4494,1,4360,4361,4152,4151
CQUADX4,4495,1,4361,4362,4153,4152
CQUADX4,4496,1,4362,4363,4154,4153
CQUADX4,4497,1,4363,4364,4155,4154
CQUADX4,4498,1,4364,4365,4156,4155
CQUADX4,4499,1,4365,4366,4157,4156
CQUADX4,4500,1,4366,4367,4158,4157
CQUADX4,4501,1,4367,4368,4159,4158
CQUADX4,4502,1,4368,4369,4160,4159
CQUADX4,4503,1,4369,4370,4161,4160
CQUADX4,4504,1,4370,4371,4162,4161
CQUADX4,4505,1,4371,4372,4163,4162
CQUADX4,4506,1,4372,4373,4164,4163
CQUADX4,4507,1,4373,4374,4165,4164
CQUADX4,4508,1,4374,4375,4166,4165
CQUADX4,4509,1,4375,4376,4167,4166
CQUADX4,4510,1,4376,4377,4168,4167
CQUADX4,4511,1,4377,4378,4169,4168
CQUADX4,4512,1,4378,4379,4170,4169
CQUADX4,4513,1,4379,4380,4171,4170
CQUADX4,4514,1,4380,4381,4172,4171
CQUADX4,4515,1,4381,4382,4173,4172
CQUADX4,4516,1,4382,4383,4174,4173
CQUADX4,4517,1,4383,4384,4175,4174
CQUADX4,4518,1,4384,4385,4176,4175
CQUADX4,4519,1,4385,4386,4177,4176
CQUADX4,4520,1,4386,4387,4178,4177
CQUADX4,4521,1,4387,4388,4179,4178
CQUADX4,4522,1,4388,4389,4180,4179
CQUADX4,4523,1,4389,4390,4181,4180
CQUADX4,4524,1,4390,4391,4182,4181
CQUADX4,4525,1,6499,2511,6498,6733
CQUADX4,4526,1,6500,2720,2511,6499
CQUADX4,4527,1,6501,2929,2720,6500
CQUADX4,4528,1,6502,3138,2929,6501
CQUADX4,4529,1,6503,3347,3138,6502
CQUADX4,4530,1,6504,3556,3347,6503
CQUADX4,4531,1,6505,3765,3556,6504
CQUADX4,4532,1,6506,3974,3765,6505
CQUADX4,4533,1,6507,4183,3974,6506
CQUADX4,4534,1,6734,6508,4183,6507
CQUADX4,4535,1,6508,6509,4184,4183
CQUADX4,4536,1,6509,6510,4185,4184
CQUADX4,4537,1,6510,6511,4186,4185
CQUADX4,4538,1,6511,6512,4187,4186
CQUADX4,4539,1,6512,6513,4188,4187
CQUADX4,4540,1,6513,6514,4189,4188
CQUADX4,4541,1,6514,6515,4190,4189
CQUADX4,4542,1,6515,6516,4191,4190
CQUADX4,4543,1,6516,6517,4192,4191
CQUADX4,4544,1,6517,6518,4193,4192
CQUADX4,4545,1,6518,6519,4194,4193
CQUADX4,4546,1,6519,6520,4195,4194
CQUADX4,4547,1,6520,6521,4196,4195
CQUADX4,4548,1,6521,6522,4197,4196
CQUADX4,4549,1,6522,6523,4198,4197
CQUADX4,4550,1,6523,6524,4199,4198
CQUADX4,4551,1,6524,6525,4200,4199
CQUADX4,4552,1,6525,6526,4201,4200
CQUADX4,4553,1,6526,6527,4202,4201
CQUADX4,4554,1,6527,6528,4203,4202
CQUADX4,4555,1,6528,6529,4204,4203
CQUADX4,4556,1,6529,6530,4205,4204
CQUADX4,4557,1,6530,6531,4206,4205
CQUADX4,4558,1,6531,6532,4207,4206
CQUADX4,4559,1,6532,6533,4208,4207
CQUADX4,4560,1,6533,6534,4209,4208
CQUADX4,4561,1,6534,6535,4210,4209
CQUADX4,4562,1,6535,6536,4211,4210
CQUADX4,4563,1,6536,6537,4212,4211
CQUADX4,4564,1,6537,6538,4213,4212
CQUADX4,4565,1,6538,6539,4214,4213
CQUADX4,4566,1,6539,6540,4215,4214
CQUADX4,4567,1,6540,6541,4216,4215
CQUADX4,4568,1,6541,6542,4217,4216
CQUADX4,4569,1,6542,6543,4218,4217
CQUADX4,4570,1,6543,6544,4219,4218
CQUADX4,4571,1,6544,6545,4220,4219
CQUADX4,4572,1,6545,6546,4221,4220
CQUADX4,4573,1,6546,6547,4222,4221
CQUADX4,4574,1,6547,6548,4223,4222
CQUADX4,4575,1,6548,6549,4224,4223
CQUADX4,4576,1,6549,6550,4225,4224
CQUADX4,4577,1,6550,6551,4226,4225
CQUADX4,4578,1,6551,6552,4227,4226
CQUADX4,4579,1,6552,6553,4228,4227
CQUADX4,4580,1,6553,6554,4229,4228
CQUADX4,4581,1,6554,6555,4230,4229
CQUADX4,4582,1,6555,6556,4231,4230
CQUADX4,4583,1,6556,6557,4232,4231
CQUADX4,4584,1,6557,6558,4233,4232
CQUADX4,4585,1,6558,6559,4234,4233
CQUADX4,4586,1,6559,6560,4235,4234
CQUADX4,4587,1,6560,6561,4236,4235
CQUADX4,4588,1,6561,6562,4237,4236
CQUADX4,4589,1,6562,6563,4238,4237
CQUADX4,4590,1,6563,6564,4239,4238
CQUADX4,4591,1,6564,6565,4240,4239
CQUADX4,4592,1,6565,6566,4241,4240
CQUADX4,4593,1,6566,6567,4242,4241
CQUADX4,4594,1,6567,6568,4243,4242
CQUADX4,4595,1,6568,6569,4244,4243
CQUADX4,4596,1,6569,6570,4245,4244
CQUADX4,4597,1,6570,6571,4246,4245
CQUADX4,4598,1,6571,6572,4247,4246
CQUADX4,4599,1,6572,6573,4248,4247
CQUADX4,4600,1,6573,6574,4249,4248
CQUADX4,4601,1,6574,6575,4250,4249
CQUADX4,4602,1,6575,6576,4251,4250
CQUADX4,4603,1,6576,6577,4252,4251
CQUADX4,4604,1,6577,6578,4253,4252
CQUADX4,4605,1,6578,6579,4254,4253
CQUADX4,4606,1,6579,6580,4255,4254
CQUADX4,4607,1,6580,6581,4256,4255
CQUADX4,4608,1,6581,6582,4257,4256
CQUADX4,4609,1,6582,6583,4258,4257
CQUADX4,4610,1,6583,6584,4259,4258
CQUADX4,4611,1,6584,6585,4260,4259
CQUADX4,4612,1,6585,6586,4261,4260
CQUADX4,4613,1,6586,6587,4262,4261
CQUADX4,4614,1,6587,6588,4263,4262
CQUADX4,4615,1,6588,6589,4264,4263
CQUADX4,4616,1,6589,6590,4265,4264
CQUADX4,4617,1,6590,6591,4266,4265
CQUADX4,4618,1,6591,6592,4267,4266
CQUADX4,4619,1,6592,6593,4268,4267
CQUADX4,4620,1,6593,6594,4269,4268
CQUADX4,4621,1,6594,6595,4270,4269
CQUADX4,4622,1,6595,6596,4271,4270
CQUADX4,4623,1,6596,6597,4272,4271
CQUADX4,4624,1,6597,6598,4273,4272
CQUADX4,4625,1,6598,6599,4274,4273
CQUADX4,4626,1,6599,6600,4275,4274
CQUADX4,4627,1,6600,6601,4276,4275
CQUADX4,4628,1,6601,6602,4277,4276
CQUADX4,4629,1,6602,6603,4278,4277
CQUADX4,4630,1,6603,6604,4279,4278
CQUADX4,4631,1,6604,6605,4280,4279
CQUADX4,4632,1,6605,6606,4281,4280
CQUADX4,4633,1,6606,6607,4282,4281
CQUADX4,4634,1,6607,6608,4283,4282
CQUADX4,4635,1,6608,6609,4284,4283
CQUADX4,4636,1,6609,6610,4285,4284
CQUADX4,4637,1,6610,6611,4286,4285
CQUADX4,4638,1,6611,6612,4287,4286
CQUADX4,4639,1,6612,6613,4288,4287
CQUADX4,4640,1,6613,6614,4289,4288
CQUADX4,4641,1,6614,6615,4290,4289
CQUADX4,4642,1,6615,6616,4291,4290
CQUADX4,4643,1,6616,6617,4292,4291
CQUADX4,4644,1,6617,6618,4293,4292
CQUADX4,4645,1,6618,6619,4294,4293
CQUADX4,4646,1,6619,6620,4295,4294
CQUADX4,4647,1,6620,6621,4296,4295
CQUADX4,4648,1,6621,6622,4297,4296
CQUADX4,4649,1,6622,6623,4298,4297
CQUADX4,4650,1,6623,6624,4299,4298
CQUADX4,4651,1,6624,6625,4300,4299
CQUADX4,4652,1,6625,6626,4301,4300
CQUADX4,4653,1,6626,6627,4302,4301
CQUADX4,4654,1,6627,6628,4303,4302
CQUADX4,4655,1,6628,6629,4304,4303
CQUADX4,4656,1,6629,6630,4305,4304
CQUADX4,4657,1,6630,6631,4306,4305
CQUADX4,4658,1,6631,6632,4307,4306
CQUADX4,4659,1,6632,6633,4308,4307
CQUADX4,4660,1,6633,6634,4309,4308
CQUADX4,4661,1,6634,6635,4310,4309
CQUADX4,4662,1,6635,6636,4311,4310
CQUADX4,4663,1,6636,6637,4312,4311
CQUADX4,4664,1,6637,6638,4313,4312
CQUADX4,4665,1,6638,6639,4314,4313
CQUADX4,4666,1,6639,6640,4315,4314
CQUADX4,4667,1,6640,6641,4316,4315
CQUADX4,4668,1,6641,6642,4317,4316
CQUADX4,4669,1,6642,6643,4318,4317
CQUADX4,4670,1,6643,6644,4319,4318
CQUADX4,4671,1,6644,6645,4320,4319
CQUADX4,4672,1,6645,6646,4321,4320
CQUADX4,4673,1,6646,6647,4322,4321
CQUADX4,4674,1,6647,6648,4323,4322
CQUADX4,4675,1,6648,6649,4324,4323
CQUADX4,4676,1,6649,6650,4325,4324
CQUADX4,4677,1,6650,6651,4326,4325
CQUADX4,4678,1,6651,6652,4327,4326
CQUADX4,4679,1,6652,6653,4328,4327
CQUADX4,4680,1,6653,6654,4329,4328
CQUADX4,4681,1,6654,6655,4330,4329
CQUADX4,4682,1,6655,6656,4331,4330
CQUADX4,4683,1,6656,6657,4332,4331
CQUADX4,4684,1,6657,6658,4333,4332
CQUADX4,4685,1,6658,6659,4334,4333
CQUADX4,4686,1,6659,6660,4335,4334
CQUADX4,4687,1,6660,6661,4336,4335
CQUADX4,4688,1,6661,6662,4337,4336
CQUADX4,4689,1,6662,6663,4338,4337
CQUADX4,4690,1,6663,6664,4339,4338
CQUADX4,4691,1,6664,6665,4340,4339
CQUADX4,4692,1,6665,6666,4341,4340
CQUADX4,4693,1,6666,6667,4342,4341
CQUADX4,4694,1,6667,6668,4343,4342
CQUADX4,4695,1,6668,6669,4344,4343
CQUADX4,4696,1,6669,6670,4345,4344
CQUADX4,4697,1,6670,6671,4346,4345
CQUADX4,4698,1,6671,6672,4347,4346
CQUADX4,4699,1,6672,6673,4348,4347
CQUADX4,4700,1,6673,6674,4349,4348
CQUADX4,4701,1,6674,6675,4350,4349
CQUADX4,4702,1,6675,6676,4351,4350
CQUADX4,4703,1,6676,6677,4352,4351
CQUADX4,4704,1,6677,6678,4353,4352
CQUADX4,4705,1,6678,6679,4354,4353
CQUADX4,4706,1,6679,6680,4355,4354
CQUADX4,4707,1,6680,6681,4356,4355
CQUADX4,4708,1,6681,6682,4357,4356
CQUADX4,4709,1,6682,6683,4358,4357
CQUADX4,4710,1,6683,6684,4359,4358
CQUADX4,4711,1,6684,6685,4360,4359
CQUADX4,4712,1,6685,6686,4361,4360
CQUADX4,4713,1,6686,6687,4362,4361
CQUADX4,4714,1,6687,6688,4363,4362
CQUADX4,4715,1,6688,6689,4364,4363
CQUADX4,4716,1,6689,6690,4365,4364
CQUADX4,4717,1,6690,6691,4366,4365
CQUADX4,4718,1,6691,6692,4367,4366
CQUADX4,4719,1,6692,6693,4368,4367
CQUADX4,4720,1,6693,6694,4369,4368
CQUADX4,4721,1,6694,6695,4370,4369
CQUADX4,4722,1,6695,6696,4371,4370
CQUADX4,4723,1,6696,6697,4372,4371
CQUADX4,4724,1,6697,6698,4373,4372
CQUADX4,4725,1,6698,6699,4374,4373
CQUADX4,4726,1,6699,6700,4375,4374
CQUADX4,4727,1,6700,6701,4376,4375
CQUADX4,4728,1,6701,6702,4377,4376
CQUADX4,4729,1,6702,6703,4378,4377
CQUADX4,4730,1,6703,6704,4379,4378
CQUADX4,4731,1,6704,6705,4380,4379
CQUADX4,4732,1,6705,6706,4381,4380
CQUADX4,4733,1,6706,6707,4382,4381
CQUADX4,4734,1,6707,6708,4383,4382
CQUADX4,4735,1,6708,6709,4384,4383
CQUADX4,4736,1,6709,6710,4385,4384
CQUADX4,4737,1,6710,6711,4386,4385
CQUADX4,4738,1,6711,6712,4387,4386
CQUADX4,4739,1,6712,6713,4388,4387
CQUADX4,4740,1,6713,6714,4389,4388
CQUADX4,4741,1,6714,6715,4390,4389
CQUADX4,4742,1,6715,6716,4391,4390
CQUADX4,4743,1,6716,6720,5576,4391
CQUADX4,4744,1,4391,5576,5575,4182
CQUADX4,4745,1,4182,5575,5574,3973
CQUADX4,4746,1,3973,5574,5573,3764
CQUADX4,4747,1,3764,5573,5572,3555
CQUADX4,4748,1,3555,5572,5571,3346
CQUADX4,4749,1,3346,5571,5570,3137
CQUADX4,4750,1,3137,5570,5569,2928
CQUADX4,4751,1,2928,5569,5568,2719
CQUADX4,4752,1,2719,5568,6719,6290
CQUADX4,4753,1,2718,2719,6290,6291
CQUADX4,4754,1,2717,2718,6291,6292
CQUADX4,4755,1,2716,2717,6292,6293
CQUADX4,4756,1,2715,2716,6293,6294
CQUADX4,4757,1,2714,2715,6294,6295
CQUADX4,4758,1,2713,2714,6295,6296
CQUADX4,4759,1,2712,2713,6296,6297
CQUADX4,4760,1,2711,2712,6297,6298
CQUADX4,4761,1,2710,2711,6298,6299
CQUADX4,4762,1,2709,2710,6299,6300
CQUADX4,4763,1,2708,2709,6300,6301
CQUADX4,4764,1,2707,2708,6301,6302
CQUADX4,4765,1,2706,2707,6302,6303
CQUADX4,4766,1,2705,2706,6303,6304
CQUADX4,4767,1,2704,2705,6304,6305
CQUADX4,4768,1,2703,2704,6305,6306
CQUADX4,4769,1,2702,2703,6306,6307
CQUADX4,4770,1,2701,2702,6307,6308
CQUADX4,4771,1,2700,2701,6308,6309
CQUADX4,4772,1,2699,2700,6309,6310
CQUADX4,4773,1,2698,2699,6310,6311
CQUADX4,4774,1,2697,2698,6311,6312
CQUADX4,4775,1,2696,2697,6312,6313
CQUADX4,4776,1,2695,2696,6313,6314
CQUADX4,4777,1,2694,2695,6314,6315
CQUADX4,4778,1,2693,2694,6315,6316
CQUADX4,4779,1,2692,2693,6316,6317
CQUADX4,4780,1,2691,2692,6317,6318
CQUADX4,4781,1,2690,2691,6318,6319
CQUADX4,4782,1,2689,2690,6319,6320
CQUADX4,4783,1,2688,2689,6320,6321
CQUADX4,4784,1,2687,2688,6321,6322
CQUADX4,4785,1,2686,2687,6322,6323
CQUADX4,4786,1,2685,2686,6323,6324
CQUADX4,4787,1,2684,2685,6324,6325
CQUADX4,4788,1,2683,2684,6325,6326
CQUADX4,4789,1,2682,2683,6326,6327
CQUADX4,4790,1,2681,2682,6327,6328
CQUADX4,4791,1,2680,2681,6328,6329
CQUADX4,4792,1,2679,2680,6329,6330
CQUADX4,4793,1,2678,2679,6330,6331
CQUADX4,4794,1,2677,2678,6331,6332
CQUADX4,4795,1,2676,2677,6332,6333
CQUADX4,4796,1,2675,2676,6333,6334
CQUADX4,4797,1,2674,2675,6334,6335
CQUADX4,4798,1,2673,2674,6335,6336
CQUADX4,4799,1,2672,2673,6336,6337
CQUADX4,4800,1,2671,2672,6337,6338
CQUADX4,4801,1,2670,2671,6338,6339
CQUADX4,4802,1,2669,2670,6339,6340
CQUADX4,4803,1,2668,2669,6340,6341
CQUADX4,4804,1,2667,2668,6341,6342
CQUADX4,4805,1,2666,2667,6342,6343
CQUADX4,4806,1,2665,2666,6343,6344
CQUADX4,4807,1,2664,2665,6344,6345
CQUADX4,4808,1,2663,2664,6345,6346
CQUADX4,4809,1,2662,2663,6346,6347
CQUADX4,4810,1,2661,2662,6347,6348
CQUADX4,4811,1,2660,2661,6348,6349
CQUADX4,4812,1,2659,2660,6349,6350
CQUADX4,4813,1,2658,2659,6350,6351
CQUADX4,4814,1,2657,2658,6351,6352
CQUADX4,4815,1,2656,2657,6352,6353
CQUADX4,4816,1,2655,2656,6353,6354
CQUADX4,4817,1,2654,2655,6354,6355
CQUADX4,4818,1,2653,2654,6355,6356
CQUADX4,4819,1,2652,2653,6356,6357
CQUADX4,4820,1,2651,2652,6357,6358
CQUADX4,4821,1,2650,2651,6358,6359
CQUADX4,4822,1,2649,2650,6359,6360
CQUADX4,4823,1,2648,2649,6360,6361
CQUADX4,4824,1,2647,2648,6361,6362
CQUADX4,4825,1,2646,2647,6362,6363
CQUADX4,4826,1,2645,2646,6363,6364
CQUADX4,4827,1,2644,2645,6364,6365
CQUADX4,4828,1,2643,2644,6365,6366
CQUADX4,4829,1,2642,2643,6366,6367
CQUADX4,4830,1,2641,2642,6367,6368
CQUADX4,4831,1,2640,2641,6368,6369
CQUADX4,4832,1,2639,2640,6369,6370
CQUADX4,4833,1,2638,2639,6370,6371
CQUADX4,4834,1,2637,2638,6371,6372
CQUADX4,4835,1,2636,2637,6372,6373
CQUADX4,4836,1,2635,2636,6373,6374
CQUADX4,4837,1,2634,2635,6374,6375
CQUADX4,4838,1,2633,2634,6375,6376
CQUADX4,4839,1,2632,2633,6376,6377
CQUADX4,4840,1,2631,2632,6377,6378
CQUADX4,4841,1,2630,2631,6378,6379
CQUADX4,4842,1,2629,2630,6379,6380
CQUADX4,4843,1,2628,2629,6380,6381
CQUADX4,4844,1,2627,2628,6381,6382
CQUADX4,4845,1,2626,2627,6382,6383
CQUADX4,4846,1,2625,2626,6383,6384
CQUADX4,4847,1,2624,2625,6384,6385
CQUADX4,4848,1,2623,2624,6385,6386
CQUADX4,4849,1,2622,2623,6386,6387
CQUADX4,4850,1,2621,2622,6387,6388
CQUADX4,4851,1,2620,2621,6388,6389
CQUADX4,4852,1,2619,2620,6389,6390
CQUADX4,4853,1,2618,2619,6390,6391
CQUADX4,4854,1,2617,2618,6391,6392
CQUADX4,4855,1,2616,2617,6392,6393
CQUADX4,4856,1,2615,2616,6393,6394
CQUADX4,4857,1,2614,2615,6394,6395
CQUADX4,4858,1,2613,2614,6395,6396
CQUADX4,4859,1,2612,2613,6396,6397
CQUADX4,4860,1,2611,2612,6397,6398
CQUADX4,4861,1,2610,2611,6398,6399
CQUADX4,4862,1,2609,2610,6399,6400
CQUADX4,4863,1,2608,2609,6400,6401
CQUADX4,4864,1,2607,2608,6401,6402
CQUADX4,4865,1,2606,2607,6402,6403
CQUADX4,4866,1,2605,2606,6403,6404
CQUADX4,4867,1,2604,2605,6404,6405
CQUADX4,4868,1,2603,2604,6405,6406
CQUADX4,4869,1,2602,2603,6406,6407
CQUADX4,4870,1,2601,2602,6407,6408
CQUADX4,4871,1,2600,2601,6408,6409
CQUADX4,4872,1,2599,2600,6409,6410
CQUADX4,4873,1,2598,2599,6410,6411
CQUADX4,4874,1,2597,2598,6411,6412
CQUADX4,4875,1,2596,2597,6412,6413
CQUADX4,4876,1,2595,2596,6413,6414
CQUADX4,4877,1,2594,2595,6414,6415
CQUADX4,4878,1,2593,2594,6415,6416
CQUADX4,4879,1,2592,2593,6416,6417
CQUADX4,4880,1,2591,2592,6417,6418
CQUADX4,4881,1,2590,2591,6418,6419
CQUADX4,4882,1,2589,2590,6419,6420
CQUADX4,4883,1,2588,2589,6420,6421
CQUADX4,4884,1,2587,2588,6421,6422
CQUADX4,4885,1,2586,2587,6422,6423
CQUADX4,4886,1,2585,2586,6423,6424
CQUADX4,4887,1,2584,2585,6424,6425
CQUADX4,4888,1,2583,2584,6425,6426
CQUADX4,4889,1,2582,2583,6426,6427
CQUADX4,4890,1,2581,2582,6427,6428
CQUADX4,4891,1,2580,2581,6428,6429
CQUADX4,4892,1,2579,2580,6429,6430
CQUADX4,4893,1,2578,2579,6430,6431
CQUADX4,4894,1,2577,2578,6431,6432
CQUADX4,4895,1,2576,2577,6432,6433
CQUADX4,4896,1,2575,2576,6433,6434
CQUADX4,4897,1,2574,2575,6434,6435
CQUADX4,4898,1,2573,2574,6435,6436
CQUADX4,4899,1,2572,2573,6436,6437
CQUADX4,4900,1,2571,2572,6437,6438
CQUADX4,4901,1,2570,2571,6438,6439
CQUADX4,4902,1,2569,2570,6439,6440
CQUADX4,4903,1,2568,2569,6440,6441
CQUADX4,4904,1,2567,2568,6441,6442
CQUADX4,4905,1,2566,2567,6442,6443
CQUADX4,4906,1,2565,2566,6443,6444
CQUADX4,4907,1,2564,2565,6444,6445
CQUADX4,4908,1,2563,2564,6445,6446
CQUADX4,4909,1,2562,2563,6446,6447
CQUADX4,4910,1,2561,2562,6447,6448
CQUADX4,4911,1,2560,2561,6448,6449
CQUADX4,4912,1,2559,2560,6449,6450
CQUADX4,4913,1,2558,2559,6450,6451
CQUADX4,4914,1,2557,2558,6451,6452
CQUADX4,4915,1,2556,2557,6452,6453
CQUADX4,4916,1,2555,2556,6453,6454
CQUADX4,4917,1,2554,2555,6454,6455
CQUADX4,4918,1,2553,2554,6455,6456
CQUADX4,4919,1,2552,2553,6456,6457
CQUADX4,4920,1,2551,2552,6457,6458
CQUADX4,4921,1,2550,2551,6458,6459
CQUADX4,4922,1,2549,2550,6459,6460
CQUADX4,4923,1,2548,2549,6460,6461
CQUADX4,4924,1,2547,2548,6461,6462
CQUADX4,4925,1,2546,2547,6462,6463
CQUADX4,4926,1,2545,2546,6463,6464
CQUADX4,4927,1,2544,2545,6464,6465
CQUADX4,4928,1,2543,2544,6465,6466
CQUADX4,4929,1,2542,2543,6466,6467
CQUADX4,4930,1,2541,2542,6467,6468
CQUADX4,4931,1,2540,2541,6468,6469
CQUADX4,4932,1,2539,2540,6469,6470
CQUADX4,4933,1,2538,2539,6470,6471
CQUADX4,4934,1,2537,2538,6471,6472
CQUADX4,4935,1,2536,2537,6472,6473
CQUADX4,4936,1,2535,2536,6473,6474
CQUADX4,4937,1,2534,2535,6474,6475
CQUADX4,4938,1,2533,2534,6475,6476
CQUADX4,4939,1,2532,2533,6476,6477
CQUADX4,4940,1,2531,2532,6477,6478
CQUADX4,4941,1,2530,2531,6478,6479
CQUADX4,4942,1,2529,2530,6479,6480
CQUADX4,4943,1,2528,2529,6480,6481
CQUADX4,4944,1,2527,2528,6481,6482
CQUADX4,4945,1,2526,2527,6482,6483
CQUADX4,4946,1,2525,2526,6483,6484
CQUADX4,4947,1,2524,2525,6484,6485
CQUADX4,4948,1,2523,2524,6485,6486
CQUADX4,4949,1,2522,2523,6486,6487
CQUADX4,4950,1,2521,2522,6487,6488
CQUADX4,4951,1,2520,2521,6488,6489
CQUADX4,4952,1,2519,2520,6489,6490
CQUADX4,4953,1,2518,2519,6490,6491
CQUADX4,4954,1,2517,2518,6491,6492
CQUADX4,4955,1,2516,2517,6492,6493
CQUADX4,4956,1,2515,2516,6493,6494
CQUADX4,4957,1,2514,2515,6494,6495
CQUADX4,4958,1,2513,2514,6495,6496
CQUADX4,4959,1,2512,2513,6496,6497
CQUADX4,4960,1,2511,2512,6497,6498
CQUADX4,4961,1,4392,4501,4502,4393
CQUADX4,4962,1,4393,4502,4503,4394
CQUADX4,4963,1,4394,4503,4504,4395
CQUADX4,4964,1,4395,4504,4505,4396
CQUADX4,4965,1,4396,4505,4506,4397
CQUADX4,4966,1,4397,4506,4507,4398
CQUADX4,4967,1,4398,4507,4508,4399
CQUADX4,4968,1,4399,4508,4509,4400
CQUADX4,4969,1,4400,4509,4510,4401
CQUADX4,4970,1,4401,4510,4511,4402
CQUADX4,4971,1,4402,4511,4512,4403
CQUADX4,4972,1,4403,4512,4513,4404
CQUADX4,4973,1,4404,4513,4514,4405
CQUADX4,4974,1,4405,4514,4515,4406
CQUADX4,4975,1,4406,4515,4516,4407
CQUADX4,4976,1,4407,4516,4517,4408
CQUADX4,4977,1,4408,4517,4518,4409
CQUADX4,4978,1,4409,4518,4519,4410
CQUADX4,4979,1,4410,4519,4520,4411
CQUADX4,4980,1,4411,4520,4521,4412
CQUADX4,4981,1,4412,4521,4522,4413
CQUADX4,4982,1,4413,4522,4523,4414
CQUADX4,4983,1,4414,4523,4524,4415
CQUADX4,4984,1,4415,4524,4525,4416
CQUADX4,4985,1,4416,4525,4526,4417
CQUADX4,4986,1,4417,4526,4527,4418
CQUADX4,4987,1,4418,4527,4528,4419
CQUADX4,4988,1,4419,4528,4529,4420
CQUADX4,4989,1,4420,4529,4530,4421
CQUADX4,4990,1,4421,4530,4531,4422
CQUADX4,4991,1,4422,4531,4532,4423
CQUADX4,4992,1,4423,4532,4533,4424
CQUADX4,4993,1,4424,4533,4534,4425
CQUADX4,4994,1,4425,4534,4535,4426
CQUADX4,4995,1,4426,4535,4536,4427
CQUADX4,4996,1,4427,4536,4537,4428
CQUADX4,4997,1,4428,4537,4538,4429
CQUADX4,4998,1,4429,4538,4539,4430
CQUADX4,4999,1,4430,4539,4540,4431
CQUADX4,5000,1,4431,4540,4541,4432
CQUADX4,5001,1,4432,4541,4542,4433
CQUADX4,5002,1,4433,4542,4543,4434
CQUADX4,5003,1,4434,4543,4544,4435
CQUADX4,5004,1,4435,4544,4545,4436
CQUADX4,5005,1,4436,4545,4546,4437
CQUADX4,5006,1,4437,4546,4547,4438
CQUADX4,5007,1,4438,4547,4548,4439
CQUADX4,5008,1,4439,4548,4549,4440
CQUADX4,5009,1,4440,4549,4550,4441
CQUADX4,5010,1,4441,4550,4551,4442
CQUADX4,5011,1,4442,4551,4552,4443
CQUADX4,5012,1,4443,4552,4553,4444
CQUADX4,5013,1,4444,4553,4554,4445
CQUADX4,5014,1,4445,4554,4555,4446
CQUADX4,5015,1,4446,4555,4556,4447
CQUADX4,5016,1,4447,4556,4557,4448
CQUADX4,5017,1,4448,4557,4558,4449
CQUADX4,5018,1,4449,4558,4559,4450
CQUADX4,5019,1,4450,4559,4560,4451
CQUADX4,5020,1,4451,4560,4561,4452
CQUADX4,5021,1,4452,4561,4562,4453
CQUADX4,5022,1,4453,4562,4563,4454
CQUADX4,5023,1,4454,4563,4564,4455
CQUADX4,5024,1,4455,4564,4565,4456
CQUADX4,5025,1,4456,4565,4566,4457
CQUADX4,5026,1,4457,4566,4567,4458
CQUADX4,5027,1,4458,4567,4568,4459
CQUADX4,5028,1,4459,4568,4569,4460
CQUADX4,5029,1,4460,4569,4570,4461
CQUADX4,5030,1,4461,4570,4571,4462
CQUADX4,5031,1,4462,4571,4572,4463
CQUADX4,5032,1,4463,4572,4573,4464
CQUADX4,5033,1,4464,4573,4574,4465
CQUADX4,5034,1,4465,4574,4575,4466
CQUADX4,5035,1,4466,4575,4576,4467
CQUADX4,5036,1,4467,4576,4577,4468
CQUADX4,5037,1,4468,4577,4578,4469
CQUADX4,5038,1,4469,4578,4579,4470
CQUADX4,5039,1,4470,4579,4580,4471
CQUADX4,5040,1,4471,4580,4581,4472
CQUADX4,5041,1,4472,4581,4582,4473
CQUADX4,5042,1,4473,4582,4583,4474
CQUADX4,5043,1,4474,4583,4584,4475
CQUADX4,5044,1,4475,4584,4585,4476
CQUADX4,5045,1,4476,4585,4586,4477
CQUADX4,5046,1,4477,4586,4587,4478
CQUADX4,5047,1,4478,4587,4588,4479
CQUADX4,5048,1,4479,4588,4589,4480
CQUADX4,5049,1,4480,4589,4590,4481
CQUADX4,5050,1,4481,4590,4591,4482
CQUADX4,5051,1,4482,4591,4592,4483
CQUADX4,5052,1,4483,4592,4593,4484
CQUADX4,5053,1,4484,4593,4594,4485
CQUADX4,5054,1,4485,4594,4595,4486
CQUADX4,5055,1,4486,4595,4596,4487
CQUADX4,5056,1,4487,4596,4597,4488
CQUADX4,5057,1,4488,4597,4598,4489
CQUADX4,5058,1,4489,4598,4599,4490
CQUADX4,5059,1,4490,4599,4600,4491
CQUADX4,5060,1,4491,4600,4601,4492
CQUADX4,5061,1,4492,4601,4602,4493
CQUADX4,5062,1,4493,4602,4603,4494
CQUADX4,5063,1,4494,4603,4604,4495
CQUADX4,5064,1,4495,4604,4605,4496
CQUADX4,5065,1,4496,4605,4606,4497
CQUADX4,5066,1,4497,4606,4607,4498
CQUADX4,5067,1,4498,4607,4608,4499
CQUADX4,5068,1,4499,4608,4609,4500
CQUADX4,5069,1,4501,4610,4611,4502
CQUADX4,5070,1,4502,4611,4612,4503
CQUADX4,5071,1,4503,4612,4613,4504
CQUADX4,5072,1,4504,4613,4614,4505
CQUADX4,5073,1,4505,4614,4615,4506
CQUADX4,5074,1,4506,4615,4616,4507
CQUADX4,5075,1,4507,4616,4617,4508
CQUADX4,5076,1,4508,4617,4618,4509
CQUADX4,5077,1,4509,4618,4619,4510
CQUADX4,5078,1,4510,4619,4620,4511
CQUADX4,5079,1,4511,4620,4621,4512
CQUADX4,5080,1,4512,4621,4622,4513
CQUADX4,5081,1,4513,4622,4623,4514
CQUADX4,5082,1,4514,4623,4624,4515
CQUADX4,5083,1,4515,4624,4625,4516
CQUADX4,5084,1,4516,4625,4626,4517
CQUADX4,5085,1,4517,4626,4627,4518
CQUADX4,5086,1,4518,4627,4628,4519
CQUADX4,5087,1,4519,4628,4629,4520
CQUADX4,5088,1,4520,4629,4630,4521
CQUADX4,5089,1,4521,4630,4631,4522
CQUADX4,5090,1,4522,4631,4632,4523
CQUADX4,5091,1,4523,4632,4633,4524
CQUADX4,5092,1,4524,4633,4634,4525
CQUADX4,5093,1,4525,4634,4635,4526
CQUADX4,5094,1,4526,4635,4636,4527
CQUADX4,5095,1,4527,4636,4637,4528
CQUADX4,5096,1,4528,4637,4638,4529
CQUADX4,5097,1,4529,4638,4639,4530
CQUADX4,5098,1,4530,4639,4640,4531
CQUADX4,5099,1,4531,4640,4641,4532
CQUADX4,5100,1,4532,4641,4642,4533
CQUADX4,5101,1,4533,4642,4643,4534
CQUADX4,5102,1,4534,4643,4644,4535
CQUADX4,5103,1,4535,4644,4645,4536
CQUADX4,5104,1,4536,4645,4646,4537
CQUADX4,5105,1,4537,4646,4647,4538
CQUADX4,5106,1,4538,4647,4648,4539
CQUADX4,5107,1,4539,4648,4649,4540
CQUADX4,5108,1,4540,4649,4650,4541
CQUADX4,5109,1,4541,4650,4651,4542
CQUADX4,5110,1,4542,4651,4652,4543
CQUADX4,5111,1,4543,4652,4653,4544
CQUADX4,5112,1,4544,4653,4654,4545
CQUADX4,5113,1,4545,4654,4655,4546
CQUADX4,5114,1,4546,4655,4656,4547
CQUADX4,5115,1,4547,4656,4657,4548
CQUADX4,5116,1,4548,4657,4658,4549
CQUADX4,5117,1,4549,4658,4659,4550
CQUADX4,5118,1,4550,4659,4660,4551
CQUADX4,5119,1,4551,4660,4661,4552
CQUADX4,5120,1,4552,4661,4662,4553
CQUADX4,5121,1,4553,4662,4663,4554
CQUADX4,5122,1,4554,4663,4664,4555
CQUADX4,5123,1,4555,4664,4665,4556
CQUADX4,5124,1,4556,4665,4666,4557
CQUADX4,5125,1,4557,4666,4667,4558
CQUADX4,5126,1,4558,4667,4668,4559
CQUADX4,5127,1,4559,4668,4669,4560
CQUADX4,5128,1,4560,4669,4670,4561
CQUADX4,5129,1,4561,4670,4671,4562
CQUADX4,5130,1,4562,4671,4672,4563
CQUADX4,5131,1,4563,4672,4673,4564
CQUADX4,5132,1,4564,4673,4674,4565
CQUADX4,5133,1,4565,4674,4675,4566
CQUADX4,5134,1,4566,4675,4676,4567
CQUADX4,5135,1,4567,4676,4677,4568
CQUADX4,5136,1,4568,4677,4678,4569
CQUADX4,5137,1,4569,4678,4679,4570
CQUADX4,5138,1,4570,4679,4680,4571
CQUADX4,5139,1,4571,4680,4681,4572
CQUADX4,5140,1,4572,4681,4682,4573
CQUADX4,5141,1,4573,4682,4683,4574
CQUADX4,5142,1,4574,4683,4684,4575
CQUADX4,5143,1,4575,4684,4685,4576
CQUADX4,5144,1,4576,4685,4686,4577
CQUADX4,5145,1,4577,4686,4687,4578
CQUADX4,5146,1,4578,4687,4688,4579
CQUADX4,5147,1,4579,4688,4689,4580
CQUADX4,5148,1,4580,4689,4690,4581
CQUADX4,5149,1,4581,4690,4691,4582
CQUADX4,5150,1,4582,4691,4692,4583
CQUADX4,5151,1,4583,4692,4693,4584
CQUADX4,5152,1,4584,4693,4694,4585
CQUADX4,5153,1,4585,4694,4695,4586
CQUADX4,5154,1,4586,4695,4696,4587
CQUADX4,5155,1,4587,4696,4697,4588
CQUADX4,5156,1,4588,4697,4698,4589
CQUADX4,5157,1,4589,4698,4699,4590
CQUADX4,5158,1,4590,4699,4700,4591
CQUADX4,5159,1,4591,4700,4701,4592
CQUADX4,5160,1,4592,4701,4702,4593
CQUADX4,5161,1,4593,4702,4703,4594
CQUADX4,5162,1,4594,4703,4704,4595
CQUADX4,5163,1,4595,4704,4705,4596
CQUADX4,5164,1,4596,4705,4706,4597
CQUADX4,5165,1,4597,4706,4707,4598
CQUADX4,5166,1,4598,4707,4708,4599
CQUADX4,5167,1,4599,4708,4709,4600
CQUADX4,5168,1,4600,4709,4710,4601
CQUADX4,5169,1,4601,4710,4711,4602
CQUADX4,5170,1,4602,4711,4712,4603
CQUADX4,5171,1,4603,4712,4713,4604
CQUADX4,5172,1,4604,4713,4714,4605
CQUADX4,5173,1,4605,4714,4715,4606
CQUADX4,5174,1,4606,4715,4716,4607
CQUADX4,5175,1,4607,4716,4717,4608
CQUADX4,5176,1,4608,4717,4718,4609
CQUADX4,5177,1,4610,4719,4720,4611
CQUADX4,5178,1,4611,4720,4721,4612
CQUADX4,5179,1,4612,4721,4722,4613
CQUADX4,5180,1,4613,4722,4723,4614
CQUADX4,5181,1,4614,4723,4724,4615
CQUADX4,5182,1,4615,4724,4725,4616
CQUADX4,5183,1,4616,4725,4726,4617
CQUADX4,5184,1,4617,4726,4727,4618
CQUADX4,5185,1,4618,4727,4728,4619
CQUADX4,5186,1,4619,4728,4729,4620
CQUADX4,5187,1,4620,4729,4730,4621
CQUADX4,5188,1,4621,4730,4731,4622
CQUADX4,5189,1,4622,4731,4732,4623
CQUADX4,5190,1,4623,4732,4733,4624
CQUADX4,5191,1,4624,4733,4734,4625
CQUADX4,5192,1,4625,4734,4735,4626
CQUADX4,5193,1,4626,4735,4736,4627
CQUADX4,5194,1,4627,4736,4737,4628
CQUADX4,5195,1,4628,4737,4738,4629
CQUADX4,5196,1,4629,4738,4739,4630
CQUADX4,5197,1,4630,4739,4740,4631
CQUADX4,5198,1,4631,4740,4741,4632
CQUADX4,5199,1,4632,4741,4742,4633
CQUADX4,5200,1,4633,4742,4743,4634
CQUADX4,5201,1,4634,4743,4744,4635
CQUADX4,5202,1,4635,4744,4745,4636
CQUADX4,5203,1,4636,4745,4746,4637
CQUADX4,5204,1,4637,4746,4747,4638
CQUADX4,5205,1,4638,4747,4748,4639
CQUADX4,5206,1,4639,4748,4749,4640
CQUADX4,5207,1,4640,4749,4750,4641
CQUADX4,5208,1,4641,4750,4751,4642
CQUADX4,5209,1,4642,4751,4752,4643
CQUADX4,5210,1,4643,4752,4753,4644
CQUADX4,5211,1,4644,4753,4754,4645
CQUADX4,5212,1,4645,4754,4755,4646
CQUADX4,5213,1,4646,4755,4756,4647
CQUADX4,5214,1,4647,4756,4757,4648
CQUADX4,5215,1,4648,4757,4758,4649
CQUADX4,5216,1,4649,4758,4759,4650
CQUADX4,5217,1,4650,4759,4760,4651
CQUADX4,5218,1,4651,4760,4761,4652
CQUADX4,5219,1,4652,4761,4762,4653
CQUADX4,5220,1,4653,4762,4763,4654
CQUADX4,5221,1,4654,4763,4764,4655
CQUADX4,5222,1,4655,4764,4765,4656
CQUADX4,5223,1,4656,4765,4766,4657
CQUADX4,5224,1,4657,4766,4767,4658
CQUADX4,5225,1,4658,4767,4768,4659
CQUADX4,5226,1,4659,4768,4769,4660
CQUADX4,5227,1,4660,4769,4770,4661
CQUADX4,5228,1,4661,4770,4771,4662
CQUADX4,5229,1,4662,4771,4772,4663
CQUADX4,5230,1,4663,4772,4773,4664
CQUADX4,5231,1,4664,4773,4774,4665
CQUADX4,5232,1,4665,4774,4775,4666
CQUADX4,5233,1,4666,4775,4776,4667
CQUADX4,5234,1,4667,4776,4777,4668
CQUADX4,5235,1,4668,4777,4778,4669
CQUADX4,5236,1,4669,4778,4779,4670
CQUADX4,5237,1,4670,4779,4780,4671
CQUADX4,5238,1,4671,4780,4781,4672
CQUADX4,5239,1,4672,4781,4782,4673
CQUADX4,5240,1,4673,4782,4783,4674
CQUADX4,5241,1,4674,4783,4784,4675
CQUADX4,5242,1,4675,4784,4785,4676
CQUADX4,5243,1,4676,4785,4786,4677
CQUADX4,5244,1,4677,4786,4787,4678
CQUADX4,5245,1,4678,4787,4788,4679
CQUADX4,5246,1,4679,4788,4789,4680
CQUADX4,5247,1,4680,4789,4790,4681
CQUADX4,5248,1,4681,4790,4791,4682
CQUADX4,5249,1,4682,4791,4792,4683
CQUADX4,5250,1,4683,4792,4793,4684
CQUADX4,5251,1,4684,4793,4794,4685
CQUADX4,5252,1,4685,4794,4795,4686
CQUADX4,5253,1,4686,4795,4796,4687
CQUADX4,5254,1,4687,4796,4797,4688
CQUADX4,5255,1,4688,4797,4798,4689
CQUADX4,5256,1,4689,4798,4799,4690
CQUADX4,5257,1,4690,4799,4800,4691
CQUADX4,5258,1,4691,4800,4801,4692
CQUADX4,5259,1,4692,4801,4802,4693
CQUADX4,5260,1,4693,4802,4803,4694
CQUADX4,5261,1,4694,4803,4804,4695
CQUADX4,5262,1,4695,4804,4805,4696
CQUADX4,5263,1,4696,4805,4806,4697
CQUADX4,5264,1,4697,4806,4807,4698
CQUADX4,5265,1,4698,4807,4808,4699
CQUADX4,5266,1,4699,4808,4809,4700
CQUADX4,5267,1,4700,4809,4810,4701
CQUADX4,5268,1,4701,4810,4811,4702
CQUADX4,5269,1,4702,4811,4812,4703
CQUADX4,5270,1,4703,4812,4813,4704
CQUADX4,5271,1,4704,4813,4814,4705
CQUADX4,5272,1,4705,4814,4815,4706
CQUADX4,5273,1,4706,4815,4816,4707
CQUADX4,5274,1,4707,4816,4817,4708
CQUADX4,5275,1,4708,4817,4818,4709
CQUADX4,5276,1,4709,4818,4819,4710
CQUADX4,5277,1,4710,4819,4820,4711
CQUADX4,5278,1,4711,4820,4821,4712
CQUADX4,5279,1,4712,4821,4822,4713
CQUADX4,5280,1,4713,4822,4823,4714
CQUADX4,5281,1,4714,4823,4824,4715
CQUADX4,5282,1,4715,4824,4825,4716
CQUADX4,5283,1,4716,4825,4826,4717
CQUADX4,5284,1,4717,4826,4827,4718
CQUADX4,5285,1,4719,4828,4829,4720
CQUADX4,5286,1,4720,4829,4830,4721
CQUADX4,5287,1,4721,4830,4831,4722
CQUADX4,5288,1,4722,4831,4832,4723
CQUADX4,5289,1,4723,4832,4833,4724
CQUADX4,5290,1,4724,4833,4834,4725
CQUADX4,5291,1,4725,4834,4835,4726
CQUADX4,5292,1,4726,4835,4836,4727
CQUADX4,5293,1,4727,4836,4837,4728
CQUADX4,5294,1,4728,4837,4838,4729
CQUADX4,5295,1,4729,4838,4839,4730
CQUADX4,5296,1,4730,4839,4840,4731
CQUADX4,5297,1,4731,4840,4841,4732
CQUADX4,5298,1,4732,4841,4842,4733
CQUADX4,5299,1,4733,4842,4843,4734
CQUADX4,5300,1,4734,4843,4844,4735
CQUADX4,5301,1,4735,4844,4845,4736
CQUADX4,5302,1,4736,4845,4846,4737
CQUADX4,5303,1,4737,4846,4847,4738
CQUADX4,5304,1,4738,4847,4848,4739
CQUADX4,5305,1,4739,4848,4849,4740
CQUADX4,5306,1,4740,4849,4850,4741
CQUADX4,5307,1,4741,4850,4851,4742
CQUADX4,5308,1,4742,4851,4852,4743
CQUADX4,5309,1,4743,4852,4853,4744
CQUADX4,5310,1,4744,4853,4854,4745
CQUADX4,5311,1,4745,4854,4855,4746
CQUADX4,5312,1,4746,4855,4856,4747
CQUADX4,5313,1,4747,4856,4857,4748
CQUADX4,5314,1,4748,4857,4858,4749
CQUADX4,5315,1,4749,4858,4859,4750
CQUADX4,5316,1,4750,4859,4860,4751
CQUADX4,5317,1,4751,4860,4861,4752
CQUADX4,5318,1,4752,4861,4862,4753
CQUADX4,5319,1,4753,4862,4863,4754
CQUADX4,5320,1,4754,4863,4864,4755
CQUADX4,5321,1,4755,4864,4865,4756
CQUADX4,5322,1,4756,4865,4866,4757
CQUADX4,5323,1,4757,4866,4867,4758
CQUADX4,5324,1,4758,4867,4868,4759
CQUADX4,5325,1,4759,4868,4869,4760
CQUADX4,5326,1,4760,4869,4870,4761
CQUADX4,5327,1,4761,4870,4871,4762
CQUADX4,5328,1,4762,4871,4872,4763
CQUADX4,5329,1,4763,4872,4873,4764
CQUADX4,5330,1,4764,4873,4874,4765
CQUADX4,5331,1,4765,4874,4875,4766
CQUADX4,5332,1,4766,4875,4876,4767
CQUADX4,5333,1,4767,4876,4877,4768
CQUADX4,5334,1,4768,4877,4878,4769
CQUADX4,5335,1,4769,4878,4879,4770
CQUADX4,5336,1,4770,4879,4880,4771
CQUADX4,5337,1,4771,4880,4881,4772
CQUADX4,5338,1,4772,4881,4882,4773
CQUADX4,5339,1,4773,4882,4883,4774
CQUADX4,5340,1,4774,4883,4884,4775
CQUADX4,5341,1,4775,4884,4885,4776
CQUADX4,5342,1,4776,4885,4886,4777
CQUADX4,5343,1,4777,4886,4887,4778
CQUADX4,5344,1,4778,4887,4888,4779
CQUADX4,5345,1,4779,4888,4889,4780
CQUADX4,5346,1,4780,4889,4890,4781
CQUADX4,5347,1,4781,4890,4891,4782
CQUADX4,5348,1,4782,4891,4892,4783
CQUADX4,5349,1,4783,4892,4893,4784
CQUADX4,5350,1,4784,4893,4894,4785
CQUADX4,5351,1,4785,4894,4895,4786
CQUADX4,5352,1,4786,4895,4896,4787
CQUADX4,5353,1,4787,4896,4897,4788
CQUADX4,5354,1,4788,4897,4898,4789
CQUADX4,5355,1,4789,4898,4899,4790
CQUADX4,5356,1,4790,4899,4900,4791
CQUADX4,5357,1,4791,4900,4901,4792
CQUADX4,5358,1,4792,4901,4902,4793
CQUADX4,5359,1,4793,4902,4903,4794
CQUADX4,5360,1,4794,4903,4904,4795
CQUADX4,5361,1,4795,4904,4905,4796
CQUADX4,5362,1,4796,4905,4906,4797
CQUADX4,5363,1,4797,4906,4907,4798
CQUADX4,5364,1,4798,4907,4908,4799
CQUADX4,5365,1,4799,4908,4909,4800
CQUADX4,5366,1,4800,4909,4910,4801
CQUADX4,5367,1,4801,4910,4911,4802
CQUADX4,5368,1,4802,4911,4912,4803
CQUADX4,5369,1,4803,4912,4913,4804
CQUADX4,5370,1,4804,4913,4914,4805
CQUADX4,5371,1,4805,4914,4915,4806
CQUADX4,5372,1,4806,4915,4916,4807
CQUADX4,5373,1,4807,4916,4917,4808
CQUADX4,5374,1,4808,4917,4918,4809
CQUADX4,5375,1,4809,4918,4919,4810
CQUADX4,5376,1,4810,4919,4920,4811
CQUADX4,5377,1,4811,4920,4921,4812
CQUADX4,5378,1,4812,4921,4922,4813
CQUADX4,5379,1,4813,4922,4923,4814
CQUADX4,5380,1,4814,4923,4924,4815
CQUADX4,5381,1,4815,4924,4925,4816
CQUADX4,5382,1,4816,4925,4926,4817
CQUADX4,5383,1,4817,4926,4927,4818
CQUADX4,5384,1,4818,4927,4928,4819
CQUADX4,5385,1,4819,4928,4929,4820
CQUADX4,5386,1,4820,4929,4930,4821
CQUADX4,5387,1,4821,4930,4931,4822
CQUADX4,5388,1,4822,4931,4932,4823
CQUADX4,5389,1,4823,4932,4933,4824
CQUADX4,5390,1,4824,4933,4934,4825
CQUADX4,5391,1,4825,4934,4935,4826
CQUADX4,5392,1,4826,4935,4936,4827
CQUADX4,5393,1,4828,4937,4938,4829
CQUADX4,5394,1,4829,4938,4939,4830
CQUADX4,5395,1,4830,4939,4940,4831
CQUADX4,5396,1,4831,4940,4941,4832
CQUADX4,5397,1,4832,4941,4942,4833
CQUADX4,5398,1,4833,4942,4943,4834
CQUADX4,5399,1,4834,4943,4944,4835
CQUADX4,5400,1,4835,4944,4945,4836
CQUADX4,5401,1,4836,4945,4946,4837
CQUADX4,5402,1,4837,4946,4947,4838
CQUADX4,5403,1,4838,4947,4948,4839
CQUADX4,5404,1,4839,4948,4949,4840
CQUADX4,5405,1,4840,4949,4950,4841
CQUADX4,5406,1,4841,4950,4951,4842
CQUADX4,5407,1,4842,4951,4952,4843
CQUADX4,5408,1,4843,4952,4953,4844
CQUADX4,5409,1,4844,4953,4954,4845
CQUADX4,5410,1,4845,4954,4955,4846
CQUADX4,5411,1,4846,4955,4956,4847
CQUADX4,5412,1,4847,4956,4957,4848
CQUADX4,5413,1,4848,4957,4958,4849
CQUADX4,5414,1,4849,4958,4959,4850
CQUADX4,5415,1,4850,4959,4960,4851
CQUADX4,5416,1,4851,4960,4961,4852
CQUADX4,5417,1,4852,4961,4962,4853
CQUADX4,5418,1,4853,4962,4963,4854
CQUADX4,5419,1,4854,4963,4964,4855
CQUADX4,5420,1,4855,4964,4965,4856
CQUADX4,5421,1,4856,4965,4966,4857
CQUADX4,5422,1,4857,4966,4967,4858
CQUADX4,5423,1,4858,4967,4968,4859
CQUADX4,5424,1,4859,4968,4969,4860
CQUADX4,5425,1,4860,4969,4970,4861
CQUADX4,5426,1,4861,4970,4971,4862
CQUADX4,5427,1,4862,4971,4972,4863
CQUADX4,5428,1,4863,4972,4973,4864
CQUADX4,5429,1,4864,4973,4974,4865
CQUADX4,5430,1,4865,4974,4975,4866
CQUADX4,5431,1,4866,4975,4976,4867
CQUADX4,5432,1,4867,4976,4977,4868
CQUADX4,5433,1,4868,4977,4978,4869
CQUADX4,5434,1,4869,4978,4979,4870
CQUADX4,5435,1,4870,4979,4980,4871
CQUADX4,5436,1,4871,4980,4981,4872
CQUADX4,5437,1,4872,4981,4982,4873
CQUADX4,5438,1,4873,4982,4983,4874
CQUADX4,5439,1,4874,4983,4984,4875
CQUADX4,5440,1,4875,4984,4985,4876
CQUADX4,5441,1,4876,4985,4986,4877
CQUADX4,5442,1,4877,4986,4987,4878
CQUADX4,5443,1,4878,4987,4988,4879
CQUADX4,5444,1,4879,4988,4989,4880
CQUADX4,5445,1,4880,4989,4990,4881
CQUADX4,5446,1,4881,4990,4991,4882
CQUADX4,5447,1,4882,4991,4992,4883
CQUADX4,5448,1,4883,4992,4993,4884
CQUADX4,5449,1,4884,4993,4994,4885
CQUADX4,5450,1,4885,4994,4995,4886
CQUADX4,5451,1,4886,4995,4996,4887
CQUADX4,5452,1,4887,4996,4997,4888
CQUADX4,5453,1,4888,4997,4998,4889
CQUADX4,5454,1,4889,4998,4999,4890
CQUADX4,5455,1,4890,4999,5000,4891
CQUADX4,5456,1,4891,5000,5001,4892
CQUADX4,5457,1,4892,5001,5002,4893
CQUADX4,5458,1,4893,5002,5003,4894
CQUADX4,5459,1,4894,5003,5004,4895
CQUADX4,5460,1,4895,5004,5005,4896
CQUADX4,5461,1,4896,5005,5006,4897
CQUADX4,5462,1,4897,5006,5007,4898
CQUADX4,5463,1,4898,5007,5008,4899
CQUADX4,5464,1,4899,5008,5009,4900
CQUADX4,5465,1,4900,5009,5010,4901
CQUADX4,5466,1,4901,5010,5011,4902
CQUADX4,5467,1,4902,5011,5012,4903
CQUADX4,5468,1,4903,5012,5013,4904
CQUADX4,5469,1,4904,5013,5014,4905
CQUADX4,5470,1,4905,5014,5015,4906
CQUADX4,5471,1,4906,5015,5016,4907
CQUADX4,5472,1,4907,5016,5017,4908
CQUADX4,5473,1,4908,5017,5018,4909
CQUADX4,5474,1,4909,5018,5019,4910
CQUADX4,5475,1,4910,5019,5020,4911
CQUADX4,5476,1,4911,5020,5021,4912
CQUADX4,5477,1,4912,5021,5022,4913
CQUADX4,5478,1,4913,5022,5023,4914
CQUADX4,5479,1,4914,5023,5024,4915
CQUADX4,5480,1,4915,5024,5025,4916
CQUADX4,5481,1,4916,5025,5026,4917
CQUADX4,5482,1,4917,5026,5027,4918
CQUADX4,5483,1,4918,5027,5028,4919
CQUADX4,5484,1,4919,5028,5029,4920
CQUADX4,5485,1,4920,5029,5030,4921
CQUADX4,5486,1,4921,5030,5031,4922
CQUADX4,5487,1,4922,5031,5032,4923
CQUADX4,5488,1,4923,5032,5033,4924
CQUADX4,5489,1,4924,5033,5034,4925
CQUADX4,5490,1,4925,5034,5035,4926
CQUADX4,5491,1,4926,5035,5036,4927
CQUADX4,5492,1,4927,5036,5037,4928
CQUADX4,5493,1,4928,5037,5038,4929
CQUADX4,5494,1,4929,5038,5039,4930
CQUADX4,5495,1,4930,5039,5040,4931
CQUADX4,5496,1,4931,5040,5041,4932
CQUADX4,5497,1,4932,5041,5042,4933
CQUADX4,5498,1,4933,5042,5043,4934
CQUADX4,5499,1,4934,5043,5044,4935
CQUADX4,5500,1,4935,5044,5045,4936
CQUADX4,5501,1,4937,5046,5047,4938
CQUADX4,5502,1,4938,5047,5048,4939
CQUADX4,5503,1,4939,5048,5049,4940
CQUADX4,5504,1,4940,5049,5050,4941
CQUADX4,5505,1,4941,5050,5051,4942
CQUADX4,5506,1,4942,5051,5052,4943
CQUADX4,5507,1,4943,5052,5053,4944
CQUADX4,5508,1,4944,5053,5054,4945
CQUADX4,5509,1,4945,5054,5055,4946
CQUADX4,5510,1,4946,5055,5056,4947
CQUADX4,5511,1,4947,5056,5057,4948
CQUADX4,5512,1,4948,5057,5058,4949
CQUADX4,5513,1,4949,5058,5059,4950
CQUADX4,5514,1,4950,5059,5060,4951
CQUADX4,5515,1,4951,5060,5061,4952
CQUADX4,5516,1,4952,5061,5062,4953
CQUADX4,5517,1,4953,5062,5063,4954
CQUADX4,5518,1,4954,5063,5064,4955
CQUADX4,5519,1,4955,5064,5065,4956
CQUADX4,5520,1,4956,5065,5066,4957
CQUADX4,5521,1,4957,5066,5067,4958
CQUADX4,5522,1,4958,5067,5068,4959
CQUADX4,5523,1,4959,5068,5069,4960
CQUADX4,5524,1,4960,5069,5070,4961
CQUADX4,5525,1,4961,5070,5071,4962
CQUADX4,5526,1,4962,5071,5072,4963
CQUADX4,5527,1,4963,5072,5073,4964
CQUADX4,5528,1,4964,5073,5074,4965
CQUADX4,5529,1,4965,5074,5075,4966
CQUADX4,5530,1,4966,5075,5076,4967
CQUADX4,5531,1,4967,5076,5077,4968
CQUADX4,5532,1,4968,5077,5078,4969
CQUADX4,5533,1,4969,5078,5079,4970
CQUADX4,5534,1,4970,5079,5080,4971
CQUADX4,5535,1,4971,5080,5081,4972
CQUADX4,5536,1,4972,5081,5082,4973
CQUADX4,5537,1,4973,5082,5083,4974
CQUADX4,5538,1,4974,5083,5084,4975
CQUADX4,5539,1,4975,5084,5085,4976
CQUADX4,5540,1,4976,5085,5086,4977
CQUADX4,5541,1,4977,5086,5087,4978
CQUADX4,5542,1,4978,5087,5088,4979
CQUADX4,5543,1,4979,5088,5089,4980
CQUADX4,5544,1,4980,5089,5090,4981
CQUADX4,5545,1,4981,5090,5091,4982
CQUADX4,5546,1,4982,5091,5092,4983
CQUADX4,5547,1,4983,5092,5093,4984
CQUADX4,5548,1,4984,5093,5094,4985
CQUADX4,5549,1,4985,5094,5095,4986
CQUADX4,5550,1,4986,5095,5096,4987
CQUADX4,5551,1,4987,5096,5097,4988
CQUADX4,5552,1,4988,5097,5098,4989
CQUADX4,5553,1,4989,5098,5099,4990
CQUADX4,5554,1,4990,5099,5100,4991
CQUADX4,5555,1,4991,5100,5101,4992
CQUADX4,5556,1,4992,5101,5102,4993
CQUADX4,5557,1,4993,5102,5103,4994
CQUADX4,5558,1,4994,5103,5104,4995
CQUADX4,5559,1,4995,5104,5105,4996
CQUADX4,5560,1,4996,5105,5106,4997
CQUADX4,5561,1,4997,5106,5107,4998
CQUADX4,5562,1,4998,5107,5108,4999
CQUADX4,5563,1,4999,5108,5109,5000
CQUADX4,5564,1,5000,5109,5110,5001
CQUADX4,5565,1,5001,5110,5111,5002
CQUADX4,5566,1,5002,5111,5112,5003
CQUADX4,5567,1,5003,5112,5113,5004
CQUADX4,5568,1,5004,5113,5114,5005
CQUADX4,5569,1,5005,5114,5115,5006
CQUADX4,5570,1,5006,5115,5116,5007
CQUADX4,5571,1,5007,5116,5117,5008
CQUADX4,5572,1,5008,5117,5118,5009
CQUADX4,5573,1,5009,5118,5119,5010
CQUADX4,5574,1,5010,5119,5120,5011
CQUADX4,5575,1,5011,5120,5121,5012
CQUADX4,5576,1,5012,5121,5122,5013
CQUADX4,5577,1,5013,5122,5123,5014
CQUADX4,5578,1,5014,5123,5124,5015
CQUADX4,5579,1,5015,5124,5125,5016
CQUADX4,5580,1,5016,5125,5126,5017
CQUADX4,5581,1,5017,5126,5127,5018
CQUADX4,5582,1,5018,5127,5128,5019
CQUADX4,5583,1,5019,5128,5129,5020
CQUADX4,5584,1,5020,5129,5130,5021
CQUADX4,5585,1,5021,5130,5131,5022
CQUADX4,5586,1,5022,5131,5132,5023
CQUADX4,5587,1,5023,5132,5133,5024
CQUADX4,5588,1,5024,5133,5134,5025
CQUADX4,5589,1,5025,5134,5135,5026
CQUADX4,5590,1,5026,5135,5136,5027
CQUADX4,5591,1,5027,5136,5137,5028
CQUADX4,5592,1,5028,5137,5138,5029
CQUADX4,5593,1,5029,5138,5139,5030
CQUADX4,5594,1,5030,5139,5140,5031
CQUADX4,5595,1,5031,5140,5141,5032
CQUADX4,5596,1,5032,5141,5142,5033
CQUADX4,5597,1,5033,5142,5143,5034
CQUADX4,5598,1,5034,5143,5144,5035
CQUADX4,5599,1,5035,5144,5145,5036
CQUADX4,5600,1,5036,5145,5146,5037
CQUADX4,5601,1,5037,5146,5147,5038
CQUADX4,5602,1,5038,5147,5148,5039
CQUADX4,5603,1,5039,5148,5149,5040
CQUADX4,5604,1,5040,5149,5150,5041
CQUADX4,5605,1,5041,5150,5151,5042
CQUADX4,5606,1,5042,5151,5152,5043
CQUADX4,5607,1,5043,5152,5153,5044
CQUADX4,5608,1,5044,5153,5154,5045
CQUADX4,5609,1,5046,5155,5156,5047
CQUADX4,5610,1,5047,5156,5157,5048
CQUADX4,5611,1,5048,5157,5158,5049
CQUADX4,5612,1,5049,5158,5159,5050
CQUADX4,5613,1,5050,5159,5160,5051
CQUADX4,5614,1,5051,5160,5161,5052
CQUADX4,5615,1,5052,5161,5162,5053
CQUADX4,5616,1,5053,5162,5163,5054
CQUADX4,5617,1,5054,5163,5164,5055
CQUADX4,5618,1,5055,5164,5165,5056
CQUADX4,5619,1,5056,5165,5166,5057
CQUADX4,5620,1,5057,5166,5167,5058
CQUADX4,5621,1,5058,5167,5168,5059
CQUADX4,5622,1,5059,5168,5169,5060
CQUADX4,5623,1,5060,5169,5170,5061
CQUADX4,5624,1,5061,5170,5171,5062
CQUADX4,5625,1,5062,5171,5172,5063
CQUADX4,5626,1,5063,5172,5173,5064
CQUADX4,5627,1,5064,5173,5174,5065
CQUADX4,5628,1,5065,5174,5175,5066
CQUADX4,5629,1,5066,5175,5176,5067
CQUADX4,5630,1,5067,5176,5177,5068
CQUADX4,5631,1,5068,5177,5178,5069
CQUADX4,5632,1,5069,5178,5179,5070
CQUADX4,5633,1,5070,5179,5180,5071
CQUADX4,5634,1,5071,5180,5181,5072
CQUADX4,5635,1,5072,5181,5182,5073
CQUADX4,5636,1,5073,5182,5183,5074
CQUADX4,5637,1,5074,5183,5184,5075
CQUADX4,5638,1,5075,5184,5185,5076
CQUADX4,5639,1,5076,5185,5186,5077
CQUADX4,5640,1,5077,5186,5187,5078
CQUADX4,5641,1,5078,5187,5188,5079
CQUADX4,5642,1,5079,5188,5189,5080
CQUADX4,5643,1,5080,5189,5190,5081
CQUADX4,5644,1,5081,5190,5191,5082
CQUADX4,5645,1,5082,5191,5192,5083
CQUADX4,5646,1,5083,5192,5193,5084
CQUADX4,5647,1,5084,5193,5194,5085
CQUADX4,5648,1,5085,5194,5195,5086
CQUADX4,5649,1,5086,5195,5196,5087
CQUADX4,5650,1,5087,5196,5197,5088
CQUADX4,5651,1,5088,5197,5198,5089
CQUADX4,5652,1,5089,5198,5199,5090
CQUADX4,5653,1,5090,5199,5200,5091
CQUADX4,5654,1,5091,5200,5201,5092
CQUADX4,5655,1,5092,5201,5202,5093
CQUADX4,5656,1,5093,5202,5203,5094
CQUADX4,5657,1,5094,5203,5204,5095
CQUADX4,5658,1,5095,5204,5205,5096
CQUADX4,5659,1,5096,5205,5206,5097
CQUADX4,5660,1,5097,5206,5207,5098
CQUADX4,5661,1,5098,5207,5208,5099
CQUADX4,5662,1,5099,5208,5209,5100
CQUADX4,5663,1,5100,5209,5210,5101
CQUADX4,5664,1,5101,5210,5211,5102
CQUADX4,5665,1,5102,5211,5212,5103
CQUADX4,5666,1,5103,5212,5213,5104
CQUADX4,5667,1,5104,5213,5214,5105
CQUADX4,5668,1,5105,5214,5215,5106
CQUADX4,5669,1,5106,5215,5216,5107
CQUADX4,5670,1,5107,5216,5217,5108
CQUADX4,5671,1,5108,5217,5218,5109
CQUADX4,5672,1,5109,5218,5219,5110
CQUADX4,5673,1,5110,5219,5220,5111
CQUADX4,5674,1,5111,5220,5221,5112
CQUADX4,5675,1,5112,5221,5222,5113
CQUADX4,5676,1,5113,5222,5223,5114
CQUADX4,5677,1,5114,5223,5224,5115
CQUADX4,5678,1,5115,5224,5225,5116
CQUADX4,5679,1,5116,5225,5226,5117
CQUADX4,5680,1,5117,5226,5227,5118
CQUADX4,5681,1,5118,5227,5228,5119
CQUADX4,5682,1,5119,5228,5229,5120
CQUADX4,5683,1,5120,5229,5230,5121
CQUADX4,5684,1,5121,5230,5231,5122
CQUADX4,5685,1,5122,5231,5232,5123
CQUADX4,5686,1,5123,5232,5233,5124
CQUADX4,5687,1,5124,5233,5234,5125
CQUADX4,5688,1,5125,5234,5235,5126
CQUADX4,5689,1,5126,5235,5236,5127
CQUADX4,5690,1,5127,5236,5237,5128
CQUADX4,5691,1,5128,5237,5238,5129
CQUADX4,5692,1,5129,5238,5239,5130
CQUADX4,5693,1,5130,5239,5240,5131
CQUADX4,5694,1,5131,5240,5241,5132
CQUADX4,5695,1,5132,5241,5242,5133
CQUADX4,5696,1,5133,5242,5243,5134
CQUADX4,5697,1,5134,5243,5244,5135
CQUADX4,5698,1,5135,5244,5245,5136
CQUADX4,5699,1,5136,5245,5246,5137
CQUADX4,5700,1,5137,5246,5247,5138
CQUADX4,5701,1,5138,5247,5248,5139
CQUADX4,5702,1,5139,5248,5249,5140
CQUADX4,5703,1,5140,5249,5250,5141
CQUADX4,5704,1,5141,5250,5251,5142
CQUADX4,5705,1,5142,5251,5252,5143
CQUADX4,5706,1,5143,5252,5253,5144
CQUADX4,5707,1,5144,5253,5254,5145
CQUADX4,5708,1,5145,5254,5255,5146
CQUADX4,5709,1,5146,5255,5256,5147
CQUADX4,5710,1,5147,5256,5257,5148
CQUADX4,5711,1,5148,5257,5258,5149
CQUADX4,5712,1,5149,5258,5259,5150
CQUADX4,5713,1,5150,5259,5260,5151
CQUADX4,5714,1,5151,5260,5261,5152
CQUADX4,5715,1,5152,5261,5262,5153
CQUADX4,5716,1,5153,5262,5263,5154
CQUADX4,5717,1,5155,5264,5265,5156
CQUADX4,5718,1,5156,5265,5266,5157
CQUADX4,5719,1,5157,5266,5267,5158
CQUADX4,5720,1,5158,5267,5268,5159
CQUADX4,5721,1,5159,5268,5269,5160
CQUADX4,5722,1,5160,5269,5270,5161
CQUADX4,5723,1,5161,5270,5271,5162
CQUADX4,5724,1,5162,5271,5272,5163
CQUADX4,5725,1,5163,5272,5273,5164
CQUADX4,5726,1,5164,5273,5274,5165
CQUADX4,5727,1,5165,5274,5275,5166
CQUADX4,5728,1,5166,5275,5276,5167
CQUADX4,5729,1,5167,5276,5277,5168
CQUADX4,5730,1,5168,5277,5278,5169
CQUADX4,5731,1,5169,5278,5279,5170
CQUADX4,5732,1,5170,5279,5280,5171
CQUADX4,5733,1,5171,5280,5281,5172
CQUADX4,5734,1,5172,5281,5282,5173
CQUADX4,5735,1,5173,5282,5283,5174
CQUADX4,5736,1,5174,5283,5284,5175
CQUADX4,5737,1,5175,5284,5285,5176
CQUADX4,5738,1,5176,5285,5286,5177
CQUADX4,5739,1,5177,5286,5287,5178
CQUADX4,5740,1,5178,5287,5288,5179
CQUADX4,5741,1,5179,5288,5289,5180
CQUADX4,5742,1,5180,5289,5290,5181
CQUADX4,5743,1,5181,5290,5291,5182
CQUADX4,5744,1,5182,5291,5292,5183
CQUADX4,5745,1,5183,5292,5293,5184
CQUADX4,5746,1,5184,5293,5294,5185
CQUADX4,5747,1,5185,5294,5295,5186
CQUADX4,5748,1,5186,5295,5296,5187
CQUADX4,5749,1,5187,5296,5297,5188
CQUADX4,5750,1,5188,5297,5298,5189
CQUADX4,5751,1,5189,5298,5299,5190
CQUADX4,5752,1,5190,5299,5300,5191
CQUADX4,5753,1,5191,5300,5301,5192
CQUADX4,5754,1,5192,5301,5302,5193
CQUADX4,5755,1,5193,5302,5303,5194
CQUADX4,5756,1,5194,5303,5304,5195
CQUADX4,5757,1,5195,5304,5305,5196
CQUADX4,5758,1,5196,5305,5306,5197
CQUADX4,5759,1,5197,5306,5307,5198
CQUADX4,5760,1,5198,5307,5308,5199
CQUADX4,5761,1,5199,5308,5309,5200
CQUADX4,5762,1,5200,5309,5310,5201
CQUADX4,5763,1,5201,5310,5311,5202
CQUADX4,5764,1,5202,5311,5312,5203
CQUADX4,5765,1,5203,5312,5313,5204
CQUADX4,5766,1,5204,5313,5314,5205
CQUADX4,5767,1,5205,5314,5315,5206
CQUADX4,5768,1,5206,5315,5316,5207
CQUADX4,5769,1,5207,5316,5317,5208
CQUADX4,5770,1,5208,5317,5318,5209
CQUADX4,5771,1,5209,5318,5319,5210
CQUADX4,5772,1,5210,5319,5320,5211
CQUADX4,5773,1,5211,5320,5321,5212
CQUADX4,5774,1,5212,5321,5322,5213
CQUADX4,5775,1,5213,5322,5323,5214
CQUADX4,5776,1,5214,5323,5324,5215
CQUADX4,5777,1,5215,5324,5325,5216
CQUADX4,5778,1,5216,5325,5326,5217
CQUADX4,5779,1,5217,5326,5327,5218
CQUADX4,5780,1,5218,5327,5328,5219
CQUADX4,5781,1,5219,5328,5329,5220
CQUADX4,5782,1,5220,5329,5330,5221
CQUADX4,5783,1,5221,5330,5331,5222
CQUADX4,5784,1,5222,5331,5332,5223
CQUADX4,5785,1,5223,5332,5333,5224
CQUADX4,5786,1,5224,5333,5334,5225
CQUADX4,5787,1,5225,5334,5335,5226
CQUADX4,5788,1,5226,5335,5336,5227
CQUADX4,5789,1,5227,5336,5337,5228
CQUADX4,5790,1,5228,5337,5338,5229
CQUADX4,5791,1,5229,5338,5339,5230
CQUADX4,5792,1,5230,5339,5340,5231
CQUADX4,5793,1,5231,5340,5341,5232
CQUADX4,5794,1,5232,5341,5342,5233
CQUADX4,5795,1,5233,5342,5343,5234
CQUADX4,5796,1,5234,5343,5344,5235
CQUADX4,5797,1,5235,5344,5345,5236
CQUADX4,5798,1,5236,5345,5346,5237
CQUADX4,5799,1,5237,5346,5347,5238
CQUADX4,5800,1,5238,5347,5348,5239
CQUADX4,5801,1,5239,5348,5349,5240
CQUADX4,5802,1,5240,5349,5350,5241
CQUADX4,5803,1,5241,5350,5351,5242
CQUADX4,5804,1,5242,5351,5352,5243
CQUADX4,5805,1,5243,5352,5353,5244
CQUADX4,5806,1,5244,5353,5354,5245
CQUADX4,5807,1,5245,5354,5355,5246
CQUADX4,5808,1,5246,5355,5356,5247
CQUADX4,5809,1,5247,5356,5357,5248
CQUADX4,5810,1,5248,5357,5358,5249
CQUADX4,5811,1,5249,5358,5359,5250
CQUADX4,5812,1,5250,5359,5360,5251
CQUADX4,5813,1,5251,5360,5361,5252
CQUADX4,5814,1,5252,5361,5362,5253
CQUADX4,5815,1,5253,5362,5363,5254
CQUADX4,5816,1,5254,5363,5364,5255
CQUADX4,5817,1,5255,5364,5365,5256
CQUADX4,5818,1,5256,5365,5366,5257
CQUADX4,5819,1,5257,5366,5367,5258
CQUADX4,5820,1,5258,5367,5368,5259
CQUADX4,5821,1,5259,5368,5369,5260
CQUADX4,5822,1,5260,5369,5370,5261
CQUADX4,5823,1,5261,5370,5371,5262
CQUADX4,5824,1,5262,5371,5372,5263
CQUADX4,5825,1,6734,6507,4392,6289
CQUADX4,5826,1,6507,6506,4501,4392
CQUADX4,5827,1,6506,6505,4610,4501
CQUADX4,5828,1,6505,6504,4719,4610
CQUADX4,5829,1,6504,6503,4828,4719
CQUADX4,5830,1,6503,6502,4937,4828
CQUADX4,5831,1,6502,6501,5046,4937
CQUADX4,5832,1,6501,6500,5155,5046
CQUADX4,5833,1,6500,6499,5264,5155
CQUADX4,5834,1,6499,6733,6229,5264
CQUADX4,5835,1,5264,6229,6230,5265
CQUADX4,5836,1,5265,6230,6730,5266
CQUADX4,5837,1,5266,6730,6176,5267
CQUADX4,5838,1,5267,6176,6177,5268
CQUADX4,5839,1,5268,6177,6178,5269
CQUADX4,5840,1,5269,6178,6179,5270
CQUADX4,5841,1,5270,6179,6180,5271
CQUADX4,5842,1,5271,6180,6181,5272
CQUADX4,5843,1,5272,6181,6182,5273
CQUADX4,5844,1,5273,6182,6183,5274
CQUADX4,5845,1,5274,6183,6184,5275
CQUADX4,5846,1,5275,6184,6185,5276
CQUADX4,5847,1,5276,6185,6186,5277
CQUADX4,5848,1,5277,6186,6187,5278
CQUADX4,5849,1,5278,6187,6188,5279
CQUADX4,5850,1,5279,6188,6189,5280
CQUADX4,5851,1,5280,6189,6190,5281
CQUADX4,5852,1,5281,6190,6191,5282
CQUADX4,5853,1,5282,6191,6192,5283
CQUADX4,5854,1,5283,6192,6193,5284
CQUADX4,5855,1,5284,6193,6194,5285
CQUADX4,5856,1,5285,6194,6195,5286
CQUADX4,5857,1,5286,6195,6196,5287
CQUADX4,5858,1,5287,6196,6197,5288
CQUADX4,5859,1,5288,6197,6198,5289
CQUADX4,5860,1,5289,6198,6199,5290
CQUADX4,5861,1,5290,6199,6200,5291
CQUADX4,5862,1,5291,6200,6201,5292
CQUADX4,5863,1,5292,6201,6202,5293
CQUADX4,5864,1,5293,6202,6203,5294
CQUADX4,5865,1,5294,6203,6204,5295
CQUADX4,5866,1,5295,6204,6205,5296
CQUADX4,5867,1,5296,6205,6206,5297
CQUADX4,5868,1,5297,6206,6207,5298
CQUADX4,5869,1,5298,6207,6208,5299
CQUADX4,5870,1,5299,6208,6209,5300
CQUADX4,5871,1,5300,6209,6210,5301
CQUADX4,5872,1,5301,6210,6211,5302
CQUADX4,5873,1,5302,6211,6212,5303
CQUADX4,5874,1,5303,6212,6213,5304
CQUADX4,5875,1,5304,6213,6214,5305
CQUADX4,5876,1,5305,6214,6215,5306
CQUADX4,5877,1,5306,6215,6216,5307
CQUADX4,5878,1,5307,6216,6217,5308
CQUADX4,5879,1,5308,6217,6218,5309
CQUADX4,5880,1,5309,6218,6219,5310
CQUADX4,5881,1,5310,6219,6220,5311
CQUADX4,5882,1,5311,6220,6221,5312
CQUADX4,5883,1,5312,6221,6222,5313
CQUADX4,5884,1,5313,6222,6223,5314
CQUADX4,5885,1,5314,6223,6224,5315
CQUADX4,5886,1,5315,6224,6225,5316
CQUADX4,5887,1,5316,6225,6226,5317
CQUADX4,5888,1,5317,6226,6227,5318
CQUADX4,5889,1,5318,6227,6228,5319
CQUADX4,5890,1,5319,6228,6728,5320
CQUADX4,5891,1,5320,6728,6103,5321
CQUADX4,5892,1,5321,6103,6104,5322
CQUADX4,5893,1,5322,6104,6105,5323
CQUADX4,5894,1,5323,6105,6106,5324
CQUADX4,5895,1,5324,6106,6107,5325
CQUADX4,5896,1,5325,6107,6108,5326
CQUADX4,5897,1,5326,6108,6109,5327
CQUADX4,5898,1,5327,6109,6110,5328
CQUADX4,5899,1,5328,6110,6111,5329
CQUADX4,5900,1,5329,6111,6112,5330
CQUADX4,5901,1,5330,6112,6113,5331
CQUADX4,5902,1,5331,6113,6114,5332
CQUADX4,5903,1,5332,6114,6115,5333
CQUADX4,5904,1,5333,6115,6116,5334
CQUADX4,5905,1,5334,6116,6117,5335
CQUADX4,5906,1,5335,6117,6118,5336
CQUADX4,5907,1,5336,6118,6119,5337
CQUADX4,5908,1,5337,6119,6120,5338
CQUADX4,5909,1,5338,6120,6121,5339
CQUADX4,5910,1,5339,6121,6122,5340
CQUADX4,5911,1,5340,6122,6123,5341
CQUADX4,5912,1,5341,6123,6124,5342
CQUADX4,5913,1,5342,6124,6125,5343
CQUADX4,5914,1,5343,6125,6126,5344
CQUADX4,5915,1,5344,6126,6127,5345
CQUADX4,5916,1,5345,6127,6128,5346
CQUADX4,5917,1,5346,6128,6727,5347
CQUADX4,5918,1,5347,6727,6078,5348
CQUADX4,5919,1,5348,6078,6079,5349
CQUADX4,5920,1,5349,6079,6080,5350
CQUADX4,5921,1,5350,6080,6081,5351
CQUADX4,5922,1,5351,6081,6082,5352
CQUADX4,5923,1,5352,6082,6083,5353
CQUADX4,5924,1,5353,6083,6084,5354
CQUADX4,5925,1,5354,6084,6085,5355
CQUADX4,5926,1,5355,6085,6086,5356
CQUADX4,5927,1,5356,6086,6087,5357
CQUADX4,5928,1,5357,6087,6088,5358
CQUADX4,5929,1,5358,6088,6089,5359
CQUADX4,5930,1,5359,6089,6090,5360
CQUADX4,5931,1,5360,6090,6091,5361
CQUADX4,5932,1,5361,6091,6092,5362
CQUADX4,5933,1,5362,6092,6093,5363
CQUADX4,5934,1,5363,6093,6094,5364
CQUADX4,5935,1,5364,6094,6095,5365
CQUADX4,5936,1,5365,6095,6096,5366
CQUADX4,5937,1,5366,6096,6097,5367
CQUADX4,5938,1,5367,6097,6098,5368
CQUADX4,5939,1,5368,6098,6099,5369
CQUADX4,5940,1,5369,6099,6100,5370
CQUADX4,5941,1,5370,6100,6101,5371
CQUADX4,5942,1,5371,6101,6102,5372
CQUADX4,5943,1,5372,6102,6725,6069
CQUADX4,5944,1,5263,5372,6069,6070
CQUADX4,5945,1,5154,5263,6070,6071
CQUADX4,5946,1,5045,5154,6071,6072
CQUADX4,5947,1,4936,5045,6072,6073
CQUADX4,5948,1,4827,4936,6073,6074
CQUADX4,5949,1,4718,4827,6074,6075
CQUADX4,5950,1,4609,4718,6075,6076
CQUADX4,5951,1,4500,4609,6076,6077
CQUADX4,5952,1,6129,4500,6077,6726
CQUADX4,5953,1,6130,4499,4500,6129
CQUADX4,5954,1,6131,4498,4499,6130
CQUADX4,5955,1,6132,4497,4498,6131
CQUADX4,5956,1,6133,4496,4497,6132
CQUADX4,5957,1,6134,4495,4496,6133
CQUADX4,5958,1,6135,4494,4495,6134
CQUADX4,5959,1,6136,4493,4494,6135
CQUADX4,5960,1,6137,4492,4493,6136
CQUADX4,5961,1,6138,4491,4492,6137
CQUADX4,5962,1,6139,4490,4491,6138
CQUADX4,5963,1,6140,4489,4490,6139
CQUADX4,5964,1,6141,4488,4489,6140
CQUADX4,5965,1,6142,4487,4488,6141
CQUADX4,5966,1,6143,4486,4487,6142
CQUADX4,5967,1,6144,4485,4486,6143
CQUADX4,5968,1,6145,4484,4485,6144
CQUADX4,5969,1,6146,4483,4484,6145
CQUADX4,5970,1,6147,4482,4483,6146
CQUADX4,5971,1,6148,4481,4482,6147
CQUADX4,5972,1,6149,4480,4481,6148
CQUADX4,5973,1,6150,4479,4480,6149
CQUADX4,5974,1,6151,4478,4479,6150
CQUADX4,5975,1,6152,4477,4478,6151
CQUADX4,5976,1,6153,4476,4477,6152
CQUADX4,5977,1,6154,4475,4476,6153
CQUADX4,5978,1,6155,4474,4475,6154
CQUADX4,5979,1,6156,4473,4474,6155
CQUADX4,5980,1,6157,4472,4473,6156
CQUADX4,5981,1,6158,4471,4472,6157
CQUADX4,5982,1,6159,4470,4471,6158
CQUADX4,5983,1,6160,4469,4470,6159
CQUADX4,5984,1,6161,4468,4469,6160
CQUADX4,5985,1,6162,4467,4468,6161
CQUADX4,5986,1,6163,4466,4467,6162
CQUADX4,5987,1,6164,4465,4466,6163
CQUADX4,5988,1,6165,4464,4465,6164
CQUADX4,5989,1,6166,4463,4464,6165
CQUADX4,5990,1,6167,4462,4463,6166
CQUADX4,5991,1,6168,4461,4462,6167
CQUADX4,5992,1,6169,4460,4461,6168
CQUADX4,5993,1,6170,4459,4460,6169
CQUADX4,5994,1,6171,4458,4459,6170
CQUADX4,5995,1,6172,4457,4458,6171
CQUADX4,5996,1,6173,4456,4457,6172
CQUADX4,5997,1,6174,4455,4456,6173
CQUADX4,5998,1,6175,4454,4455,6174
CQUADX4,5999,1,6729,4453,4454,6175
CQUADX4,6000,1,6231,4452,4453,6729
CQUADX4,6001,1,6232,4451,4452,6231
CQUADX4,6002,1,6233,4450,4451,6232
CQUADX4,6003,1,6731,4449,4450,6233
CQUADX4,6004,1,6234,4448,4449,6731
CQUADX4,6005,1,6235,4447,4448,6234
CQUADX4,6006,1,6236,4446,4447,6235
CQUADX4,6007,1,6237,4445,4446,6236
CQUADX4,6008,1,6238,4444,4445,6237
CQUADX4,6009,1,6239,4443,4444,6238
CQUADX4,6010,1,6240,4442,4443,6239
CQUADX4,6011,1,6241,4441,4442,6240
CQUADX4,6012,1,6242,4440,4441,6241
CQUADX4,6013,1,6243,4439,4440,6242
CQUADX4,6014,1,6244,4438,4439,6243
CQUADX4,6015,1,6245,4437,4438,6244
CQUADX4,6016,1,6246,4436,4437,6245
CQUADX4,6017,1,6247,4435,4436,6246
CQUADX4,6018,1,6248,4434,4435,6247
CQUADX4,6019,1,6249,4433,4434,6248
CQUADX4,6020,1,6250,4432,4433,6249
CQUADX4,6021,1,6251,4431,4432,6250
CQUADX4,6022,1,6252,4430,4431,6251
CQUADX4,6023,1,6253,4429,4430,6252
CQUADX4,6024,1,6254,4428,4429,6253
CQUADX4,6025,1,6255,4427,4428,6254
CQUADX4,6026,1,6256,4426,4427,6255
CQUADX4,6027,1,6257,4425,4426,6256
CQUADX4,6028,1,6258,4424,4425,6257
CQUADX4,6029,1,6259,4423,4424,6258
CQUADX4,6030,1,6260,4422,4423,6259
CQUADX4,6031,1,6261,4421,4422,6260
CQUADX4,6032,1,6262,4420,4421,6261
CQUADX4,6033,1,6263,4419,4420,6262
CQUADX4,6034,1,6264,4418,4419,6263
CQUADX4,6035,1,6265,4417,4418,6264
CQUADX4,6036,1,6266,4416,4417,6265
CQUADX4,6037,1,6732,4415,4416,6266
CQUADX4,6038,1,6267,4414,4415,6732
CQUADX4,6039,1,6268,4413,4414,6267
CQUADX4,6040,1,6269,4412,4413,6268
CQUADX4,6041,1,6270,4411,4412,6269
CQUADX4,6042,1,6271,4410,4411,6270
CQUADX4,6043,1,6272,4409,4410,6271
CQUADX4,6044,1,6273,4408,4409,6272
CQUADX4,6045,1,6274,4407,4408,6273
CQUADX4,6046,1,6275,4406,4407,6274
CQUADX4,6047,1,6276,4405,4406,6275
CQUADX4,6048,1,6277,4404,4405,6276
CQUADX4,6049,1,6278,4403,4404,6277
CQUADX4,6050,1,6279,4402,4403,6278
CQUADX4,6051,1,6280,4401,4402,6279
CQUADX4,6052,1,6281,4400,4401,6280
CQUADX4,6053,1,6282,4399,4400,6281
CQUADX4,6054,1,6283,4398,4399,6282
CQUADX4,6055,1,6284,4397,4398,6283
CQUADX4,6056,1,6285,4396,4397,6284
CQUADX4,6057,1,6286,4395,4396,6285
CQUADX4,6058,1,6287,4394,4395,6286
CQUADX4,6059,1,6288,4393,4394,6287
CQUADX4,6060,1,6289,4392,4393,6288
SPC,1,5373,15,0.0
SPC,1,5374,15,0.0
SPC,1,5375,15,0.0
SPC,1,5376,15,0.0
SPC,1,5377,15,0.0
SPC,1,5378,15,0.0
SPC,1,5379,15,0.0
SPC,1,5380,15,0.0
SPC,1,5381,15,0.0
SPC,1,6069,15,0.0
SPC,1,6070,15,0.0
SPC,1,6071,15,0.0
SPC,1,6072,15,0.0
SPC,1,6073,15,0.0
SPC,1,6074,15,0.0
SPC,1,6075,15,0.0
SPC,1,6076,15,0.0
SPC,1,6077,15,0.0
SPC,1,6717,15,0.0
SPC,1,6718,15,0.0
SPC,1,6725,15,0.0
SPC,1,6726,15,0.0
SPC,2,2420,3,0.0
SPC,2,3552,3,0.0
SPCADD,100,1,2
