$*$$$$$$$$$$$$$$$$$$$$$$$$$$$$$$$$$$$$$$$$$$$$$$$$$$$$$$$$$$$$$$$$$
$*
$*                    Simcenter v12.0.2.9 Translator
$*                    for NX Nastran version 12.2
$*
$*             FEM FILE: C:\Users\usuario\Documents\NX\ahoraSinZunchado_fem1.fem
$*             SIM FILE: C:\Users\usuario\Documents\NX\ahoraSinZunchado_sim1.sim
$*        ANALYSIS TYPE: Axisymmetric Structural
$*        SOLUTION NAME: Solution 1
$*        SOLUTION TYPE: SOL 101 Linear Statics - Global Constraints
$*
$*    SOLVER INPUT FILE: ahorasinzunchado_sim1-solution_1.dat
$*        CREATION DATE: 14-Dec-2023
$*        CREATION TIME: 19:12:30
$*             HOSTNAME: DESKTOP-08LFC3S
$*      NASTRAN LICENSE: Desktop Bundle
$*
$*                UNITS: mm (milli-newton)
$*                      ... LENGTH : mm
$*                      ... TIME   : sec
$*                      ... MASS   : kilogram (kg)
$*                      ... TEMPERATURE : deg Celsius
$*                      ... FORCE  : milli-newton
$*                      ... THERMAL ENERGY : mN-mm (micro-joule)
$*
$* IMPORTANT NOTE:
$*     This banner was generated by Simcenter and altering this 
$*     information may compromise the pre and post processing of results
$*
$*$$$$$$$$$$$$$$$$$$$$$$$$$$$$$$$$$$$$$$$$$$$$$$$$$$$$$$$$$$$$$$$$$
$*
$*$$$$$$$$$$$$$$$$$$$$$$$$$$$$$$$$$$$
$*
$* FILE MANAGEMENT
$*
$*$$$$$$$$$$$$$$$$$$$$$$$$$$$$$$$$$$$
$*
$*
$*$$$$$$$$$$$$$$$$$$$$$$$$$$$$$$$$$$$
$*
$* EXECUTIVE CONTROL
$*
$*$$$$$$$$$$$$$$$$$$$$$$$$$$$$$$$$$$$
$*
ID,NASTRAN,ahorasinzunchado_sim1-solution_1
SOL 101
CEND
$*
$*$$$$$$$$$$$$$$$$$$$$$$$$$$$$$$$$$$$
$*
$* CASE CONTROL
$*
$*$$$$$$$$$$$$$$$$$$$$$$$$$$$$$$$$$$$
$*
ECHO = NONE
SPC = 100
OUTPUT
BCRESULTS(TRACTION,FORCE,PLOT) = ALL
DISPLACEMENT(PLOT,REAL) = ALL
OLOAD(PLOT,REAL) = ALL
SPCFORCES(PLOT,REAL) = ALL
STRESS(PLOT,REAL,VONMISES,CENTER) = ALL
$*  Step: Subcase - Static Loads 1
SUBCASE 1
  LABEL = Subcase - Static Loads 1
  LOAD = 3
$*
$*$$$$$$$$$$$$$$$$$$$$$$$$$$$$$$$$$$$
$*
$* BULK DATA
$*
$*$$$$$$$$$$$$$$$$$$$$$$$$$$$$$$$$$$$
$*
BEGIN BULK
$*
$* PARAM CARDS
$*
PARAM      K6ROT100.0000
PARAM     OIBULK     YES
PARAM    OMACHPR     YES
PARAM       POST      -2
PARAM    POSTEXT     YES
PARAM    UNITSYS   MN-MM
$*
$* GRID CARDS
$*
GRID*                  1               03.1336623243E+020.0000000000E+00+
*       -1.036363636E+03               0
GRID*                  2               03.1336579954E+020.0000000000E+00+
*       -1.022727273E+03               0
GRID*                  3               03.1336536666E+020.0000000000E+00+
*       -1.009090909E+03               0
GRID*                  4               03.1336493378E+020.0000000000E+00+
*       -9.954545455E+02               0
GRID*                  5               03.1336450090E+020.0000000000E+00+
*       -9.818181818E+02               0
GRID*                  6               03.1336406801E+020.0000000000E+00+
*       -9.681818182E+02               0
GRID*                  7               03.1336363513E+020.0000000000E+00+
*       -9.545454545E+02               0
GRID*                  8               03.1336320225E+020.0000000000E+00+
*       -9.409090909E+02               0
GRID*                  9               03.1336276936E+020.0000000000E+00+
*       -9.272727273E+02               0
GRID*                 10               03.1336233648E+020.0000000000E+00+
*       -9.136363636E+02               0
GRID*                 11               03.1336190360E+020.0000000000E+00+
*       -9.000000000E+02               0
GRID*                 12               03.1336147072E+020.0000000000E+00+
*       -8.863636364E+02               0
GRID*                 13               03.1336103783E+020.0000000000E+00+
*       -8.727272727E+02               0
GRID*                 14               03.1336060495E+020.0000000000E+00+
*       -8.590909091E+02               0
GRID*                 15               03.1336017207E+020.0000000000E+00+
*       -8.454545455E+02               0
GRID*                 16               03.1335973919E+020.0000000000E+00+
*       -8.318181818E+02               0
GRID*                 17               03.1335930630E+020.0000000000E+00+
*       -8.181818182E+02               0
GRID*                 18               03.1335887342E+020.0000000000E+00+
*       -8.045454545E+02               0
GRID*                 19               03.1335844054E+020.0000000000E+00+
*       -7.909090909E+02               0
GRID*                 20               03.1335800765E+020.0000000000E+00+
*       -7.772727273E+02               0
GRID*                 21               03.1335757477E+020.0000000000E+00+
*       -7.636363636E+02               0
GRID*                 22               03.1335714189E+020.0000000000E+00+
*       -7.500000000E+02               0
GRID*                 23               03.1335670901E+020.0000000000E+00+
*       -7.363636364E+02               0
GRID*                 24               03.1335627612E+020.0000000000E+00+
*       -7.227272727E+02               0
GRID*                 25               03.1335584324E+020.0000000000E+00+
*       -7.090909091E+02               0
GRID*                 26               03.1335541036E+020.0000000000E+00+
*       -6.954545455E+02               0
GRID*                 27               03.1335497747E+020.0000000000E+00+
*       -6.818181818E+02               0
GRID*                 28               03.1335454459E+020.0000000000E+00+
*       -6.681818182E+02               0
GRID*                 29               03.1335411171E+020.0000000000E+00+
*       -6.545454545E+02               0
GRID*                 30               03.1335367883E+020.0000000000E+00+
*       -6.409090909E+02               0
GRID*                 31               03.1335324594E+020.0000000000E+00+
*       -6.272727273E+02               0
GRID*                 32               03.1335281306E+020.0000000000E+00+
*       -6.136363636E+02               0
GRID*                 33               03.1335238018E+020.0000000000E+00+
*       -6.000000000E+02               0
GRID*                 34               03.1335194729E+020.0000000000E+00+
*       -5.863636364E+02               0
GRID*                 35               03.1335151441E+020.0000000000E+00+
*       -5.727272727E+02               0
GRID*                 36               03.1335108153E+020.0000000000E+00+
*       -5.590909091E+02               0
GRID*                 37               03.1335064865E+020.0000000000E+00+
*       -5.454545455E+02               0
GRID*                 38               03.1335021576E+020.0000000000E+00+
*       -5.318181818E+02               0
GRID*                 39               03.1334978288E+020.0000000000E+00+
*       -5.181818182E+02               0
GRID*                 40               03.1334935000E+020.0000000000E+00+
*       -5.045454545E+02               0
GRID*                 41               03.1334891711E+020.0000000000E+00+
*       -4.909090909E+02               0
GRID*                 42               03.1334848423E+020.0000000000E+00+
*       -4.772727273E+02               0
GRID*                 43               03.1334805135E+020.0000000000E+00+
*       -4.636363636E+02               0
GRID*                 44               03.1334761847E+020.0000000000E+00+
*       -4.500000000E+02               0
GRID*                 45               03.1334718558E+020.0000000000E+00+
*       -4.363636364E+02               0
GRID*                 46               03.1334675270E+020.0000000000E+00+
*       -4.227272727E+02               0
GRID*                 47               03.1334631982E+020.0000000000E+00+
*       -4.090909091E+02               0
GRID*                 48               03.1334588694E+020.0000000000E+00+
*       -3.954545455E+02               0
GRID*                 49               03.1334545405E+020.0000000000E+00+
*       -3.818181818E+02               0
GRID*                 50               03.1334502117E+020.0000000000E+00+
*       -3.681818182E+02               0
GRID*                 51               03.1334458829E+020.0000000000E+00+
*       -3.545454545E+02               0
GRID*                 52               03.1334415540E+020.0000000000E+00+
*       -3.409090909E+02               0
GRID*                 53               03.1334372252E+020.0000000000E+00+
*       -3.272727273E+02               0
GRID*                 54               03.1334328964E+020.0000000000E+00+
*       -3.136363636E+02               0
GRID*                 55               03.1334285676E+020.0000000000E+00+
*       -3.000000000E+02               0
GRID*                 56               03.1334242387E+020.0000000000E+00+
*       -2.863636364E+02               0
GRID*                 57               03.1334199099E+020.0000000000E+00+
*       -2.727272727E+02               0
GRID*                 58               03.1334155811E+020.0000000000E+00+
*       -2.590909091E+02               0
GRID*                 59               03.1334112522E+020.0000000000E+00+
*       -2.454545455E+02               0
GRID*                 60               03.1334069234E+020.0000000000E+00+
*       -2.318181818E+02               0
GRID*                 61               03.1334025946E+020.0000000000E+00+
*       -2.181818182E+02               0
GRID*                 62               03.1333982658E+020.0000000000E+00+
*       -2.045454545E+02               0
GRID*                 63               03.1333939369E+020.0000000000E+00+
*       -1.909090909E+02               0
GRID*                 64               03.1333896081E+020.0000000000E+00+
*       -1.772727273E+02               0
GRID*                 65               03.1333852793E+020.0000000000E+00+
*       -1.636363636E+02               0
GRID*                 66               03.1333809504E+020.0000000000E+00+
*       -1.500000000E+02               0
GRID*                 67               03.1333766216E+020.0000000000E+00+
*       -1.363636364E+02               0
GRID*                 68               03.1333722928E+020.0000000000E+00+
*       -1.227272727E+02               0
GRID*                 69               03.1333679640E+020.0000000000E+00+
*       -1.090909091E+02               0
GRID*                 70               03.1333636351E+020.0000000000E+00+
*       -9.545454545E+01               0
GRID*                 71               03.1333593063E+020.0000000000E+00+
*       -8.181818182E+01               0
GRID*                 72               03.1333549775E+020.0000000000E+00+
*       -6.818181818E+01               0
GRID*                 73               03.1333506486E+020.0000000000E+00+
*       -5.454545455E+01               0
GRID*                 74               03.1333463198E+020.0000000000E+00+
*       -4.090909091E+01               0
GRID*                 75               03.1333419910E+020.0000000000E+00+
*       -2.727272727E+01               0
GRID*                 76               03.1333376622E+020.0000000000E+00+
*       -1.363636364E+01               0
GRID*                 77               03.2673246486E+020.0000000000E+00+
*       -1.036363636E+03               0
GRID*                 78               03.2673159909E+020.0000000000E+00+
*       -1.022727273E+03               0
GRID*                 79               03.2673073332E+020.0000000000E+00+
*       -1.009090909E+03               0
GRID*                 80               03.2672986756E+020.0000000000E+00+
*       -9.954545455E+02               0
GRID*                 81               03.2672900179E+020.0000000000E+00+
*       -9.818181818E+02               0
GRID*                 82               03.2672813603E+020.0000000000E+00+
*       -9.681818182E+02               0
GRID*                 83               03.2672727026E+020.0000000000E+00+
*       -9.545454545E+02               0
GRID*                 84               03.2672640450E+020.0000000000E+00+
*       -9.409090909E+02               0
GRID*                 85               03.2672553873E+020.0000000000E+00+
*       -9.272727273E+02               0
GRID*                 86               03.2672467296E+020.0000000000E+00+
*       -9.136363636E+02               0
GRID*                 87               03.2672380720E+020.0000000000E+00+
*       -9.000000000E+02               0
GRID*                 88               03.2672294143E+020.0000000000E+00+
*       -8.863636364E+02               0
GRID*                 89               03.2672207567E+020.0000000000E+00+
*       -8.727272727E+02               0
GRID*                 90               03.2672120990E+020.0000000000E+00+
*       -8.590909091E+02               0
GRID*                 91               03.2672034414E+020.0000000000E+00+
*       -8.454545455E+02               0
GRID*                 92               03.2671947837E+020.0000000000E+00+
*       -8.318181818E+02               0
GRID*                 93               03.2671861260E+020.0000000000E+00+
*       -8.181818182E+02               0
GRID*                 94               03.2671774684E+020.0000000000E+00+
*       -8.045454545E+02               0
GRID*                 95               03.2671688107E+020.0000000000E+00+
*       -7.909090909E+02               0
GRID*                 96               03.2671601531E+020.0000000000E+00+
*       -7.772727273E+02               0
GRID*                 97               03.2671514954E+020.0000000000E+00+
*       -7.636363636E+02               0
GRID*                 98               03.2671428378E+020.0000000000E+00+
*       -7.500000000E+02               0
GRID*                 99               03.2671341801E+020.0000000000E+00+
*       -7.363636364E+02               0
GRID*                100               03.2671255225E+020.0000000000E+00+
*       -7.227272727E+02               0
GRID*                101               03.2671168648E+020.0000000000E+00+
*       -7.090909091E+02               0
GRID*                102               03.2671082071E+020.0000000000E+00+
*       -6.954545455E+02               0
GRID*                103               03.2670995495E+020.0000000000E+00+
*       -6.818181818E+02               0
GRID*                104               03.2670908918E+020.0000000000E+00+
*       -6.681818182E+02               0
GRID*                105               03.2670822342E+020.0000000000E+00+
*       -6.545454545E+02               0
GRID*                106               03.2670735765E+020.0000000000E+00+
*       -6.409090909E+02               0
GRID*                107               03.2670649189E+020.0000000000E+00+
*       -6.272727273E+02               0
GRID*                108               03.2670562612E+020.0000000000E+00+
*       -6.136363636E+02               0
GRID*                109               03.2670476035E+020.0000000000E+00+
*       -6.000000000E+02               0
GRID*                110               03.2670389459E+020.0000000000E+00+
*       -5.863636364E+02               0
GRID*                111               03.2670302882E+020.0000000000E+00+
*       -5.727272727E+02               0
GRID*                112               03.2670216306E+020.0000000000E+00+
*       -5.590909091E+02               0
GRID*                113               03.2670129729E+020.0000000000E+00+
*       -5.454545455E+02               0
GRID*                114               03.2670043153E+020.0000000000E+00+
*       -5.318181818E+02               0
GRID*                115               03.2669956576E+020.0000000000E+00+
*       -5.181818182E+02               0
GRID*                116               03.2669870000E+020.0000000000E+00+
*       -5.045454545E+02               0
GRID*                117               03.2669783423E+020.0000000000E+00+
*       -4.909090909E+02               0
GRID*                118               03.2669696846E+020.0000000000E+00+
*       -4.772727273E+02               0
GRID*                119               03.2669610270E+020.0000000000E+00+
*       -4.636363636E+02               0
GRID*                120               03.2669523693E+020.0000000000E+00+
*       -4.500000000E+02               0
GRID*                121               03.2669437117E+020.0000000000E+00+
*       -4.363636364E+02               0
GRID*                122               03.2669350540E+020.0000000000E+00+
*       -4.227272727E+02               0
GRID*                123               03.2669263964E+020.0000000000E+00+
*       -4.090909091E+02               0
GRID*                124               03.2669177387E+020.0000000000E+00+
*       -3.954545455E+02               0
GRID*                125               03.2669090810E+020.0000000000E+00+
*       -3.818181818E+02               0
GRID*                126               03.2669004234E+020.0000000000E+00+
*       -3.681818182E+02               0
GRID*                127               03.2668917657E+020.0000000000E+00+
*       -3.545454545E+02               0
GRID*                128               03.2668831081E+020.0000000000E+00+
*       -3.409090909E+02               0
GRID*                129               03.2668744504E+020.0000000000E+00+
*       -3.272727273E+02               0
GRID*                130               03.2668657928E+020.0000000000E+00+
*       -3.136363636E+02               0
GRID*                131               03.2668571351E+020.0000000000E+00+
*       -3.000000000E+02               0
GRID*                132               03.2668484775E+020.0000000000E+00+
*       -2.863636364E+02               0
GRID*                133               03.2668398198E+020.0000000000E+00+
*       -2.727272727E+02               0
GRID*                134               03.2668311621E+020.0000000000E+00+
*       -2.590909091E+02               0
GRID*                135               03.2668225045E+020.0000000000E+00+
*       -2.454545455E+02               0
GRID*                136               03.2668138468E+020.0000000000E+00+
*       -2.318181818E+02               0
GRID*                137               03.2668051892E+020.0000000000E+00+
*       -2.181818182E+02               0
GRID*                138               03.2667965315E+020.0000000000E+00+
*       -2.045454545E+02               0
GRID*                139               03.2667878739E+020.0000000000E+00+
*       -1.909090909E+02               0
GRID*                140               03.2667792162E+020.0000000000E+00+
*       -1.772727273E+02               0
GRID*                141               03.2667705585E+020.0000000000E+00+
*       -1.636363636E+02               0
GRID*                142               03.2667619009E+020.0000000000E+00+
*       -1.500000000E+02               0
GRID*                143               03.2667532432E+020.0000000000E+00+
*       -1.363636364E+02               0
GRID*                144               03.2667445856E+020.0000000000E+00+
*       -1.227272727E+02               0
GRID*                145               03.2667359279E+020.0000000000E+00+
*       -1.090909091E+02               0
GRID*                146               03.2667272703E+020.0000000000E+00+
*       -9.545454545E+01               0
GRID*                147               03.2667186126E+020.0000000000E+00+
*       -8.181818182E+01               0
GRID*                148               03.2667099549E+020.0000000000E+00+
*       -6.818181818E+01               0
GRID*                149               03.2667012973E+020.0000000000E+00+
*       -5.454545455E+01               0
GRID*                150               03.2666926396E+020.0000000000E+00+
*       -4.090909091E+01               0
GRID*                151               03.2666839820E+020.0000000000E+00+
*       -2.727272727E+01               0
GRID*                152               03.2666753243E+020.0000000000E+00+
*       -1.363636364E+01               0
GRID*                153               03.4009869728E+020.0000000000E+00+
*       -1.036363636E+03               0
GRID*                154               03.4009739863E+020.0000000000E+00+
*       -1.022727273E+03               0
GRID*                155               03.4009609999E+020.0000000000E+00+
*       -1.009090909E+03               0
GRID*                156               03.4009480134E+020.0000000000E+00+
*       -9.954545455E+02               0
GRID*                157               03.4009350269E+020.0000000000E+00+
*       -9.818181818E+02               0
GRID*                158               03.4009220404E+020.0000000000E+00+
*       -9.681818182E+02               0
GRID*                159               03.4009090539E+020.0000000000E+00+
*       -9.545454545E+02               0
GRID*                160               03.4008960674E+020.0000000000E+00+
*       -9.409090909E+02               0
GRID*                161               03.4008830809E+020.0000000000E+00+
*       -9.272727273E+02               0
GRID*                162               03.4008700945E+020.0000000000E+00+
*       -9.136363636E+02               0
GRID*                163               03.4008571080E+020.0000000000E+00+
*       -9.000000000E+02               0
GRID*                164               03.4008441215E+020.0000000000E+00+
*       -8.863636364E+02               0
GRID*                165               03.4008311350E+020.0000000000E+00+
*       -8.727272727E+02               0
GRID*                166               03.4008181485E+020.0000000000E+00+
*       -8.590909091E+02               0
GRID*                167               03.4008051620E+020.0000000000E+00+
*       -8.454545455E+02               0
GRID*                168               03.4007921756E+020.0000000000E+00+
*       -8.318181818E+02               0
GRID*                169               03.4007791891E+020.0000000000E+00+
*       -8.181818182E+02               0
GRID*                170               03.4007662026E+020.0000000000E+00+
*       -8.045454545E+02               0
GRID*                171               03.4007532161E+020.0000000000E+00+
*       -7.909090909E+02               0
GRID*                172               03.4007402296E+020.0000000000E+00+
*       -7.772727273E+02               0
GRID*                173               03.4007272431E+020.0000000000E+00+
*       -7.636363636E+02               0
GRID*                174               03.4007142566E+020.0000000000E+00+
*       -7.500000000E+02               0
GRID*                175               03.4007012702E+020.0000000000E+00+
*       -7.363636364E+02               0
GRID*                176               03.4006882837E+020.0000000000E+00+
*       -7.227272727E+02               0
GRID*                177               03.4006752972E+020.0000000000E+00+
*       -7.090909091E+02               0
GRID*                178               03.4006623107E+020.0000000000E+00+
*       -6.954545455E+02               0
GRID*                179               03.4006493242E+020.0000000000E+00+
*       -6.818181818E+02               0
GRID*                180               03.4006363377E+020.0000000000E+00+
*       -6.681818182E+02               0
GRID*                181               03.4006233513E+020.0000000000E+00+
*       -6.545454545E+02               0
GRID*                182               03.4006103648E+020.0000000000E+00+
*       -6.409090909E+02               0
GRID*                183               03.4005973783E+020.0000000000E+00+
*       -6.272727273E+02               0
GRID*                184               03.4005843918E+020.0000000000E+00+
*       -6.136363636E+02               0
GRID*                185               03.4005714053E+020.0000000000E+00+
*       -6.000000000E+02               0
GRID*                186               03.4005584188E+020.0000000000E+00+
*       -5.863636364E+02               0
GRID*                187               03.4005454324E+020.0000000000E+00+
*       -5.727272727E+02               0
GRID*                188               03.4005324459E+020.0000000000E+00+
*       -5.590909091E+02               0
GRID*                189               03.4005194594E+020.0000000000E+00+
*       -5.454545455E+02               0
GRID*                190               03.4005064729E+020.0000000000E+00+
*       -5.318181818E+02               0
GRID*                191               03.4004934864E+020.0000000000E+00+
*       -5.181818182E+02               0
GRID*                192               03.4004804999E+020.0000000000E+00+
*       -5.045454545E+02               0
GRID*                193               03.4004675134E+020.0000000000E+00+
*       -4.909090909E+02               0
GRID*                194               03.4004545270E+020.0000000000E+00+
*       -4.772727273E+02               0
GRID*                195               03.4004415405E+020.0000000000E+00+
*       -4.636363636E+02               0
GRID*                196               03.4004285540E+020.0000000000E+00+
*       -4.500000000E+02               0
GRID*                197               03.4004155675E+020.0000000000E+00+
*       -4.363636364E+02               0
GRID*                198               03.4004025810E+020.0000000000E+00+
*       -4.227272727E+02               0
GRID*                199               03.4003895945E+020.0000000000E+00+
*       -4.090909091E+02               0
GRID*                200               03.4003766081E+020.0000000000E+00+
*       -3.954545455E+02               0
GRID*                201               03.4003636216E+020.0000000000E+00+
*       -3.818181818E+02               0
GRID*                202               03.4003506351E+020.0000000000E+00+
*       -3.681818182E+02               0
GRID*                203               03.4003376486E+020.0000000000E+00+
*       -3.545454545E+02               0
GRID*                204               03.4003246621E+020.0000000000E+00+
*       -3.409090909E+02               0
GRID*                205               03.4003116756E+020.0000000000E+00+
*       -3.272727273E+02               0
GRID*                206               03.4002986891E+020.0000000000E+00+
*       -3.136363636E+02               0
GRID*                207               03.4002857027E+020.0000000000E+00+
*       -3.000000000E+02               0
GRID*                208               03.4002727162E+020.0000000000E+00+
*       -2.863636364E+02               0
GRID*                209               03.4002597297E+020.0000000000E+00+
*       -2.727272727E+02               0
GRID*                210               03.4002467432E+020.0000000000E+00+
*       -2.590909091E+02               0
GRID*                211               03.4002337567E+020.0000000000E+00+
*       -2.454545455E+02               0
GRID*                212               03.4002207702E+020.0000000000E+00+
*       -2.318181818E+02               0
GRID*                213               03.4002077838E+020.0000000000E+00+
*       -2.181818182E+02               0
GRID*                214               03.4001947973E+020.0000000000E+00+
*       -2.045454545E+02               0
GRID*                215               03.4001818108E+020.0000000000E+00+
*       -1.909090909E+02               0
GRID*                216               03.4001688243E+020.0000000000E+00+
*       -1.772727273E+02               0
GRID*                217               03.4001558378E+020.0000000000E+00+
*       -1.636363636E+02               0
GRID*                218               03.4001428513E+020.0000000000E+00+
*       -1.500000000E+02               0
GRID*                219               03.4001298648E+020.0000000000E+00+
*       -1.363636364E+02               0
GRID*                220               03.4001168784E+020.0000000000E+00+
*       -1.227272727E+02               0
GRID*                221               03.4001038919E+020.0000000000E+00+
*       -1.090909091E+02               0
GRID*                222               03.4000909054E+020.0000000000E+00+
*       -9.545454545E+01               0
GRID*                223               03.4000779189E+020.0000000000E+00+
*       -8.181818182E+01               0
GRID*                224               03.4000649324E+020.0000000000E+00+
*       -6.818181818E+01               0
GRID*                225               03.4000519459E+020.0000000000E+00+
*       -5.454545455E+01               0
GRID*                226               03.4000389595E+020.0000000000E+00+
*       -4.090909091E+01               0
GRID*                227               03.4000259730E+020.0000000000E+00+
*       -2.727272727E+01               0
GRID*                228               03.4000129865E+020.0000000000E+00+
*       -1.363636364E+01               0
GRID*                229               03.5346492971E+020.0000000000E+00+
*       -1.036363636E+03               0
GRID*                230               03.5346319818E+020.0000000000E+00+
*       -1.022727273E+03               0
GRID*                231               03.5346146665E+020.0000000000E+00+
*       -1.009090909E+03               0
GRID*                232               03.5345973512E+020.0000000000E+00+
*       -9.954545455E+02               0
GRID*                233               03.5345800358E+020.0000000000E+00+
*       -9.818181818E+02               0
GRID*                234               03.5345627205E+020.0000000000E+00+
*       -9.681818182E+02               0
GRID*                235               03.5345454052E+020.0000000000E+00+
*       -9.545454545E+02               0
GRID*                236               03.5345280899E+020.0000000000E+00+
*       -9.409090909E+02               0
GRID*                237               03.5345107746E+020.0000000000E+00+
*       -9.272727273E+02               0
GRID*                238               03.5344934593E+020.0000000000E+00+
*       -9.136363636E+02               0
GRID*                239               03.5344761440E+020.0000000000E+00+
*       -9.000000000E+02               0
GRID*                240               03.5344588287E+020.0000000000E+00+
*       -8.863636364E+02               0
GRID*                241               03.5344415133E+020.0000000000E+00+
*       -8.727272727E+02               0
GRID*                242               03.5344241980E+020.0000000000E+00+
*       -8.590909091E+02               0
GRID*                243               03.5344068827E+020.0000000000E+00+
*       -8.454545455E+02               0
GRID*                244               03.5343895674E+020.0000000000E+00+
*       -8.318181818E+02               0
GRID*                245               03.5343722521E+020.0000000000E+00+
*       -8.181818182E+02               0
GRID*                246               03.5343549368E+020.0000000000E+00+
*       -8.045454545E+02               0
GRID*                247               03.5343376215E+020.0000000000E+00+
*       -7.909090909E+02               0
GRID*                248               03.5343203062E+020.0000000000E+00+
*       -7.772727273E+02               0
GRID*                249               03.5343029908E+020.0000000000E+00+
*       -7.636363636E+02               0
GRID*                250               03.5342856755E+020.0000000000E+00+
*       -7.500000000E+02               0
GRID*                251               03.5342683602E+020.0000000000E+00+
*       -7.363636364E+02               0
GRID*                252               03.5342510449E+020.0000000000E+00+
*       -7.227272727E+02               0
GRID*                253               03.5342337296E+020.0000000000E+00+
*       -7.090909091E+02               0
GRID*                254               03.5342164143E+020.0000000000E+00+
*       -6.954545455E+02               0
GRID*                255               03.5341990990E+020.0000000000E+00+
*       -6.818181818E+02               0
GRID*                256               03.5341817837E+020.0000000000E+00+
*       -6.681818182E+02               0
GRID*                257               03.5341644683E+020.0000000000E+00+
*       -6.545454545E+02               0
GRID*                258               03.5341471530E+020.0000000000E+00+
*       -6.409090909E+02               0
GRID*                259               03.5341298377E+020.0000000000E+00+
*       -6.272727273E+02               0
GRID*                260               03.5341125224E+020.0000000000E+00+
*       -6.136363636E+02               0
GRID*                261               03.5340952071E+020.0000000000E+00+
*       -6.000000000E+02               0
GRID*                262               03.5340778918E+020.0000000000E+00+
*       -5.863636364E+02               0
GRID*                263               03.5340605765E+020.0000000000E+00+
*       -5.727272727E+02               0
GRID*                264               03.5340432612E+020.0000000000E+00+
*       -5.590909091E+02               0
GRID*                265               03.5340259458E+020.0000000000E+00+
*       -5.454545455E+02               0
GRID*                266               03.5340086305E+020.0000000000E+00+
*       -5.318181818E+02               0
GRID*                267               03.5339913152E+020.0000000000E+00+
*       -5.181818182E+02               0
GRID*                268               03.5339739999E+020.0000000000E+00+
*       -5.045454545E+02               0
GRID*                269               03.5339566846E+020.0000000000E+00+
*       -4.909090909E+02               0
GRID*                270               03.5339393693E+020.0000000000E+00+
*       -4.772727273E+02               0
GRID*                271               03.5339220540E+020.0000000000E+00+
*       -4.636363636E+02               0
GRID*                272               03.5339047387E+020.0000000000E+00+
*       -4.500000000E+02               0
GRID*                273               03.5338874233E+020.0000000000E+00+
*       -4.363636364E+02               0
GRID*                274               03.5338701080E+020.0000000000E+00+
*       -4.227272727E+02               0
GRID*                275               03.5338527927E+020.0000000000E+00+
*       -4.090909091E+02               0
GRID*                276               03.5338354774E+020.0000000000E+00+
*       -3.954545455E+02               0
GRID*                277               03.5338181621E+020.0000000000E+00+
*       -3.818181818E+02               0
GRID*                278               03.5338008468E+020.0000000000E+00+
*       -3.681818182E+02               0
GRID*                279               03.5337835315E+020.0000000000E+00+
*       -3.545454545E+02               0
GRID*                280               03.5337662162E+020.0000000000E+00+
*       -3.409090909E+02               0
GRID*                281               03.5337489008E+020.0000000000E+00+
*       -3.272727273E+02               0
GRID*                282               03.5337315855E+020.0000000000E+00+
*       -3.136363636E+02               0
GRID*                283               03.5337142702E+020.0000000000E+00+
*       -3.000000000E+02               0
GRID*                284               03.5336969549E+020.0000000000E+00+
*       -2.863636364E+02               0
GRID*                285               03.5336796396E+020.0000000000E+00+
*       -2.727272727E+02               0
GRID*                286               03.5336623243E+020.0000000000E+00+
*       -2.590909091E+02               0
GRID*                287               03.5336450090E+020.0000000000E+00+
*       -2.454545455E+02               0
GRID*                288               03.5336276936E+020.0000000000E+00+
*       -2.318181818E+02               0
GRID*                289               03.5336103783E+020.0000000000E+00+
*       -2.181818182E+02               0
GRID*                290               03.5335930630E+020.0000000000E+00+
*       -2.045454545E+02               0
GRID*                291               03.5335757477E+020.0000000000E+00+
*       -1.909090909E+02               0
GRID*                292               03.5335584324E+020.0000000000E+00+
*       -1.772727273E+02               0
GRID*                293               03.5335411171E+020.0000000000E+00+
*       -1.636363636E+02               0
GRID*                294               03.5335238018E+020.0000000000E+00+
*       -1.500000000E+02               0
GRID*                295               03.5335064865E+020.0000000000E+00+
*       -1.363636364E+02               0
GRID*                296               03.5334891711E+020.0000000000E+00+
*       -1.227272727E+02               0
GRID*                297               03.5334718558E+020.0000000000E+00+
*       -1.090909091E+02               0
GRID*                298               03.5334545405E+020.0000000000E+00+
*       -9.545454545E+01               0
GRID*                299               03.5334372252E+020.0000000000E+00+
*       -8.181818182E+01               0
GRID*                300               03.5334199099E+020.0000000000E+00+
*       -6.818181818E+01               0
GRID*                301               03.5334025946E+020.0000000000E+00+
*       -5.454545455E+01               0
GRID*                302               03.5333852793E+020.0000000000E+00+
*       -4.090909091E+01               0
GRID*                303               03.5333679640E+020.0000000000E+00+
*       -2.727272727E+01               0
GRID*                304               03.5333506486E+020.0000000000E+00+
*       -1.363636364E+01               0
GRID*                305               03.6683116214E+020.0000000000E+00+
*       -1.036363636E+03               0
GRID*                306               03.6682899772E+020.0000000000E+00+
*       -1.022727273E+03               0
GRID*                307               03.6682683331E+020.0000000000E+00+
*       -1.009090909E+03               0
GRID*                308               03.6682466890E+020.0000000000E+00+
*       -9.954545455E+02               0
GRID*                309               03.6682250448E+020.0000000000E+00+
*       -9.818181818E+02               0
GRID*                310               03.6682034007E+020.0000000000E+00+
*       -9.681818182E+02               0
GRID*                311               03.6681817565E+020.0000000000E+00+
*       -9.545454545E+02               0
GRID*                312               03.6681601124E+020.0000000000E+00+
*       -9.409090909E+02               0
GRID*                313               03.6681384682E+020.0000000000E+00+
*       -9.272727273E+02               0
GRID*                314               03.6681168241E+020.0000000000E+00+
*       -9.136363636E+02               0
GRID*                315               03.6680951800E+020.0000000000E+00+
*       -9.000000000E+02               0
GRID*                316               03.6680735358E+020.0000000000E+00+
*       -8.863636364E+02               0
GRID*                317               03.6680518917E+020.0000000000E+00+
*       -8.727272727E+02               0
GRID*                318               03.6680302475E+020.0000000000E+00+
*       -8.590909091E+02               0
GRID*                319               03.6680086034E+020.0000000000E+00+
*       -8.454545455E+02               0
GRID*                320               03.6679869593E+020.0000000000E+00+
*       -8.318181818E+02               0
GRID*                321               03.6679653151E+020.0000000000E+00+
*       -8.181818182E+02               0
GRID*                322               03.6679436710E+020.0000000000E+00+
*       -8.045454545E+02               0
GRID*                323               03.6679220268E+020.0000000000E+00+
*       -7.909090909E+02               0
GRID*                324               03.6679003827E+020.0000000000E+00+
*       -7.772727273E+02               0
GRID*                325               03.6678787386E+020.0000000000E+00+
*       -7.636363636E+02               0
GRID*                326               03.6678570944E+020.0000000000E+00+
*       -7.500000000E+02               0
GRID*                327               03.6678354503E+020.0000000000E+00+
*       -7.363636364E+02               0
GRID*                328               03.6678138061E+020.0000000000E+00+
*       -7.227272727E+02               0
GRID*                329               03.6677921620E+020.0000000000E+00+
*       -7.090909091E+02               0
GRID*                330               03.6677705179E+020.0000000000E+00+
*       -6.954545455E+02               0
GRID*                331               03.6677488737E+020.0000000000E+00+
*       -6.818181818E+02               0
GRID*                332               03.6677272296E+020.0000000000E+00+
*       -6.681818182E+02               0
GRID*                333               03.6677055854E+020.0000000000E+00+
*       -6.545454545E+02               0
GRID*                334               03.6676839413E+020.0000000000E+00+
*       -6.409090909E+02               0
GRID*                335               03.6676622971E+020.0000000000E+00+
*       -6.272727273E+02               0
GRID*                336               03.6676406530E+020.0000000000E+00+
*       -6.136363636E+02               0
GRID*                337               03.6676190089E+020.0000000000E+00+
*       -6.000000000E+02               0
GRID*                338               03.6675973647E+020.0000000000E+00+
*       -5.863636364E+02               0
GRID*                339               03.6675757206E+020.0000000000E+00+
*       -5.727272727E+02               0
GRID*                340               03.6675540764E+020.0000000000E+00+
*       -5.590909091E+02               0
GRID*                341               03.6675324323E+020.0000000000E+00+
*       -5.454545455E+02               0
GRID*                342               03.6675107882E+020.0000000000E+00+
*       -5.318181818E+02               0
GRID*                343               03.6674891440E+020.0000000000E+00+
*       -5.181818182E+02               0
GRID*                344               03.6674674999E+020.0000000000E+00+
*       -5.045454545E+02               0
GRID*                345               03.6674458557E+020.0000000000E+00+
*       -4.909090909E+02               0
GRID*                346               03.6674242116E+020.0000000000E+00+
*       -4.772727273E+02               0
GRID*                347               03.6674025675E+020.0000000000E+00+
*       -4.636363636E+02               0
GRID*                348               03.6673809233E+020.0000000000E+00+
*       -4.500000000E+02               0
GRID*                349               03.6673592792E+020.0000000000E+00+
*       -4.363636364E+02               0
GRID*                350               03.6673376350E+020.0000000000E+00+
*       -4.227272727E+02               0
GRID*                351               03.6673159909E+020.0000000000E+00+
*       -4.090909091E+02               0
GRID*                352               03.6672943468E+020.0000000000E+00+
*       -3.954545455E+02               0
GRID*                353               03.6672727026E+020.0000000000E+00+
*       -3.818181818E+02               0
GRID*                354               03.6672510585E+020.0000000000E+00+
*       -3.681818182E+02               0
GRID*                355               03.6672294143E+020.0000000000E+00+
*       -3.545454545E+02               0
GRID*                356               03.6672077702E+020.0000000000E+00+
*       -3.409090909E+02               0
GRID*                357               03.6671861260E+020.0000000000E+00+
*       -3.272727273E+02               0
GRID*                358               03.6671644819E+020.0000000000E+00+
*       -3.136363636E+02               0
GRID*                359               03.6671428378E+020.0000000000E+00+
*       -3.000000000E+02               0
GRID*                360               03.6671211936E+020.0000000000E+00+
*       -2.863636364E+02               0
GRID*                361               03.6670995495E+020.0000000000E+00+
*       -2.727272727E+02               0
GRID*                362               03.6670779053E+020.0000000000E+00+
*       -2.590909091E+02               0
GRID*                363               03.6670562612E+020.0000000000E+00+
*       -2.454545455E+02               0
GRID*                364               03.6670346171E+020.0000000000E+00+
*       -2.318181818E+02               0
GRID*                365               03.6670129729E+020.0000000000E+00+
*       -2.181818182E+02               0
GRID*                366               03.6669913288E+020.0000000000E+00+
*       -2.045454545E+02               0
GRID*                367               03.6669696846E+020.0000000000E+00+
*       -1.909090909E+02               0
GRID*                368               03.6669480405E+020.0000000000E+00+
*       -1.772727273E+02               0
GRID*                369               03.6669263964E+020.0000000000E+00+
*       -1.636363636E+02               0
GRID*                370               03.6669047522E+020.0000000000E+00+
*       -1.500000000E+02               0
GRID*                371               03.6668831081E+020.0000000000E+00+
*       -1.363636364E+02               0
GRID*                372               03.6668614639E+020.0000000000E+00+
*       -1.227272727E+02               0
GRID*                373               03.6668398198E+020.0000000000E+00+
*       -1.090909091E+02               0
GRID*                374               03.6668181757E+020.0000000000E+00+
*       -9.545454545E+01               0
GRID*                375               03.6667965315E+020.0000000000E+00+
*       -8.181818182E+01               0
GRID*                376               03.6667748874E+020.0000000000E+00+
*       -6.818181818E+01               0
GRID*                377               03.6667532432E+020.0000000000E+00+
*       -5.454545455E+01               0
GRID*                378               03.6667315991E+020.0000000000E+00+
*       -4.090909091E+01               0
GRID*                379               03.6667099549E+020.0000000000E+00+
*       -2.727272727E+01               0
GRID*                380               03.6666883108E+020.0000000000E+00+
*       -1.363636364E+01               0
GRID*                381               03.8019739457E+020.0000000000E+00+
*       -1.036363636E+03               0
GRID*                382               03.8019479727E+020.0000000000E+00+
*       -1.022727273E+03               0
GRID*                383               03.8019219997E+020.0000000000E+00+
*       -1.009090909E+03               0
GRID*                384               03.8018960267E+020.0000000000E+00+
*       -9.954545455E+02               0
GRID*                385               03.8018700538E+020.0000000000E+00+
*       -9.818181818E+02               0
GRID*                386               03.8018440808E+020.0000000000E+00+
*       -9.681818182E+02               0
GRID*                387               03.8018181078E+020.0000000000E+00+
*       -9.545454545E+02               0
GRID*                388               03.8017921349E+020.0000000000E+00+
*       -9.409090909E+02               0
GRID*                389               03.8017661619E+020.0000000000E+00+
*       -9.272727273E+02               0
GRID*                390               03.8017401889E+020.0000000000E+00+
*       -9.136363636E+02               0
GRID*                391               03.8017142160E+020.0000000000E+00+
*       -9.000000000E+02               0
GRID*                392               03.8016882430E+020.0000000000E+00+
*       -8.863636364E+02               0
GRID*                393               03.8016622700E+020.0000000000E+00+
*       -8.727272727E+02               0
GRID*                394               03.8016362971E+020.0000000000E+00+
*       -8.590909091E+02               0
GRID*                395               03.8016103241E+020.0000000000E+00+
*       -8.454545455E+02               0
GRID*                396               03.8015843511E+020.0000000000E+00+
*       -8.318181818E+02               0
GRID*                397               03.8015583781E+020.0000000000E+00+
*       -8.181818182E+02               0
GRID*                398               03.8015324052E+020.0000000000E+00+
*       -8.045454545E+02               0
GRID*                399               03.8015064322E+020.0000000000E+00+
*       -7.909090909E+02               0
GRID*                400               03.8014804592E+020.0000000000E+00+
*       -7.772727273E+02               0
GRID*                401               03.8014544863E+020.0000000000E+00+
*       -7.636363636E+02               0
GRID*                402               03.8014285133E+020.0000000000E+00+
*       -7.500000000E+02               0
GRID*                403               03.8014025403E+020.0000000000E+00+
*       -7.363636364E+02               0
GRID*                404               03.8013765674E+020.0000000000E+00+
*       -7.227272727E+02               0
GRID*                405               03.8013505944E+020.0000000000E+00+
*       -7.090909091E+02               0
GRID*                406               03.8013246214E+020.0000000000E+00+
*       -6.954545455E+02               0
GRID*                407               03.8012986485E+020.0000000000E+00+
*       -6.818181818E+02               0
GRID*                408               03.8012726755E+020.0000000000E+00+
*       -6.681818182E+02               0
GRID*                409               03.8012467025E+020.0000000000E+00+
*       -6.545454545E+02               0
GRID*                410               03.8012207295E+020.0000000000E+00+
*       -6.409090909E+02               0
GRID*                411               03.8011947566E+020.0000000000E+00+
*       -6.272727273E+02               0
GRID*                412               03.8011687836E+020.0000000000E+00+
*       -6.136363636E+02               0
GRID*                413               03.8011428106E+020.0000000000E+00+
*       -6.000000000E+02               0
GRID*                414               03.8011168377E+020.0000000000E+00+
*       -5.863636364E+02               0
GRID*                415               03.8010908647E+020.0000000000E+00+
*       -5.727272727E+02               0
GRID*                416               03.8010648917E+020.0000000000E+00+
*       -5.590909091E+02               0
GRID*                417               03.8010389188E+020.0000000000E+00+
*       -5.454545455E+02               0
GRID*                418               03.8010129458E+020.0000000000E+00+
*       -5.318181818E+02               0
GRID*                419               03.8009869728E+020.0000000000E+00+
*       -5.181818182E+02               0
GRID*                420               03.8009609999E+020.0000000000E+00+
*       -5.045454545E+02               0
GRID*                421               03.8009350269E+020.0000000000E+00+
*       -4.909090909E+02               0
GRID*                422               03.8009090539E+020.0000000000E+00+
*       -4.772727273E+02               0
GRID*                423               03.8008830809E+020.0000000000E+00+
*       -4.636363636E+02               0
GRID*                424               03.8008571080E+020.0000000000E+00+
*       -4.500000000E+02               0
GRID*                425               03.8008311350E+020.0000000000E+00+
*       -4.363636364E+02               0
GRID*                426               03.8008051620E+020.0000000000E+00+
*       -4.227272727E+02               0
GRID*                427               03.8007791891E+020.0000000000E+00+
*       -4.090909091E+02               0
GRID*                428               03.8007532161E+020.0000000000E+00+
*       -3.954545455E+02               0
GRID*                429               03.8007272431E+020.0000000000E+00+
*       -3.818181818E+02               0
GRID*                430               03.8007012702E+020.0000000000E+00+
*       -3.681818182E+02               0
GRID*                431               03.8006752972E+020.0000000000E+00+
*       -3.545454545E+02               0
GRID*                432               03.8006493242E+020.0000000000E+00+
*       -3.409090909E+02               0
GRID*                433               03.8006233513E+020.0000000000E+00+
*       -3.272727273E+02               0
GRID*                434               03.8005973783E+020.0000000000E+00+
*       -3.136363636E+02               0
GRID*                435               03.8005714053E+020.0000000000E+00+
*       -3.000000000E+02               0
GRID*                436               03.8005454324E+020.0000000000E+00+
*       -2.863636364E+02               0
GRID*                437               03.8005194594E+020.0000000000E+00+
*       -2.727272727E+02               0
GRID*                438               03.8004934864E+020.0000000000E+00+
*       -2.590909091E+02               0
GRID*                439               03.8004675134E+020.0000000000E+00+
*       -2.454545455E+02               0
GRID*                440               03.8004415405E+020.0000000000E+00+
*       -2.318181818E+02               0
GRID*                441               03.8004155675E+020.0000000000E+00+
*       -2.181818182E+02               0
GRID*                442               03.8003895945E+020.0000000000E+00+
*       -2.045454545E+02               0
GRID*                443               03.8003636216E+020.0000000000E+00+
*       -1.909090909E+02               0
GRID*                444               03.8003376486E+020.0000000000E+00+
*       -1.772727273E+02               0
GRID*                445               03.8003116756E+020.0000000000E+00+
*       -1.636363636E+02               0
GRID*                446               03.8002857027E+020.0000000000E+00+
*       -1.500000000E+02               0
GRID*                447               03.8002597297E+020.0000000000E+00+
*       -1.363636364E+02               0
GRID*                448               03.8002337567E+020.0000000000E+00+
*       -1.227272727E+02               0
GRID*                449               03.8002077838E+020.0000000000E+00+
*       -1.090909091E+02               0
GRID*                450               03.8001818108E+020.0000000000E+00+
*       -9.545454545E+01               0
GRID*                451               03.8001558378E+020.0000000000E+00+
*       -8.181818182E+01               0
GRID*                452               03.8001298648E+020.0000000000E+00+
*       -6.818181818E+01               0
GRID*                453               03.8001038919E+020.0000000000E+00+
*       -5.454545455E+01               0
GRID*                454               03.8000779189E+020.0000000000E+00+
*       -4.090909091E+01               0
GRID*                455               03.8000519459E+020.0000000000E+00+
*       -2.727272727E+01               0
GRID*                456               03.8000259730E+020.0000000000E+00+
*       -1.363636364E+01               0
GRID*                457               03.9356362699E+020.0000000000E+00+
*       -1.036363636E+03               0
GRID*                458               03.9356059681E+020.0000000000E+00+
*       -1.022727273E+03               0
GRID*                459               03.9355756663E+020.0000000000E+00+
*       -1.009090909E+03               0
GRID*                460               03.9355453645E+020.0000000000E+00+
*       -9.954545455E+02               0
GRID*                461               03.9355150627E+020.0000000000E+00+
*       -9.818181818E+02               0
GRID*                462               03.9354847609E+020.0000000000E+00+
*       -9.681818182E+02               0
GRID*                463               03.9354544591E+020.0000000000E+00+
*       -9.545454545E+02               0
GRID*                464               03.9354241573E+020.0000000000E+00+
*       -9.409090909E+02               0
GRID*                465               03.9353938555E+020.0000000000E+00+
*       -9.272727273E+02               0
GRID*                466               03.9353635538E+020.0000000000E+00+
*       -9.136363636E+02               0
GRID*                467               03.9353332520E+020.0000000000E+00+
*       -9.000000000E+02               0
GRID*                468               03.9353029502E+020.0000000000E+00+
*       -8.863636364E+02               0
GRID*                469               03.9352726484E+020.0000000000E+00+
*       -8.727272727E+02               0
GRID*                470               03.9352423466E+020.0000000000E+00+
*       -8.590909091E+02               0
GRID*                471               03.9352120448E+020.0000000000E+00+
*       -8.454545455E+02               0
GRID*                472               03.9351817430E+020.0000000000E+00+
*       -8.318181818E+02               0
GRID*                473               03.9351514412E+020.0000000000E+00+
*       -8.181818182E+02               0
GRID*                474               03.9351211394E+020.0000000000E+00+
*       -8.045454545E+02               0
GRID*                475               03.9350908376E+020.0000000000E+00+
*       -7.909090909E+02               0
GRID*                476               03.9350605358E+020.0000000000E+00+
*       -7.772727273E+02               0
GRID*                477               03.9350302340E+020.0000000000E+00+
*       -7.636363636E+02               0
GRID*                478               03.9349999322E+020.0000000000E+00+
*       -7.500000000E+02               0
GRID*                479               03.9349696304E+020.0000000000E+00+
*       -7.363636364E+02               0
GRID*                480               03.9349393286E+020.0000000000E+00+
*       -7.227272727E+02               0
GRID*                481               03.9349090268E+020.0000000000E+00+
*       -7.090909091E+02               0
GRID*                482               03.9348787250E+020.0000000000E+00+
*       -6.954545455E+02               0
GRID*                483               03.9348484232E+020.0000000000E+00+
*       -6.818181818E+02               0
GRID*                484               03.9348181214E+020.0000000000E+00+
*       -6.681818182E+02               0
GRID*                485               03.9347878196E+020.0000000000E+00+
*       -6.545454545E+02               0
GRID*                486               03.9347575178E+020.0000000000E+00+
*       -6.409090909E+02               0
GRID*                487               03.9347272160E+020.0000000000E+00+
*       -6.272727273E+02               0
GRID*                488               03.9346969142E+020.0000000000E+00+
*       -6.136363636E+02               0
GRID*                489               03.9346666124E+020.0000000000E+00+
*       -6.000000000E+02               0
GRID*                490               03.9346363106E+020.0000000000E+00+
*       -5.863636364E+02               0
GRID*                491               03.9346060088E+020.0000000000E+00+
*       -5.727272727E+02               0
GRID*                492               03.9345757070E+020.0000000000E+00+
*       -5.590909091E+02               0
GRID*                493               03.9345454052E+020.0000000000E+00+
*       -5.454545455E+02               0
GRID*                494               03.9345151034E+020.0000000000E+00+
*       -5.318181818E+02               0
GRID*                495               03.9344848016E+020.0000000000E+00+
*       -5.181818182E+02               0
GRID*                496               03.9344544998E+020.0000000000E+00+
*       -5.045454545E+02               0
GRID*                497               03.9344241980E+020.0000000000E+00+
*       -4.909090909E+02               0
GRID*                498               03.9343938962E+020.0000000000E+00+
*       -4.772727273E+02               0
GRID*                499               03.9343635944E+020.0000000000E+00+
*       -4.636363636E+02               0
GRID*                500               03.9343332926E+020.0000000000E+00+
*       -4.500000000E+02               0
GRID*                501               03.9343029908E+020.0000000000E+00+
*       -4.363636364E+02               0
GRID*                502               03.9342726890E+020.0000000000E+00+
*       -4.227272727E+02               0
GRID*                503               03.9342423873E+020.0000000000E+00+
*       -4.090909091E+02               0
GRID*                504               03.9342120855E+020.0000000000E+00+
*       -3.954545455E+02               0
GRID*                505               03.9341817837E+020.0000000000E+00+
*       -3.818181818E+02               0
GRID*                506               03.9341514819E+020.0000000000E+00+
*       -3.681818182E+02               0
GRID*                507               03.9341211801E+020.0000000000E+00+
*       -3.545454545E+02               0
GRID*                508               03.9340908783E+020.0000000000E+00+
*       -3.409090909E+02               0
GRID*                509               03.9340605765E+020.0000000000E+00+
*       -3.272727273E+02               0
GRID*                510               03.9340302747E+020.0000000000E+00+
*       -3.136363636E+02               0
GRID*                511               03.9339999729E+020.0000000000E+00+
*       -3.000000000E+02               0
GRID*                512               03.9339696711E+020.0000000000E+00+
*       -2.863636364E+02               0
GRID*                513               03.9339393693E+020.0000000000E+00+
*       -2.727272727E+02               0
GRID*                514               03.9339090675E+020.0000000000E+00+
*       -2.590909091E+02               0
GRID*                515               03.9338787657E+020.0000000000E+00+
*       -2.454545455E+02               0
GRID*                516               03.9338484639E+020.0000000000E+00+
*       -2.318181818E+02               0
GRID*                517               03.9338181621E+020.0000000000E+00+
*       -2.181818182E+02               0
GRID*                518               03.9337878603E+020.0000000000E+00+
*       -2.045454545E+02               0
GRID*                519               03.9337575585E+020.0000000000E+00+
*       -1.909090909E+02               0
GRID*                520               03.9337272567E+020.0000000000E+00+
*       -1.772727273E+02               0
GRID*                521               03.9336969549E+020.0000000000E+00+
*       -1.636363636E+02               0
GRID*                522               03.9336666531E+020.0000000000E+00+
*       -1.500000000E+02               0
GRID*                523               03.9336363513E+020.0000000000E+00+
*       -1.363636364E+02               0
GRID*                524               03.9336060495E+020.0000000000E+00+
*       -1.227272727E+02               0
GRID*                525               03.9335757477E+020.0000000000E+00+
*       -1.090909091E+02               0
GRID*                526               03.9335454459E+020.0000000000E+00+
*       -9.545454545E+01               0
GRID*                527               03.9335151441E+020.0000000000E+00+
*       -8.181818182E+01               0
GRID*                528               03.9334848423E+020.0000000000E+00+
*       -6.818181818E+01               0
GRID*                529               03.9334545405E+020.0000000000E+00+
*       -5.454545455E+01               0
GRID*                530               03.9334242387E+020.0000000000E+00+
*       -4.090909091E+01               0
GRID*                531               03.9333939369E+020.0000000000E+00+
*       -2.727272727E+01               0
GRID*                532               03.9333636351E+020.0000000000E+00+
*       -1.363636364E+01               0
GRID*                533               04.0692985942E+020.0000000000E+00+
*       -1.036363636E+03               0
GRID*                534               04.0692639636E+020.0000000000E+00+
*       -1.022727273E+03               0
GRID*                535               04.0692293330E+020.0000000000E+00+
*       -1.009090909E+03               0
GRID*                536               04.0691947023E+020.0000000000E+00+
*       -9.954545455E+02               0
GRID*                537               04.0691600717E+020.0000000000E+00+
*       -9.818181818E+02               0
GRID*                538               04.0691254411E+020.0000000000E+00+
*       -9.681818182E+02               0
GRID*                539               04.0690908104E+020.0000000000E+00+
*       -9.545454545E+02               0
GRID*                540               04.0690561798E+020.0000000000E+00+
*       -9.409090909E+02               0
GRID*                541               04.0690215492E+020.0000000000E+00+
*       -9.272727273E+02               0
GRID*                542               04.0689869186E+020.0000000000E+00+
*       -9.136363636E+02               0
GRID*                543               04.0689522879E+020.0000000000E+00+
*       -9.000000000E+02               0
GRID*                544               04.0689176573E+020.0000000000E+00+
*       -8.863636364E+02               0
GRID*                545               04.0688830267E+020.0000000000E+00+
*       -8.727272727E+02               0
GRID*                546               04.0688483961E+020.0000000000E+00+
*       -8.590909091E+02               0
GRID*                547               04.0688137654E+020.0000000000E+00+
*       -8.454545455E+02               0
GRID*                548               04.0687791348E+020.0000000000E+00+
*       -8.318181818E+02               0
GRID*                549               04.0687445042E+020.0000000000E+00+
*       -8.181818182E+02               0
GRID*                550               04.0687098736E+020.0000000000E+00+
*       -8.045454545E+02               0
GRID*                551               04.0686752429E+020.0000000000E+00+
*       -7.909090909E+02               0
GRID*                552               04.0686406123E+020.0000000000E+00+
*       -7.772727273E+02               0
GRID*                553               04.0686059817E+020.0000000000E+00+
*       -7.636363636E+02               0
GRID*                554               04.0685713511E+020.0000000000E+00+
*       -7.500000000E+02               0
GRID*                555               04.0685367204E+020.0000000000E+00+
*       -7.363636364E+02               0
GRID*                556               04.0685020898E+020.0000000000E+00+
*       -7.227272727E+02               0
GRID*                557               04.0684674592E+020.0000000000E+00+
*       -7.090909091E+02               0
GRID*                558               04.0684328286E+020.0000000000E+00+
*       -6.954545455E+02               0
GRID*                559               04.0683981979E+020.0000000000E+00+
*       -6.818181818E+02               0
GRID*                560               04.0683635673E+020.0000000000E+00+
*       -6.681818182E+02               0
GRID*                561               04.0683289367E+020.0000000000E+00+
*       -6.545454545E+02               0
GRID*                562               04.0682943061E+020.0000000000E+00+
*       -6.409090909E+02               0
GRID*                563               04.0682596754E+020.0000000000E+00+
*       -6.272727273E+02               0
GRID*                564               04.0682250448E+020.0000000000E+00+
*       -6.136363636E+02               0
GRID*                565               04.0681904142E+020.0000000000E+00+
*       -6.000000000E+02               0
GRID*                566               04.0681557836E+020.0000000000E+00+
*       -5.863636364E+02               0
GRID*                567               04.0681211529E+020.0000000000E+00+
*       -5.727272727E+02               0
GRID*                568               04.0680865223E+020.0000000000E+00+
*       -5.590909091E+02               0
GRID*                569               04.0680518917E+020.0000000000E+00+
*       -5.454545455E+02               0
GRID*                570               04.0680172611E+020.0000000000E+00+
*       -5.318181818E+02               0
GRID*                571               04.0679826304E+020.0000000000E+00+
*       -5.181818182E+02               0
GRID*                572               04.0679479998E+020.0000000000E+00+
*       -5.045454545E+02               0
GRID*                573               04.0679133692E+020.0000000000E+00+
*       -4.909090909E+02               0
GRID*                574               04.0678787386E+020.0000000000E+00+
*       -4.772727273E+02               0
GRID*                575               04.0678441079E+020.0000000000E+00+
*       -4.636363636E+02               0
GRID*                576               04.0678094773E+020.0000000000E+00+
*       -4.500000000E+02               0
GRID*                577               04.0677748467E+020.0000000000E+00+
*       -4.363636364E+02               0
GRID*                578               04.0677402161E+020.0000000000E+00+
*       -4.227272727E+02               0
GRID*                579               04.0677055854E+020.0000000000E+00+
*       -4.090909091E+02               0
GRID*                580               04.0676709548E+020.0000000000E+00+
*       -3.954545455E+02               0
GRID*                581               04.0676363242E+020.0000000000E+00+
*       -3.818181818E+02               0
GRID*                582               04.0676016936E+020.0000000000E+00+
*       -3.681818182E+02               0
GRID*                583               04.0675670629E+020.0000000000E+00+
*       -3.545454545E+02               0
GRID*                584               04.0675324323E+020.0000000000E+00+
*       -3.409090909E+02               0
GRID*                585               04.0674978017E+020.0000000000E+00+
*       -3.272727273E+02               0
GRID*                586               04.0674631711E+020.0000000000E+00+
*       -3.136363636E+02               0
GRID*                587               04.0674285404E+020.0000000000E+00+
*       -3.000000000E+02               0
GRID*                588               04.0673939098E+020.0000000000E+00+
*       -2.863636364E+02               0
GRID*                589               04.0673592792E+020.0000000000E+00+
*       -2.727272727E+02               0
GRID*                590               04.0673246486E+020.0000000000E+00+
*       -2.590909091E+02               0
GRID*                591               04.0672900179E+020.0000000000E+00+
*       -2.454545455E+02               0
GRID*                592               04.0672553873E+020.0000000000E+00+
*       -2.318181818E+02               0
GRID*                593               04.0672207567E+020.0000000000E+00+
*       -2.181818182E+02               0
GRID*                594               04.0671861260E+020.0000000000E+00+
*       -2.045454545E+02               0
GRID*                595               04.0671514954E+020.0000000000E+00+
*       -1.909090909E+02               0
GRID*                596               04.0671168648E+020.0000000000E+00+
*       -1.772727273E+02               0
GRID*                597               04.0670822342E+020.0000000000E+00+
*       -1.636363636E+02               0
GRID*                598               04.0670476035E+020.0000000000E+00+
*       -1.500000000E+02               0
GRID*                599               04.0670129729E+020.0000000000E+00+
*       -1.363636364E+02               0
GRID*                600               04.0669783423E+020.0000000000E+00+
*       -1.227272727E+02               0
GRID*                601               04.0669437117E+020.0000000000E+00+
*       -1.090909091E+02               0
GRID*                602               04.0669090810E+020.0000000000E+00+
*       -9.545454545E+01               0
GRID*                603               04.0668744504E+020.0000000000E+00+
*       -8.181818182E+01               0
GRID*                604               04.0668398198E+020.0000000000E+00+
*       -6.818181818E+01               0
GRID*                605               04.0668051892E+020.0000000000E+00+
*       -5.454545455E+01               0
GRID*                606               04.0667705585E+020.0000000000E+00+
*       -4.090909091E+01               0
GRID*                607               04.0667359279E+020.0000000000E+00+
*       -2.727272727E+01               0
GRID*                608               04.0667012973E+020.0000000000E+00+
*       -1.363636364E+01               0
GRID*                609               04.2029609185E+020.0000000000E+00+
*       -1.036363636E+03               0
GRID*                610               04.2029219590E+020.0000000000E+00+
*       -1.022727273E+03               0
GRID*                611               04.2028829996E+020.0000000000E+00+
*       -1.009090909E+03               0
GRID*                612               04.2028440401E+020.0000000000E+00+
*       -9.954545455E+02               0
GRID*                613               04.2028050807E+020.0000000000E+00+
*       -9.818181818E+02               0
GRID*                614               04.2027661212E+020.0000000000E+00+
*       -9.681818182E+02               0
GRID*                615               04.2027271618E+020.0000000000E+00+
*       -9.545454545E+02               0
GRID*                616               04.2026882023E+020.0000000000E+00+
*       -9.409090909E+02               0
GRID*                617               04.2026492428E+020.0000000000E+00+
*       -9.272727273E+02               0
GRID*                618               04.2026102834E+020.0000000000E+00+
*       -9.136363636E+02               0
GRID*                619               04.2025713239E+020.0000000000E+00+
*       -9.000000000E+02               0
GRID*                620               04.2025323645E+020.0000000000E+00+
*       -8.863636364E+02               0
GRID*                621               04.2024934050E+020.0000000000E+00+
*       -8.727272727E+02               0
GRID*                622               04.2024544456E+020.0000000000E+00+
*       -8.590909091E+02               0
GRID*                623               04.2024154861E+020.0000000000E+00+
*       -8.454545455E+02               0
GRID*                624               04.2023765267E+020.0000000000E+00+
*       -8.318181818E+02               0
GRID*                625               04.2023375672E+020.0000000000E+00+
*       -8.181818182E+02               0
GRID*                626               04.2022986078E+020.0000000000E+00+
*       -8.045454545E+02               0
GRID*                627               04.2022596483E+020.0000000000E+00+
*       -7.909090909E+02               0
GRID*                628               04.2022206889E+020.0000000000E+00+
*       -7.772727273E+02               0
GRID*                629               04.2021817294E+020.0000000000E+00+
*       -7.636363636E+02               0
GRID*                630               04.2021427699E+020.0000000000E+00+
*       -7.500000000E+02               0
GRID*                631               04.2021038105E+020.0000000000E+00+
*       -7.363636364E+02               0
GRID*                632               04.2020648510E+020.0000000000E+00+
*       -7.227272727E+02               0
GRID*                633               04.2020258916E+020.0000000000E+00+
*       -7.090909091E+02               0
GRID*                634               04.2019869321E+020.0000000000E+00+
*       -6.954545455E+02               0
GRID*                635               04.2019479727E+020.0000000000E+00+
*       -6.818181818E+02               0
GRID*                636               04.2019090132E+020.0000000000E+00+
*       -6.681818182E+02               0
GRID*                637               04.2018700538E+020.0000000000E+00+
*       -6.545454545E+02               0
GRID*                638               04.2018310943E+020.0000000000E+00+
*       -6.409090909E+02               0
GRID*                639               04.2017921349E+020.0000000000E+00+
*       -6.272727273E+02               0
GRID*                640               04.2017531754E+020.0000000000E+00+
*       -6.136363636E+02               0
GRID*                641               04.2017142160E+020.0000000000E+00+
*       -6.000000000E+02               0
GRID*                642               04.2016752565E+020.0000000000E+00+
*       -5.863636364E+02               0
GRID*                643               04.2016362971E+020.0000000000E+00+
*       -5.727272727E+02               0
GRID*                644               04.2015973376E+020.0000000000E+00+
*       -5.590909091E+02               0
GRID*                645               04.2015583781E+020.0000000000E+00+
*       -5.454545455E+02               0
GRID*                646               04.2015194187E+020.0000000000E+00+
*       -5.318181818E+02               0
GRID*                647               04.2014804592E+020.0000000000E+00+
*       -5.181818182E+02               0
GRID*                648               04.2014414998E+020.0000000000E+00+
*       -5.045454545E+02               0
GRID*                649               04.2014025403E+020.0000000000E+00+
*       -4.909090909E+02               0
GRID*                650               04.2013635809E+020.0000000000E+00+
*       -4.772727273E+02               0
GRID*                651               04.2013246214E+020.0000000000E+00+
*       -4.636363636E+02               0
GRID*                652               04.2012856620E+020.0000000000E+00+
*       -4.500000000E+02               0
GRID*                653               04.2012467025E+020.0000000000E+00+
*       -4.363636364E+02               0
GRID*                654               04.2012077431E+020.0000000000E+00+
*       -4.227272727E+02               0
GRID*                655               04.2011687836E+020.0000000000E+00+
*       -4.090909091E+02               0
GRID*                656               04.2011298242E+020.0000000000E+00+
*       -3.954545455E+02               0
GRID*                657               04.2010908647E+020.0000000000E+00+
*       -3.818181818E+02               0
GRID*                658               04.2010519052E+020.0000000000E+00+
*       -3.681818182E+02               0
GRID*                659               04.2010129458E+020.0000000000E+00+
*       -3.545454545E+02               0
GRID*                660               04.2009739863E+020.0000000000E+00+
*       -3.409090909E+02               0
GRID*                661               04.2009350269E+020.0000000000E+00+
*       -3.272727273E+02               0
GRID*                662               04.2008960674E+020.0000000000E+00+
*       -3.136363636E+02               0
GRID*                663               04.2008571080E+020.0000000000E+00+
*       -3.000000000E+02               0
GRID*                664               04.2008181485E+020.0000000000E+00+
*       -2.863636364E+02               0
GRID*                665               04.2007791891E+020.0000000000E+00+
*       -2.727272727E+02               0
GRID*                666               04.2007402296E+020.0000000000E+00+
*       -2.590909091E+02               0
GRID*                667               04.2007012702E+020.0000000000E+00+
*       -2.454545455E+02               0
GRID*                668               04.2006623107E+020.0000000000E+00+
*       -2.318181818E+02               0
GRID*                669               04.2006233513E+020.0000000000E+00+
*       -2.181818182E+02               0
GRID*                670               04.2005843918E+020.0000000000E+00+
*       -2.045454545E+02               0
GRID*                671               04.2005454324E+020.0000000000E+00+
*       -1.909090909E+02               0
GRID*                672               04.2005064729E+020.0000000000E+00+
*       -1.772727273E+02               0
GRID*                673               04.2004675134E+020.0000000000E+00+
*       -1.636363636E+02               0
GRID*                674               04.2004285540E+020.0000000000E+00+
*       -1.500000000E+02               0
GRID*                675               04.2003895945E+020.0000000000E+00+
*       -1.363636364E+02               0
GRID*                676               04.2003506351E+020.0000000000E+00+
*       -1.227272727E+02               0
GRID*                677               04.2003116756E+020.0000000000E+00+
*       -1.090909091E+02               0
GRID*                678               04.2002727162E+020.0000000000E+00+
*       -9.545454545E+01               0
GRID*                679               04.2002337567E+020.0000000000E+00+
*       -8.181818182E+01               0
GRID*                680               04.2001947973E+020.0000000000E+00+
*       -6.818181818E+01               0
GRID*                681               04.2001558378E+020.0000000000E+00+
*       -5.454545455E+01               0
GRID*                682               04.2001168784E+020.0000000000E+00+
*       -4.090909091E+01               0
GRID*                683               04.2000779189E+020.0000000000E+00+
*       -2.727272727E+01               0
GRID*                684               04.2000389595E+020.0000000000E+00+
*       -1.363636364E+01               0
GRID*                685               04.3366232428E+020.0000000000E+00+
*       -1.036363636E+03               0
GRID*                686               04.3365799545E+020.0000000000E+00+
*       -1.022727273E+03               0
GRID*                687               04.3365366662E+020.0000000000E+00+
*       -1.009090909E+03               0
GRID*                688               04.3364933779E+020.0000000000E+00+
*       -9.954545455E+02               0
GRID*                689               04.3364500896E+020.0000000000E+00+
*       -9.818181818E+02               0
GRID*                690               04.3364068013E+020.0000000000E+00+
*       -9.681818182E+02               0
GRID*                691               04.3363635131E+020.0000000000E+00+
*       -9.545454545E+02               0
GRID*                692               04.3363202248E+020.0000000000E+00+
*       -9.409090909E+02               0
GRID*                693               04.3362769365E+020.0000000000E+00+
*       -9.272727273E+02               0
GRID*                694               04.3362336482E+020.0000000000E+00+
*       -9.136363636E+02               0
GRID*                695               04.3361903599E+020.0000000000E+00+
*       -9.000000000E+02               0
GRID*                696               04.3361470717E+020.0000000000E+00+
*       -8.863636364E+02               0
GRID*                697               04.3361037834E+020.0000000000E+00+
*       -8.727272727E+02               0
GRID*                698               04.3360604951E+020.0000000000E+00+
*       -8.590909091E+02               0
GRID*                699               04.3360172068E+020.0000000000E+00+
*       -8.454545455E+02               0
GRID*                700               04.3359739185E+020.0000000000E+00+
*       -8.318181818E+02               0
GRID*                701               04.3359306302E+020.0000000000E+00+
*       -8.181818182E+02               0
GRID*                702               04.3358873420E+020.0000000000E+00+
*       -8.045454545E+02               0
GRID*                703               04.3358440537E+020.0000000000E+00+
*       -7.909090909E+02               0
GRID*                704               04.3358007654E+020.0000000000E+00+
*       -7.772727273E+02               0
GRID*                705               04.3357574771E+020.0000000000E+00+
*       -7.636363636E+02               0
GRID*                706               04.3357141888E+020.0000000000E+00+
*       -7.500000000E+02               0
GRID*                707               04.3356709006E+020.0000000000E+00+
*       -7.363636364E+02               0
GRID*                708               04.3356276123E+020.0000000000E+00+
*       -7.227272727E+02               0
GRID*                709               04.3355843240E+020.0000000000E+00+
*       -7.090909091E+02               0
GRID*                710               04.3355410357E+020.0000000000E+00+
*       -6.954545455E+02               0
GRID*                711               04.3354977474E+020.0000000000E+00+
*       -6.818181818E+02               0
GRID*                712               04.3354544591E+020.0000000000E+00+
*       -6.681818182E+02               0
GRID*                713               04.3354111709E+020.0000000000E+00+
*       -6.545454545E+02               0
GRID*                714               04.3353678826E+020.0000000000E+00+
*       -6.409090909E+02               0
GRID*                715               04.3353245943E+020.0000000000E+00+
*       -6.272727273E+02               0
GRID*                716               04.3352813060E+020.0000000000E+00+
*       -6.136363636E+02               0
GRID*                717               04.3352380177E+020.0000000000E+00+
*       -6.000000000E+02               0
GRID*                718               04.3351947295E+020.0000000000E+00+
*       -5.863636364E+02               0
GRID*                719               04.3351514412E+020.0000000000E+00+
*       -5.727272727E+02               0
GRID*                720               04.3351081529E+020.0000000000E+00+
*       -5.590909091E+02               0
GRID*                721               04.3350648646E+020.0000000000E+00+
*       -5.454545455E+02               0
GRID*                722               04.3350215763E+020.0000000000E+00+
*       -5.318181818E+02               0
GRID*                723               04.3349782880E+020.0000000000E+00+
*       -5.181818182E+02               0
GRID*                724               04.3349349998E+020.0000000000E+00+
*       -5.045454545E+02               0
GRID*                725               04.3348917115E+020.0000000000E+00+
*       -4.909090909E+02               0
GRID*                726               04.3348484232E+020.0000000000E+00+
*       -4.772727273E+02               0
GRID*                727               04.3348051349E+020.0000000000E+00+
*       -4.636363636E+02               0
GRID*                728               04.3347618466E+020.0000000000E+00+
*       -4.500000000E+02               0
GRID*                729               04.3347185584E+020.0000000000E+00+
*       -4.363636364E+02               0
GRID*                730               04.3346752701E+020.0000000000E+00+
*       -4.227272727E+02               0
GRID*                731               04.3346319818E+020.0000000000E+00+
*       -4.090909091E+02               0
GRID*                732               04.3345886935E+020.0000000000E+00+
*       -3.954545455E+02               0
GRID*                733               04.3345454052E+020.0000000000E+00+
*       -3.818181818E+02               0
GRID*                734               04.3345021169E+020.0000000000E+00+
*       -3.681818182E+02               0
GRID*                735               04.3344588287E+020.0000000000E+00+
*       -3.545454545E+02               0
GRID*                736               04.3344155404E+020.0000000000E+00+
*       -3.409090909E+02               0
GRID*                737               04.3343722521E+020.0000000000E+00+
*       -3.272727273E+02               0
GRID*                738               04.3343289638E+020.0000000000E+00+
*       -3.136363636E+02               0
GRID*                739               04.3342856755E+020.0000000000E+00+
*       -3.000000000E+02               0
GRID*                740               04.3342423873E+020.0000000000E+00+
*       -2.863636364E+02               0
GRID*                741               04.3341990990E+020.0000000000E+00+
*       -2.727272727E+02               0
GRID*                742               04.3341558107E+020.0000000000E+00+
*       -2.590909091E+02               0
GRID*                743               04.3341125224E+020.0000000000E+00+
*       -2.454545455E+02               0
GRID*                744               04.3340692341E+020.0000000000E+00+
*       -2.318181818E+02               0
GRID*                745               04.3340259458E+020.0000000000E+00+
*       -2.181818182E+02               0
GRID*                746               04.3339826576E+020.0000000000E+00+
*       -2.045454545E+02               0
GRID*                747               04.3339393693E+020.0000000000E+00+
*       -1.909090909E+02               0
GRID*                748               04.3338960810E+020.0000000000E+00+
*       -1.772727273E+02               0
GRID*                749               04.3338527927E+020.0000000000E+00+
*       -1.636363636E+02               0
GRID*                750               04.3338095044E+020.0000000000E+00+
*       -1.500000000E+02               0
GRID*                751               04.3337662162E+020.0000000000E+00+
*       -1.363636364E+02               0
GRID*                752               04.3337229279E+020.0000000000E+00+
*       -1.227272727E+02               0
GRID*                753               04.3336796396E+020.0000000000E+00+
*       -1.090909091E+02               0
GRID*                754               04.3336363513E+020.0000000000E+00+
*       -9.545454545E+01               0
GRID*                755               04.3335930630E+020.0000000000E+00+
*       -8.181818182E+01               0
GRID*                756               04.3335497747E+020.0000000000E+00+
*       -6.818181818E+01               0
GRID*                757               04.3335064865E+020.0000000000E+00+
*       -5.454545455E+01               0
GRID*                758               04.3334631982E+020.0000000000E+00+
*       -4.090909091E+01               0
GRID*                759               04.3334199099E+020.0000000000E+00+
*       -2.727272727E+01               0
GRID*                760               04.3333766216E+020.0000000000E+00+
*       -1.363636364E+01               0
GRID*                761               04.4702855670E+020.0000000000E+00+
*       -1.036363636E+03               0
GRID*                762               04.4702379499E+020.0000000000E+00+
*       -1.022727273E+03               0
GRID*                763               04.4701903328E+020.0000000000E+00+
*       -1.009090909E+03               0
GRID*                764               04.4701427157E+020.0000000000E+00+
*       -9.954545455E+02               0
GRID*                765               04.4700950986E+020.0000000000E+00+
*       -9.818181818E+02               0
GRID*                766               04.4700474815E+020.0000000000E+00+
*       -9.681818182E+02               0
GRID*                767               04.4699998644E+020.0000000000E+00+
*       -9.545454545E+02               0
GRID*                768               04.4699522473E+020.0000000000E+00+
*       -9.409090909E+02               0
GRID*                769               04.4699046301E+020.0000000000E+00+
*       -9.272727273E+02               0
GRID*                770               04.4698570130E+020.0000000000E+00+
*       -9.136363636E+02               0
GRID*                771               04.4698093959E+020.0000000000E+00+
*       -9.000000000E+02               0
GRID*                772               04.4697617788E+020.0000000000E+00+
*       -8.863636364E+02               0
GRID*                773               04.4697141617E+020.0000000000E+00+
*       -8.727272727E+02               0
GRID*                774               04.4696665446E+020.0000000000E+00+
*       -8.590909091E+02               0
GRID*                775               04.4696189275E+020.0000000000E+00+
*       -8.454545455E+02               0
GRID*                776               04.4695713104E+020.0000000000E+00+
*       -8.318181818E+02               0
GRID*                777               04.4695236933E+020.0000000000E+00+
*       -8.181818182E+02               0
GRID*                778               04.4694760762E+020.0000000000E+00+
*       -8.045454545E+02               0
GRID*                779               04.4694284590E+020.0000000000E+00+
*       -7.909090909E+02               0
GRID*                780               04.4693808419E+020.0000000000E+00+
*       -7.772727273E+02               0
GRID*                781               04.4693332248E+020.0000000000E+00+
*       -7.636363636E+02               0
GRID*                782               04.4692856077E+020.0000000000E+00+
*       -7.500000000E+02               0
GRID*                783               04.4692379906E+020.0000000000E+00+
*       -7.363636364E+02               0
GRID*                784               04.4691903735E+020.0000000000E+00+
*       -7.227272727E+02               0
GRID*                785               04.4691427564E+020.0000000000E+00+
*       -7.090909091E+02               0
GRID*                786               04.4690951393E+020.0000000000E+00+
*       -6.954545455E+02               0
GRID*                787               04.4690475222E+020.0000000000E+00+
*       -6.818181818E+02               0
GRID*                788               04.4689999051E+020.0000000000E+00+
*       -6.681818182E+02               0
GRID*                789               04.4689522879E+020.0000000000E+00+
*       -6.545454545E+02               0
GRID*                790               04.4689046708E+020.0000000000E+00+
*       -6.409090909E+02               0
GRID*                791               04.4688570537E+020.0000000000E+00+
*       -6.272727273E+02               0
GRID*                792               04.4688094366E+020.0000000000E+00+
*       -6.136363636E+02               0
GRID*                793               04.4687618195E+020.0000000000E+00+
*       -6.000000000E+02               0
GRID*                794               04.4687142024E+020.0000000000E+00+
*       -5.863636364E+02               0
GRID*                795               04.4686665853E+020.0000000000E+00+
*       -5.727272727E+02               0
GRID*                796               04.4686189682E+020.0000000000E+00+
*       -5.590909091E+02               0
GRID*                797               04.4685713511E+020.0000000000E+00+
*       -5.454545455E+02               0
GRID*                798               04.4685237340E+020.0000000000E+00+
*       -5.318181818E+02               0
GRID*                799               04.4684761168E+020.0000000000E+00+
*       -5.181818182E+02               0
GRID*                800               04.4684284997E+020.0000000000E+00+
*       -5.045454545E+02               0
GRID*                801               04.4683808826E+020.0000000000E+00+
*       -4.909090909E+02               0
GRID*                802               04.4683332655E+020.0000000000E+00+
*       -4.772727273E+02               0
GRID*                803               04.4682856484E+020.0000000000E+00+
*       -4.636363636E+02               0
GRID*                804               04.4682380313E+020.0000000000E+00+
*       -4.500000000E+02               0
GRID*                805               04.4681904142E+020.0000000000E+00+
*       -4.363636364E+02               0
GRID*                806               04.4681427971E+020.0000000000E+00+
*       -4.227272727E+02               0
GRID*                807               04.4680951800E+020.0000000000E+00+
*       -4.090909091E+02               0
GRID*                808               04.4680475629E+020.0000000000E+00+
*       -3.954545455E+02               0
GRID*                809               04.4679999457E+020.0000000000E+00+
*       -3.818181818E+02               0
GRID*                810               04.4679523286E+020.0000000000E+00+
*       -3.681818182E+02               0
GRID*                811               04.4679047115E+020.0000000000E+00+
*       -3.545454545E+02               0
GRID*                812               04.4678570944E+020.0000000000E+00+
*       -3.409090909E+02               0
GRID*                813               04.4678094773E+020.0000000000E+00+
*       -3.272727273E+02               0
GRID*                814               04.4677618602E+020.0000000000E+00+
*       -3.136363636E+02               0
GRID*                815               04.4677142431E+020.0000000000E+00+
*       -3.000000000E+02               0
GRID*                816               04.4676666260E+020.0000000000E+00+
*       -2.863636364E+02               0
GRID*                817               04.4676190089E+020.0000000000E+00+
*       -2.727272727E+02               0
GRID*                818               04.4675713918E+020.0000000000E+00+
*       -2.590909091E+02               0
GRID*                819               04.4675237746E+020.0000000000E+00+
*       -2.454545455E+02               0
GRID*                820               04.4674761575E+020.0000000000E+00+
*       -2.318181818E+02               0
GRID*                821               04.4674285404E+020.0000000000E+00+
*       -2.181818182E+02               0
GRID*                822               04.4673809233E+020.0000000000E+00+
*       -2.045454545E+02               0
GRID*                823               04.4673333062E+020.0000000000E+00+
*       -1.909090909E+02               0
GRID*                824               04.4672856891E+020.0000000000E+00+
*       -1.772727273E+02               0
GRID*                825               04.4672380720E+020.0000000000E+00+
*       -1.636363636E+02               0
GRID*                826               04.4671904549E+020.0000000000E+00+
*       -1.500000000E+02               0
GRID*                827               04.4671428378E+020.0000000000E+00+
*       -1.363636364E+02               0
GRID*                828               04.4670952207E+020.0000000000E+00+
*       -1.227272727E+02               0
GRID*                829               04.4670476035E+020.0000000000E+00+
*       -1.090909091E+02               0
GRID*                830               04.4669999864E+020.0000000000E+00+
*       -9.545454545E+01               0
GRID*                831               04.4669523693E+020.0000000000E+00+
*       -8.181818182E+01               0
GRID*                832               04.4669047522E+020.0000000000E+00+
*       -6.818181818E+01               0
GRID*                833               04.4668571351E+020.0000000000E+00+
*       -5.454545455E+01               0
GRID*                834               04.4668095180E+020.0000000000E+00+
*       -4.090909091E+01               0
GRID*                835               04.4667619009E+020.0000000000E+00+
*       -2.727272727E+01               0
GRID*                836               04.4667142838E+020.0000000000E+00+
*       -1.363636364E+01               0
GRID*                837               04.6039478913E+020.0000000000E+00+
*       -1.036363636E+03               0
GRID*                838               04.6038959454E+020.0000000000E+00+
*       -1.022727273E+03               0
GRID*                839               04.6038439994E+020.0000000000E+00+
*       -1.009090909E+03               0
GRID*                840               04.6037920535E+020.0000000000E+00+
*       -9.954545455E+02               0
GRID*                841               04.6037401075E+020.0000000000E+00+
*       -9.818181818E+02               0
GRID*                842               04.6036881616E+020.0000000000E+00+
*       -9.681818182E+02               0
GRID*                843               04.6036362157E+020.0000000000E+00+
*       -9.545454545E+02               0
GRID*                844               04.6035842697E+020.0000000000E+00+
*       -9.409090909E+02               0
GRID*                845               04.6035323238E+020.0000000000E+00+
*       -9.272727273E+02               0
GRID*                846               04.6034803779E+020.0000000000E+00+
*       -9.136363636E+02               0
GRID*                847               04.6034284319E+020.0000000000E+00+
*       -9.000000000E+02               0
GRID*                848               04.6033764860E+020.0000000000E+00+
*       -8.863636364E+02               0
GRID*                849               04.6033245400E+020.0000000000E+00+
*       -8.727272727E+02               0
GRID*                850               04.6032725941E+020.0000000000E+00+
*       -8.590909091E+02               0
GRID*                851               04.6032206482E+020.0000000000E+00+
*       -8.454545455E+02               0
GRID*                852               04.6031687022E+020.0000000000E+00+
*       -8.318181818E+02               0
GRID*                853               04.6031167563E+020.0000000000E+00+
*       -8.181818182E+02               0
GRID*                854               04.6030648104E+020.0000000000E+00+
*       -8.045454545E+02               0
GRID*                855               04.6030128644E+020.0000000000E+00+
*       -7.909090909E+02               0
GRID*                856               04.6029609185E+020.0000000000E+00+
*       -7.772727273E+02               0
GRID*                857               04.6029089725E+020.0000000000E+00+
*       -7.636363636E+02               0
GRID*                858               04.6028570266E+020.0000000000E+00+
*       -7.500000000E+02               0
GRID*                859               04.6028050807E+020.0000000000E+00+
*       -7.363636364E+02               0
GRID*                860               04.6027531347E+020.0000000000E+00+
*       -7.227272727E+02               0
GRID*                861               04.6027011888E+020.0000000000E+00+
*       -7.090909091E+02               0
GRID*                862               04.6026492428E+020.0000000000E+00+
*       -6.954545455E+02               0
GRID*                863               04.6025972969E+020.0000000000E+00+
*       -6.818181818E+02               0
GRID*                864               04.6025453510E+020.0000000000E+00+
*       -6.681818182E+02               0
GRID*                865               04.6024934050E+020.0000000000E+00+
*       -6.545454545E+02               0
GRID*                866               04.6024414591E+020.0000000000E+00+
*       -6.409090909E+02               0
GRID*                867               04.6023895132E+020.0000000000E+00+
*       -6.272727273E+02               0
GRID*                868               04.6023375672E+020.0000000000E+00+
*       -6.136363636E+02               0
GRID*                869               04.6022856213E+020.0000000000E+00+
*       -6.000000000E+02               0
GRID*                870               04.6022336753E+020.0000000000E+00+
*       -5.863636364E+02               0
GRID*                871               04.6021817294E+020.0000000000E+00+
*       -5.727272727E+02               0
GRID*                872               04.6021297835E+020.0000000000E+00+
*       -5.590909091E+02               0
GRID*                873               04.6020778375E+020.0000000000E+00+
*       -5.454545455E+02               0
GRID*                874               04.6020258916E+020.0000000000E+00+
*       -5.318181818E+02               0
GRID*                875               04.6019739457E+020.0000000000E+00+
*       -5.181818182E+02               0
GRID*                876               04.6019219997E+020.0000000000E+00+
*       -5.045454545E+02               0
GRID*                877               04.6018700538E+020.0000000000E+00+
*       -4.909090909E+02               0
GRID*                878               04.6018181078E+020.0000000000E+00+
*       -4.772727273E+02               0
GRID*                879               04.6017661619E+020.0000000000E+00+
*       -4.636363636E+02               0
GRID*                880               04.6017142160E+020.0000000000E+00+
*       -4.500000000E+02               0
GRID*                881               04.6016622700E+020.0000000000E+00+
*       -4.363636364E+02               0
GRID*                882               04.6016103241E+020.0000000000E+00+
*       -4.227272727E+02               0
GRID*                883               04.6015583781E+020.0000000000E+00+
*       -4.090909091E+02               0
GRID*                884               04.6015064322E+020.0000000000E+00+
*       -3.954545455E+02               0
GRID*                885               04.6014544863E+020.0000000000E+00+
*       -3.818181818E+02               0
GRID*                886               04.6014025403E+020.0000000000E+00+
*       -3.681818182E+02               0
GRID*                887               04.6013505944E+020.0000000000E+00+
*       -3.545454545E+02               0
GRID*                888               04.6012986485E+020.0000000000E+00+
*       -3.409090909E+02               0
GRID*                889               04.6012467025E+020.0000000000E+00+
*       -3.272727273E+02               0
GRID*                890               04.6011947566E+020.0000000000E+00+
*       -3.136363636E+02               0
GRID*                891               04.6011428106E+020.0000000000E+00+
*       -3.000000000E+02               0
GRID*                892               04.6010908647E+020.0000000000E+00+
*       -2.863636364E+02               0
GRID*                893               04.6010389188E+020.0000000000E+00+
*       -2.727272727E+02               0
GRID*                894               04.6009869728E+020.0000000000E+00+
*       -2.590909091E+02               0
GRID*                895               04.6009350269E+020.0000000000E+00+
*       -2.454545455E+02               0
GRID*                896               04.6008830809E+020.0000000000E+00+
*       -2.318181818E+02               0
GRID*                897               04.6008311350E+020.0000000000E+00+
*       -2.181818182E+02               0
GRID*                898               04.6007791891E+020.0000000000E+00+
*       -2.045454545E+02               0
GRID*                899               04.6007272431E+020.0000000000E+00+
*       -1.909090909E+02               0
GRID*                900               04.6006752972E+020.0000000000E+00+
*       -1.772727273E+02               0
GRID*                901               04.6006233513E+020.0000000000E+00+
*       -1.636363636E+02               0
GRID*                902               04.6005714053E+020.0000000000E+00+
*       -1.500000000E+02               0
GRID*                903               04.6005194594E+020.0000000000E+00+
*       -1.363636364E+02               0
GRID*                904               04.6004675134E+020.0000000000E+00+
*       -1.227272727E+02               0
GRID*                905               04.6004155675E+020.0000000000E+00+
*       -1.090909091E+02               0
GRID*                906               04.6003636216E+020.0000000000E+00+
*       -9.545454545E+01               0
GRID*                907               04.6003116756E+020.0000000000E+00+
*       -8.181818182E+01               0
GRID*                908               04.6002597297E+020.0000000000E+00+
*       -6.818181818E+01               0
GRID*                909               04.6002077838E+020.0000000000E+00+
*       -5.454545455E+01               0
GRID*                910               04.6001558378E+020.0000000000E+00+
*       -4.090909091E+01               0
GRID*                911               04.6001038919E+020.0000000000E+00+
*       -2.727272727E+01               0
GRID*                912               04.6000519459E+020.0000000000E+00+
*       -1.363636364E+01               0
GRID*                913               04.7376102156E+020.0000000000E+00+
*       -1.036363636E+03               0
GRID*                914               04.7375539408E+020.0000000000E+00+
*       -1.022727273E+03               0
GRID*                915               04.7374976660E+020.0000000000E+00+
*       -1.009090909E+03               0
GRID*                916               04.7374413913E+020.0000000000E+00+
*       -9.954545455E+02               0
GRID*                917               04.7373851165E+020.0000000000E+00+
*       -9.818181818E+02               0
GRID*                918               04.7373288417E+020.0000000000E+00+
*       -9.681818182E+02               0
GRID*                919               04.7372725670E+020.0000000000E+00+
*       -9.545454545E+02               0
GRID*                920               04.7372162922E+020.0000000000E+00+
*       -9.409090909E+02               0
GRID*                921               04.7371600174E+020.0000000000E+00+
*       -9.272727273E+02               0
GRID*                922               04.7371037427E+020.0000000000E+00+
*       -9.136363636E+02               0
GRID*                923               04.7370474679E+020.0000000000E+00+
*       -9.000000000E+02               0
GRID*                924               04.7369911931E+020.0000000000E+00+
*       -8.863636364E+02               0
GRID*                925               04.7369349184E+020.0000000000E+00+
*       -8.727272727E+02               0
GRID*                926               04.7368786436E+020.0000000000E+00+
*       -8.590909091E+02               0
GRID*                927               04.7368223688E+020.0000000000E+00+
*       -8.454545455E+02               0
GRID*                928               04.7367660941E+020.0000000000E+00+
*       -8.318181818E+02               0
GRID*                929               04.7367098193E+020.0000000000E+00+
*       -8.181818182E+02               0
GRID*                930               04.7366535445E+020.0000000000E+00+
*       -8.045454545E+02               0
GRID*                931               04.7365972698E+020.0000000000E+00+
*       -7.909090909E+02               0
GRID*                932               04.7365409950E+020.0000000000E+00+
*       -7.772727273E+02               0
GRID*                933               04.7364847202E+020.0000000000E+00+
*       -7.636363636E+02               0
GRID*                934               04.7364284455E+020.0000000000E+00+
*       -7.500000000E+02               0
GRID*                935               04.7363721707E+020.0000000000E+00+
*       -7.363636364E+02               0
GRID*                936               04.7363158960E+020.0000000000E+00+
*       -7.227272727E+02               0
GRID*                937               04.7362596212E+020.0000000000E+00+
*       -7.090909091E+02               0
GRID*                938               04.7362033464E+020.0000000000E+00+
*       -6.954545455E+02               0
GRID*                939               04.7361470717E+020.0000000000E+00+
*       -6.818181818E+02               0
GRID*                940               04.7360907969E+020.0000000000E+00+
*       -6.681818182E+02               0
GRID*                941               04.7360345221E+020.0000000000E+00+
*       -6.545454545E+02               0
GRID*                942               04.7359782474E+020.0000000000E+00+
*       -6.409090909E+02               0
GRID*                943               04.7359219726E+020.0000000000E+00+
*       -6.272727273E+02               0
GRID*                944               04.7358656978E+020.0000000000E+00+
*       -6.136363636E+02               0
GRID*                945               04.7358094231E+020.0000000000E+00+
*       -6.000000000E+02               0
GRID*                946               04.7357531483E+020.0000000000E+00+
*       -5.863636364E+02               0
GRID*                947               04.7356968735E+020.0000000000E+00+
*       -5.727272727E+02               0
GRID*                948               04.7356405988E+020.0000000000E+00+
*       -5.590909091E+02               0
GRID*                949               04.7355843240E+020.0000000000E+00+
*       -5.454545455E+02               0
GRID*                950               04.7355280492E+020.0000000000E+00+
*       -5.318181818E+02               0
GRID*                951               04.7354717745E+020.0000000000E+00+
*       -5.181818182E+02               0
GRID*                952               04.7354154997E+020.0000000000E+00+
*       -5.045454545E+02               0
GRID*                953               04.7353592249E+020.0000000000E+00+
*       -4.909090909E+02               0
GRID*                954               04.7353029502E+020.0000000000E+00+
*       -4.772727273E+02               0
GRID*                955               04.7352466754E+020.0000000000E+00+
*       -4.636363636E+02               0
GRID*                956               04.7351904006E+020.0000000000E+00+
*       -4.500000000E+02               0
GRID*                957               04.7351341259E+020.0000000000E+00+
*       -4.363636364E+02               0
GRID*                958               04.7350778511E+020.0000000000E+00+
*       -4.227272727E+02               0
GRID*                959               04.7350215763E+020.0000000000E+00+
*       -4.090909091E+02               0
GRID*                960               04.7349653016E+020.0000000000E+00+
*       -3.954545455E+02               0
GRID*                961               04.7349090268E+020.0000000000E+00+
*       -3.818181818E+02               0
GRID*                962               04.7348527520E+020.0000000000E+00+
*       -3.681818182E+02               0
GRID*                963               04.7347964773E+020.0000000000E+00+
*       -3.545454545E+02               0
GRID*                964               04.7347402025E+020.0000000000E+00+
*       -3.409090909E+02               0
GRID*                965               04.7346839277E+020.0000000000E+00+
*       -3.272727273E+02               0
GRID*                966               04.7346276530E+020.0000000000E+00+
*       -3.136363636E+02               0
GRID*                967               04.7345713782E+020.0000000000E+00+
*       -3.000000000E+02               0
GRID*                968               04.7345151034E+020.0000000000E+00+
*       -2.863636364E+02               0
GRID*                969               04.7344588287E+020.0000000000E+00+
*       -2.727272727E+02               0
GRID*                970               04.7344025539E+020.0000000000E+00+
*       -2.590909091E+02               0
GRID*                971               04.7343462791E+020.0000000000E+00+
*       -2.454545455E+02               0
GRID*                972               04.7342900044E+020.0000000000E+00+
*       -2.318181818E+02               0
GRID*                973               04.7342337296E+020.0000000000E+00+
*       -2.181818182E+02               0
GRID*                974               04.7341774548E+020.0000000000E+00+
*       -2.045454545E+02               0
GRID*                975               04.7341211801E+020.0000000000E+00+
*       -1.909090909E+02               0
GRID*                976               04.7340649053E+020.0000000000E+00+
*       -1.772727273E+02               0
GRID*                977               04.7340086305E+020.0000000000E+00+
*       -1.636363636E+02               0
GRID*                978               04.7339523558E+020.0000000000E+00+
*       -1.500000000E+02               0
GRID*                979               04.7338960810E+020.0000000000E+00+
*       -1.363636364E+02               0
GRID*                980               04.7338398062E+020.0000000000E+00+
*       -1.227272727E+02               0
GRID*                981               04.7337835315E+020.0000000000E+00+
*       -1.090909091E+02               0
GRID*                982               04.7337272567E+020.0000000000E+00+
*       -9.545454545E+01               0
GRID*                983               04.7336709819E+020.0000000000E+00+
*       -8.181818182E+01               0
GRID*                984               04.7336147072E+020.0000000000E+00+
*       -6.818181818E+01               0
GRID*                985               04.7335584324E+020.0000000000E+00+
*       -5.454545455E+01               0
GRID*                986               04.7335021576E+020.0000000000E+00+
*       -4.090909091E+01               0
GRID*                987               04.7334458829E+020.0000000000E+00+
*       -2.727272727E+01               0
GRID*                988               04.7333896081E+020.0000000000E+00+
*       -1.363636364E+01               0
GRID*                989               04.8712725399E+020.0000000000E+00+
*       -1.036363636E+03               0
GRID*                990               04.8712119363E+020.0000000000E+00+
*       -1.022727273E+03               0
GRID*                991               04.8711513327E+020.0000000000E+00+
*       -1.009090909E+03               0
GRID*                992               04.8710907291E+020.0000000000E+00+
*       -9.954545455E+02               0
GRID*                993               04.8710301255E+020.0000000000E+00+
*       -9.818181818E+02               0
GRID*                994               04.8709695219E+020.0000000000E+00+
*       -9.681818182E+02               0
GRID*                995               04.8709089183E+020.0000000000E+00+
*       -9.545454545E+02               0
GRID*                996               04.8708483147E+020.0000000000E+00+
*       -9.409090909E+02               0
GRID*                997               04.8707877111E+020.0000000000E+00+
*       -9.272727273E+02               0
GRID*                998               04.8707271075E+020.0000000000E+00+
*       -9.136363636E+02               0
GRID*                999               04.8706665039E+020.0000000000E+00+
*       -9.000000000E+02               0
GRID*               1000               04.8706059003E+020.0000000000E+00+
*       -8.863636364E+02               0
GRID*               1001               04.8705452967E+020.0000000000E+00+
*       -8.727272727E+02               0
GRID*               1002               04.8704846931E+020.0000000000E+00+
*       -8.590909091E+02               0
GRID*               1003               04.8704240895E+020.0000000000E+00+
*       -8.454545455E+02               0
GRID*               1004               04.8703634859E+020.0000000000E+00+
*       -8.318181818E+02               0
GRID*               1005               04.8703028823E+020.0000000000E+00+
*       -8.181818182E+02               0
GRID*               1006               04.8702422787E+020.0000000000E+00+
*       -8.045454545E+02               0
GRID*               1007               04.8701816751E+020.0000000000E+00+
*       -7.909090909E+02               0
GRID*               1008               04.8701210716E+020.0000000000E+00+
*       -7.772727273E+02               0
GRID*               1009               04.8700604680E+020.0000000000E+00+
*       -7.636363636E+02               0
GRID*               1010               04.8699998644E+020.0000000000E+00+
*       -7.500000000E+02               0
GRID*               1011               04.8699392608E+020.0000000000E+00+
*       -7.363636364E+02               0
GRID*               1012               04.8698786572E+020.0000000000E+00+
*       -7.227272727E+02               0
GRID*               1013               04.8698180536E+020.0000000000E+00+
*       -7.090909091E+02               0
GRID*               1014               04.8697574500E+020.0000000000E+00+
*       -6.954545455E+02               0
GRID*               1015               04.8696968464E+020.0000000000E+00+
*       -6.818181818E+02               0
GRID*               1016               04.8696362428E+020.0000000000E+00+
*       -6.681818182E+02               0
GRID*               1017               04.8695756392E+020.0000000000E+00+
*       -6.545454545E+02               0
GRID*               1018               04.8695150356E+020.0000000000E+00+
*       -6.409090909E+02               0
GRID*               1019               04.8694544320E+020.0000000000E+00+
*       -6.272727273E+02               0
GRID*               1020               04.8693938284E+020.0000000000E+00+
*       -6.136363636E+02               0
GRID*               1021               04.8693332248E+020.0000000000E+00+
*       -6.000000000E+02               0
GRID*               1022               04.8692726212E+020.0000000000E+00+
*       -5.863636364E+02               0
GRID*               1023               04.8692120176E+020.0000000000E+00+
*       -5.727272727E+02               0
GRID*               1024               04.8691514140E+020.0000000000E+00+
*       -5.590909091E+02               0
GRID*               1025               04.8690908104E+020.0000000000E+00+
*       -5.454545455E+02               0
GRID*               1026               04.8690302069E+020.0000000000E+00+
*       -5.318181818E+02               0
GRID*               1027               04.8689696033E+020.0000000000E+00+
*       -5.181818182E+02               0
GRID*               1028               04.8689089997E+020.0000000000E+00+
*       -5.045454545E+02               0
GRID*               1029               04.8688483961E+020.0000000000E+00+
*       -4.909090909E+02               0
GRID*               1030               04.8687877925E+020.0000000000E+00+
*       -4.772727273E+02               0
GRID*               1031               04.8687271889E+020.0000000000E+00+
*       -4.636363636E+02               0
GRID*               1032               04.8686665853E+020.0000000000E+00+
*       -4.500000000E+02               0
GRID*               1033               04.8686059817E+020.0000000000E+00+
*       -4.363636364E+02               0
GRID*               1034               04.8685453781E+020.0000000000E+00+
*       -4.227272727E+02               0
GRID*               1035               04.8684847745E+020.0000000000E+00+
*       -4.090909091E+02               0
GRID*               1036               04.8684241709E+020.0000000000E+00+
*       -3.954545455E+02               0
GRID*               1037               04.8683635673E+020.0000000000E+00+
*       -3.818181818E+02               0
GRID*               1038               04.8683029637E+020.0000000000E+00+
*       -3.681818182E+02               0
GRID*               1039               04.8682423601E+020.0000000000E+00+
*       -3.545454545E+02               0
GRID*               1040               04.8681817565E+020.0000000000E+00+
*       -3.409090909E+02               0
GRID*               1041               04.8681211529E+020.0000000000E+00+
*       -3.272727273E+02               0
GRID*               1042               04.8680605493E+020.0000000000E+00+
*       -3.136363636E+02               0
GRID*               1043               04.8679999457E+020.0000000000E+00+
*       -3.000000000E+02               0
GRID*               1044               04.8679393422E+020.0000000000E+00+
*       -2.863636364E+02               0
GRID*               1045               04.8678787386E+020.0000000000E+00+
*       -2.727272727E+02               0
GRID*               1046               04.8678181350E+020.0000000000E+00+
*       -2.590909091E+02               0
GRID*               1047               04.8677575314E+020.0000000000E+00+
*       -2.454545455E+02               0
GRID*               1048               04.8676969278E+020.0000000000E+00+
*       -2.318181818E+02               0
GRID*               1049               04.8676363242E+020.0000000000E+00+
*       -2.181818182E+02               0
GRID*               1050               04.8675757206E+020.0000000000E+00+
*       -2.045454545E+02               0
GRID*               1051               04.8675151170E+020.0000000000E+00+
*       -1.909090909E+02               0
GRID*               1052               04.8674545134E+020.0000000000E+00+
*       -1.772727273E+02               0
GRID*               1053               04.8673939098E+020.0000000000E+00+
*       -1.636363636E+02               0
GRID*               1054               04.8673333062E+020.0000000000E+00+
*       -1.500000000E+02               0
GRID*               1055               04.8672727026E+020.0000000000E+00+
*       -1.363636364E+02               0
GRID*               1056               04.8672120990E+020.0000000000E+00+
*       -1.227272727E+02               0
GRID*               1057               04.8671514954E+020.0000000000E+00+
*       -1.090909091E+02               0
GRID*               1058               04.8670908918E+020.0000000000E+00+
*       -9.545454545E+01               0
GRID*               1059               04.8670302882E+020.0000000000E+00+
*       -8.181818182E+01               0
GRID*               1060               04.8669696846E+020.0000000000E+00+
*       -6.818181818E+01               0
GRID*               1061               04.8669090810E+020.0000000000E+00+
*       -5.454545455E+01               0
GRID*               1062               04.8668484775E+020.0000000000E+00+
*       -4.090909091E+01               0
GRID*               1063               04.8667878739E+020.0000000000E+00+
*       -2.727272727E+01               0
GRID*               1064               04.8667272703E+020.0000000000E+00+
*       -1.363636364E+01               0
GRID*               1065               05.0049348641E+020.0000000000E+00+
*       -1.036363636E+03               0
GRID*               1066               05.0048699317E+020.0000000000E+00+
*       -1.022727273E+03               0
GRID*               1067               05.0048049993E+020.0000000000E+00+
*       -1.009090909E+03               0
GRID*               1068               05.0047400669E+020.0000000000E+00+
*       -9.954545455E+02               0
GRID*               1069               05.0046751344E+020.0000000000E+00+
*       -9.818181818E+02               0
GRID*               1070               05.0046102020E+020.0000000000E+00+
*       -9.681818182E+02               0
GRID*               1071               05.0045452696E+020.0000000000E+00+
*       -9.545454545E+02               0
GRID*               1072               05.0044803372E+020.0000000000E+00+
*       -9.409090909E+02               0
GRID*               1073               05.0044154047E+020.0000000000E+00+
*       -9.272727273E+02               0
GRID*               1074               05.0043504723E+020.0000000000E+00+
*       -9.136363636E+02               0
GRID*               1075               05.0042855399E+020.0000000000E+00+
*       -9.000000000E+02               0
GRID*               1076               05.0042206075E+020.0000000000E+00+
*       -8.863636364E+02               0
GRID*               1077               05.0041556751E+020.0000000000E+00+
*       -8.727272727E+02               0
GRID*               1078               05.0040907426E+020.0000000000E+00+
*       -8.590909091E+02               0
GRID*               1079               05.0040258102E+020.0000000000E+00+
*       -8.454545455E+02               0
GRID*               1080               05.0039608778E+020.0000000000E+00+
*       -8.318181818E+02               0
GRID*               1081               05.0038959454E+020.0000000000E+00+
*       -8.181818182E+02               0
GRID*               1082               05.0038310129E+020.0000000000E+00+
*       -8.045454545E+02               0
GRID*               1083               05.0037660805E+020.0000000000E+00+
*       -7.909090909E+02               0
GRID*               1084               05.0037011481E+020.0000000000E+00+
*       -7.772727273E+02               0
GRID*               1085               05.0036362157E+020.0000000000E+00+
*       -7.636363636E+02               0
GRID*               1086               05.0035712832E+020.0000000000E+00+
*       -7.500000000E+02               0
GRID*               1087               05.0035063508E+020.0000000000E+00+
*       -7.363636364E+02               0
GRID*               1088               05.0034414184E+020.0000000000E+00+
*       -7.227272727E+02               0
GRID*               1089               05.0033764860E+020.0000000000E+00+
*       -7.090909091E+02               0
GRID*               1090               05.0033115536E+020.0000000000E+00+
*       -6.954545455E+02               0
GRID*               1091               05.0032466211E+020.0000000000E+00+
*       -6.818181818E+02               0
GRID*               1092               05.0031816887E+020.0000000000E+00+
*       -6.681818182E+02               0
GRID*               1093               05.0031167563E+020.0000000000E+00+
*       -6.545454545E+02               0
GRID*               1094               05.0030518239E+020.0000000000E+00+
*       -6.409090909E+02               0
GRID*               1095               05.0029868914E+020.0000000000E+00+
*       -6.272727273E+02               0
GRID*               1096               05.0029219590E+020.0000000000E+00+
*       -6.136363636E+02               0
GRID*               1097               05.0028570266E+020.0000000000E+00+
*       -6.000000000E+02               0
GRID*               1098               05.0027920942E+020.0000000000E+00+
*       -5.863636364E+02               0
GRID*               1099               05.0027271618E+020.0000000000E+00+
*       -5.727272727E+02               0
GRID*               1100               05.0026622293E+020.0000000000E+00+
*       -5.590909091E+02               0
GRID*               1101               05.0025972969E+020.0000000000E+00+
*       -5.454545455E+02               0
GRID*               1102               05.0025323645E+020.0000000000E+00+
*       -5.318181818E+02               0
GRID*               1103               05.0024674321E+020.0000000000E+00+
*       -5.181818182E+02               0
GRID*               1104               05.0024024996E+020.0000000000E+00+
*       -5.045454545E+02               0
GRID*               1105               05.0023375672E+020.0000000000E+00+
*       -4.909090909E+02               0
GRID*               1106               05.0022726348E+020.0000000000E+00+
*       -4.772727273E+02               0
GRID*               1107               05.0022077024E+020.0000000000E+00+
*       -4.636363636E+02               0
GRID*               1108               05.0021427699E+020.0000000000E+00+
*       -4.500000000E+02               0
GRID*               1109               05.0020778375E+020.0000000000E+00+
*       -4.363636364E+02               0
GRID*               1110               05.0020129051E+020.0000000000E+00+
*       -4.227272727E+02               0
GRID*               1111               05.0019479727E+020.0000000000E+00+
*       -4.090909091E+02               0
GRID*               1112               05.0018830403E+020.0000000000E+00+
*       -3.954545455E+02               0
GRID*               1113               05.0018181078E+020.0000000000E+00+
*       -3.818181818E+02               0
GRID*               1114               05.0017531754E+020.0000000000E+00+
*       -3.681818182E+02               0
GRID*               1115               05.0016882430E+020.0000000000E+00+
*       -3.545454545E+02               0
GRID*               1116               05.0016233106E+020.0000000000E+00+
*       -3.409090909E+02               0
GRID*               1117               05.0015583781E+020.0000000000E+00+
*       -3.272727273E+02               0
GRID*               1118               05.0014934457E+020.0000000000E+00+
*       -3.136363636E+02               0
GRID*               1119               05.0014285133E+020.0000000000E+00+
*       -3.000000000E+02               0
GRID*               1120               05.0013635809E+020.0000000000E+00+
*       -2.863636364E+02               0
GRID*               1121               05.0012986485E+020.0000000000E+00+
*       -2.727272727E+02               0
GRID*               1122               05.0012337160E+020.0000000000E+00+
*       -2.590909091E+02               0
GRID*               1123               05.0011687836E+020.0000000000E+00+
*       -2.454545455E+02               0
GRID*               1124               05.0011038512E+020.0000000000E+00+
*       -2.318181818E+02               0
GRID*               1125               05.0010389188E+020.0000000000E+00+
*       -2.181818182E+02               0
GRID*               1126               05.0009739863E+020.0000000000E+00+
*       -2.045454545E+02               0
GRID*               1127               05.0009090539E+020.0000000000E+00+
*       -1.909090909E+02               0
GRID*               1128               05.0008441215E+020.0000000000E+00+
*       -1.772727273E+02               0
GRID*               1129               05.0007791891E+020.0000000000E+00+
*       -1.636363636E+02               0
GRID*               1130               05.0007142566E+020.0000000000E+00+
*       -1.500000000E+02               0
GRID*               1131               05.0006493242E+020.0000000000E+00+
*       -1.363636364E+02               0
GRID*               1132               05.0005843918E+020.0000000000E+00+
*       -1.227272727E+02               0
GRID*               1133               05.0005194594E+020.0000000000E+00+
*       -1.090909091E+02               0
GRID*               1134               05.0004545270E+020.0000000000E+00+
*       -9.545454545E+01               0
GRID*               1135               05.0003895945E+020.0000000000E+00+
*       -8.181818182E+01               0
GRID*               1136               05.0003246621E+020.0000000000E+00+
*       -6.818181818E+01               0
GRID*               1137               05.0002597297E+020.0000000000E+00+
*       -5.454545455E+01               0
GRID*               1138               05.0001947973E+020.0000000000E+00+
*       -4.090909091E+01               0
GRID*               1139               05.0001298648E+020.0000000000E+00+
*       -2.727272727E+01               0
GRID*               1140               05.0000649324E+020.0000000000E+00+
*       -1.363636364E+01               0
GRID*               1141               05.1386231614E+020.0000000000E+00+
*       -1.036363636E+03               0
GRID*               1142               05.1385798731E+020.0000000000E+00+
*       -1.022727273E+03               0
GRID*               1143               05.1385365848E+020.0000000000E+00+
*       -1.009090909E+03               0
GRID*               1144               05.1384932965E+020.0000000000E+00+
*       -9.954545455E+02               0
GRID*               1145               05.1384500082E+020.0000000000E+00+
*       -9.818181818E+02               0
GRID*               1146               05.1384067200E+020.0000000000E+00+
*       -9.681818182E+02               0
GRID*               1147               05.1383634317E+020.0000000000E+00+
*       -9.545454545E+02               0
GRID*               1148               05.1383201434E+020.0000000000E+00+
*       -9.409090909E+02               0
GRID*               1149               05.1382768551E+020.0000000000E+00+
*       -9.272727273E+02               0
GRID*               1150               05.1382335668E+020.0000000000E+00+
*       -9.136363636E+02               0
GRID*               1151               05.1381902786E+020.0000000000E+00+
*       -9.000000000E+02               0
GRID*               1152               05.1381469903E+020.0000000000E+00+
*       -8.863636364E+02               0
GRID*               1153               05.1381037020E+020.0000000000E+00+
*       -8.727272727E+02               0
GRID*               1154               05.1380604137E+020.0000000000E+00+
*       -8.590909091E+02               0
GRID*               1155               05.1380171254E+020.0000000000E+00+
*       -8.454545455E+02               0
GRID*               1156               05.1379738371E+020.0000000000E+00+
*       -8.318181818E+02               0
GRID*               1157               05.1379305489E+020.0000000000E+00+
*       -8.181818182E+02               0
GRID*               1158               05.1378872606E+020.0000000000E+00+
*       -8.045454545E+02               0
GRID*               1159               05.1378439723E+020.0000000000E+00+
*       -7.909090909E+02               0
GRID*               1160               05.1378006840E+020.0000000000E+00+
*       -7.772727273E+02               0
GRID*               1161               05.1377573957E+020.0000000000E+00+
*       -7.636363636E+02               0
GRID*               1162               05.1377141075E+020.0000000000E+00+
*       -7.500000000E+02               0
GRID*               1163               05.1376708192E+020.0000000000E+00+
*       -7.363636364E+02               0
GRID*               1164               05.1376275309E+020.0000000000E+00+
*       -7.227272727E+02               0
GRID*               1165               05.1375842426E+020.0000000000E+00+
*       -7.090909091E+02               0
GRID*               1166               05.1375409543E+020.0000000000E+00+
*       -6.954545455E+02               0
GRID*               1167               05.1374976660E+020.0000000000E+00+
*       -6.818181818E+02               0
GRID*               1168               05.1374543778E+020.0000000000E+00+
*       -6.681818182E+02               0
GRID*               1169               05.1374110895E+020.0000000000E+00+
*       -6.545454545E+02               0
GRID*               1170               05.1373678012E+020.0000000000E+00+
*       -6.409090909E+02               0
GRID*               1171               05.1373245129E+020.0000000000E+00+
*       -6.272727273E+02               0
GRID*               1172               05.1372812246E+020.0000000000E+00+
*       -6.136363636E+02               0
GRID*               1173               05.1372379364E+020.0000000000E+00+
*       -6.000000000E+02               0
GRID*               1174               05.1371946481E+020.0000000000E+00+
*       -5.863636364E+02               0
GRID*               1175               05.1371513598E+020.0000000000E+00+
*       -5.727272727E+02               0
GRID*               1176               05.1371080715E+020.0000000000E+00+
*       -5.590909091E+02               0
GRID*               1177               05.1370647832E+020.0000000000E+00+
*       -5.454545455E+02               0
GRID*               1178               05.1370214949E+020.0000000000E+00+
*       -5.318181818E+02               0
GRID*               1179               05.1369782067E+020.0000000000E+00+
*       -5.181818182E+02               0
GRID*               1180               05.1369349184E+020.0000000000E+00+
*       -5.045454545E+02               0
GRID*               1181               05.1368916301E+020.0000000000E+00+
*       -4.909090909E+02               0
GRID*               1182               05.1368483418E+020.0000000000E+00+
*       -4.772727273E+02               0
GRID*               1183               05.1368050535E+020.0000000000E+00+
*       -4.636363636E+02               0
GRID*               1184               05.1367617653E+020.0000000000E+00+
*       -4.500000000E+02               0
GRID*               1185               05.1367184770E+020.0000000000E+00+
*       -4.363636364E+02               0
GRID*               1186               05.1366751887E+020.0000000000E+00+
*       -4.227272727E+02               0
GRID*               1187               05.1366319004E+020.0000000000E+00+
*       -4.090909091E+02               0
GRID*               1188               05.1365886121E+020.0000000000E+00+
*       -3.954545455E+02               0
GRID*               1189               05.1365453238E+020.0000000000E+00+
*       -3.818181818E+02               0
GRID*               1190               05.1365020356E+020.0000000000E+00+
*       -3.681818182E+02               0
GRID*               1191               05.1364587473E+020.0000000000E+00+
*       -3.545454545E+02               0
GRID*               1192               05.1364154590E+020.0000000000E+00+
*       -3.409090909E+02               0
GRID*               1193               05.1363721707E+020.0000000000E+00+
*       -3.272727273E+02               0
GRID*               1194               05.1363288824E+020.0000000000E+00+
*       -3.136363636E+02               0
GRID*               1195               05.1362855942E+020.0000000000E+00+
*       -3.000000000E+02               0
GRID*               1196               05.1362423059E+020.0000000000E+00+
*       -2.863636364E+02               0
GRID*               1197               05.1361990176E+020.0000000000E+00+
*       -2.727272727E+02               0
GRID*               1198               05.1361557293E+020.0000000000E+00+
*       -2.590909091E+02               0
GRID*               1199               05.1361124410E+020.0000000000E+00+
*       -2.454545455E+02               0
GRID*               1200               05.1360691527E+020.0000000000E+00+
*       -2.318181818E+02               0
GRID*               1201               05.1360258645E+020.0000000000E+00+
*       -2.181818182E+02               0
GRID*               1202               05.1359825762E+020.0000000000E+00+
*       -2.045454545E+02               0
GRID*               1203               05.1359392879E+020.0000000000E+00+
*       -1.909090909E+02               0
GRID*               1204               05.1358959996E+020.0000000000E+00+
*       -1.772727273E+02               0
GRID*               1205               05.1358527113E+020.0000000000E+00+
*       -1.636363636E+02               0
GRID*               1206               05.1358094231E+020.0000000000E+00+
*       -1.500000000E+02               0
GRID*               1207               05.1357661348E+020.0000000000E+00+
*       -1.363636364E+02               0
GRID*               1208               05.1357228465E+020.0000000000E+00+
*       -1.227272727E+02               0
GRID*               1209               05.1356795582E+020.0000000000E+00+
*       -1.090909091E+02               0
GRID*               1210               05.1356362699E+020.0000000000E+00+
*       -9.545454545E+01               0
GRID*               1211               05.1355929816E+020.0000000000E+00+
*       -8.181818182E+01               0
GRID*               1212               05.1355496934E+020.0000000000E+00+
*       -6.818181818E+01               0
GRID*               1213               05.1355064051E+020.0000000000E+00+
*       -5.454545455E+01               0
GRID*               1214               05.1354631168E+020.0000000000E+00+
*       -4.090909091E+01               0
GRID*               1215               05.1354198285E+020.0000000000E+00+
*       -2.727272727E+01               0
GRID*               1216               05.1353765402E+020.0000000000E+00+
*       -1.363636364E+01               0
GRID*               1217               05.2723114586E+020.0000000000E+00+
*       -1.036363636E+03               0
GRID*               1218               05.2722898145E+020.0000000000E+00+
*       -1.022727273E+03               0
GRID*               1219               05.2722681703E+020.0000000000E+00+
*       -1.009090909E+03               0
GRID*               1220               05.2722465262E+020.0000000000E+00+
*       -9.954545455E+02               0
GRID*               1221               05.2722248821E+020.0000000000E+00+
*       -9.818181818E+02               0
GRID*               1222               05.2722032379E+020.0000000000E+00+
*       -9.681818182E+02               0
GRID*               1223               05.2721815938E+020.0000000000E+00+
*       -9.545454545E+02               0
GRID*               1224               05.2721599496E+020.0000000000E+00+
*       -9.409090909E+02               0
GRID*               1225               05.2721383055E+020.0000000000E+00+
*       -9.272727273E+02               0
GRID*               1226               05.2721166613E+020.0000000000E+00+
*       -9.136363636E+02               0
GRID*               1227               05.2720950172E+020.0000000000E+00+
*       -9.000000000E+02               0
GRID*               1228               05.2720733731E+020.0000000000E+00+
*       -8.863636364E+02               0
GRID*               1229               05.2720517289E+020.0000000000E+00+
*       -8.727272727E+02               0
GRID*               1230               05.2720300848E+020.0000000000E+00+
*       -8.590909091E+02               0
GRID*               1231               05.2720084406E+020.0000000000E+00+
*       -8.454545455E+02               0
GRID*               1232               05.2719867965E+020.0000000000E+00+
*       -8.318181818E+02               0
GRID*               1233               05.2719651524E+020.0000000000E+00+
*       -8.181818182E+02               0
GRID*               1234               05.2719435082E+020.0000000000E+00+
*       -8.045454545E+02               0
GRID*               1235               05.2719218641E+020.0000000000E+00+
*       -7.909090909E+02               0
GRID*               1236               05.2719002199E+020.0000000000E+00+
*       -7.772727273E+02               0
GRID*               1237               05.2718785758E+020.0000000000E+00+
*       -7.636363636E+02               0
GRID*               1238               05.2718569317E+020.0000000000E+00+
*       -7.500000000E+02               0
GRID*               1239               05.2718352875E+020.0000000000E+00+
*       -7.363636364E+02               0
GRID*               1240               05.2718136434E+020.0000000000E+00+
*       -7.227272727E+02               0
GRID*               1241               05.2717919992E+020.0000000000E+00+
*       -7.090909091E+02               0
GRID*               1242               05.2717703551E+020.0000000000E+00+
*       -6.954545455E+02               0
GRID*               1243               05.2717487110E+020.0000000000E+00+
*       -6.818181818E+02               0
GRID*               1244               05.2717270668E+020.0000000000E+00+
*       -6.681818182E+02               0
GRID*               1245               05.2717054227E+020.0000000000E+00+
*       -6.545454545E+02               0
GRID*               1246               05.2716837785E+020.0000000000E+00+
*       -6.409090909E+02               0
GRID*               1247               05.2716621344E+020.0000000000E+00+
*       -6.272727273E+02               0
GRID*               1248               05.2716404902E+020.0000000000E+00+
*       -6.136363636E+02               0
GRID*               1249               05.2716188461E+020.0000000000E+00+
*       -6.000000000E+02               0
GRID*               1250               05.2715972020E+020.0000000000E+00+
*       -5.863636364E+02               0
GRID*               1251               05.2715755578E+020.0000000000E+00+
*       -5.727272727E+02               0
GRID*               1252               05.2715539137E+020.0000000000E+00+
*       -5.590909091E+02               0
GRID*               1253               05.2715322695E+020.0000000000E+00+
*       -5.454545455E+02               0
GRID*               1254               05.2715106254E+020.0000000000E+00+
*       -5.318181818E+02               0
GRID*               1255               05.2714889813E+020.0000000000E+00+
*       -5.181818182E+02               0
GRID*               1256               05.2714673371E+020.0000000000E+00+
*       -5.045454545E+02               0
GRID*               1257               05.2714456930E+020.0000000000E+00+
*       -4.909090909E+02               0
GRID*               1258               05.2714240488E+020.0000000000E+00+
*       -4.772727273E+02               0
GRID*               1259               05.2714024047E+020.0000000000E+00+
*       -4.636363636E+02               0
GRID*               1260               05.2713807606E+020.0000000000E+00+
*       -4.500000000E+02               0
GRID*               1261               05.2713591164E+020.0000000000E+00+
*       -4.363636364E+02               0
GRID*               1262               05.2713374723E+020.0000000000E+00+
*       -4.227272727E+02               0
GRID*               1263               05.2713158281E+020.0000000000E+00+
*       -4.090909091E+02               0
GRID*               1264               05.2712941840E+020.0000000000E+00+
*       -3.954545455E+02               0
GRID*               1265               05.2712725399E+020.0000000000E+00+
*       -3.818181818E+02               0
GRID*               1266               05.2712508957E+020.0000000000E+00+
*       -3.681818182E+02               0
GRID*               1267               05.2712292516E+020.0000000000E+00+
*       -3.545454545E+02               0
GRID*               1268               05.2712076074E+020.0000000000E+00+
*       -3.409090909E+02               0
GRID*               1269               05.2711859633E+020.0000000000E+00+
*       -3.272727273E+02               0
GRID*               1270               05.2711643191E+020.0000000000E+00+
*       -3.136363636E+02               0
GRID*               1271               05.2711426750E+020.0000000000E+00+
*       -3.000000000E+02               0
GRID*               1272               05.2711210309E+020.0000000000E+00+
*       -2.863636364E+02               0
GRID*               1273               05.2710993867E+020.0000000000E+00+
*       -2.727272727E+02               0
GRID*               1274               05.2710777426E+020.0000000000E+00+
*       -2.590909091E+02               0
GRID*               1275               05.2710560984E+020.0000000000E+00+
*       -2.454545455E+02               0
GRID*               1276               05.2710344543E+020.0000000000E+00+
*       -2.318181818E+02               0
GRID*               1277               05.2710128102E+020.0000000000E+00+
*       -2.181818182E+02               0
GRID*               1278               05.2709911660E+020.0000000000E+00+
*       -2.045454545E+02               0
GRID*               1279               05.2709695219E+020.0000000000E+00+
*       -1.909090909E+02               0
GRID*               1280               05.2709478777E+020.0000000000E+00+
*       -1.772727273E+02               0
GRID*               1281               05.2709262336E+020.0000000000E+00+
*       -1.636363636E+02               0
GRID*               1282               05.2709045895E+020.0000000000E+00+
*       -1.500000000E+02               0
GRID*               1283               05.2708829453E+020.0000000000E+00+
*       -1.363636364E+02               0
GRID*               1284               05.2708613012E+020.0000000000E+00+
*       -1.227272727E+02               0
GRID*               1285               05.2708396570E+020.0000000000E+00+
*       -1.090909091E+02               0
GRID*               1286               05.2708180129E+020.0000000000E+00+
*       -9.545454545E+01               0
GRID*               1287               05.2707963688E+020.0000000000E+00+
*       -8.181818182E+01               0
GRID*               1288               05.2707747246E+020.0000000000E+00+
*       -6.818181818E+01               0
GRID*               1289               05.2707530805E+020.0000000000E+00+
*       -5.454545455E+01               0
GRID*               1290               05.2707314363E+020.0000000000E+00+
*       -4.090909091E+01               0
GRID*               1291               05.2707097922E+020.0000000000E+00+
*       -2.727272727E+01               0
GRID*               1292               05.2706881480E+020.0000000000E+00+
*       -1.363636364E+01               0
GRID*               1293               05.2723331028E+020.0000000000E+00+
*       -1.063013539E+03               0
GRID*               1294               05.2723331028E+020.0000000000E+00+
*       -1.076027077E+03               0
GRID*               1295               05.2723331028E+020.0000000000E+00+
*       -1.089040616E+03               0
GRID*               1296               05.2723331028E+020.0000000000E+00+
*       -1.102054155E+03               0
GRID*               1297               05.2723331028E+020.0000000000E+00+
*       -1.115067693E+03               0
GRID*               1298               05.2723331028E+020.0000000000E+00+
*       -1.128081232E+03               0
GRID*               1299               05.2723331028E+020.0000000000E+00+
*       -1.141094771E+03               0
GRID*               1300               05.2722663466E+020.0000000000E+00+
*       -1.154128641E+03               0
GRID*               1301               05.2720687179E+020.0000000000E+00+
*       -1.167162097E+03               0
GRID*               1302               05.2717397566E+020.0000000000E+00+
*       -1.180194725E+03               0
GRID*               1303               05.2712790927E+020.0000000000E+00+
*       -1.193226111E+03               0
GRID*               1304               05.2706873955E+020.0000000000E+00+
*       -1.206255843E+03               0
GRID*               1305               05.2699654590E+020.0000000000E+00+
*       -1.219283513E+03               0
GRID*               1306               05.2691139775E+020.0000000000E+00+
*       -1.232308711E+03               0
GRID*               1307               05.2681336941E+020.0000000000E+00+
*       -1.245331031E+03               0
GRID*               1308               05.2638771723E+020.0000000000E+00+
*       -1.258308186E+03               0
GRID*               1309               05.2532482160E+020.0000000000E+00+
*       -1.271250374E+03               0
GRID*               1310               05.2362384990E+020.0000000000E+00+
*       -1.284125934E+03               0
GRID*               1311               05.2129007312E+020.0000000000E+00+
*       -1.296903453E+03               0
GRID*               1312               05.1832886555E+020.0000000000E+00+
*       -1.309551661E+03               0
GRID*               1313               05.1474757312E+020.0000000000E+00+
*       -1.322039705E+03               0
GRID*               1314               05.1055464214E+020.0000000000E+00+
*       -1.334336999E+03               0
GRID*               1315               05.0576038086E+020.0000000000E+00+
*       -1.346413547E+03               0
GRID*               1316               05.0037635818E+020.0000000000E+00+
*       -1.358239803E+03               0
GRID*               1317               04.9441570424E+020.0000000000E+00+
*       -1.369786893E+03               0
GRID*               1318               04.8789292892E+020.0000000000E+00+
*       -1.381026597E+03               0
GRID*               1319               04.8082388770E+020.0000000000E+00+
*       -1.391931443E+03               0
GRID*               1320               04.7322590731E+020.0000000000E+00+
*       -1.402474847E+03               0
GRID*               1321               04.6511739007E+020.0000000000E+00+
*       -1.412630969E+03               0
GRID*               1322               04.5651825737E+020.0000000000E+00+
*       -1.422375106E+03               0
GRID*               1323               04.4744938197E+020.0000000000E+00+
*       -1.431683374E+03               0
GRID*               1324               04.3793315261E+020.0000000000E+00+
*       -1.440533277E+03               0
GRID*               1325               04.2799047941E+020.0000000000E+00+
*       -1.448912920E+03               0
GRID*               1326               04.1765815068E+020.0000000000E+00+
*       -1.456803435E+03               0
GRID*               1327               04.0722390855E+020.0000000000E+00+
*       -1.464379541E+03               0
GRID*               1328               03.9678966642E+020.0000000000E+00+
*       -1.471955646E+03               0
GRID*               1329               03.8635542429E+020.0000000000E+00+
*       -1.479531751E+03               0
GRID*               1330               03.7592118216E+020.0000000000E+00+
*       -1.487107857E+03               0
GRID*               1331               03.6548694003E+020.0000000000E+00+
*       -1.494683962E+03               0
GRID*               1332               03.5505269790E+020.0000000000E+00+
*       -1.502260067E+03               0
GRID*               1333               03.4461845577E+020.0000000000E+00+
*       -1.509836172E+03               0
GRID*               1334               03.3418421364E+020.0000000000E+00+
*       -1.517412278E+03               0
GRID*               1335               03.2374997151E+020.0000000000E+00+
*       -1.524988383E+03               0
GRID*               1336               03.1331572938E+020.0000000000E+00+
*       -1.532564488E+03               0
GRID*               1337               03.0288148725E+020.0000000000E+00+
*       -1.540140594E+03               0
GRID*               1338               02.9244724512E+020.0000000000E+00+
*       -1.547716699E+03               0
GRID*               1339               02.8201300299E+020.0000000000E+00+
*       -1.555292804E+03               0
GRID*               1340               02.7157876086E+020.0000000000E+00+
*       -1.562868909E+03               0
GRID*               1341               02.6090591538E+020.0000000000E+00+
*       -1.570293043E+03               0
GRID*               1342               02.4994655770E+020.0000000000E+00+
*       -1.577280725E+03               0
GRID*               1343               02.3871787674E+020.0000000000E+00+
*       -1.583818563E+03               0
GRID*               1344               02.2723921422E+020.0000000000E+00+
*       -1.589896377E+03               0
GRID*               1345               02.1552989481E+020.0000000000E+00+
*       -1.595504067E+03               0
GRID*               1346               02.0360970459E+020.0000000000E+00+
*       -1.600632500E+03               0
GRID*               1347               01.9149524414E+020.0000000000E+00+
*       -1.605262448E+03               0
GRID*               1348               01.7919701139E+020.0000000000E+00+
*       -1.609382376E+03               0
GRID*               1349               01.6673641263E+020.0000000000E+00+
*       -1.612985028E+03               0
GRID*               1350               01.5413517241E+020.0000000000E+00+
*       -1.616063896E+03               0
GRID*               1351               01.4141536557E+020.0000000000E+00+
*       -1.618613674E+03               0
GRID*               1352               01.2859916393E+020.0000000000E+00+
*       -1.620629559E+03               0
GRID*               1353               01.1570900876E+020.0000000000E+00+
*       -1.622108184E+03               0
GRID*               1354               01.0276742177E+020.0000000000E+00+
*       -1.623046704E+03               0
GRID*               1355               08.9797031798E+010.0000000000E+00+
*       -1.623443545E+03               0
GRID*               1356               07.6820528018E+010.0000000000E+00+
*       -1.623297872E+03               0
GRID*               1357               06.3860599591E+010.0000000000E+00+
*       -1.622609910E+03               0
GRID*               1358               05.0939920341E+010.0000000000E+00+
*       -1.621380749E+03               0
GRID*               1359               03.8081104499E+010.0000000000E+00+
*       -1.619612416E+03               0
GRID*               1360               02.5306645940E+010.0000000000E+00+
*       -1.617307990E+03               0
GRID*               1361               01.2639090537E+010.0000000000E+00+
*       -1.614470712E+03               0
GRID*               1362               05.1386664497E+020.0000000000E+00+
*       -1.062671063E+03               0
GRID*               1363               05.1386664497E+020.0000000000E+00+
*       -1.075342127E+03               0
GRID*               1364               05.1386664497E+020.0000000000E+00+
*       -1.088013190E+03               0
GRID*               1365               05.1386664497E+020.0000000000E+00+
*       -1.100684254E+03               0
GRID*               1366               05.1386664497E+020.0000000000E+00+
*       -1.113355317E+03               0
GRID*               1367               05.1386664497E+020.0000000000E+00+
*       -1.126026380E+03               0
GRID*               1368               05.1386664497E+020.0000000000E+00+
*       -1.138697444E+03               0
GRID*               1369               05.1385329374E+020.0000000000E+00+
*       -1.151409169E+03               0
GRID*               1370               05.1381376800E+020.0000000000E+00+
*       -1.164120068E+03               0
GRID*               1371               05.1374797573E+020.0000000000E+00+
*       -1.176829311E+03               0
GRID*               1372               05.1365584295E+020.0000000000E+00+
*       -1.189536068E+03               0
GRID*               1373               05.1353750352E+020.0000000000E+00+
*       -1.202239519E+03               0
GRID*               1374               05.1339311622E+020.0000000000E+00+
*       -1.214938844E+03               0
GRID*               1375               05.1322281992E+020.0000000000E+00+
*       -1.227633227E+03               0
GRID*               1376               05.1302676324E+020.0000000000E+00+
*       -1.240321851E+03               0
GRID*               1377               05.1250882661E+020.0000000000E+00+
*       -1.252964496E+03               0
GRID*               1378               05.1137772463E+020.0000000000E+00+
*       -1.265570334E+03               0
GRID*               1379               05.0963279518E+020.0000000000E+00+
*       -1.278109147E+03               0
GRID*               1380               05.0727913678E+020.0000000000E+00+
*       -1.290550952E+03               0
GRID*               1381               05.0432197290E+020.0000000000E+00+
*       -1.302865914E+03               0
GRID*               1382               05.0076838544E+020.0000000000E+00+
*       -1.315024587E+03               0
GRID*               1383               04.9662649469E+020.0000000000E+00+
*       -1.326997781E+03               0
GRID*               1384               04.9190619986E+020.0000000000E+00+
*       -1.338756873E+03               0
GRID*               1385               04.8661860133E+020.0000000000E+00+
*       -1.350273670E+03               0
GRID*               1386               04.8077626905E+020.0000000000E+00+
*       -1.361520613E+03               0
GRID*               1387               04.7439308235E+020.0000000000E+00+
*       -1.372470764E+03               0
GRID*               1388               04.6748421376E+020.0000000000E+00+
*       -1.383097905E+03               0
GRID*               1389               04.6006622453E+020.0000000000E+00+
*       -1.393376659E+03               0
GRID*               1390               04.5215668140E+020.0000000000E+00+
*       -1.403282339E+03               0
GRID*               1391               04.4377459160E+020.0000000000E+00+
*       -1.412791339E+03               0
GRID*               1392               04.3493993793E+020.0000000000E+00+
*       -1.421880896E+03               0
GRID*               1393               04.2567413728E+020.0000000000E+00+
*       -1.430529561E+03               0
GRID*               1394               04.1599549642E+020.0000000000E+00+
*       -1.438737114E+03               0
GRID*               1395               04.0595012095E+020.0000000000E+00+
*       -1.446484312E+03               0
GRID*               1396               03.9580882697E+020.0000000000E+00+
*       -1.453935595E+03               0
GRID*               1397               03.8566753300E+020.0000000000E+00+
*       -1.461386878E+03               0
GRID*               1398               03.7552623903E+020.0000000000E+00+
*       -1.468838161E+03               0
GRID*               1399               03.6538494506E+020.0000000000E+00+
*       -1.476289444E+03               0
GRID*               1400               03.5524365109E+020.0000000000E+00+
*       -1.483740726E+03               0
GRID*               1401               03.4510235712E+020.0000000000E+00+
*       -1.491192009E+03               0
GRID*               1402               03.3496106315E+020.0000000000E+00+
*       -1.498643292E+03               0
GRID*               1403               03.2481976918E+020.0000000000E+00+
*       -1.506094575E+03               0
GRID*               1404               03.1467847521E+020.0000000000E+00+
*       -1.513545858E+03               0
GRID*               1405               03.0453718124E+020.0000000000E+00+
*       -1.520997141E+03               0
GRID*               1406               02.9439588727E+020.0000000000E+00+
*       -1.528448423E+03               0
GRID*               1407               02.8425459330E+020.0000000000E+00+
*       -1.535899706E+03               0
GRID*               1408               02.7411329933E+020.0000000000E+00+
*       -1.543350989E+03               0
GRID*               1409               02.6397200536E+020.0000000000E+00+
*       -1.550802272E+03               0
GRID*               1410               02.5360614354E+020.0000000000E+00+
*       -1.558110523E+03               0
GRID*               1411               02.4297062317E+020.0000000000E+00+
*       -1.565007995E+03               0
GRID*               1412               02.3208162206E+020.0000000000E+00+
*       -1.571482086E+03               0
GRID*               1413               02.2095734419E+020.0000000000E+00+
*       -1.577523212E+03               0
GRID*               1414               02.0961597749E+020.0000000000E+00+
*       -1.583121869E+03               0
GRID*               1415               01.9807614414E+020.0000000000E+00+
*       -1.588269460E+03               0
GRID*               1416               01.8634973155E+020.0000000000E+00+
*       -1.592936386E+03               0
GRID*               1417               01.7443610046E+020.0000000000E+00+
*       -1.597107602E+03               0
GRID*               1418               01.6235603593E+020.0000000000E+00+
*       -1.600775474E+03               0
GRID*               1419               01.5013078048E+020.0000000000E+00+
*       -1.603933249E+03               0
GRID*               1420               01.3778196991E+020.0000000000E+00+
*       -1.606575374E+03               0
GRID*               1421               01.2533131772E+020.0000000000E+00+
*       -1.608696765E+03               0
GRID*               1422               01.1280083054E+020.0000000000E+00+
*       -1.610293749E+03               0
GRID*               1423               01.0021261334E+020.0000000000E+00+
*       -1.611363191E+03               0
GRID*               1424               08.7588881777E+010.0000000000E+00+
*       -1.611903171E+03               0
GRID*               1425               07.4951942099E+010.0000000000E+00+
*       -1.611912541E+03               0
GRID*               1426               06.2324108256E+010.0000000000E+00+
*       -1.611391174E+03               0
GRID*               1427               04.9727694525E+010.0000000000E+00+
*       -1.610339802E+03               0
GRID*               1428               03.7184977844E+010.0000000000E+00+
*       -1.608760112E+03               0
GRID*               1429               02.4718124538E+010.0000000000E+00+
*       -1.606654760E+03               0
GRID*               1430               01.2349360489E+010.0000000000E+00+
*       -1.604026659E+03               0
GRID*               1431               05.0049997965E+020.0000000000E+00+
*       -1.062328588E+03               0
GRID*               1432               05.0049997965E+020.0000000000E+00+
*       -1.074657176E+03               0
GRID*               1433               05.0049997965E+020.0000000000E+00+
*       -1.086985764E+03               0
GRID*               1434               05.0049997965E+020.0000000000E+00+
*       -1.099314352E+03               0
GRID*               1435               05.0049997965E+020.0000000000E+00+
*       -1.111642940E+03               0
GRID*               1436               05.0049997965E+020.0000000000E+00+
*       -1.123971529E+03               0
GRID*               1437               05.0049997965E+020.0000000000E+00+
*       -1.136300117E+03               0
GRID*               1438               05.0047995281E+020.0000000000E+00+
*       -1.148689698E+03               0
GRID*               1439               05.0042066420E+020.0000000000E+00+
*       -1.161078039E+03               0
GRID*               1440               05.0032197581E+020.0000000000E+00+
*       -1.173463896E+03               0
GRID*               1441               05.0018377664E+020.0000000000E+00+
*       -1.185846025E+03               0
GRID*               1442               05.0000626749E+020.0000000000E+00+
*       -1.198223194E+03               0
GRID*               1443               04.9978968653E+020.0000000000E+00+
*       -1.210594175E+03               0
GRID*               1444               04.9953424209E+020.0000000000E+00+
*       -1.222957742E+03               0
GRID*               1445               04.9924015707E+020.0000000000E+00+
*       -1.235312672E+03               0
GRID*               1446               04.9862993598E+020.0000000000E+00+
*       -1.247620805E+03               0
GRID*               1447               04.9743062765E+020.0000000000E+00+
*       -1.259890294E+03               0
GRID*               1448               04.9564174045E+020.0000000000E+00+
*       -1.272092360E+03               0
GRID*               1449               04.9326820044E+020.0000000000E+00+
*       -1.284198452E+03               0
GRID*               1450               04.9031508026E+020.0000000000E+00+
*       -1.296180167E+03               0
GRID*               1451               04.8678919775E+020.0000000000E+00+
*       -1.308009469E+03               0
GRID*               1452               04.8269834723E+020.0000000000E+00+
*       -1.319658564E+03               0
GRID*               1453               04.7805201886E+020.0000000000E+00+
*       -1.331100199E+03               0
GRID*               1454               04.7286084448E+020.0000000000E+00+
*       -1.342307537E+03               0
GRID*               1455               04.6713683386E+020.0000000000E+00+
*       -1.353254333E+03               0
GRID*               1456               04.6089323578E+020.0000000000E+00+
*       -1.363914930E+03               0
GRID*               1457               04.5414453981E+020.0000000000E+00+
*       -1.374264367E+03               0
GRID*               1458               04.4690654174E+020.0000000000E+00+
*       -1.384278470E+03               0
GRID*               1459               04.3919597273E+020.0000000000E+00+
*       -1.393933709E+03               0
GRID*               1460               04.3103092583E+020.0000000000E+00+
*       -1.403207571E+03               0
GRID*               1461               04.2243049388E+020.0000000000E+00+
*       -1.412078417E+03               0
GRID*               1462               04.1341512194E+020.0000000000E+00+
*       -1.420525844E+03               0
GRID*               1463               04.0400051343E+020.0000000000E+00+
*       -1.428561308E+03               0
GRID*               1464               03.9424209121E+020.0000000000E+00+
*       -1.436165189E+03               0
GRID*               1465               03.8439374540E+020.0000000000E+00+
*       -1.443491649E+03               0
GRID*               1466               03.7454539959E+020.0000000000E+00+
*       -1.450818110E+03               0
GRID*               1467               03.6469705378E+020.0000000000E+00+
*       -1.458144570E+03               0
GRID*               1468               03.5484870797E+020.0000000000E+00+
*       -1.465471030E+03               0
GRID*               1469               03.4500036216E+020.0000000000E+00+
*       -1.472797491E+03               0
GRID*               1470               03.3515201635E+020.0000000000E+00+
*       -1.480123951E+03               0
GRID*               1471               03.2530367054E+020.0000000000E+00+
*       -1.487450412E+03               0
GRID*               1472               03.1545532473E+020.0000000000E+00+
*       -1.494776872E+03               0
GRID*               1473               03.0560697892E+020.0000000000E+00+
*       -1.502103333E+03               0
GRID*               1474               02.9575863311E+020.0000000000E+00+
*       -1.509429793E+03               0
GRID*               1475               02.8591028730E+020.0000000000E+00+
*       -1.516756253E+03               0
GRID*               1476               02.7606194149E+020.0000000000E+00+
*       -1.524082714E+03               0
GRID*               1477               02.6621359568E+020.0000000000E+00+
*       -1.531409174E+03               0
GRID*               1478               02.5636524986E+020.0000000000E+00+
*       -1.538735635E+03               0
GRID*               1479               02.4630637169E+020.0000000000E+00+
*       -1.545928002E+03               0
GRID*               1480               02.3599468863E+020.0000000000E+00+
*       -1.552735266E+03               0
GRID*               1481               02.2544536738E+020.0000000000E+00+
*       -1.559145608E+03               0
GRID*               1482               02.1467547416E+020.0000000000E+00+
*       -1.565150047E+03               0
GRID*               1483               02.0370206017E+020.0000000000E+00+
*       -1.570739670E+03               0
GRID*               1484               01.9254258369E+020.0000000000E+00+
*       -1.575906420E+03               0
GRID*               1485               01.8120421896E+020.0000000000E+00+
*       -1.580610325E+03               0
GRID*               1486               01.6967518953E+020.0000000000E+00+
*       -1.584832828E+03               0
GRID*               1487               01.5797565923E+020.0000000000E+00+
*       -1.588565921E+03               0
GRID*               1488               01.4612638856E+020.0000000000E+00+
*       -1.591802602E+03               0
GRID*               1489               01.3414857424E+020.0000000000E+00+
*       -1.594537075E+03               0
GRID*               1490               01.2206347152E+020.0000000000E+00+
*       -1.596763970E+03               0
GRID*               1491               01.0989265233E+020.0000000000E+00+
*       -1.598479315E+03               0
GRID*               1492               09.7657804918E+010.0000000000E+00+
*       -1.599679679E+03               0
GRID*               1493               08.5380731755E+010.0000000000E+00+
*       -1.600362797E+03               0
GRID*               1494               07.3083356181E+010.0000000000E+00+
*       -1.600527209E+03               0
GRID*               1495               06.0787616921E+010.0000000000E+00+
*       -1.600172437E+03               0
GRID*               1496               04.8515468710E+010.0000000000E+00+
*       -1.599298855E+03               0
GRID*               1497               03.6288851189E+010.0000000000E+00+
*       -1.597907807E+03               0
GRID*               1498               02.4129603135E+010.0000000000E+00+
*       -1.596001531E+03               0
GRID*               1499               01.2059630440E+010.0000000000E+00+
*       -1.593582607E+03               0
GRID*               1500               04.8713331434E+020.0000000000E+00+
*       -1.061986113E+03               0
GRID*               1501               04.8713331434E+020.0000000000E+00+
*       -1.073972226E+03               0
GRID*               1502               04.8713331434E+020.0000000000E+00+
*       -1.085958338E+03               0
GRID*               1503               04.8713331434E+020.0000000000E+00+
*       -1.097944451E+03               0
GRID*               1504               04.8713331434E+020.0000000000E+00+
*       -1.109930564E+03               0
GRID*               1505               04.8713331434E+020.0000000000E+00+
*       -1.121916677E+03               0
GRID*               1506               04.8713331434E+020.0000000000E+00+
*       -1.133902790E+03               0
GRID*               1507               04.8710661188E+020.0000000000E+00+
*       -1.145970226E+03               0
GRID*               1508               04.8702756041E+020.0000000000E+00+
*       -1.158036010E+03               0
GRID*               1509               04.8689597588E+020.0000000000E+00+
*       -1.170098481E+03               0
GRID*               1510               04.8671171032E+020.0000000000E+00+
*       -1.182155983E+03               0
GRID*               1511               04.8647503145E+020.0000000000E+00+
*       -1.194206870E+03               0
GRID*               1512               04.8618625685E+020.0000000000E+00+
*       -1.206249506E+03               0
GRID*               1513               04.8584566425E+020.0000000000E+00+
*       -1.218282258E+03               0
GRID*               1514               04.8545355090E+020.0000000000E+00+
*       -1.230303493E+03               0
GRID*               1515               04.8475104535E+020.0000000000E+00+
*       -1.242277114E+03               0
GRID*               1516               04.8348353067E+020.0000000000E+00+
*       -1.254210253E+03               0
GRID*               1517               04.8165068573E+020.0000000000E+00+
*       -1.266075573E+03               0
GRID*               1518               04.7925726410E+020.0000000000E+00+
*       -1.277845952E+03               0
GRID*               1519               04.7630818761E+020.0000000000E+00+
*       -1.289494420E+03               0
GRID*               1520               04.7281001007E+020.0000000000E+00+
*       -1.300994351E+03               0
GRID*               1521               04.6877019977E+020.0000000000E+00+
*       -1.312319346E+03               0
GRID*               1522               04.6419783786E+020.0000000000E+00+
*       -1.323443526E+03               0
GRID*               1523               04.5910308763E+020.0000000000E+00+
*       -1.334341405E+03               0
GRID*               1524               04.5349739867E+020.0000000000E+00+
*       -1.344988054E+03               0
GRID*               1525               04.4739338921E+020.0000000000E+00+
*       -1.355359097E+03               0
GRID*               1526               04.4080486587E+020.0000000000E+00+
*       -1.365430829E+03               0
GRID*               1527               04.3374685896E+020.0000000000E+00+
*       -1.375180282E+03               0
GRID*               1528               04.2623526406E+020.0000000000E+00+
*       -1.384585079E+03               0
GRID*               1529               04.1828726007E+020.0000000000E+00+
*       -1.393623803E+03               0
GRID*               1530               04.0992104984E+020.0000000000E+00+
*       -1.402275938E+03               0
GRID*               1531               04.0115610661E+020.0000000000E+00+
*       -1.410522127E+03               0
GRID*               1532               03.9200553044E+020.0000000000E+00+
*       -1.418385502E+03               0
GRID*               1533               03.8253406147E+020.0000000000E+00+
*       -1.425846066E+03               0
GRID*               1534               03.7297866382E+020.0000000000E+00+
*       -1.433047704E+03               0
GRID*               1535               03.6342326617E+020.0000000000E+00+
*       -1.440249342E+03               0
GRID*               1536               03.5386786852E+020.0000000000E+00+
*       -1.447450980E+03               0
GRID*               1537               03.4431247087E+020.0000000000E+00+
*       -1.454652617E+03               0
GRID*               1538               03.3475707322E+020.0000000000E+00+
*       -1.461854255E+03               0
GRID*               1539               03.2520167557E+020.0000000000E+00+
*       -1.469055893E+03               0
GRID*               1540               03.1564627792E+020.0000000000E+00+
*       -1.476257531E+03               0
GRID*               1541               03.0609088027E+020.0000000000E+00+
*       -1.483459169E+03               0
GRID*               1542               02.9653548262E+020.0000000000E+00+
*       -1.490660807E+03               0
GRID*               1543               02.8698008497E+020.0000000000E+00+
*       -1.497862445E+03               0
GRID*               1544               02.7742468732E+020.0000000000E+00+
*       -1.505064083E+03               0
GRID*               1545               02.6786928967E+020.0000000000E+00+
*       -1.512265721E+03               0
GRID*               1546               02.5831389202E+020.0000000000E+00+
*       -1.519467359E+03               0
GRID*               1547               02.4875849437E+020.0000000000E+00+
*       -1.526668997E+03               0
GRID*               1548               02.3900659984E+020.0000000000E+00+
*       -1.533745482E+03               0
GRID*               1549               02.2901875409E+020.0000000000E+00+
*       -1.540462536E+03               0
GRID*               1550               02.1880911270E+020.0000000000E+00+
*       -1.546809131E+03               0
GRID*               1551               02.0839360414E+020.0000000000E+00+
*       -1.552776881E+03               0
GRID*               1552               01.9778814285E+020.0000000000E+00+
*       -1.558357472E+03               0
GRID*               1553               01.8700902324E+020.0000000000E+00+
*       -1.563543380E+03               0
GRID*               1554               01.7605870637E+020.0000000000E+00+
*       -1.568284263E+03               0
GRID*               1555               01.6491427860E+020.0000000000E+00+
*       -1.572558053E+03               0
GRID*               1556               01.5359528253E+020.0000000000E+00+
*       -1.576356368E+03               0
GRID*               1557               01.4212199664E+020.0000000000E+00+
*       -1.579671955E+03               0
GRID*               1558               01.3051517858E+020.0000000000E+00+
*       -1.582498775E+03               0
GRID*               1559               01.1879562531E+020.0000000000E+00+
*       -1.584831176E+03               0
GRID*               1560               01.0698447411E+020.0000000000E+00+
*       -1.586664880E+03               0
GRID*               1561               09.5102996493E+010.0000000000E+00+
*       -1.587996167E+03               0
GRID*               1562               08.3172581733E+010.0000000000E+00+
*       -1.588822423E+03               0
GRID*               1563               07.1214770262E+010.0000000000E+00+
*       -1.589141877E+03               0
GRID*               1564               05.9251125587E+010.0000000000E+00+
*       -1.588953700E+03               0
GRID*               1565               04.7303242894E+010.0000000000E+00+
*       -1.588257908E+03               0
GRID*               1566               03.5392724533E+010.0000000000E+00+
*       -1.587055503E+03               0
GRID*               1567               02.3541081732E+010.0000000000E+00+
*       -1.585348301E+03               0
GRID*               1568               01.1769900392E+010.0000000000E+00+
*       -1.583138554E+03               0
GRID*               1569               04.7376664903E+020.0000000000E+00+
*       -1.061643637E+03               0
GRID*               1570               04.7376664903E+020.0000000000E+00+
*       -1.073287275E+03               0
GRID*               1571               04.7376664903E+020.0000000000E+00+
*       -1.084930912E+03               0
GRID*               1572               04.7376664903E+020.0000000000E+00+
*       -1.096574550E+03               0
GRID*               1573               04.7376664903E+020.0000000000E+00+
*       -1.108218187E+03               0
GRID*               1574               04.7376664903E+020.0000000000E+00+
*       -1.119861825E+03               0
GRID*               1575               04.7376664903E+020.0000000000E+00+
*       -1.131505462E+03               0
GRID*               1576               04.7373327096E+020.0000000000E+00+
*       -1.143250755E+03               0
GRID*               1577               04.7363445662E+020.0000000000E+00+
*       -1.154993981E+03               0
GRID*               1578               04.7346997595E+020.0000000000E+00+
*       -1.166733067E+03               0
GRID*               1579               04.7323964401E+020.0000000000E+00+
*       -1.178465940E+03               0
GRID*               1580               04.7294379542E+020.0000000000E+00+
*       -1.190190545E+03               0
GRID*               1581               04.7258282717E+020.0000000000E+00+
*       -1.201904837E+03               0
GRID*               1582               04.7215708642E+020.0000000000E+00+
*       -1.213606773E+03               0
GRID*               1583               04.7166694472E+020.0000000000E+00+
*       -1.225294314E+03               0
GRID*               1584               04.7087215472E+020.0000000000E+00+
*       -1.236933423E+03               0
GRID*               1585               04.6953643369E+020.0000000000E+00+
*       -1.248530213E+03               0
GRID*               1586               04.6765963100E+020.0000000000E+00+
*       -1.260058786E+03               0
GRID*               1587               04.6524632776E+020.0000000000E+00+
*       -1.271493451E+03               0
GRID*               1588               04.6230129497E+020.0000000000E+00+
*       -1.282808673E+03               0
GRID*               1589               04.5883082238E+020.0000000000E+00+
*       -1.293979233E+03               0
GRID*               1590               04.5484205232E+020.0000000000E+00+
*       -1.304980129E+03               0
GRID*               1591               04.5034365686E+020.0000000000E+00+
*       -1.315786852E+03               0
GRID*               1592               04.4534533078E+020.0000000000E+00+
*       -1.326375272E+03               0
GRID*               1593               04.3985796347E+020.0000000000E+00+
*       -1.336721774E+03               0
GRID*               1594               04.3389354264E+020.0000000000E+00+
*       -1.346803264E+03               0
GRID*               1595               04.2746519193E+020.0000000000E+00+
*       -1.356597290E+03               0
GRID*               1596               04.2058717617E+020.0000000000E+00+
*       -1.366082093E+03               0
GRID*               1597               04.1327455539E+020.0000000000E+00+
*       -1.375236449E+03               0
GRID*               1598               04.0554359430E+020.0000000000E+00+
*       -1.384040035E+03               0
GRID*               1599               03.9741160579E+020.0000000000E+00+
*       -1.392473459E+03               0
GRID*               1600               03.8889709128E+020.0000000000E+00+
*       -1.400518410E+03               0
GRID*               1601               03.8001054745E+020.0000000000E+00+
*       -1.408209696E+03               0
GRID*               1602               03.7082603173E+020.0000000000E+00+
*       -1.415526942E+03               0
GRID*               1603               03.6156358224E+020.0000000000E+00+
*       -1.422603758E+03               0
GRID*               1604               03.5230113275E+020.0000000000E+00+
*       -1.429680573E+03               0
GRID*               1605               03.4303868326E+020.0000000000E+00+
*       -1.436757389E+03               0
GRID*               1606               03.3377623377E+020.0000000000E+00+
*       -1.443834204E+03               0
GRID*               1607               03.2451378428E+020.0000000000E+00+
*       -1.450911020E+03               0
GRID*               1608               03.1525133479E+020.0000000000E+00+
*       -1.457987836E+03               0
GRID*               1609               03.0598888530E+020.0000000000E+00+
*       -1.465064651E+03               0
GRID*               1610               02.9672643581E+020.0000000000E+00+
*       -1.472141467E+03               0
GRID*               1611               02.8746398632E+020.0000000000E+00+
*       -1.479218282E+03               0
GRID*               1612               02.7820153683E+020.0000000000E+00+
*       -1.486295098E+03               0
GRID*               1613               02.6893908734E+020.0000000000E+00+
*       -1.493371913E+03               0
GRID*               1614               02.5967663785E+020.0000000000E+00+
*       -1.500448729E+03               0
GRID*               1615               02.5041418836E+020.0000000000E+00+
*       -1.507525544E+03               0
GRID*               1616               02.4115173887E+020.0000000000E+00+
*       -1.514602360E+03               0
GRID*               1617               02.3170682800E+020.0000000000E+00+
*       -1.521562962E+03               0
GRID*               1618               02.2204281956E+020.0000000000E+00+
*       -1.528189806E+03               0
GRID*               1619               02.1217285802E+020.0000000000E+00+
*       -1.534472653E+03               0
GRID*               1620               02.0211173411E+020.0000000000E+00+
*       -1.540403716E+03               0
GRID*               1621               01.9187422553E+020.0000000000E+00+
*       -1.545975273E+03               0
GRID*               1622               01.8147546279E+020.0000000000E+00+
*       -1.551180339E+03               0
GRID*               1623               01.7091319378E+020.0000000000E+00+
*       -1.555958201E+03               0
GRID*               1624               01.6015336768E+020.0000000000E+00+
*       -1.560283279E+03               0
GRID*               1625               01.4921490583E+020.0000000000E+00+
*       -1.564146814E+03               0
GRID*               1626               01.3811760472E+020.0000000000E+00+
*       -1.567541308E+03               0
GRID*               1627               01.2688178291E+020.0000000000E+00+
*       -1.570460475E+03               0
GRID*               1628               01.1552777910E+020.0000000000E+00+
*       -1.572898382E+03               0
GRID*               1629               01.0407629590E+020.0000000000E+00+
*       -1.574850446E+03               0
GRID*               1630               09.2548188068E+010.0000000000E+00+
*       -1.576312655E+03               0
GRID*               1631               08.0964431712E+010.0000000000E+00+
*       -1.577282048E+03               0
GRID*               1632               06.9346184343E+010.0000000000E+00+
*       -1.577756546E+03               0
GRID*               1633               05.7714634252E+010.0000000000E+00+
*       -1.577734964E+03               0
GRID*               1634               04.6091017078E+010.0000000000E+00+
*       -1.577216961E+03               0
GRID*               1635               03.4496597878E+010.0000000000E+00+
*       -1.576203198E+03               0
GRID*               1636               02.2952560329E+010.0000000000E+00+
*       -1.574695071E+03               0
GRID*               1637               01.1480170344E+010.0000000000E+00+
*       -1.572694501E+03               0
GRID*               1638               04.6039998372E+020.0000000000E+00+
*       -1.061301162E+03               0
GRID*               1639               04.6039998372E+020.0000000000E+00+
*       -1.072602324E+03               0
GRID*               1640               04.6039998372E+020.0000000000E+00+
*       -1.083903487E+03               0
GRID*               1641               04.6039998372E+020.0000000000E+00+
*       -1.095204649E+03               0
GRID*               1642               04.6039998372E+020.0000000000E+00+
*       -1.106505811E+03               0
GRID*               1643               04.6039998372E+020.0000000000E+00+
*       -1.117806973E+03               0
GRID*               1644               04.6039998372E+020.0000000000E+00+
*       -1.129108135E+03               0
GRID*               1645               04.6035993003E+020.0000000000E+00+
*       -1.140531284E+03               0
GRID*               1646               04.6024135282E+020.0000000000E+00+
*       -1.151951953E+03               0
GRID*               1647               04.6004397603E+020.0000000000E+00+
*       -1.163367652E+03               0
GRID*               1648               04.5976757769E+020.0000000000E+00+
*       -1.174775897E+03               0
GRID*               1649               04.5941255939E+020.0000000000E+00+
*       -1.186174221E+03               0
GRID*               1650               04.5897939748E+020.0000000000E+00+
*       -1.197560168E+03               0
GRID*               1651               04.5846850859E+020.0000000000E+00+
*       -1.208931288E+03               0
GRID*               1652               04.5788033855E+020.0000000000E+00+
*       -1.220285134E+03               0
GRID*               1653               04.5699326409E+020.0000000000E+00+
*       -1.231589733E+03               0
GRID*               1654               04.5558933672E+020.0000000000E+00+
*       -1.242850173E+03               0
GRID*               1655               04.5366857628E+020.0000000000E+00+
*       -1.254041999E+03               0
GRID*               1656               04.5123539142E+020.0000000000E+00+
*       -1.265140951E+03               0
GRID*               1657               04.4829440233E+020.0000000000E+00+
*       -1.276122925E+03               0
GRID*               1658               04.4485163470E+020.0000000000E+00+
*       -1.286964115E+03               0
GRID*               1659               04.4091390486E+020.0000000000E+00+
*       -1.297640911E+03               0
GRID*               1660               04.3648947586E+020.0000000000E+00+
*       -1.308130178E+03               0
GRID*               1661               04.3158757393E+020.0000000000E+00+
*       -1.318409140E+03               0
GRID*               1662               04.2621852828E+020.0000000000E+00+
*       -1.328455494E+03               0
GRID*               1663               04.2039369607E+020.0000000000E+00+
*       -1.338247430E+03               0
GRID*               1664               04.1412551798E+020.0000000000E+00+
*       -1.347763752E+03               0
GRID*               1665               04.0742749339E+020.0000000000E+00+
*       -1.356983905E+03               0
GRID*               1666               04.0031384672E+020.0000000000E+00+
*       -1.365887819E+03               0
GRID*               1667               03.9279992853E+020.0000000000E+00+
*       -1.374456268E+03               0
GRID*               1668               03.8490216174E+020.0000000000E+00+
*       -1.382670980E+03               0
GRID*               1669               03.7663807595E+020.0000000000E+00+
*       -1.390514694E+03               0
GRID*               1670               03.6801556445E+020.0000000000E+00+
*       -1.398033890E+03               0
GRID*               1671               03.5911800200E+020.0000000000E+00+
*       -1.405207819E+03               0
GRID*               1672               03.5014850067E+020.0000000000E+00+
*       -1.412159812E+03               0
GRID*               1673               03.4117899934E+020.0000000000E+00+
*       -1.419111805E+03               0
GRID*               1674               03.3220949800E+020.0000000000E+00+
*       -1.426063798E+03               0
GRID*               1675               03.2323999667E+020.0000000000E+00+
*       -1.433015791E+03               0
GRID*               1676               03.1427049534E+020.0000000000E+00+
*       -1.439967785E+03               0
GRID*               1677               03.0530099401E+020.0000000000E+00+
*       -1.446919778E+03               0
GRID*               1678               02.9633149268E+020.0000000000E+00+
*       -1.453871771E+03               0
GRID*               1679               02.8736199135E+020.0000000000E+00+
*       -1.460823764E+03               0
GRID*               1680               02.7839249002E+020.0000000000E+00+
*       -1.467775757E+03               0
GRID*               1681               02.6942298869E+020.0000000000E+00+
*       -1.474727750E+03               0
GRID*               1682               02.6045348736E+020.0000000000E+00+
*       -1.481679743E+03               0
GRID*               1683               02.5148398603E+020.0000000000E+00+
*       -1.488631736E+03               0
GRID*               1684               02.4251448470E+020.0000000000E+00+
*       -1.495583729E+03               0
GRID*               1685               02.3354498337E+020.0000000000E+00+
*       -1.502535722E+03               0
GRID*               1686               02.2440705615E+020.0000000000E+00+
*       -1.509380441E+03               0
GRID*               1687               02.1506688502E+020.0000000000E+00+
*       -1.515917077E+03               0
GRID*               1688               02.0553660334E+020.0000000000E+00+
*       -1.522136175E+03               0
GRID*               1689               01.9582986408E+020.0000000000E+00+
*       -1.528030551E+03               0
GRID*               1690               01.8596030821E+020.0000000000E+00+
*       -1.533593074E+03               0
GRID*               1691               01.7594190234E+020.0000000000E+00+
*       -1.538817299E+03               0
GRID*               1692               01.6576768119E+020.0000000000E+00+
*       -1.543632140E+03               0
GRID*               1693               01.5539245675E+020.0000000000E+00+
*       -1.548008505E+03               0
GRID*               1694               01.4483452912E+020.0000000000E+00+
*       -1.551937261E+03               0
GRID*               1695               01.3411321280E+020.0000000000E+00+
*       -1.555410661E+03               0
GRID*               1696               01.2324838725E+020.0000000000E+00+
*       -1.558422176E+03               0
GRID*               1697               01.1225993289E+020.0000000000E+00+
*       -1.560965587E+03               0
GRID*               1698               01.0116811768E+020.0000000000E+00+
*       -1.563036011E+03               0
GRID*               1699               08.9993379643E+010.0000000000E+00+
*       -1.564629143E+03               0
GRID*               1700               07.8756281690E+010.0000000000E+00+
*       -1.565741674E+03               0
GRID*               1701               06.7477598424E+010.0000000000E+00+
*       -1.566371214E+03               0
GRID*               1702               05.6178142917E+010.0000000000E+00+
*       -1.566516227E+03               0
GRID*               1703               04.4878791263E+010.0000000000E+00+
*       -1.566176015E+03               0
GRID*               1704               03.3600471223E+010.0000000000E+00+
*       -1.565350894E+03               0
GRID*               1705               02.2364038927E+010.0000000000E+00+
*       -1.564041841E+03               0
GRID*               1706               01.1190440295E+010.0000000000E+00+
*       -1.562250448E+03               0
GRID*               1707               04.4703331841E+020.0000000000E+00+
*       -1.060958687E+03               0
GRID*               1708               04.4703331841E+020.0000000000E+00+
*       -1.071917374E+03               0
GRID*               1709               04.4703331841E+020.0000000000E+00+
*       -1.082876061E+03               0
GRID*               1710               04.4703331841E+020.0000000000E+00+
*       -1.093834748E+03               0
GRID*               1711               04.4703331841E+020.0000000000E+00+
*       -1.104793434E+03               0
GRID*               1712               04.4703331841E+020.0000000000E+00+
*       -1.115752121E+03               0
GRID*               1713               04.4703331841E+020.0000000000E+00+
*       -1.126710808E+03               0
GRID*               1714               04.4698658911E+020.0000000000E+00+
*       -1.137811812E+03               0
GRID*               1715               04.4684824903E+020.0000000000E+00+
*       -1.148909924E+03               0
GRID*               1716               04.4661797610E+020.0000000000E+00+
*       -1.160002237E+03               0
GRID*               1717               04.4629551137E+020.0000000000E+00+
*       -1.171085854E+03               0
GRID*               1718               04.4588132336E+020.0000000000E+00+
*       -1.182157896E+03               0
GRID*               1719               04.4537596780E+020.0000000000E+00+
*       -1.193215500E+03               0
GRID*               1720               04.4477993075E+020.0000000000E+00+
*       -1.204255804E+03               0
GRID*               1721               04.4409373238E+020.0000000000E+00+
*       -1.215275955E+03               0
GRID*               1722               04.4311437347E+020.0000000000E+00+
*       -1.226246042E+03               0
GRID*               1723               04.4164223974E+020.0000000000E+00+
*       -1.237170133E+03               0
GRID*               1724               04.3967752156E+020.0000000000E+00+
*       -1.248025211E+03               0
GRID*               1725               04.3722445508E+020.0000000000E+00+
*       -1.258788450E+03               0
GRID*               1726               04.3428750968E+020.0000000000E+00+
*       -1.269437178E+03               0
GRID*               1727               04.3087244701E+020.0000000000E+00+
*       -1.279948998E+03               0
GRID*               1728               04.2698575740E+020.0000000000E+00+
*       -1.290301694E+03               0
GRID*               1729               04.2263529486E+020.0000000000E+00+
*       -1.300473505E+03               0
GRID*               1730               04.1782981708E+020.0000000000E+00+
*       -1.310443007E+03               0
GRID*               1731               04.1257909309E+020.0000000000E+00+
*       -1.320189214E+03               0
GRID*               1732               04.0689384951E+020.0000000000E+00+
*       -1.329691597E+03               0
GRID*               1733               04.0078584404E+020.0000000000E+00+
*       -1.338930214E+03               0
GRID*               1734               03.9426781060E+020.0000000000E+00+
*       -1.347885717E+03               0
GRID*               1735               03.8735313805E+020.0000000000E+00+
*       -1.356539189E+03               0
GRID*               1736               03.8005626277E+020.0000000000E+00+
*       -1.364872500E+03               0
GRID*               1737               03.7239271770E+020.0000000000E+00+
*       -1.372868501E+03               0
GRID*               1738               03.6437906062E+020.0000000000E+00+
*       -1.380510977E+03               0
GRID*               1739               03.5602058146E+020.0000000000E+00+
*       -1.387858084E+03               0
GRID*               1740               03.4740997226E+020.0000000000E+00+
*       -1.394888696E+03               0
GRID*               1741               03.3873341909E+020.0000000000E+00+
*       -1.401715867E+03               0
GRID*               1742               03.3005686592E+020.0000000000E+00+
*       -1.408543037E+03               0
GRID*               1743               03.2138031275E+020.0000000000E+00+
*       -1.415370208E+03               0
GRID*               1744               03.1270375958E+020.0000000000E+00+
*       -1.422197378E+03               0
GRID*               1745               03.0402720641E+020.0000000000E+00+
*       -1.429024549E+03               0
GRID*               1746               02.9535065324E+020.0000000000E+00+
*       -1.435851720E+03               0
GRID*               1747               02.8667410007E+020.0000000000E+00+
*       -1.442678890E+03               0
GRID*               1748               02.7799754690E+020.0000000000E+00+
*       -1.449506061E+03               0
GRID*               1749               02.6932099373E+020.0000000000E+00+
*       -1.456333232E+03               0
GRID*               1750               02.6064444056E+020.0000000000E+00+
*       -1.463160402E+03               0
GRID*               1751               02.5196788739E+020.0000000000E+00+
*       -1.469987573E+03               0
GRID*               1752               02.4329133422E+020.0000000000E+00+
*       -1.476814744E+03               0
GRID*               1753               02.3461478105E+020.0000000000E+00+
*       -1.483641914E+03               0
GRID*               1754               02.2593822788E+020.0000000000E+00+
*       -1.490469085E+03               0
GRID*               1755               02.1710728430E+020.0000000000E+00+
*       -1.497197921E+03               0
GRID*               1756               02.0809095048E+020.0000000000E+00+
*       -1.503644347E+03               0
GRID*               1757               01.9890034866E+020.0000000000E+00+
*       -1.509799698E+03               0
GRID*               1758               01.8954799406E+020.0000000000E+00+
*       -1.515657386E+03               0
GRID*               1759               01.8004639089E+020.0000000000E+00+
*       -1.521210876E+03               0
GRID*               1760               01.7040834189E+020.0000000000E+00+
*       -1.526454259E+03               0
GRID*               1761               01.6062216860E+020.0000000000E+00+
*       -1.531306078E+03               0
GRID*               1762               01.5063154582E+020.0000000000E+00+
*       -1.535733731E+03               0
GRID*               1763               01.4045415242E+020.0000000000E+00+
*       -1.539727708E+03               0
GRID*               1764               01.3010882088E+020.0000000000E+00+
*       -1.543280014E+03               0
GRID*               1765               01.1961499158E+020.0000000000E+00+
*       -1.546383876E+03               0
GRID*               1766               01.0899208669E+020.0000000000E+00+
*       -1.549032793E+03               0
GRID*               1767               09.8259939467E+010.0000000000E+00+
*       -1.551221577E+03               0
GRID*               1768               08.7438571218E+010.0000000000E+00+
*       -1.552945631E+03               0
GRID*               1769               07.6548131669E+010.0000000000E+00+
*       -1.554201300E+03               0
GRID*               1770               06.5609012505E+010.0000000000E+00+
*       -1.554985883E+03               0
GRID*               1771               05.4641651582E+010.0000000000E+00+
*       -1.555297490E+03               0
GRID*               1772               04.3666565447E+010.0000000000E+00+
*       -1.555135068E+03               0
GRID*               1773               03.2704344568E+010.0000000000E+00+
*       -1.554498589E+03               0
GRID*               1774               02.1775517524E+010.0000000000E+00+
*       -1.553388611E+03               0
GRID*               1775               01.0900710247E+010.0000000000E+00+
*       -1.551806395E+03               0
GRID*               1776               04.3366665310E+020.0000000000E+00+
*       -1.060616212E+03               0
GRID*               1777               04.3366665310E+020.0000000000E+00+
*       -1.071232423E+03               0
GRID*               1778               04.3366665310E+020.0000000000E+00+
*       -1.081848635E+03               0
GRID*               1779               04.3366665310E+020.0000000000E+00+
*       -1.092464846E+03               0
GRID*               1780               04.3366665310E+020.0000000000E+00+
*       -1.103081058E+03               0
GRID*               1781               04.3366665310E+020.0000000000E+00+
*       -1.113697270E+03               0
GRID*               1782               04.3366665310E+020.0000000000E+00+
*       -1.124313481E+03               0
GRID*               1783               04.3361324818E+020.0000000000E+00+
*       -1.135092341E+03               0
GRID*               1784               04.3345514524E+020.0000000000E+00+
*       -1.145867895E+03               0
GRID*               1785               04.3319197617E+020.0000000000E+00+
*       -1.156636823E+03               0
GRID*               1786               04.3282344506E+020.0000000000E+00+
*       -1.167395811E+03               0
GRID*               1787               04.3235008732E+020.0000000000E+00+
*       -1.178141572E+03               0
GRID*               1788               04.3177253812E+020.0000000000E+00+
*       -1.188870831E+03               0
GRID*               1789               04.3109135292E+020.0000000000E+00+
*       -1.199580319E+03               0
GRID*               1790               04.3030712621E+020.0000000000E+00+
*       -1.210266776E+03               0
GRID*               1791               04.2923548284E+020.0000000000E+00+
*       -1.220902351E+03               0
GRID*               1792               04.2769514276E+020.0000000000E+00+
*       -1.231490093E+03               0
GRID*               1793               04.2568646683E+020.0000000000E+00+
*       -1.242008424E+03               0
GRID*               1794               04.2321351874E+020.0000000000E+00+
*       -1.252435950E+03               0
GRID*               1795               04.2028061704E+020.0000000000E+00+
*       -1.262751431E+03               0
GRID*               1796               04.1689325933E+020.0000000000E+00+
*       -1.272933880E+03               0
GRID*               1797               04.1305760995E+020.0000000000E+00+
*       -1.282962476E+03               0
GRID*               1798               04.0878111386E+020.0000000000E+00+
*       -1.292816831E+03               0
GRID*               1799               04.0407206023E+020.0000000000E+00+
*       -1.302476874E+03               0
GRID*               1800               03.9893965789E+020.0000000000E+00+
*       -1.311922934E+03               0
GRID*               1801               03.9339400294E+020.0000000000E+00+
*       -1.321135764E+03               0
GRID*               1802               03.8744617010E+020.0000000000E+00+
*       -1.330096676E+03               0
GRID*               1803               03.8110812782E+020.0000000000E+00+
*       -1.338787528E+03               0
GRID*               1804               03.7439242937E+020.0000000000E+00+
*       -1.347190559E+03               0
GRID*               1805               03.6731259700E+020.0000000000E+00+
*       -1.355288732E+03               0
GRID*               1806               03.5988327365E+020.0000000000E+00+
*       -1.363066022E+03               0
GRID*               1807               03.5212004529E+020.0000000000E+00+
*       -1.370507260E+03               0
GRID*               1808               03.4402559847E+020.0000000000E+00+
*       -1.377682278E+03               0
GRID*               1809               03.3570194252E+020.0000000000E+00+
*       -1.384569573E+03               0
GRID*               1810               03.2731833751E+020.0000000000E+00+
*       -1.391271921E+03               0
GRID*               1811               03.1893473250E+020.0000000000E+00+
*       -1.397974269E+03               0
GRID*               1812               03.1055112749E+020.0000000000E+00+
*       -1.404676617E+03               0
GRID*               1813               03.0216752248E+020.0000000000E+00+
*       -1.411378965E+03               0
GRID*               1814               02.9378391747E+020.0000000000E+00+
*       -1.418081314E+03               0
GRID*               1815               02.8540031246E+020.0000000000E+00+
*       -1.424783662E+03               0
GRID*               1816               02.7701670745E+020.0000000000E+00+
*       -1.431486010E+03               0
GRID*               1817               02.6863310244E+020.0000000000E+00+
*       -1.438188358E+03               0
GRID*               1818               02.6024949743E+020.0000000000E+00+
*       -1.444890706E+03               0
GRID*               1819               02.5186589242E+020.0000000000E+00+
*       -1.451593055E+03               0
GRID*               1820               02.4348228741E+020.0000000000E+00+
*       -1.458295403E+03               0
GRID*               1821               02.3509868240E+020.0000000000E+00+
*       -1.464997751E+03               0
GRID*               1822               02.2671507739E+020.0000000000E+00+
*       -1.471700099E+03               0
GRID*               1823               02.1833147238E+020.0000000000E+00+
*       -1.478402447E+03               0
GRID*               1824               02.0980751246E+020.0000000000E+00+
*       -1.485015400E+03               0
GRID*               1825               02.0111501595E+020.0000000000E+00+
*       -1.491371617E+03               0
GRID*               1826               01.9226409398E+020.0000000000E+00+
*       -1.497463220E+03               0
GRID*               1827               01.8326612403E+020.0000000000E+00+
*       -1.503284220E+03               0
GRID*               1828               01.7413247356E+020.0000000000E+00+
*       -1.508828677E+03               0
GRID*               1829               01.6487478144E+020.0000000000E+00+
*       -1.514091218E+03               0
GRID*               1830               01.5547665601E+020.0000000000E+00+
*       -1.518980016E+03               0
GRID*               1831               01.4587063489E+020.0000000000E+00+
*       -1.523458956E+03               0
GRID*               1832               01.3607377572E+020.0000000000E+00+
*       -1.527518154E+03               0
GRID*               1833               01.2610442896E+020.0000000000E+00+
*       -1.531149367E+03               0
GRID*               1834               01.1598159592E+020.0000000000E+00+
*       -1.534345576E+03               0
GRID*               1835               01.0572424048E+020.0000000000E+00+
*       -1.537099999E+03               0
GRID*               1836               09.5351761251E+010.0000000000E+00+
*       -1.539407142E+03               0
GRID*               1837               08.4883762793E+010.0000000000E+00+
*       -1.541262118E+03               0
GRID*               1838               07.4339981647E+010.0000000000E+00+
*       -1.542660926E+03               0
GRID*               1839               06.3740426587E+010.0000000000E+00+
*       -1.543600551E+03               0
GRID*               1840               05.3105160248E+010.0000000000E+00+
*       -1.544078754E+03               0
GRID*               1841               04.2454339631E+010.0000000000E+00+
*       -1.544094121E+03               0
GRID*               1842               03.1808217912E+010.0000000000E+00+
*       -1.543646285E+03               0
GRID*               1843               02.1186996121E+010.0000000000E+00+
*       -1.542735381E+03               0
GRID*               1844               01.0610980199E+010.0000000000E+00+
*       -1.541362342E+03               0
GRID*               1845               04.2029998779E+020.0000000000E+00+
*       -1.060273736E+03               0
GRID*               1846               04.2029998779E+020.0000000000E+00+
*       -1.070547473E+03               0
GRID*               1847               04.2029998779E+020.0000000000E+00+
*       -1.080821209E+03               0
GRID*               1848               04.2029998779E+020.0000000000E+00+
*       -1.091094945E+03               0
GRID*               1849               04.2029998779E+020.0000000000E+00+
*       -1.101368681E+03               0
GRID*               1850               04.2029998779E+020.0000000000E+00+
*       -1.111642418E+03               0
GRID*               1851               04.2029998779E+020.0000000000E+00+
*       -1.121916154E+03               0
GRID*               1852               04.2023990726E+020.0000000000E+00+
*       -1.132372870E+03               0
GRID*               1853               04.2006204144E+020.0000000000E+00+
*       -1.142825866E+03               0
GRID*               1854               04.1976597625E+020.0000000000E+00+
*       -1.153271408E+03               0
GRID*               1855               04.1935137874E+020.0000000000E+00+
*       -1.163705768E+03               0
GRID*               1856               04.1881885129E+020.0000000000E+00+
*       -1.174125247E+03               0
GRID*               1857               04.1816910843E+020.0000000000E+00+
*       -1.184526162E+03               0
GRID*               1858               04.1740277509E+020.0000000000E+00+
*       -1.194904835E+03               0
GRID*               1859               04.1652052003E+020.0000000000E+00+
*       -1.205257597E+03               0
GRID*               1860               04.1535659221E+020.0000000000E+00+
*       -1.215558661E+03               0
GRID*               1861               04.1374804578E+020.0000000000E+00+
*       -1.225810052E+03               0
GRID*               1862               04.1169541211E+020.0000000000E+00+
*       -1.235991637E+03               0
GRID*               1863               04.0920258240E+020.0000000000E+00+
*       -1.246083450E+03               0
GRID*               1864               04.0627372439E+020.0000000000E+00+
*       -1.256065684E+03               0
GRID*               1865               04.0291407164E+020.0000000000E+00+
*       -1.265918762E+03               0
GRID*               1866               03.9912946249E+020.0000000000E+00+
*       -1.275623259E+03               0
GRID*               1867               03.9492693286E+020.0000000000E+00+
*       -1.285160157E+03               0
GRID*               1868               03.9031430338E+020.0000000000E+00+
*       -1.294510742E+03               0
GRID*               1869               03.8530022270E+020.0000000000E+00+
*       -1.303656655E+03               0
GRID*               1870               03.7989415637E+020.0000000000E+00+
*       -1.312579931E+03               0
GRID*               1871               03.7410649615E+020.0000000000E+00+
*       -1.321263138E+03               0
GRID*               1872               03.6794844503E+020.0000000000E+00+
*       -1.329689340E+03               0
GRID*               1873               03.6143172070E+020.0000000000E+00+
*       -1.337841929E+03               0
GRID*               1874               03.5456893123E+020.0000000000E+00+
*       -1.345704965E+03               0
GRID*               1875               03.4737382961E+020.0000000000E+00+
*       -1.353263543E+03               0
GRID*               1876               03.3986102995E+020.0000000000E+00+
*       -1.360503543E+03               0
GRID*               1877               03.3203061548E+020.0000000000E+00+
*       -1.367506471E+03               0
GRID*               1878               03.2399391278E+020.0000000000E+00+
*       -1.374250449E+03               0
GRID*               1879               03.1590325593E+020.0000000000E+00+
*       -1.380827975E+03               0
GRID*               1880               03.0781259908E+020.0000000000E+00+
*       -1.387405501E+03               0
GRID*               1881               02.9972194223E+020.0000000000E+00+
*       -1.393983027E+03               0
GRID*               1882               02.9163128538E+020.0000000000E+00+
*       -1.400560552E+03               0
GRID*               1883               02.8354062853E+020.0000000000E+00+
*       -1.407138078E+03               0
GRID*               1884               02.7544997168E+020.0000000000E+00+
*       -1.413715604E+03               0
GRID*               1885               02.6735931483E+020.0000000000E+00+
*       -1.420293130E+03               0
GRID*               1886               02.5926865798E+020.0000000000E+00+
*       -1.426870655E+03               0
GRID*               1887               02.5117800113E+020.0000000000E+00+
*       -1.433448181E+03               0
GRID*               1888               02.4308734428E+020.0000000000E+00+
*       -1.440025707E+03               0
GRID*               1889               02.3499668743E+020.0000000000E+00+
*       -1.446603233E+03               0
GRID*               1890               02.2690603058E+020.0000000000E+00+
*       -1.453180758E+03               0
GRID*               1891               02.1881537373E+020.0000000000E+00+
*       -1.459758284E+03               0
GRID*               1892               02.1072471688E+020.0000000000E+00+
*       -1.466335810E+03               0
GRID*               1893               02.0250774061E+020.0000000000E+00+
*       -1.472832880E+03               0
GRID*               1894               01.9413908141E+020.0000000000E+00+
*       -1.479098888E+03               0
GRID*               1895               01.8562783930E+020.0000000000E+00+
*       -1.485126743E+03               0
GRID*               1896               01.7698425400E+020.0000000000E+00+
*       -1.490911055E+03               0
GRID*               1897               01.6821855624E+020.0000000000E+00+
*       -1.496446479E+03               0
GRID*               1898               01.5934122099E+020.0000000000E+00+
*       -1.501728178E+03               0
GRID*               1899               01.5033114341E+020.0000000000E+00+
*       -1.506653954E+03               0
GRID*               1900               01.4110972396E+020.0000000000E+00+
*       -1.511184182E+03               0
GRID*               1901               01.3169339902E+020.0000000000E+00+
*       -1.515308601E+03               0
GRID*               1902               01.2210003704E+020.0000000000E+00+
*       -1.519018720E+03               0
GRID*               1903               01.1234820025E+020.0000000000E+00+
*       -1.522307277E+03               0
GRID*               1904               01.0245639427E+020.0000000000E+00+
*       -1.525167204E+03               0
GRID*               1905               09.2443583036E+010.0000000000E+00+
*       -1.527592707E+03               0
GRID*               1906               08.2328954368E+010.0000000000E+00+
*       -1.529578606E+03               0
GRID*               1907               07.2131831626E+010.0000000000E+00+
*       -1.531120552E+03               0
GRID*               1908               06.1871840668E+010.0000000000E+00+
*       -1.532215220E+03               0
GRID*               1909               05.1568668913E+010.0000000000E+00+
*       -1.532860017E+03               0
GRID*               1910               04.1242113816E+010.0000000000E+00+
*       -1.533053174E+03               0
GRID*               1911               03.0912091257E+010.0000000000E+00+
*       -1.532793980E+03               0
GRID*               1912               02.0598474719E+010.0000000000E+00+
*       -1.532082151E+03               0
GRID*               1913               01.0321250150E+010.0000000000E+00+
*       -1.530918289E+03               0
GRID*               1914               04.0693332248E+020.0000000000E+00+
*       -1.059931261E+03               0
GRID*               1915               04.0693332248E+020.0000000000E+00+
*       -1.069862522E+03               0
GRID*               1916               04.0693332248E+020.0000000000E+00+
*       -1.079793783E+03               0
GRID*               1917               04.0693332248E+020.0000000000E+00+
*       -1.089725044E+03               0
GRID*               1918               04.0693332248E+020.0000000000E+00+
*       -1.099656305E+03               0
GRID*               1919               04.0693332248E+020.0000000000E+00+
*       -1.109587566E+03               0
GRID*               1920               04.0693332248E+020.0000000000E+00+
*       -1.119518827E+03               0
GRID*               1921               04.0686656633E+020.0000000000E+00+
*       -1.129653398E+03               0
GRID*               1922               04.0666893765E+020.0000000000E+00+
*       -1.139783837E+03               0
GRID*               1923               04.0633997632E+020.0000000000E+00+
*       -1.149905994E+03               0
GRID*               1924               04.0587931243E+020.0000000000E+00+
*       -1.160015726E+03               0
GRID*               1925               04.0528761526E+020.0000000000E+00+
*       -1.170108923E+03               0
GRID*               1926               04.0456567875E+020.0000000000E+00+
*       -1.180181493E+03               0
GRID*               1927               04.0371419725E+020.0000000000E+00+
*       -1.190229350E+03               0
GRID*               1928               04.0273391386E+020.0000000000E+00+
*       -1.200248417E+03               0
GRID*               1929               04.0147770158E+020.0000000000E+00+
*       -1.210214970E+03               0
GRID*               1930               03.9980094881E+020.0000000000E+00+
*       -1.220130012E+03               0
GRID*               1931               03.9770435738E+020.0000000000E+00+
*       -1.229974850E+03               0
GRID*               1932               03.9519164606E+020.0000000000E+00+
*       -1.239730949E+03               0
GRID*               1933               03.9226683175E+020.0000000000E+00+
*       -1.249379937E+03               0
GRID*               1934               03.8893488396E+020.0000000000E+00+
*       -1.258903644E+03               0
GRID*               1935               03.8520131503E+020.0000000000E+00+
*       -1.268284042E+03               0
GRID*               1936               03.8107275186E+020.0000000000E+00+
*       -1.277503484E+03               0
GRID*               1937               03.7655654653E+020.0000000000E+00+
*       -1.286544609E+03               0
GRID*               1938               03.7166078751E+020.0000000000E+00+
*       -1.295390375E+03               0
GRID*               1939               03.6639430980E+020.0000000000E+00+
*       -1.304024097E+03               0
GRID*               1940               03.6076682221E+020.0000000000E+00+
*       -1.312429600E+03               0
GRID*               1941               03.5478876225E+020.0000000000E+00+
*       -1.320591152E+03               0
GRID*               1942               03.4847101203E+020.0000000000E+00+
*       -1.328493299E+03               0
GRID*               1943               03.4182526547E+020.0000000000E+00+
*       -1.336121197E+03               0
GRID*               1944               03.3486438556E+020.0000000000E+00+
*       -1.343461064E+03               0
GRID*               1945               03.2760201462E+020.0000000000E+00+
*       -1.350499827E+03               0
GRID*               1946               03.2003563249E+020.0000000000E+00+
*       -1.357330665E+03               0
GRID*               1947               03.1228588305E+020.0000000000E+00+
*       -1.363931326E+03               0
GRID*               1948               03.0448817436E+020.0000000000E+00+
*       -1.370384030E+03               0
GRID*               1949               02.9669046567E+020.0000000000E+00+
*       -1.376836733E+03               0
GRID*               1950               02.8889275698E+020.0000000000E+00+
*       -1.383289436E+03               0
GRID*               1951               02.8109504829E+020.0000000000E+00+
*       -1.389742139E+03               0
GRID*               1952               02.7329733959E+020.0000000000E+00+
*       -1.396194843E+03               0
GRID*               1953               02.6549963090E+020.0000000000E+00+
*       -1.402647546E+03               0
GRID*               1954               02.5770192221E+020.0000000000E+00+
*       -1.409100249E+03               0
GRID*               1955               02.4990421352E+020.0000000000E+00+
*       -1.415552953E+03               0
GRID*               1956               02.4210650483E+020.0000000000E+00+
*       -1.422005656E+03               0
GRID*               1957               02.3430879614E+020.0000000000E+00+
*       -1.428458359E+03               0
GRID*               1958               02.2651108745E+020.0000000000E+00+
*       -1.434911063E+03               0
GRID*               1959               02.1871337876E+020.0000000000E+00+
*       -1.441363766E+03               0
GRID*               1960               02.1091567007E+020.0000000000E+00+
*       -1.447816469E+03               0
GRID*               1961               02.0311796138E+020.0000000000E+00+
*       -1.454269172E+03               0
GRID*               1962               01.9520796877E+020.0000000000E+00+
*       -1.460650360E+03               0
GRID*               1963               01.8716314687E+020.0000000000E+00+
*       -1.466826158E+03               0
GRID*               1964               01.7899158462E+020.0000000000E+00+
*       -1.472790265E+03               0
GRID*               1965               01.7070238398E+020.0000000000E+00+
*       -1.478537890E+03               0
GRID*               1966               01.6230463892E+020.0000000000E+00+
*       -1.484064280E+03               0
GRID*               1967               01.5380766054E+020.0000000000E+00+
*       -1.489365138E+03               0
GRID*               1968               01.4518563082E+020.0000000000E+00+
*       -1.494327893E+03               0
GRID*               1969               01.3634881303E+020.0000000000E+00+
*       -1.498909408E+03               0
GRID*               1970               01.2731302232E+020.0000000000E+00+
*       -1.503099048E+03               0
GRID*               1971               01.1809564512E+020.0000000000E+00+
*       -1.506888073E+03               0
GRID*               1972               01.0871480459E+020.0000000000E+00+
*       -1.510268977E+03               0
GRID*               1973               09.9188548062E+010.0000000000E+00+
*       -1.513234410E+03               0
GRID*               1974               08.9535404820E+010.0000000000E+00+
*       -1.515778273E+03               0
GRID*               1975               07.9774145943E+010.0000000000E+00+
*       -1.517895094E+03               0
GRID*               1976               06.9923681604E+010.0000000000E+00+
*       -1.519580178E+03               0
GRID*               1977               06.0003254749E+010.0000000000E+00+
*       -1.520829888E+03               0
GRID*               1978               05.0032177578E+010.0000000000E+00+
*       -1.521641281E+03               0
GRID*               1979               04.0029888000E+010.0000000000E+00+
*       -1.522012227E+03               0
GRID*               1980               03.0015964602E+010.0000000000E+00+
*       -1.521941675E+03               0
GRID*               1981               02.0009953316E+010.0000000000E+00+
*       -1.521428921E+03               0
GRID*               1982               01.0031520102E+010.0000000000E+00+
*       -1.520474236E+03               0
GRID*               1983               03.9356665717E+020.0000000000E+00+
*       -1.059588786E+03               0
GRID*               1984               03.9356665717E+020.0000000000E+00+
*       -1.069177571E+03               0
GRID*               1985               03.9356665717E+020.0000000000E+00+
*       -1.078766357E+03               0
GRID*               1986               03.9356665717E+020.0000000000E+00+
*       -1.088355143E+03               0
GRID*               1987               03.9356665717E+020.0000000000E+00+
*       -1.097943928E+03               0
GRID*               1988               03.9356665717E+020.0000000000E+00+
*       -1.107532714E+03               0
GRID*               1989               03.9356665717E+020.0000000000E+00+
*       -1.117121500E+03               0
GRID*               1990               03.9349322541E+020.0000000000E+00+
*       -1.126933927E+03               0
GRID*               1991               03.9327583385E+020.0000000000E+00+
*       -1.136741808E+03               0
GRID*               1992               03.9291397639E+020.0000000000E+00+
*       -1.146540579E+03               0
GRID*               1993               03.9240724611E+020.0000000000E+00+
*       -1.156325683E+03               0
GRID*               1994               03.9175637923E+020.0000000000E+00+
*       -1.166092598E+03               0
GRID*               1995               03.9096224906E+020.0000000000E+00+
*       -1.175836824E+03               0
GRID*               1996               03.9002561942E+020.0000000000E+00+
*       -1.185553866E+03               0
GRID*               1997               03.8894730769E+020.0000000000E+00+
*       -1.195239238E+03               0
GRID*               1998               03.8759881095E+020.0000000000E+00+
*       -1.204871279E+03               0
GRID*               1999               03.8585385183E+020.0000000000E+00+
*       -1.214449972E+03               0
GRID*               2000               03.8371330266E+020.0000000000E+00+
*       -1.223958063E+03               0
GRID*               2001               03.8118070972E+020.0000000000E+00+
*       -1.233378449E+03               0
GRID*               2002               03.7825993910E+020.0000000000E+00+
*       -1.242694189E+03               0
GRID*               2003               03.7495569627E+020.0000000000E+00+
*       -1.251888526E+03               0
GRID*               2004               03.7127316758E+020.0000000000E+00+
*       -1.260944824E+03               0
GRID*               2005               03.6721857086E+020.0000000000E+00+
*       -1.269846810E+03               0
GRID*               2006               03.6279878968E+020.0000000000E+00+
*       -1.278578477E+03               0
GRID*               2007               03.5802135231E+020.0000000000E+00+
*       -1.287124095E+03               0
GRID*               2008               03.5289446323E+020.0000000000E+00+
*       -1.295468264E+03               0
GRID*               2009               03.4742714827E+020.0000000000E+00+
*       -1.303596062E+03               0
GRID*               2010               03.4162907946E+020.0000000000E+00+
*       -1.311492963E+03               0
GRID*               2011               03.3551030336E+020.0000000000E+00+
*       -1.319144669E+03               0
GRID*               2012               03.2908159970E+020.0000000000E+00+
*       -1.326537429E+03               0
GRID*               2013               03.2235494151E+020.0000000000E+00+
*       -1.333658585E+03               0
GRID*               2014               03.1534299929E+020.0000000000E+00+
*       -1.340496110E+03               0
GRID*               2015               03.0804064950E+020.0000000000E+00+
*       -1.347154859E+03               0
GRID*               2016               03.0057785331E+020.0000000000E+00+
*       -1.353612203E+03               0
GRID*               2017               02.9307309278E+020.0000000000E+00+
*       -1.359940084E+03               0
GRID*               2018               02.8556833225E+020.0000000000E+00+
*       -1.366267965E+03               0
GRID*               2019               02.7806357172E+020.0000000000E+00+
*       -1.372595846E+03               0
GRID*               2020               02.7055881119E+020.0000000000E+00+
*       -1.378923726E+03               0
GRID*               2021               02.6305405066E+020.0000000000E+00+
*       -1.385251607E+03               0
GRID*               2022               02.5554929013E+020.0000000000E+00+
*       -1.391579488E+03               0
GRID*               2023               02.4804452960E+020.0000000000E+00+
*       -1.397907369E+03               0
GRID*               2024               02.4053976907E+020.0000000000E+00+
*       -1.404235250E+03               0
GRID*               2025               02.3303500854E+020.0000000000E+00+
*       -1.410563131E+03               0
GRID*               2026               02.2553024801E+020.0000000000E+00+
*       -1.416891012E+03               0
GRID*               2027               02.1802548748E+020.0000000000E+00+
*       -1.423218892E+03               0
GRID*               2028               02.1052072695E+020.0000000000E+00+
*       -1.429546773E+03               0
GRID*               2029               02.0301596642E+020.0000000000E+00+
*       -1.435874654E+03               0
GRID*               2030               01.9551120589E+020.0000000000E+00+
*       -1.442202535E+03               0
GRID*               2031               01.8790819692E+020.0000000000E+00+
*       -1.448467839E+03               0
GRID*               2032               01.8018721234E+020.0000000000E+00+
*       -1.454553428E+03               0
GRID*               2033               01.7235532993E+020.0000000000E+00+
*       -1.460453787E+03               0
GRID*               2034               01.6442051395E+020.0000000000E+00+
*       -1.466164725E+03               0
GRID*               2035               01.5639072160E+020.0000000000E+00+
*       -1.471682082E+03               0
GRID*               2036               01.4827410009E+020.0000000000E+00+
*       -1.477002097E+03               0
GRID*               2037               01.4004011823E+020.0000000000E+00+
*       -1.482001831E+03               0
GRID*               2038               01.3158790210E+020.0000000000E+00+
*       -1.486634633E+03               0
GRID*               2039               01.2293264561E+020.0000000000E+00+
*       -1.490889494E+03               0
GRID*               2040               01.1409125320E+020.0000000000E+00+
*       -1.494757426E+03               0
GRID*               2041               01.0508140892E+020.0000000000E+00+
*       -1.498230678E+03               0
GRID*               2042               09.5920701854E+010.0000000000E+00+
*       -1.501301616E+03               0
GRID*               2043               08.6627226605E+010.0000000000E+00+
*       -1.503963838E+03               0
GRID*               2044               07.7219337518E+010.0000000000E+00+
*       -1.506211582E+03               0
GRID*               2045               06.7715531583E+010.0000000000E+00+
*       -1.508039804E+03               0
GRID*               2046               05.8134668830E+010.0000000000E+00+
*       -1.509444556E+03               0
GRID*               2047               04.8495686244E+010.0000000000E+00+
*       -1.510422544E+03               0
GRID*               2048               03.8817662184E+010.0000000000E+00+
*       -1.510971280E+03               0
GRID*               2049               02.9119837946E+010.0000000000E+00+
*       -1.511089371E+03               0
GRID*               2050               01.9421431913E+010.0000000000E+00+
*       -1.510775691E+03               0
GRID*               2051               09.7417900536E+000.0000000000E+00+
*       -1.510030183E+03               0
GRID*               2052               03.8019999186E+020.0000000000E+00+
*       -1.059246310E+03               0
GRID*               2053               03.8019999186E+020.0000000000E+00+
*       -1.068492621E+03               0
GRID*               2054               03.8019999186E+020.0000000000E+00+
*       -1.077738931E+03               0
GRID*               2055               03.8019999186E+020.0000000000E+00+
*       -1.086985242E+03               0
GRID*               2056               03.8019999186E+020.0000000000E+00+
*       -1.096231552E+03               0
GRID*               2057               03.8019999186E+020.0000000000E+00+
*       -1.105477862E+03               0
GRID*               2058               03.8019999186E+020.0000000000E+00+
*       -1.114724173E+03               0
GRID*               2059               03.8011988448E+020.0000000000E+00+
*       -1.124214455E+03               0
GRID*               2060               03.7988273006E+020.0000000000E+00+
*       -1.133699779E+03               0
GRID*               2061               03.7948797647E+020.0000000000E+00+
*       -1.143175164E+03               0
GRID*               2062               03.7893517979E+020.0000000000E+00+
*       -1.152635640E+03               0
GRID*               2063               03.7822514319E+020.0000000000E+00+
*       -1.162076274E+03               0
GRID*               2064               03.7735881938E+020.0000000000E+00+
*       -1.171492155E+03               0
GRID*               2065               03.7633704159E+020.0000000000E+00+
*       -1.180878381E+03               0
GRID*               2066               03.7516070152E+020.0000000000E+00+
*       -1.190230059E+03               0
GRID*               2067               03.7371992033E+020.0000000000E+00+
*       -1.199527589E+03               0
GRID*               2068               03.7190675485E+020.0000000000E+00+
*       -1.208769932E+03               0
GRID*               2069               03.6972224794E+020.0000000000E+00+
*       -1.217941276E+03               0
GRID*               2070               03.6716977338E+020.0000000000E+00+
*       -1.227025949E+03               0
GRID*               2071               03.6425304646E+020.0000000000E+00+
*       -1.236008442E+03               0
GRID*               2072               03.6097650859E+020.0000000000E+00+
*       -1.244873408E+03               0
GRID*               2073               03.5734502012E+020.0000000000E+00+
*       -1.253605607E+03               0
GRID*               2074               03.5336438985E+020.0000000000E+00+
*       -1.262190136E+03               0
GRID*               2075               03.4904103283E+020.0000000000E+00+
*       -1.270612344E+03               0
GRID*               2076               03.4438191712E+020.0000000000E+00+
*       -1.278857815E+03               0
GRID*               2077               03.3939461666E+020.0000000000E+00+
*       -1.286912431E+03               0
GRID*               2078               03.3408747432E+020.0000000000E+00+
*       -1.294762524E+03               0
GRID*               2079               03.2846939668E+020.0000000000E+00+
*       -1.302394775E+03               0
GRID*               2080               03.2254959469E+020.0000000000E+00+
*       -1.309796039E+03               0
GRID*               2081               03.1633793394E+020.0000000000E+00+
*       -1.316953662E+03               0
GRID*               2082               03.0984549747E+020.0000000000E+00+
*       -1.323856106E+03               0
GRID*               2083               03.0308398396E+020.0000000000E+00+
*       -1.330492393E+03               0
GRID*               2084               02.9604566651E+020.0000000000E+00+
*       -1.336979053E+03               0
GRID*               2085               02.8886982357E+020.0000000000E+00+
*       -1.343293080E+03               0
GRID*               2086               02.8165801120E+020.0000000000E+00+
*       -1.349496138E+03               0
GRID*               2087               02.7444619883E+020.0000000000E+00+
*       -1.355699197E+03               0
GRID*               2088               02.6723438646E+020.0000000000E+00+
*       -1.361902255E+03               0
GRID*               2089               02.6002257409E+020.0000000000E+00+
*       -1.368105313E+03               0
GRID*               2090               02.5281076172E+020.0000000000E+00+
*       -1.374308372E+03               0
GRID*               2091               02.4559894935E+020.0000000000E+00+
*       -1.380511430E+03               0
GRID*               2092               02.3838713698E+020.0000000000E+00+
*       -1.386714489E+03               0
GRID*               2093               02.3117532461E+020.0000000000E+00+
*       -1.392917547E+03               0
GRID*               2094               02.2396351224E+020.0000000000E+00+
*       -1.399120605E+03               0
GRID*               2095               02.1675169987E+020.0000000000E+00+
*       -1.405323664E+03               0
GRID*               2096               02.0953988750E+020.0000000000E+00+
*       -1.411526722E+03               0
GRID*               2097               02.0232807513E+020.0000000000E+00+
*       -1.417729781E+03               0
GRID*               2098               01.9511626276E+020.0000000000E+00+
*       -1.423932839E+03               0
GRID*               2099               01.8790445039E+020.0000000000E+00+
*       -1.430135898E+03               0
GRID*               2100               01.8060842507E+020.0000000000E+00+
*       -1.436285319E+03               0
GRID*               2101               01.7321127780E+020.0000000000E+00+
*       -1.442280699E+03               0
GRID*               2102               01.6571907525E+020.0000000000E+00+
*       -1.448117310E+03               0
GRID*               2103               01.5813864392E+020.0000000000E+00+
*       -1.453791559E+03               0
GRID*               2104               01.5047680428E+020.0000000000E+00+
*       -1.459299883E+03               0
GRID*               2105               01.4274053964E+020.0000000000E+00+
*       -1.464639057E+03               0
GRID*               2106               01.3489460564E+020.0000000000E+00+
*       -1.469675769E+03               0
GRID*               2107               01.2682699117E+020.0000000000E+00+
*       -1.474359859E+03               0
GRID*               2108               01.1855226891E+020.0000000000E+00+
*       -1.478679941E+03               0
GRID*               2109               01.1008686128E+020.0000000000E+00+
*       -1.482626779E+03               0
GRID*               2110               01.0144801326E+020.0000000000E+00+
*       -1.486192378E+03               0
GRID*               2111               09.2652855647E+010.0000000000E+00+
*       -1.489368821E+03               0
GRID*               2112               08.3719048389E+010.0000000000E+00+
*       -1.492149404E+03               0
GRID*               2113               07.4664529093E+010.0000000000E+00+
*       -1.494528070E+03               0
GRID*               2114               06.5507381561E+010.0000000000E+00+
*       -1.496499430E+03               0
GRID*               2115               05.6266082911E+010.0000000000E+00+
*       -1.498059225E+03               0
GRID*               2116               04.6959194909E+010.0000000000E+00+
*       -1.499203807E+03               0
GRID*               2117               03.7605436368E+010.0000000000E+00+
*       -1.499930334E+03               0
GRID*               2118               02.8223711291E+010.0000000000E+00+
*       -1.500237066E+03               0
GRID*               2119               01.8832910510E+010.0000000000E+00+
*       -1.500122461E+03               0
GRID*               2120               09.4520600052E+000.0000000000E+00+
*       -1.499586130E+03               0
GRID*               2121               03.6683332655E+020.0000000000E+00+
*       -1.058903835E+03               0
GRID*               2122               03.6683332655E+020.0000000000E+00+
*       -1.067807670E+03               0
GRID*               2123               03.6683332655E+020.0000000000E+00+
*       -1.076711505E+03               0
GRID*               2124               03.6683332655E+020.0000000000E+00+
*       -1.085615340E+03               0
GRID*               2125               03.6683332655E+020.0000000000E+00+
*       -1.094519175E+03               0
GRID*               2126               03.6683332655E+020.0000000000E+00+
*       -1.103423010E+03               0
GRID*               2127               03.6683332655E+020.0000000000E+00+
*       -1.112326846E+03               0
GRID*               2128               03.6674654356E+020.0000000000E+00+
*       -1.121494984E+03               0
GRID*               2129               03.6648962627E+020.0000000000E+00+
*       -1.130657750E+03               0
GRID*               2130               03.6606197654E+020.0000000000E+00+
*       -1.139809750E+03               0
GRID*               2131               03.6546311348E+020.0000000000E+00+
*       -1.148945597E+03               0
GRID*               2132               03.6469390716E+020.0000000000E+00+
*       -1.158059949E+03               0
GRID*               2133               03.6375538970E+020.0000000000E+00+
*       -1.167147486E+03               0
GRID*               2134               03.6264846376E+020.0000000000E+00+
*       -1.176202896E+03               0
GRID*               2135               03.6137409534E+020.0000000000E+00+
*       -1.185220879E+03               0
GRID*               2136               03.5984102970E+020.0000000000E+00+
*       -1.194183898E+03               0
GRID*               2137               03.5795965787E+020.0000000000E+00+
*       -1.203089891E+03               0
GRID*               2138               03.5573119321E+020.0000000000E+00+
*       -1.211924489E+03               0
GRID*               2139               03.5315883704E+020.0000000000E+00+
*       -1.220673448E+03               0
GRID*               2140               03.5024615381E+020.0000000000E+00+
*       -1.229322695E+03               0
GRID*               2141               03.4699732091E+020.0000000000E+00+
*       -1.237858291E+03               0
GRID*               2142               03.4341687266E+020.0000000000E+00+
*       -1.246266389E+03               0
GRID*               2143               03.3951020885E+020.0000000000E+00+
*       -1.254533463E+03               0
GRID*               2144               03.3528327598E+020.0000000000E+00+
*       -1.262646211E+03               0
GRID*               2145               03.3074248193E+020.0000000000E+00+
*       -1.270591536E+03               0
GRID*               2146               03.2589477009E+020.0000000000E+00+
*       -1.278356597E+03               0
GRID*               2147               03.2074780038E+020.0000000000E+00+
*       -1.285928985E+03               0
GRID*               2148               03.1530971389E+020.0000000000E+00+
*       -1.293296586E+03               0
GRID*               2149               03.0958888602E+020.0000000000E+00+
*       -1.300447409E+03               0
GRID*               2150               03.0359426817E+020.0000000000E+00+
*       -1.307369894E+03               0
GRID*               2151               02.9733605342E+020.0000000000E+00+
*       -1.314053627E+03               0
GRID*               2152               02.9082496863E+020.0000000000E+00+
*       -1.320488676E+03               0
GRID*               2153               02.8405068351E+020.0000000000E+00+
*       -1.326803247E+03               0
GRID*               2154               02.7716179383E+020.0000000000E+00+
*       -1.332973956E+03               0
GRID*               2155               02.7024292962E+020.0000000000E+00+
*       -1.339052192E+03               0
GRID*               2156               02.6332406541E+020.0000000000E+00+
*       -1.345130428E+03               0
GRID*               2157               02.5640520120E+020.0000000000E+00+
*       -1.351208664E+03               0
GRID*               2158               02.4948633699E+020.0000000000E+00+
*       -1.357286900E+03               0
GRID*               2159               02.4256747278E+020.0000000000E+00+
*       -1.363365136E+03               0
GRID*               2160               02.3564860857E+020.0000000000E+00+
*       -1.369443372E+03               0
GRID*               2161               02.2872974436E+020.0000000000E+00+
*       -1.375521608E+03               0
GRID*               2162               02.2181088015E+020.0000000000E+00+
*       -1.381599844E+03               0
GRID*               2163               02.1489201594E+020.0000000000E+00+
*       -1.387678080E+03               0
GRID*               2164               02.0797315173E+020.0000000000E+00+
*       -1.393756316E+03               0
GRID*               2165               02.0105428752E+020.0000000000E+00+
*       -1.399834552E+03               0
GRID*               2166               01.9413542331E+020.0000000000E+00+
*       -1.405912788E+03               0
GRID*               2167               01.8721655910E+020.0000000000E+00+
*       -1.411991024E+03               0
GRID*               2168               01.8029769489E+020.0000000000E+00+
*       -1.418069260E+03               0
GRID*               2169               01.7330865323E+020.0000000000E+00+
*       -1.424102799E+03               0
GRID*               2170               01.6623534326E+020.0000000000E+00+
*       -1.430007969E+03               0
GRID*               2171               01.5908282057E+020.0000000000E+00+
*       -1.435780832E+03               0
GRID*               2172               01.5185677390E+020.0000000000E+00+
*       -1.441418394E+03               0
GRID*               2173               01.4456288696E+020.0000000000E+00+
*       -1.446917684E+03               0
GRID*               2174               01.3720697919E+020.0000000000E+00+
*       -1.452276017E+03               0
GRID*               2175               01.2974909305E+020.0000000000E+00+
*       -1.457349708E+03               0
GRID*               2176               01.2206608024E+020.0000000000E+00+
*       -1.462085085E+03               0
GRID*               2177               01.1417189221E+020.0000000000E+00+
*       -1.466470388E+03               0
GRID*               2178               01.0608246936E+020.0000000000E+00+
*       -1.470496132E+03               0
GRID*               2179               09.7814617591E+010.0000000000E+00+
*       -1.474154078E+03               0
GRID*               2180               08.9385009439E+010.0000000000E+00+
*       -1.477436027E+03               0
GRID*               2181               08.0810870174E+010.0000000000E+00+
*       -1.480334969E+03               0
GRID*               2182               07.2109720667E+010.0000000000E+00+
*       -1.482844558E+03               0
GRID*               2183               06.3299231540E+010.0000000000E+00+
*       -1.484959055E+03               0
GRID*               2184               05.4397496993E+010.0000000000E+00+
*       -1.486673893E+03               0
GRID*               2185               04.5422703574E+010.0000000000E+00+
*       -1.487985071E+03               0
GRID*               2186               03.6393210553E+010.0000000000E+00+
*       -1.488889387E+03               0
GRID*               2187               02.7327584636E+010.0000000000E+00+
*       -1.489384762E+03               0
GRID*               2188               01.8244389108E+010.0000000000E+00+
*       -1.489469231E+03               0
GRID*               2189               09.1623299569E+000.0000000000E+00+
*       -1.489142077E+03               0
GRID*               2190               03.5346666124E+020.0000000000E+00+
*       -1.058561360E+03               0
GRID*               2191               03.5346666124E+020.0000000000E+00+
*       -1.067122720E+03               0
GRID*               2192               03.5346666124E+020.0000000000E+00+
*       -1.075684079E+03               0
GRID*               2193               03.5346666124E+020.0000000000E+00+
*       -1.084245439E+03               0
GRID*               2194               03.5346666124E+020.0000000000E+00+
*       -1.092806799E+03               0
GRID*               2195               03.5346666124E+020.0000000000E+00+
*       -1.101368159E+03               0
GRID*               2196               03.5346666124E+020.0000000000E+00+
*       -1.109929518E+03               0
GRID*               2197               03.5337320263E+020.0000000000E+00+
*       -1.118775513E+03               0
GRID*               2198               03.5309652247E+020.0000000000E+00+
*       -1.127615721E+03               0
GRID*               2199               03.5263597661E+020.0000000000E+00+
*       -1.136444335E+03               0
GRID*               2200               03.5199104716E+020.0000000000E+00+
*       -1.145255554E+03               0
GRID*               2201               03.5116267113E+020.0000000000E+00+
*       -1.154043625E+03               0
GRID*               2202               03.5015196001E+020.0000000000E+00+
*       -1.162802817E+03               0
GRID*               2203               03.4895988592E+020.0000000000E+00+
*       -1.171527412E+03               0
GRID*               2204               03.4758748917E+020.0000000000E+00+
*       -1.180211700E+03               0
GRID*               2205               03.4596213907E+020.0000000000E+00+
*       -1.188840207E+03               0
GRID*               2206               03.4401256090E+020.0000000000E+00+
*       -1.197409851E+03               0
GRID*               2207               03.4174013849E+020.0000000000E+00+
*       -1.205907702E+03               0
GRID*               2208               03.3914790070E+020.0000000000E+00+
*       -1.214320948E+03               0
GRID*               2209               03.3623926117E+020.0000000000E+00+
*       -1.222636948E+03               0
GRID*               2210               03.3301813322E+020.0000000000E+00+
*       -1.230843173E+03               0
GRID*               2211               03.2948872521E+020.0000000000E+00+
*       -1.238927172E+03               0
GRID*               2212               03.2565602785E+020.0000000000E+00+
*       -1.246876789E+03               0
GRID*               2213               03.2152551913E+020.0000000000E+00+
*       -1.254680079E+03               0
GRID*               2214               03.1710304674E+020.0000000000E+00+
*       -1.262325256E+03               0
GRID*               2215               03.1239492353E+020.0000000000E+00+
*       -1.269800764E+03               0
GRID*               2216               03.0740812644E+020.0000000000E+00+
*       -1.277095447E+03               0
GRID*               2217               03.0215003111E+020.0000000000E+00+
*       -1.284198398E+03               0
GRID*               2218               02.9662817735E+020.0000000000E+00+
*       -1.291098779E+03               0
GRID*               2219               02.9085060240E+020.0000000000E+00+
*       -1.297786126E+03               0
GRID*               2220               02.8482660938E+020.0000000000E+00+
*       -1.304251148E+03               0
GRID*               2221               02.7856595329E+020.0000000000E+00+
*       -1.310484960E+03               0
GRID*               2222               02.7205570052E+020.0000000000E+00+
*       -1.316627441E+03               0
GRID*               2223               02.6545376410E+020.0000000000E+00+
*       -1.322654833E+03               0
GRID*               2224               02.5882784805E+020.0000000000E+00+
*       -1.328608247E+03               0
GRID*               2225               02.5220193200E+020.0000000000E+00+
*       -1.334561660E+03               0
GRID*               2226               02.4557601595E+020.0000000000E+00+
*       -1.340515074E+03               0
GRID*               2227               02.3895009990E+020.0000000000E+00+
*       -1.346468487E+03               0
GRID*               2228               02.3232418385E+020.0000000000E+00+
*       -1.352421901E+03               0
GRID*               2229               02.2569826779E+020.0000000000E+00+
*       -1.358375314E+03               0
GRID*               2230               02.1907235174E+020.0000000000E+00+
*       -1.364328728E+03               0
GRID*               2231               02.1244643569E+020.0000000000E+00+
*       -1.370282141E+03               0
GRID*               2232               02.0582051964E+020.0000000000E+00+
*       -1.376235555E+03               0
GRID*               2233               01.9919460359E+020.0000000000E+00+
*       -1.382188969E+03               0
GRID*               2234               01.9256868754E+020.0000000000E+00+
*       -1.388142382E+03               0
GRID*               2235               01.8594277149E+020.0000000000E+00+
*       -1.394095796E+03               0
GRID*               2236               01.7931685544E+020.0000000000E+00+
*       -1.400049209E+03               0
GRID*               2237               01.7269093939E+020.0000000000E+00+
*       -1.406002623E+03               0
GRID*               2238               01.6600888138E+020.0000000000E+00+
*       -1.411920278E+03               0
GRID*               2239               01.5925940873E+020.0000000000E+00+
*       -1.417735239E+03               0
GRID*               2240               01.5244656589E+020.0000000000E+00+
*       -1.423444355E+03               0
GRID*               2241               01.4557490387E+020.0000000000E+00+
*       -1.429045229E+03               0
GRID*               2242               01.3864896964E+020.0000000000E+00+
*       -1.434535486E+03               0
GRID*               2243               01.3167341874E+020.0000000000E+00+
*       -1.439912977E+03               0
GRID*               2244               01.2460358046E+020.0000000000E+00+
*       -1.445023646E+03               0
GRID*               2245               01.1730516931E+020.0000000000E+00+
*       -1.449810311E+03               0
GRID*               2246               01.0979151551E+020.0000000000E+00+
*       -1.454260834E+03               0
GRID*               2247               01.0207807744E+020.0000000000E+00+
*       -1.458365485E+03               0
GRID*               2248               09.4181221926E+010.0000000000E+00+
*       -1.462115779E+03               0
GRID*               2249               08.6117163231E+010.0000000000E+00+
*       -1.465503233E+03               0
GRID*               2250               07.7902691958E+010.0000000000E+00+
*       -1.468520535E+03               0
GRID*               2251               06.9554912242E+010.0000000000E+00+
*       -1.471161046E+03               0
GRID*               2252               06.1091081518E+010.0000000000E+00+
*       -1.473418681E+03               0
GRID*               2253               05.2528911074E+010.0000000000E+00+
*       -1.475288562E+03               0
GRID*               2254               04.3886212239E+010.0000000000E+00+
*       -1.476766334E+03               0
GRID*               2255               03.5180984737E+010.0000000000E+00+
*       -1.477848440E+03               0
GRID*               2256               02.6431457981E+010.0000000000E+00+
*       -1.478532457E+03               0
GRID*               2257               01.7655867705E+010.0000000000E+00+
*       -1.478816002E+03               0
GRID*               2258               08.8725999086E+000.0000000000E+00+
*       -1.478698024E+03               0
GRID*               2259               03.4009999593E+020.0000000000E+00+
*       -1.058218884E+03               0
GRID*               2260               03.4009999593E+020.0000000000E+00+
*       -1.066437769E+03               0
GRID*               2261               03.4009999593E+020.0000000000E+00+
*       -1.074656653E+03               0
GRID*               2262               03.4009999593E+020.0000000000E+00+
*       -1.082875538E+03               0
GRID*               2263               03.4009999593E+020.0000000000E+00+
*       -1.091094422E+03               0
GRID*               2264               03.4009999593E+020.0000000000E+00+
*       -1.099313307E+03               0
GRID*               2265               03.4009999593E+020.0000000000E+00+
*       -1.107532191E+03               0
GRID*               2266               03.3999986171E+020.0000000000E+00+
*       -1.116056041E+03               0
GRID*               2267               03.3970341868E+020.0000000000E+00+
*       -1.124573692E+03               0
GRID*               2268               03.3920997669E+020.0000000000E+00+
*       -1.133078920E+03               0
GRID*               2269               03.3851898085E+020.0000000000E+00+
*       -1.141565511E+03               0
GRID*               2270               03.3763143509E+020.0000000000E+00+
*       -1.150027300E+03               0
GRID*               2271               03.3654853033E+020.0000000000E+00+
*       -1.158458148E+03               0
GRID*               2272               03.3527130809E+020.0000000000E+00+
*       -1.166851927E+03               0
GRID*               2273               03.3380088300E+020.0000000000E+00+
*       -1.175202521E+03               0
GRID*               2274               03.3208324844E+020.0000000000E+00+
*       -1.183496517E+03               0
GRID*               2275               03.3006546392E+020.0000000000E+00+
*       -1.191729811E+03               0
GRID*               2276               03.2774908376E+020.0000000000E+00+
*       -1.199890914E+03               0
GRID*               2277               03.2513696436E+020.0000000000E+00+
*       -1.207968448E+03               0
GRID*               2278               03.2223236853E+020.0000000000E+00+
*       -1.215951201E+03               0
GRID*               2279               03.1903894554E+020.0000000000E+00+
*       -1.223828055E+03               0
GRID*               2280               03.1556057775E+020.0000000000E+00+
*       -1.231587954E+03               0
GRID*               2281               03.1180184685E+020.0000000000E+00+
*       -1.239220115E+03               0
GRID*               2282               03.0776776228E+020.0000000000E+00+
*       -1.246713946E+03               0
GRID*               2283               03.0346361154E+020.0000000000E+00+
*       -1.254058976E+03               0
GRID*               2284               02.9889507696E+020.0000000000E+00+
*       -1.261244931E+03               0
GRID*               2285               02.9406845249E+020.0000000000E+00+
*       -1.268261909E+03               0
GRID*               2286               02.8899034832E+020.0000000000E+00+
*       -1.275100210E+03               0
GRID*               2287               02.8366746868E+020.0000000000E+00+
*       -1.281750149E+03               0
GRID*               2288               02.7810693664E+020.0000000000E+00+
*       -1.288202358E+03               0
GRID*               2289               02.7231716533E+020.0000000000E+00+
*       -1.294448669E+03               0
GRID*               2290               02.6630693796E+020.0000000000E+00+
*       -1.300481243E+03               0
GRID*               2291               02.6006071753E+020.0000000000E+00+
*       -1.306451635E+03               0
GRID*               2292               02.5374573436E+020.0000000000E+00+
*       -1.312335710E+03               0
GRID*               2293               02.4741276647E+020.0000000000E+00+
*       -1.318164301E+03               0
GRID*               2294               02.4107979858E+020.0000000000E+00+
*       -1.323992892E+03               0
GRID*               2295               02.3474683069E+020.0000000000E+00+
*       -1.329821483E+03               0
GRID*               2296               02.2841386280E+020.0000000000E+00+
*       -1.335650074E+03               0
GRID*               2297               02.2208089491E+020.0000000000E+00+
*       -1.341478665E+03               0
GRID*               2298               02.1574792702E+020.0000000000E+00+
*       -1.347307257E+03               0
GRID*               2299               02.0941495913E+020.0000000000E+00+
*       -1.353135848E+03               0
GRID*               2300               02.0308199124E+020.0000000000E+00+
*       -1.358964439E+03               0
GRID*               2301               01.9674902335E+020.0000000000E+00+
*       -1.364793030E+03               0
GRID*               2302               01.9041605546E+020.0000000000E+00+
*       -1.370621621E+03               0
GRID*               2303               01.8408308757E+020.0000000000E+00+
*       -1.376450212E+03               0
GRID*               2304               01.7775011968E+020.0000000000E+00+
*       -1.382278803E+03               0
GRID*               2305               01.7141715179E+020.0000000000E+00+
*       -1.388107394E+03               0
GRID*               2306               01.6508418390E+020.0000000000E+00+
*       -1.393935985E+03               0
GRID*               2307               01.5870910953E+020.0000000000E+00+
*       -1.399737758E+03               0
GRID*               2308               01.5228347419E+020.0000000000E+00+
*       -1.405462509E+03               0
GRID*               2309               01.4581031121E+020.0000000000E+00+
*       -1.411107877E+03               0
GRID*               2310               01.3929303384E+020.0000000000E+00+
*       -1.416672064E+03               0
GRID*               2311               01.3273505232E+020.0000000000E+00+
*       -1.422153287E+03               0
GRID*               2312               01.2613985829E+020.0000000000E+00+
*       -1.427549936E+03               0
GRID*               2313               01.1945806787E+020.0000000000E+00+
*       -1.432697584E+03               0
GRID*               2314               01.1254425838E+020.0000000000E+00+
*       -1.437535536E+03               0
GRID*               2315               01.0541113881E+020.0000000000E+00+
*       -1.442051281E+03               0
GRID*               2316               09.8073685516E+010.0000000000E+00+
*       -1.446234838E+03               0
GRID*               2317               09.0547826261E+010.0000000000E+00+
*       -1.450077479E+03               0
GRID*               2318               08.2849317023E+010.0000000000E+00+
*       -1.453570438E+03               0
GRID*               2319               07.4994513743E+010.0000000000E+00+
*       -1.456706100E+03               0
GRID*               2320               06.7000103817E+010.0000000000E+00+
*       -1.459477533E+03               0
GRID*               2321               05.8882931497E+010.0000000000E+00+
*       -1.461878307E+03               0
GRID*               2322               05.0660325155E+010.0000000000E+00+
*       -1.463903230E+03               0
GRID*               2323               04.2349720905E+010.0000000000E+00+
*       -1.465547597E+03               0
GRID*               2324               03.3968758921E+010.0000000000E+00+
*       -1.466807493E+03               0
GRID*               2325               02.5535331325E+010.0000000000E+00+
*       -1.467680153E+03               0
GRID*               2326               01.7067346302E+010.0000000000E+00+
*       -1.468162772E+03               0
GRID*               2327               08.5828698602E+000.0000000000E+00+
*       -1.468253971E+03               0
GRID*               2328               03.2673333062E+020.0000000000E+00+
*       -1.057876409E+03               0
GRID*               2329               03.2673333062E+020.0000000000E+00+
*       -1.065752818E+03               0
GRID*               2330               03.2673333062E+020.0000000000E+00+
*       -1.073629228E+03               0
GRID*               2331               03.2673333062E+020.0000000000E+00+
*       -1.081505637E+03               0
GRID*               2332               03.2673333062E+020.0000000000E+00+
*       -1.089382046E+03               0
GRID*               2333               03.2673333062E+020.0000000000E+00+
*       -1.097258455E+03               0
GRID*               2334               03.2673333062E+020.0000000000E+00+
*       -1.105134864E+03               0
GRID*               2335               03.2662652078E+020.0000000000E+00+
*       -1.113336570E+03               0
GRID*               2336               03.2631031489E+020.0000000000E+00+
*       -1.121531664E+03               0
GRID*               2337               03.2578397676E+020.0000000000E+00+
*       -1.129713506E+03               0
GRID*               2338               03.2504691453E+020.0000000000E+00+
*       -1.137875469E+03               0
GRID*               2339               03.2410019906E+020.0000000000E+00+
*       -1.146010976E+03               0
GRID*               2340               03.2294510064E+020.0000000000E+00+
*       -1.154113479E+03               0
GRID*               2341               03.2158273026E+020.0000000000E+00+
*       -1.162176443E+03               0
GRID*               2342               03.2001427683E+020.0000000000E+00+
*       -1.170193342E+03               0
GRID*               2343               03.1820435781E+020.0000000000E+00+
*       -1.178152826E+03               0
GRID*               2344               03.1611836694E+020.0000000000E+00+
*       -1.186049771E+03               0
GRID*               2345               03.1375802904E+020.0000000000E+00+
*       -1.193874127E+03               0
GRID*               2346               03.1112602802E+020.0000000000E+00+
*       -1.201615947E+03               0
GRID*               2347               03.0822547588E+020.0000000000E+00+
*       -1.209265453E+03               0
GRID*               2348               03.0505975785E+020.0000000000E+00+
*       -1.216812937E+03               0
GRID*               2349               03.0163243029E+020.0000000000E+00+
*       -1.224248737E+03               0
GRID*               2350               02.9794766585E+020.0000000000E+00+
*       -1.231563442E+03               0
GRID*               2351               02.9401000543E+020.0000000000E+00+
*       -1.238747814E+03               0
GRID*               2352               02.8982417635E+020.0000000000E+00+
*       -1.245792696E+03               0
GRID*               2353               02.8539523039E+020.0000000000E+00+
*       -1.252689097E+03               0
GRID*               2354               02.8072877855E+020.0000000000E+00+
*       -1.259428371E+03               0
GRID*               2355               02.7583066554E+020.0000000000E+00+
*       -1.266002021E+03               0
GRID*               2356               02.7070676001E+020.0000000000E+00+
*       -1.272401519E+03               0
GRID*               2357               02.6536327087E+020.0000000000E+00+
*       -1.278618591E+03               0
GRID*               2358               02.5980772128E+020.0000000000E+00+
*       -1.284646190E+03               0
GRID*               2359               02.5404792263E+020.0000000000E+00+
*       -1.290477526E+03               0
GRID*               2360               02.4806573454E+020.0000000000E+00+
*       -1.296275829E+03               0
GRID*               2361               02.4203770462E+020.0000000000E+00+
*       -1.302016587E+03               0
GRID*               2362               02.3599768489E+020.0000000000E+00+
*       -1.307720355E+03               0
GRID*               2363               02.2995766516E+020.0000000000E+00+
*       -1.313424124E+03               0
GRID*               2364               02.2391764543E+020.0000000000E+00+
*       -1.319127893E+03               0
GRID*               2365               02.1787762570E+020.0000000000E+00+
*       -1.324831661E+03               0
GRID*               2366               02.1183760597E+020.0000000000E+00+
*       -1.330535430E+03               0
GRID*               2367               02.0579758624E+020.0000000000E+00+
*       -1.336239199E+03               0
GRID*               2368               01.9975756651E+020.0000000000E+00+
*       -1.341942967E+03               0
GRID*               2369               01.9371754678E+020.0000000000E+00+
*       -1.347646736E+03               0
GRID*               2370               01.8767752705E+020.0000000000E+00+
*       -1.353350505E+03               0
GRID*               2371               01.8163750732E+020.0000000000E+00+
*       -1.359054273E+03               0
GRID*               2372               01.7559748759E+020.0000000000E+00+
*       -1.364758042E+03               0
GRID*               2373               01.6955746786E+020.0000000000E+00+
*       -1.370461810E+03               0
GRID*               2374               01.6351744813E+020.0000000000E+00+
*       -1.376165579E+03               0
GRID*               2375               01.5747742840E+020.0000000000E+00+
*       -1.381869348E+03               0
GRID*               2376               01.5140933769E+020.0000000000E+00+
*       -1.387555237E+03               0
GRID*               2377               01.4530753966E+020.0000000000E+00+
*       -1.393189780E+03               0
GRID*               2378               01.3917405653E+020.0000000000E+00+
*       -1.398771399E+03               0
GRID*               2379               01.3301116382E+020.0000000000E+00+
*       -1.404298898E+03               0
GRID*               2380               01.2682113499E+020.0000000000E+00+
*       -1.409771089E+03               0
GRID*               2381               01.2060629784E+020.0000000000E+00+
*       -1.415186896E+03               0
GRID*               2382               01.1431255527E+020.0000000000E+00+
*       -1.420371523E+03               0
GRID*               2383               01.0778334745E+020.0000000000E+00+
*       -1.425260762E+03               0
GRID*               2384               01.0103076210E+020.0000000000E+00+
*       -1.429841728E+03               0
GRID*               2385               09.4069293595E+010.0000000000E+00+
*       -1.434104190E+03               0
GRID*               2386               08.6914430596E+010.0000000000E+00+
*       -1.438039179E+03               0
GRID*               2387               07.9581470816E+010.0000000000E+00+
*       -1.441637644E+03               0
GRID*               2388               07.2086335527E+010.0000000000E+00+
*       -1.444891666E+03               0
GRID*               2389               06.4445295392E+010.0000000000E+00+
*       -1.447794021E+03               0
GRID*               2390               05.6674781475E+010.0000000000E+00+
*       -1.450337933E+03               0
GRID*               2391               04.8791739236E+010.0000000000E+00+
*       -1.452517899E+03               0
GRID*               2392               04.0813229570E+010.0000000000E+00+
*       -1.454328861E+03               0
GRID*               2393               03.2756533106E+010.0000000000E+00+
*       -1.455766546E+03               0
GRID*               2394               02.4639204670E+010.0000000000E+00+
*       -1.456827848E+03               0
GRID*               2395               01.6478824900E+010.0000000000E+00+
*       -1.457509542E+03               0
GRID*               2396               08.2931398119E+000.0000000000E+00+
*       -1.457809918E+03               0
GRID*               2397               03.1336666531E+020.0000000000E+00+
*       -1.057533934E+03               0
GRID*               2398               03.1336666531E+020.0000000000E+00+
*       -1.065067868E+03               0
GRID*               2399               03.1336666531E+020.0000000000E+00+
*       -1.072601802E+03               0
GRID*               2400               03.1336666531E+020.0000000000E+00+
*       -1.080135735E+03               0
GRID*               2401               03.1336666531E+020.0000000000E+00+
*       -1.087669669E+03               0
GRID*               2402               03.1336666531E+020.0000000000E+00+
*       -1.095203603E+03               0
GRID*               2403               03.1336666531E+020.0000000000E+00+
*       -1.102737537E+03               0
GRID*               2404               03.1325317985E+020.0000000000E+00+
*       -1.110617098E+03               0
GRID*               2405               03.1291721109E+020.0000000000E+00+
*       -1.118489635E+03               0
GRID*               2406               03.1235797683E+020.0000000000E+00+
*       -1.126348091E+03               0
GRID*               2407               03.1157484821E+020.0000000000E+00+
*       -1.134185426E+03               0
GRID*               2408               03.1056896303E+020.0000000000E+00+
*       -1.141994651E+03               0
GRID*               2409               03.0934167096E+020.0000000000E+00+
*       -1.149768810E+03               0
GRID*               2410               03.0789415242E+020.0000000000E+00+
*       -1.157500958E+03               0
GRID*               2411               03.0622767065E+020.0000000000E+00+
*       -1.165184162E+03               0
GRID*               2412               03.0432546719E+020.0000000000E+00+
*       -1.172809135E+03               0
GRID*               2413               03.0217126996E+020.0000000000E+00+
*       -1.180369730E+03               0
GRID*               2414               02.9976697432E+020.0000000000E+00+
*       -1.187857340E+03               0
GRID*               2415               02.9711509168E+020.0000000000E+00+
*       -1.195263447E+03               0
GRID*               2416               02.9421858324E+020.0000000000E+00+
*       -1.202579706E+03               0
GRID*               2417               02.9108057017E+020.0000000000E+00+
*       -1.209797819E+03               0
GRID*               2418               02.8770428283E+020.0000000000E+00+
*       -1.216909519E+03               0
GRID*               2419               02.8409348485E+020.0000000000E+00+
*       -1.223906768E+03               0
GRID*               2420               02.8025224858E+020.0000000000E+00+
*       -1.230781681E+03               0
GRID*               2421               02.7618474116E+020.0000000000E+00+
*       -1.237526416E+03               0
GRID*               2422               02.7189538382E+020.0000000000E+00+
*       -1.244133264E+03               0
GRID*               2423               02.6738910461E+020.0000000000E+00+
*       -1.250594833E+03               0
GRID*               2424               02.6267098275E+020.0000000000E+00+
*       -1.256903833E+03               0
GRID*               2425               02.5774605134E+020.0000000000E+00+
*       -1.263052889E+03               0
GRID*               2426               02.5261960510E+020.0000000000E+00+
*       -1.269034823E+03               0
GRID*               2427               02.4729827724E+020.0000000000E+00+
*       -1.274843711E+03               0
GRID*               2428               02.4178890730E+020.0000000000E+00+
*       -1.280473810E+03               0
GRID*               2429               02.3607075155E+020.0000000000E+00+
*       -1.286100023E+03               0
GRID*               2430               02.3032967488E+020.0000000000E+00+
*       -1.291697464E+03               0
GRID*               2431               02.2458260331E+020.0000000000E+00+
*       -1.297276410E+03               0
GRID*               2432               02.1883553174E+020.0000000000E+00+
*       -1.302855356E+03               0
GRID*               2433               02.1308846017E+020.0000000000E+00+
*       -1.308434302E+03               0
GRID*               2434               02.0734138860E+020.0000000000E+00+
*       -1.314013248E+03               0
GRID*               2435               02.0159431703E+020.0000000000E+00+
*       -1.319592195E+03               0
GRID*               2436               01.9584724546E+020.0000000000E+00+
*       -1.325171141E+03               0
GRID*               2437               01.9010017389E+020.0000000000E+00+
*       -1.330750087E+03               0
GRID*               2438               01.8435310232E+020.0000000000E+00+
*       -1.336329033E+03               0
GRID*               2439               01.7860603075E+020.0000000000E+00+
*       -1.341907979E+03               0
GRID*               2440               01.7285895918E+020.0000000000E+00+
*       -1.347486926E+03               0
GRID*               2441               01.6711188761E+020.0000000000E+00+
*       -1.353065872E+03               0
GRID*               2442               01.6136481604E+020.0000000000E+00+
*       -1.358644818E+03               0
GRID*               2443               01.5561774447E+020.0000000000E+00+
*       -1.364223764E+03               0
GRID*               2444               01.4987067290E+020.0000000000E+00+
*       -1.369802710E+03               0
GRID*               2445               01.4410956584E+020.0000000000E+00+
*       -1.375372717E+03               0
GRID*               2446               01.3833160512E+020.0000000000E+00+
*       -1.380917050E+03               0
GRID*               2447               01.3253780185E+020.0000000000E+00+
*       -1.386434922E+03               0
GRID*               2448               01.2672929379E+020.0000000000E+00+
*       -1.391925733E+03               0
GRID*               2449               01.2090721767E+020.0000000000E+00+
*       -1.397388890E+03               0
GRID*               2450               01.1507273739E+020.0000000000E+00+
*       -1.402823856E+03               0
GRID*               2451               01.0916704268E+020.0000000000E+00+
*       -1.408045461E+03               0
GRID*               2452               01.0302243652E+020.0000000000E+00+
*       -1.412985988E+03               0
GRID*               2453               09.6650385401E+010.0000000000E+00+
*       -1.417632174E+03               0
GRID*               2454               09.0064901675E+010.0000000000E+00+
*       -1.421973543E+03               0
GRID*               2455               08.3281034931E+010.0000000000E+00+
*       -1.426000880E+03               0
GRID*               2456               07.6313624608E+010.0000000000E+00+
*       -1.429704850E+03               0
GRID*               2457               06.9178157312E+010.0000000000E+00+
*       -1.433077231E+03               0
GRID*               2458               06.1890486967E+010.0000000000E+00+
*       -1.436110509E+03               0
GRID*               2459               05.4466631454E+010.0000000000E+00+
*       -1.438797559E+03               0
GRID*               2460               04.6923153317E+010.0000000000E+00+
*       -1.441132567E+03               0
GRID*               2461               03.9276738235E+010.0000000000E+00+
*       -1.443110124E+03               0
GRID*               2462               03.1544307290E+010.0000000000E+00+
*       -1.444725599E+03               0
GRID*               2463               02.3743078015E+010.0000000000E+00+
*       -1.445975544E+03               0
GRID*               2464               01.5890303497E+010.0000000000E+00+
*       -1.446856312E+03               0
GRID*               2465               08.0034097636E+000.0000000000E+00+
*       -1.447365865E+03               0
GRID*               2466               05.2689947422E+020.0000000000E+00+
*       1.3354611055E+01               0
GRID*               2467               05.1337306265E+020.0000000000E+00+
*       1.3015972124E+01               0
GRID*               2468               04.9984665107E+020.0000000000E+00+
*       1.2677333194E+01               0
GRID*               2469               04.8651705667E+020.0000000000E+00+
*       1.2338723952E+01               0
GRID*               2470               04.7318746228E+020.0000000000E+00+
*       1.2000114711E+01               0
GRID*               2471               04.5985786788E+020.0000000000E+00+
*       1.1661505469E+01               0
GRID*               2472               04.4652827348E+020.0000000000E+00+
*       1.1322896227E+01               0
GRID*               2473               04.3319867909E+020.0000000000E+00+
*       1.0984286985E+01               0
GRID*               2474               04.1986908469E+020.0000000000E+00+
*       1.0645677743E+01               0
GRID*               2475               04.0653949030E+020.0000000000E+00+
*       1.0307068501E+01               0
GRID*               2476               03.9320989590E+020.0000000000E+00+
*       9.9684592590E+00               0
GRID*               2477               03.7988030150E+020.0000000000E+00+
*       9.6298500170E+00               0
GRID*               2478               03.6655070711E+020.0000000000E+00+
*       9.2912407751E+00               0
GRID*               2479               03.5322111271E+020.0000000000E+00+
*       8.9526315332E+00               0
GRID*               2480               03.3989151831E+020.0000000000E+00+
*       8.6140222912E+00               0
GRID*               2481               03.2656192392E+020.0000000000E+00+
*       8.2754130493E+00               0
GRID*               2482               03.1323232952E+020.0000000000E+00+
*       7.9368038074E+00               0
GRID*               2483               05.2639499280E+020.0000000000E+00+
*       2.6700610692E+01               0
GRID*               2484               05.1288399900E+020.0000000000E+00+
*       2.6023501005E+01               0
GRID*               2485               04.9937300519E+020.0000000000E+00+
*       2.5346391318E+01               0
GRID*               2486               04.8605575174E+020.0000000000E+00+
*       2.4669400279E+01               0
GRID*               2487               04.7273849830E+020.0000000000E+00+
*       2.3992409239E+01               0
GRID*               2488               04.5942124485E+020.0000000000E+00+
*       2.3315418200E+01               0
GRID*               2489               04.4610399140E+020.0000000000E+00+
*       2.2638427161E+01               0
GRID*               2490               04.3278673795E+020.0000000000E+00+
*       2.1961436121E+01               0
GRID*               2491               04.1946948450E+020.0000000000E+00+
*       2.1284445082E+01               0
GRID*               2492               04.0615223105E+020.0000000000E+00+
*       2.0607454042E+01               0
GRID*               2493               03.9283497761E+020.0000000000E+00+
*       1.9930463003E+01               0
GRID*               2494               03.7951772416E+020.0000000000E+00+
*       1.9253471964E+01               0
GRID*               2495               03.6620047071E+020.0000000000E+00+
*       1.8576480924E+01               0
GRID*               2496               03.5288321726E+020.0000000000E+00+
*       1.7899489885E+01               0
GRID*               2497               03.3956596381E+020.0000000000E+00+
*       1.7222498845E+01               0
GRID*               2498               03.2624871036E+020.0000000000E+00+
*       1.6545507806E+01               0
GRID*               2499               03.1293145691E+020.0000000000E+00+
*       1.5868516767E+01               0
GRID*               2500               05.2555256804E+020.0000000000E+00+
*       4.0029423153E+01               0
GRID*               2501               05.1206551127E+020.0000000000E+00+
*       3.9014228532E+01               0
GRID*               2502               04.9857845450E+020.0000000000E+00+
*       3.7999033912E+01               0
GRID*               2503               04.8528215289E+020.0000000000E+00+
*       3.6984105855E+01               0
GRID*               2504               04.7198585128E+020.0000000000E+00+
*       3.5969177798E+01               0
GRID*               2505               04.5868954967E+020.0000000000E+00+
*       3.4954249741E+01               0
GRID*               2506               04.4539324805E+020.0000000000E+00+
*       3.3939321684E+01               0
GRID*               2507               04.3209694644E+020.0000000000E+00+
*       3.2924393627E+01               0
GRID*               2508               04.1880064483E+020.0000000000E+00+
*       3.1909465570E+01               0
GRID*               2509               04.0550434322E+020.0000000000E+00+
*       3.0894537513E+01               0
GRID*               2510               03.9220804161E+020.0000000000E+00+
*       2.9879609457E+01               0
GRID*               2511               03.7891174000E+020.0000000000E+00+
*       2.8864681400E+01               0
GRID*               2512               03.6561543838E+020.0000000000E+00+
*       2.7849753343E+01               0
GRID*               2513               03.5231913677E+020.0000000000E+00+
*       2.6834825286E+01               0
GRID*               2514               03.3902283516E+020.0000000000E+00+
*       2.5819897229E+01               0
GRID*               2515               03.2572653355E+020.0000000000E+00+
*       2.4804969172E+01               0
GRID*               2516               03.1243023194E+020.0000000000E+00+
*       2.3790041115E+01               0
GRID*               2517               05.2437235198E+020.0000000000E+00+
*       5.3332495372E+01               0
GRID*               2518               05.1091772054E+020.0000000000E+00+
*       5.1979818254E+01               0
GRID*               2519               04.9746308910E+020.0000000000E+00+
*       5.0627141137E+01               0
GRID*               2520               04.8419631305E+020.0000000000E+00+
*       4.9274936931E+01               0
GRID*               2521               04.7092953701E+020.0000000000E+00+
*       4.7922732726E+01               0
GRID*               2522               04.5766276096E+020.0000000000E+00+
*       4.6570528521E+01               0
GRID*               2523               04.4439598492E+020.0000000000E+00+
*       4.5218324316E+01               0
GRID*               2524               04.3112920888E+020.0000000000E+00+
*       4.3866120110E+01               0
GRID*               2525               04.1786243283E+020.0000000000E+00+
*       4.2513915905E+01               0
GRID*               2526               04.0459565679E+020.0000000000E+00+
*       4.1161711700E+01               0
GRID*               2527               03.9132888075E+020.0000000000E+00+
*       3.9809507495E+01               0
GRID*               2528               03.7806210471E+020.0000000000E+00+
*       3.8457303289E+01               0
GRID*               2529               03.6479532867E+020.0000000000E+00+
*       3.7105099084E+01               0
GRID*               2530               03.5152855262E+020.0000000000E+00+
*       3.5752894879E+01               0
GRID*               2531               03.3826177658E+020.0000000000E+00+
*       3.4400690674E+01               0
GRID*               2532               03.2499500054E+020.0000000000E+00+
*       3.3048486468E+01               0
GRID*               2533               03.1172822450E+020.0000000000E+00+
*       3.1696282263E+01               0
GRID*               2534               05.2285549554E+020.0000000000E+00+
*       6.6601299470E+01               0
GRID*               2535               05.0944173710E+020.0000000000E+00+
*       6.4911959362E+01               0
GRID*               2536               04.9602797866E+020.0000000000E+00+
*       6.3222619255E+01               0
GRID*               2537               04.8279925516E+020.0000000000E+00+
*       6.1534016108E+01               0
GRID*               2538               04.6957053166E+020.0000000000E+00+
*       5.9845412962E+01               0
GRID*               2539               04.5634180815E+020.0000000000E+00+
*       5.8156809816E+01               0
GRID*               2540               04.4311308465E+020.0000000000E+00+
*       5.6468206669E+01               0
GRID*               2541               04.2988436115E+020.0000000000E+00+
*       5.4779603523E+01               0
GRID*               2542               04.1665563764E+020.0000000000E+00+
*       5.3091000376E+01               0
GRID*               2543               04.0342691414E+020.0000000000E+00+
*       5.1402397230E+01               0
GRID*               2544               03.9019819064E+020.0000000000E+00+
*       4.9713794084E+01               0
GRID*               2545               03.7696946714E+020.0000000000E+00+
*       4.8025190937E+01               0
GRID*               2546               03.6374074364E+020.0000000000E+00+
*       4.6336587791E+01               0
GRID*               2547               03.5051202013E+020.0000000000E+00+
*       4.4647984645E+01               0
GRID*               2548               03.3728329663E+020.0000000000E+00+
*       4.2959381498E+01               0
GRID*               2549               03.2405457313E+020.0000000000E+00+
*       4.1270778352E+01               0
GRID*               2550               03.1082584963E+020.0000000000E+00+
*       3.9582175206E+01               0
GRID*               2551               05.2100299478E+020.0000000000E+00+
*       7.9827321491E+01               0
GRID*               2552               05.0763855893E+020.0000000000E+00+
*       7.7802355028E+01               0
GRID*               2553               04.9427412307E+020.0000000000E+00+
*       7.5777388566E+01               0
GRID*               2554               04.8109197483E+020.0000000000E+00+
*       7.3753479873E+01               0
GRID*               2555               04.6790982658E+020.0000000000E+00+
*       7.1729571180E+01               0
GRID*               2556               04.5472767834E+020.0000000000E+00+
*       6.9705662486E+01               0
GRID*               2557               04.4154553009E+020.0000000000E+00+
*       6.7681753793E+01               0
GRID*               2558               04.2836338185E+020.0000000000E+00+
*       6.5657845100E+01               0
GRID*               2559               04.1518123360E+020.0000000000E+00+
*       6.3633936407E+01               0
GRID*               2560               04.0199908536E+020.0000000000E+00+
*       6.1610027714E+01               0
GRID*               2561               03.8881693711E+020.0000000000E+00+
*       5.9586119021E+01               0
GRID*               2562               03.7563478887E+020.0000000000E+00+
*       5.7562210328E+01               0
GRID*               2563               03.6245264062E+020.0000000000E+00+
*       5.5538301634E+01               0
GRID*               2564               03.4927049238E+020.0000000000E+00+
*       5.3514392941E+01               0
GRID*               2565               03.3608834414E+020.0000000000E+00+
*       5.1490484248E+01               0
GRID*               2566               03.2290619589E+020.0000000000E+00+
*       4.9466575555E+01               0
GRID*               2567               03.0972404765E+020.0000000000E+00+
*       4.7442666862E+01               0
GRID*               2568               05.1881596110E+020.0000000000E+00+
*       9.3002063119E+01               0
GRID*               2569               05.0550927942E+020.0000000000E+00+
*       9.0642724200E+01               0
GRID*               2570               04.9220259773E+020.0000000000E+00+
*       8.8283385281E+01               0
GRID*               2571               04.7907552335E+020.0000000000E+00+
*       8.5925480548E+01               0
GRID*               2572               04.6594844897E+020.0000000000E+00+
*       8.3567575815E+01               0
GRID*               2573               04.5282137458E+020.0000000000E+00+
*       8.1209671081E+01               0
GRID*               2574               04.3969430020E+020.0000000000E+00+
*       7.8851766348E+01               0
GRID*               2575               04.2656722582E+020.0000000000E+00+
*       7.6493861615E+01               0
GRID*               2576               04.1344015143E+020.0000000000E+00+
*       7.4135956882E+01               0
GRID*               2577               04.0031307705E+020.0000000000E+00+
*       7.1778052148E+01               0
GRID*               2578               03.8718600267E+020.0000000000E+00+
*       6.9420147415E+01               0
GRID*               2579               03.7405892828E+020.0000000000E+00+
*       6.7062242682E+01               0
GRID*               2580               03.6093185390E+020.0000000000E+00+
*       6.4704337949E+01               0
GRID*               2581               03.4780477952E+020.0000000000E+00+
*       6.2346433215E+01               0
GRID*               2582               03.3467770514E+020.0000000000E+00+
*       5.9988528482E+01               0
GRID*               2583               03.2155063075E+020.0000000000E+00+
*       5.7630623749E+01               0
GRID*               2584               03.0842355637E+020.0000000000E+00+
*       5.5272719016E+01               0
GRID*               2585               05.1629590311E+020.0000000000E+00+
*       1.0611708793E+02               0
GRID*               2586               05.0305536584E+020.0000000000E+00+
*       1.0342484425E+02               0
GRID*               2587               04.8981482858E+020.0000000000E+00+
*       1.0073260056E+02               0
GRID*               2588               04.7675127927E+020.0000000000E+00+
*       9.8042221740E+01               0
GRID*               2589               04.6368772996E+020.0000000000E+00+
*       9.5351842916E+01               0
GRID*               2590               04.5062418065E+020.0000000000E+00+
*       9.2661464092E+01               0
GRID*               2591               04.3756063134E+020.0000000000E+00+
*       8.9971085268E+01               0
GRID*               2592               04.2449708203E+020.0000000000E+00+
*       8.7280706444E+01               0
GRID*               2593               04.1143353271E+020.0000000000E+00+
*       8.4590327619E+01               0
GRID*               2594               03.9836998340E+020.0000000000E+00+
*       8.1899948795E+01               0
GRID*               2595               03.8530643409E+020.0000000000E+00+
*       7.9209569971E+01               0
GRID*               2596               03.7224288478E+020.0000000000E+00+
*       7.6519191147E+01               0
GRID*               2597               03.5917933547E+020.0000000000E+00+
*       7.3828812323E+01               0
GRID*               2598               03.4611578616E+020.0000000000E+00+
*       7.1138433499E+01               0
GRID*               2599               03.3305223686E+020.0000000000E+00+
*       6.8448054675E+01               0
GRID*               2600               03.1998868755E+020.0000000000E+00+
*       6.5757675851E+01               0
GRID*               2601               03.0692513824E+020.0000000000E+00+
*       6.3067297027E+01               0
GRID*               2602               05.1344441502E+020.0000000000E+00+
*       1.1916397576E+02               0
GRID*               2603               05.0027837489E+020.0000000000E+00+
*       1.1614050934E+02               0
GRID*               2604               04.8711233477E+020.0000000000E+00+
*       1.1311704291E+02               0
GRID*               2605               04.7412071818E+020.0000000000E+00+
*       1.1009592471E+02               0
GRID*               2606               04.6112910160E+020.0000000000E+00+
*       1.0707480652E+02               0
GRID*               2607               04.4813748502E+020.0000000000E+00+
*       1.0405368832E+02               0
GRID*               2608               04.3514586844E+020.0000000000E+00+
*       1.0103257013E+02               0
GRID*               2609               04.2215425186E+020.0000000000E+00+
*       9.8011451932E+01               0
GRID*               2610               04.0916263528E+020.0000000000E+00+
*       9.4990333737E+01               0
GRID*               2611               03.9617101870E+020.0000000000E+00+
*       9.1969215542E+01               0
GRID*               2612               03.8317940211E+020.0000000000E+00+
*       8.8948097347E+01               0
GRID*               2613               03.7018778553E+020.0000000000E+00+
*       8.5926979151E+01               0
GRID*               2614               03.5719616895E+020.0000000000E+00+
*       8.2905860956E+01               0
GRID*               2615               03.4420455237E+020.0000000000E+00+
*       7.9884742761E+01               0
GRID*               2616               03.3121293579E+020.0000000000E+00+
*       7.6863624566E+01               0
GRID*               2617               03.1822131921E+020.0000000000E+00+
*       7.3842506371E+01               0
GRID*               2618               03.0522970263E+020.0000000000E+00+
*       7.0821388176E+01               0
GRID*               2619               05.1026325889E+020.0000000000E+00+
*       1.3213433923E+02               0
GRID*               2620               04.9718003803E+020.0000000000E+00+
*       1.2878154830E+02               0
GRID*               2621               04.8409681718E+020.0000000000E+00+
*       1.2542875736E+02               0
GRID*               2622               04.7118550442E+020.0000000000E+00+
*       1.2207884896E+02               0
GRID*               2623               04.5827419165E+020.0000000000E+00+
*       1.1872894056E+02               0
GRID*               2624               04.4536287889E+020.0000000000E+00+
*       1.1537903215E+02               0
GRID*               2625               04.3245156613E+020.0000000000E+00+
*       1.1202912375E+02               0
GRID*               2626               04.1954025337E+020.0000000000E+00+
*       1.0867921535E+02               0
GRID*               2627               04.0662894060E+020.0000000000E+00+
*       1.0532930695E+02               0
GRID*               2628               03.9371762784E+020.0000000000E+00+
*       1.0197939855E+02               0
GRID*               2629               03.8080631508E+020.0000000000E+00+
*       9.8629490144E+01               0
GRID*               2630               03.6789500232E+020.0000000000E+00+
*       9.5279581742E+01               0
GRID*               2631               03.5498368956E+020.0000000000E+00+
*       9.1929673340E+01               0
GRID*               2632               03.4207237679E+020.0000000000E+00+
*       8.8579764939E+01               0
GRID*               2633               03.2916106403E+020.0000000000E+00+
*       8.5229856537E+01               0
GRID*               2634               03.1624975127E+020.0000000000E+00+
*       8.1879948135E+01               0
GRID*               2635               03.0333843851E+020.0000000000E+00+
*       7.8530039733E+01               0
GRID*               2636               05.0675459120E+020.0000000000E+00+
*       1.4501988351E+02               0
GRID*               2637               04.9376245979E+020.0000000000E+00+
*       1.4133987781E+02               0
GRID*               2638               04.8077032838E+020.0000000000E+00+
*       1.3765987210E+02               0
GRID*               2639               04.6794763265E+020.0000000000E+00+
*       1.3398333221E+02               0
GRID*               2640               04.5512493692E+020.0000000000E+00+
*       1.3030679231E+02               0
GRID*               2641               04.4230224119E+020.0000000000E+00+
*       1.2663025241E+02               0
GRID*               2642               04.2947954546E+020.0000000000E+00+
*       1.2295371252E+02               0
GRID*               2643               04.1665684973E+020.0000000000E+00+
*       1.1927717262E+02               0
GRID*               2644               04.0383415400E+020.0000000000E+00+
*       1.1560063273E+02               0
GRID*               2645               03.9101145827E+020.0000000000E+00+
*       1.1192409283E+02               0
GRID*               2646               03.7818876254E+020.0000000000E+00+
*       1.0824755293E+02               0
GRID*               2647               03.6536606681E+020.0000000000E+00+
*       1.0457101304E+02               0
GRID*               2648               03.5254337108E+020.0000000000E+00+
*       1.0089447314E+02               0
GRID*               2649               03.3972067535E+020.0000000000E+00+
*       9.7217933245E+01               0
GRID*               2650               03.2689797962E+020.0000000000E+00+
*       9.3541393349E+01               0
GRID*               2651               03.1407528389E+020.0000000000E+00+
*       8.9864853453E+01               0
GRID*               2652               03.0125258816E+020.0000000000E+00+
*       8.6188313557E+01               0
GRID*               2653               05.0292063200E+020.0000000000E+00+
*       1.5781233158E+02               0
GRID*               2654               04.9002780468E+020.0000000000E+00+
*       1.5380743152E+02               0
GRID*               2655               04.7713497735E+020.0000000000E+00+
*       1.4980253145E+02               0
GRID*               2656               04.6440915051E+020.0000000000E+00+
*       1.4580172727E+02               0
GRID*               2657               04.5168332366E+020.0000000000E+00+
*       1.4180092309E+02               0
GRID*               2658               04.3895749681E+020.0000000000E+00+
*       1.3780011891E+02               0
GRID*               2659               04.2623166996E+020.0000000000E+00+
*       1.3379931473E+02               0
GRID*               2660               04.1350584311E+020.0000000000E+00+
*       1.2979851055E+02               0
GRID*               2661               04.0078001626E+020.0000000000E+00+
*       1.2579770637E+02               0
GRID*               2662               03.8805418941E+020.0000000000E+00+
*       1.2179690220E+02               0
GRID*               2663               03.7532836257E+020.0000000000E+00+
*       1.1779609802E+02               0
GRID*               2664               03.6260253572E+020.0000000000E+00+
*       1.1379529384E+02               0
GRID*               2665               03.4987670887E+020.0000000000E+00+
*       1.0979448966E+02               0
GRID*               2666               03.3715088202E+020.0000000000E+00+
*       1.0579368548E+02               0
GRID*               2667               03.2442505517E+020.0000000000E+00+
*       1.0179288130E+02               0
GRID*               2668               03.1169922833E+020.0000000000E+00+
*       9.7792077121E+01               0
GRID*               2669               02.9897340148E+020.0000000000E+00+
*       9.3791272942E+01               0
GRID*               2670               04.9876377693E+020.0000000000E+00+
*       1.7050345467E+02               0
GRID*               2671               04.8597841322E+020.0000000000E+00+
*       1.6617619146E+02               0
GRID*               2672               04.7319304952E+020.0000000000E+00+
*       1.6184892824E+02               0
GRID*               2673               04.6057228250E+020.0000000000E+00+
*       1.5752643543E+02               0
GRID*               2674               04.4795151549E+020.0000000000E+00+
*       1.5320394263E+02               0
GRID*               2675               04.3533074848E+020.0000000000E+00+
*       1.4888144982E+02               0
GRID*               2676               04.2270998146E+020.0000000000E+00+
*       1.4455895701E+02               0
GRID*               2677               04.1008921445E+020.0000000000E+00+
*       1.4023646421E+02               0
GRID*               2678               03.9746844744E+020.0000000000E+00+
*       1.3591397140E+02               0
GRID*               2679               03.8484768042E+020.0000000000E+00+
*       1.3159147860E+02               0
GRID*               2680               03.7222691341E+020.0000000000E+00+
*       1.2726898579E+02               0
GRID*               2681               03.5960614640E+020.0000000000E+00+
*       1.2294649298E+02               0
GRID*               2682               03.4698537938E+020.0000000000E+00+
*       1.1862400018E+02               0
GRID*               2683               03.3436461237E+020.0000000000E+00+
*       1.1430150737E+02               0
GRID*               2684               03.2174384536E+020.0000000000E+00+
*       1.0997901457E+02               0
GRID*               2685               03.0912307834E+020.0000000000E+00+
*       1.0565652176E+02               0
GRID*               2686               02.9650231133E+020.0000000000E+00+
*       1.0133402895E+02               0
GRID*               2687               04.9428680915E+020.0000000000E+00+
*       1.8308514684E+02               0
GRID*               2688               04.8161700549E+020.0000000000E+00+
*       1.7843826034E+02               0
GRID*               2689               04.6894720183E+020.0000000000E+00+
*       1.7379137383E+02               0
GRID*               2690               04.5643961680E+020.0000000000E+00+
*       1.6914997416E+02               0
GRID*               2691               04.4393203177E+020.0000000000E+00+
*       1.6450857448E+02               0
GRID*               2692               04.3142444674E+020.0000000000E+00+
*       1.5986717480E+02               0
GRID*               2693               04.1891686171E+020.0000000000E+00+
*       1.5522577512E+02               0
GRID*               2694               04.0640927669E+020.0000000000E+00+
*       1.5058437544E+02               0
GRID*               2695               03.9390169166E+020.0000000000E+00+
*       1.4594297576E+02               0
GRID*               2696               03.8139410663E+020.0000000000E+00+
*       1.4130157608E+02               0
GRID*               2697               03.6888652160E+020.0000000000E+00+
*       1.3666017640E+02               0
GRID*               2698               03.5637893658E+020.0000000000E+00+
*       1.3201877672E+02               0
GRID*               2699               03.4387135155E+020.0000000000E+00+
*       1.2737737704E+02               0
GRID*               2700               03.3136376652E+020.0000000000E+00+
*       1.2273597737E+02               0
GRID*               2701               03.1885618149E+020.0000000000E+00+
*       1.1809457769E+02               0
GRID*               2702               03.0634859647E+020.0000000000E+00+
*       1.1345317801E+02               0
GRID*               2703               02.9384101144E+020.0000000000E+00+
*       1.0881177833E+02               0
GRID*               2704               04.8949256546E+020.0000000000E+00+
*       1.9554932174E+02               0
GRID*               2705               04.7694635302E+020.0000000000E+00+
*       1.9058575996E+02               0
GRID*               2706               04.6440014058E+020.0000000000E+00+
*       1.8562219819E+02               0
GRID*               2707               04.5201378883E+020.0000000000E+00+
*       1.8066487878E+02               0
GRID*               2708               04.3962743708E+020.0000000000E+00+
*       1.7570755937E+02               0
GRID*               2709               04.2724108532E+020.0000000000E+00+
*       1.7075023996E+02               0
GRID*               2710               04.1485473357E+020.0000000000E+00+
*       1.6579292054E+02               0
GRID*               2711               04.0246838182E+020.0000000000E+00+
*       1.6083560113E+02               0
GRID*               2712               03.9008203007E+020.0000000000E+00+
*       1.5587828172E+02               0
GRID*               2713               03.7769567832E+020.0000000000E+00+
*       1.5092096231E+02               0
GRID*               2714               03.6530932657E+020.0000000000E+00+
*       1.4596364290E+02               0
GRID*               2715               03.5292297482E+020.0000000000E+00+
*       1.4100632349E+02               0
GRID*               2716               03.4053662307E+020.0000000000E+00+
*       1.3604900408E+02               0
GRID*               2717               03.2815027132E+020.0000000000E+00+
*       1.3109168467E+02               0
GRID*               2718               03.1576391957E+020.0000000000E+00+
*       1.2613436526E+02               0
GRID*               2719               03.0337756782E+020.0000000000E+00+
*       1.2117704585E+02               0
GRID*               2720               02.9099121606E+020.0000000000E+00+
*       1.1621972644E+02               0
GRID*               2721               04.8438406429E+020.0000000000E+00+
*       2.0788795840E+02               0
GRID*               2722               04.7196939882E+020.0000000000E+00+
*       2.0261087396E+02               0
GRID*               2723               04.5955473336E+020.0000000000E+00+
*       1.9733378953E+02               0
GRID*               2724               04.4729758521E+020.0000000000E+00+
*       1.9206373920E+02               0
GRID*               2725               04.3504043707E+020.0000000000E+00+
*       1.8679368888E+02               0
GRID*               2726               04.2278328892E+020.0000000000E+00+
*       1.8152363855E+02               0
GRID*               2727               04.1052614078E+020.0000000000E+00+
*       1.7625358822E+02               0
GRID*               2728               03.9826899263E+020.0000000000E+00+
*       1.7098353789E+02               0
GRID*               2729               03.8601184449E+020.0000000000E+00+
*       1.6571348756E+02               0
GRID*               2730               03.7375469634E+020.0000000000E+00+
*       1.6044343724E+02               0
GRID*               2731               03.6149754820E+020.0000000000E+00+
*       1.5517338691E+02               0
GRID*               2732               03.4924040006E+020.0000000000E+00+
*       1.4990333658E+02               0
GRID*               2733               03.3698325191E+020.0000000000E+00+
*       1.4463328625E+02               0
GRID*               2734               03.2472610377E+020.0000000000E+00+
*       1.3936323593E+02               0
GRID*               2735               03.1246895562E+020.0000000000E+00+
*       1.3409318560E+02               0
GRID*               2736               03.0021180748E+020.0000000000E+00+
*       1.2882313527E+02               0
GRID*               2737               02.8795465934E+020.0000000000E+00+
*       1.2355308494E+02               0
GRID*               2738               04.7896469022E+020.0000000000E+00+
*       2.2009318297E+02               0
GRID*               2739               04.6668944293E+020.0000000000E+00+
*       2.1450592937E+02               0
GRID*               2740               04.5441419564E+020.0000000000E+00+
*       2.0891867577E+02               0
GRID*               2741               04.4229413149E+020.0000000000E+00+
*       2.0333928109E+02               0
GRID*               2742               04.3017406734E+020.0000000000E+00+
*       1.9775988641E+02               0
GRID*               2743               04.1805400320E+020.0000000000E+00+
*       1.9218049173E+02               0
GRID*               2744               04.0593393905E+020.0000000000E+00+
*       1.8660109705E+02               0
GRID*               2745               03.9381387490E+020.0000000000E+00+
*       1.8102170237E+02               0
GRID*               2746               03.8169381076E+020.0000000000E+00+
*       1.7544230769E+02               0
GRID*               2747               03.6957374661E+020.0000000000E+00+
*       1.6986291301E+02               0
GRID*               2748               03.5745368246E+020.0000000000E+00+
*       1.6428351833E+02               0
GRID*               2749               03.4533361832E+020.0000000000E+00+
*       1.5870412365E+02               0
GRID*               2750               03.3321355417E+020.0000000000E+00+
*       1.5312472897E+02               0
GRID*               2751               03.2109349003E+020.0000000000E+00+
*       1.4754533429E+02               0
GRID*               2752               03.0897342588E+020.0000000000E+00+
*       1.4196593961E+02               0
GRID*               2753               02.9685336173E+020.0000000000E+00+
*       1.3638654493E+02               0
GRID*               2754               02.8473329759E+020.0000000000E+00+
*       1.3080715025E+02               0
GRID*               2755               04.7323788252E+020.0000000000E+00+
*       2.3215714644E+02               0
GRID*               2756               04.6110984897E+020.0000000000E+00+
*       2.2626328222E+02               0
GRID*               2757               04.4898181543E+020.0000000000E+00+
*       2.2036941801E+02               0
GRID*               2758               04.3700663467E+020.0000000000E+00+
*       2.1448426727E+02               0
GRID*               2759               04.2503145391E+020.0000000000E+00+
*       2.0859911654E+02               0
GRID*               2760               04.1305627316E+020.0000000000E+00+
*       2.0271396580E+02               0
GRID*               2761               04.0108109240E+020.0000000000E+00+
*       1.9682881507E+02               0
GRID*               2762               03.8910591165E+020.0000000000E+00+
*       1.9094366434E+02               0
GRID*               2763               03.7713073089E+020.0000000000E+00+
*       1.8505851360E+02               0
GRID*               2764               03.6515555014E+020.0000000000E+00+
*       1.7917336287E+02               0
GRID*               2765               03.5318036938E+020.0000000000E+00+
*       1.7328821213E+02               0
GRID*               2766               03.4120518863E+020.0000000000E+00+
*       1.6740306140E+02               0
GRID*               2767               03.2923000787E+020.0000000000E+00+
*       1.6151791067E+02               0
GRID*               2768               03.1725482712E+020.0000000000E+00+
*       1.5563275993E+02               0
GRID*               2769               03.0527964636E+020.0000000000E+00+
*       1.4974760920E+02               0
GRID*               2770               02.9330446561E+020.0000000000E+00+
*       1.4386245846E+02               0
GRID*               2771               02.8132928485E+020.0000000000E+00+
*       1.3797730773E+02               0
GRID*               2772               04.6720727289E+020.0000000000E+00+
*       2.4407208626E+02               0
GRID*               2773               04.5523416208E+020.0000000000E+00+
*       2.3787537039E+02               0
GRID*               2774               04.4326105127E+020.0000000000E+00+
*       2.3167865452E+02               0
GRID*               2775               04.3143846150E+020.0000000000E+00+
*       2.2549153295E+02               0
GRID*               2776               04.1961587172E+020.0000000000E+00+
*       2.1930441138E+02               0
GRID*               2777               04.0779328195E+020.0000000000E+00+
*       2.1311728982E+02               0
GRID*               2778               03.9597069217E+020.0000000000E+00+
*       2.0693016825E+02               0
GRID*               2779               03.8414810240E+020.0000000000E+00+
*       2.0074304668E+02               0
GRID*               2780               03.7232551262E+020.0000000000E+00+
*       1.9455592511E+02               0
GRID*               2781               03.6050292285E+020.0000000000E+00+
*       1.8836880355E+02               0
GRID*               2782               03.4868033307E+020.0000000000E+00+
*       1.8218168198E+02               0
GRID*               2783               03.3685774330E+020.0000000000E+00+
*       1.7599456041E+02               0
GRID*               2784               03.2503515352E+020.0000000000E+00+
*       1.6980743884E+02               0
GRID*               2785               03.1321256375E+020.0000000000E+00+
*       1.6362031728E+02               0
GRID*               2786               03.0138997398E+020.0000000000E+00+
*       1.5743319571E+02               0
GRID*               2787               02.8956738420E+020.0000000000E+00+
*       1.5124607414E+02               0
GRID*               2788               02.7774479443E+020.0000000000E+00+
*       1.4505895257E+02               0
GRID*               2789               04.6087682871E+020.0000000000E+00+
*       2.5583040606E+02               0
GRID*               2790               04.4906624424E+020.0000000000E+00+
*       2.4933478872E+02               0
GRID*               2791               04.3725565978E+020.0000000000E+00+
*       2.4283917138E+02               0
GRID*               2792               04.2559325814E+020.0000000000E+00+
*       2.3635405175E+02               0
GRID*               2793               04.1393085650E+020.0000000000E+00+
*       2.2986893213E+02               0
GRID*               2794               04.0226845486E+020.0000000000E+00+
*       2.2338381251E+02               0
GRID*               2795               03.9060605323E+020.0000000000E+00+
*       2.1689869289E+02               0
GRID*               2796               03.7894365159E+020.0000000000E+00+
*       2.1041357327E+02               0
GRID*               2797               03.6728124995E+020.0000000000E+00+
*       2.0392845365E+02               0
GRID*               2798               03.5561884831E+020.0000000000E+00+
*       1.9744333402E+02               0
GRID*               2799               03.4395644667E+020.0000000000E+00+
*       1.9095821440E+02               0
GRID*               2800               03.3229404504E+020.0000000000E+00+
*       1.8447309478E+02               0
GRID*               2801               03.2063164340E+020.0000000000E+00+
*       1.7798797516E+02               0
GRID*               2802               03.0896924176E+020.0000000000E+00+
*       1.7150285554E+02               0
GRID*               2803               02.9730684012E+020.0000000000E+00+
*       1.6501773592E+02               0
GRID*               2804               02.8564443849E+020.0000000000E+00+
*       1.5853261629E+02               0
GRID*               2805               02.7398203685E+020.0000000000E+00+
*       1.5204749667E+02               0
GRID*               2806               04.5425056769E+020.0000000000E+00+
*       2.6742453654E+02               0
GRID*               2807               04.4261001882E+020.0000000000E+00+
*       2.6063416477E+02               0
GRID*               2808               04.3096946996E+020.0000000000E+00+
*       2.5384379300E+02               0
GRID*               2809               04.1947475426E+020.0000000000E+00+
*       2.4706484112E+02               0
GRID*               2810               04.0798003856E+020.0000000000E+00+
*       2.4028588924E+02               0
GRID*               2811               03.9648532286E+020.0000000000E+00+
*       2.3350693736E+02               0
GRID*               2812               03.8499060716E+020.0000000000E+00+
*       2.2672798548E+02               0
GRID*               2813               03.7349589146E+020.0000000000E+00+
*       2.1994903361E+02               0
GRID*               2814               03.6200117576E+020.0000000000E+00+
*       2.1317008173E+02               0
GRID*               2815               03.5050646006E+020.0000000000E+00+
*       2.0639112985E+02               0
GRID*               2816               03.3901174436E+020.0000000000E+00+
*       1.9961217797E+02               0
GRID*               2817               03.2751702866E+020.0000000000E+00+
*       1.9283322609E+02               0
GRID*               2818               03.1602231296E+020.0000000000E+00+
*       1.8605427422E+02               0
GRID*               2819               03.0452759726E+020.0000000000E+00+
*       1.7927532234E+02               0
GRID*               2820               02.9303288156E+020.0000000000E+00+
*       1.7249637046E+02               0
GRID*               2821               02.8153816586E+020.0000000000E+00+
*       1.6571741858E+02               0
GRID*               2822               02.7004345016E+020.0000000000E+00+
*       1.5893846670E+02               0
GRID*               2823               04.4733271647E+020.0000000000E+00+
*       2.7884702292E+02               0
GRID*               2824               04.3586961543E+020.0000000000E+00+
*       2.7176623977E+02               0
GRID*               2825               04.2440651439E+020.0000000000E+00+
*       2.6468545662E+02               0
GRID*               2826               04.1308688050E+020.0000000000E+00+
*       2.5761703024E+02               0
GRID*               2827               04.0176724661E+020.0000000000E+00+
*       2.5054860387E+02               0
GRID*               2828               03.9044761273E+020.0000000000E+00+
*       2.4348017750E+02               0
GRID*               2829               03.7912797884E+020.0000000000E+00+
*       2.3641175112E+02               0
GRID*               2830               03.6780834495E+020.0000000000E+00+
*       2.2934332475E+02               0
GRID*               2831               03.5648871106E+020.0000000000E+00+
*       2.2227489837E+02               0
GRID*               2832               03.4516907717E+020.0000000000E+00+
*       2.1520647200E+02               0
GRID*               2833               03.3384944329E+020.0000000000E+00+
*       2.0813804563E+02               0
GRID*               2834               03.2252980940E+020.0000000000E+00+
*       2.0106961925E+02               0
GRID*               2835               03.1121017551E+020.0000000000E+00+
*       1.9400119288E+02               0
GRID*               2836               02.9989054162E+020.0000000000E+00+
*       1.8693276651E+02               0
GRID*               2837               02.8857090774E+020.0000000000E+00+
*       1.7986434013E+02               0
GRID*               2838               02.7725127385E+020.0000000000E+00+
*       1.7279591376E+02               0
GRID*               2839               02.6593163996E+020.0000000000E+00+
*       1.6572748739E+02               0
GRID*               2840               04.4012780545E+020.0000000000E+00+
*       2.9009059081E+02               0
GRID*               2841               04.2884944957E+020.0000000000E+00+
*       2.8272392498E+02               0
GRID*               2842               04.1757109369E+020.0000000000E+00+
*       2.7535725916E+02               0
GRID*               2843               04.0643381792E+020.0000000000E+00+
*       2.6800389755E+02               0
GRID*               2844               03.9529654214E+020.0000000000E+00+
*       2.6065053593E+02               0
GRID*               2845               03.8415926636E+020.0000000000E+00+
*       2.5329717432E+02               0
GRID*               2846               03.7302199058E+020.0000000000E+00+
*       2.4594381271E+02               0
GRID*               2847               03.6188471480E+020.0000000000E+00+
*       2.3859045110E+02               0
GRID*               2848               03.5074743902E+020.0000000000E+00+
*       2.3123708949E+02               0
GRID*               2849               03.3961016324E+020.0000000000E+00+
*       2.2388372787E+02               0
GRID*               2850               03.2847288746E+020.0000000000E+00+
*       2.1653036626E+02               0
GRID*               2851               03.1733561168E+020.0000000000E+00+
*       2.0917700465E+02               0
GRID*               2852               03.0619833590E+020.0000000000E+00+
*       2.0182364304E+02               0
GRID*               2853               02.9506106012E+020.0000000000E+00+
*       1.9447028143E+02               0
GRID*               2854               02.8392378434E+020.0000000000E+00+
*       1.8711691981E+02               0
GRID*               2855               02.7278650856E+020.0000000000E+00+
*       1.7976355820E+02               0
GRID*               2856               02.6164923278E+020.0000000000E+00+
*       1.7241019659E+02               0
GRID*               2857               04.3264039716E+020.0000000000E+00+
*       3.0114798639E+02               0
GRID*               2858               04.2155396861E+020.0000000000E+00+
*       2.9350015212E+02               0
GRID*               2859               04.1046754007E+020.0000000000E+00+
*       2.8585231784E+02               0
GRID*               2860               03.9951977894E+020.0000000000E+00+
*       2.7821874142E+02               0
GRID*               2861               03.8857201781E+020.0000000000E+00+
*       2.7058516500E+02               0
GRID*               2862               03.7762425668E+020.0000000000E+00+
*       2.6295158859E+02               0
GRID*               2863               03.6667649556E+020.0000000000E+00+
*       2.5531801217E+02               0
GRID*               2864               03.5572873443E+020.0000000000E+00+
*       2.4768443575E+02               0
GRID*               2865               03.4478097330E+020.0000000000E+00+
*       2.4005085934E+02               0
GRID*               2866               03.3383321217E+020.0000000000E+00+
*       2.3241728292E+02               0
GRID*               2867               03.2288545104E+020.0000000000E+00+
*       2.2478370650E+02               0
GRID*               2868               03.1193768992E+020.0000000000E+00+
*       2.1715013008E+02               0
GRID*               2869               03.0098992879E+020.0000000000E+00+
*       2.0951655367E+02               0
GRID*               2870               02.9004216766E+020.0000000000E+00+
*       2.0188297725E+02               0
GRID*               2871               02.7909440653E+020.0000000000E+00+
*       1.9424940083E+02               0
GRID*               2872               02.6814664541E+020.0000000000E+00+
*       1.8661582442E+02               0
GRID*               2873               02.5719888428E+020.0000000000E+00+
*       1.7898224800E+02               0
GRID*               2874               04.2487527930E+020.0000000000E+00+
*       3.1201210199E+02               0
GRID*               2875               04.1398784612E+020.0000000000E+00+
*       3.0408799985E+02               0
GRID*               2876               04.0310041294E+020.0000000000E+00+
*       2.9616389772E+02               0
GRID*               2877               03.9234920440E+020.0000000000E+00+
*       2.8825500878E+02               0
GRID*               2878               03.8159799586E+020.0000000000E+00+
*       2.8034611984E+02               0
GRID*               2879               03.7084678732E+020.0000000000E+00+
*       2.7243723090E+02               0
GRID*               2880               03.6009557878E+020.0000000000E+00+
*       2.6452834197E+02               0
GRID*               2881               03.4934437024E+020.0000000000E+00+
*       2.5661945303E+02               0
GRID*               2882               03.3859316170E+020.0000000000E+00+
*       2.4871056409E+02               0
GRID*               2883               03.2784195316E+020.0000000000E+00+
*       2.4080167515E+02               0
GRID*               2884               03.1709074462E+020.0000000000E+00+
*       2.3289278622E+02               0
GRID*               2885               03.0633953608E+020.0000000000E+00+
*       2.2498389728E+02               0
GRID*               2886               02.9558832754E+020.0000000000E+00+
*       2.1707500834E+02               0
GRID*               2887               02.8483711900E+020.0000000000E+00+
*       2.0916611941E+02               0
GRID*               2888               02.7408591046E+020.0000000000E+00+
*       2.0125723047E+02               0
GRID*               2889               02.6333470192E+020.0000000000E+00+
*       1.9334834153E+02               0
GRID*               2890               02.5258349338E+020.0000000000E+00+
*       1.8543945260E+02               0
GRID*               2891               04.1683752598E+020.0000000000E+00+
*       3.2267603144E+02               0
GRID*               2892               04.0615603229E+020.0000000000E+00+
*       3.1448074203E+02               0
GRID*               2893               03.9547453859E+020.0000000000E+00+
*       3.0628545261E+02               0
GRID*               2894               03.8492679237E+020.0000000000E+00+
*       2.9810632877E+02               0
GRID*               2895               03.7437904614E+020.0000000000E+00+
*       2.8992720494E+02               0
GRID*               2896               03.6383129991E+020.0000000000E+00+
*       2.8174808110E+02               0
GRID*               2897               03.5328355368E+020.0000000000E+00+
*       2.7356895726E+02               0
GRID*               2898               03.4273580745E+020.0000000000E+00+
*       2.6538983342E+02               0
GRID*               2899               03.3218806122E+020.0000000000E+00+
*       2.5721070958E+02               0
GRID*               2900               03.2164031499E+020.0000000000E+00+
*       2.4903158574E+02               0
GRID*               2901               03.1109256876E+020.0000000000E+00+
*       2.4085246190E+02               0
GRID*               2902               03.0054482253E+020.0000000000E+00+
*       2.3267333807E+02               0
GRID*               2903               02.8999707630E+020.0000000000E+00+
*       2.2449421423E+02               0
GRID*               2904               02.7944933008E+020.0000000000E+00+
*       2.1631509039E+02               0
GRID*               2905               02.6890158385E+020.0000000000E+00+
*       2.0813596655E+02               0
GRID*               2906               02.5835383762E+020.0000000000E+00+
*       1.9995684271E+02               0
GRID*               2907               02.4780609139E+020.0000000000E+00+
*       1.9177771887E+02               0
GRID*               2908               04.0853223703E+020.0000000000E+00+
*       3.3313288814E+02               0
GRID*               2909               03.9806350146E+020.0000000000E+00+
*       3.2467167107E+02               0
GRID*               2910               03.8759476588E+020.0000000000E+00+
*       3.1621045400E+02               0
GRID*               2911               03.7725726203E+020.0000000000E+00+
*       3.0776634710E+02               0
GRID*               2912               03.6691975818E+020.0000000000E+00+
*       2.9932224021E+02               0
GRID*               2913               03.5658225433E+020.0000000000E+00+
*       2.9087813331E+02               0
GRID*               2914               03.4624475048E+020.0000000000E+00+
*       2.8243402642E+02               0
GRID*               2915               03.3590724663E+020.0000000000E+00+
*       2.7398991952E+02               0
GRID*               2916               03.2556974278E+020.0000000000E+00+
*       2.6554581263E+02               0
GRID*               2917               03.1523223893E+020.0000000000E+00+
*       2.5710170573E+02               0
GRID*               2918               03.0489473508E+020.0000000000E+00+
*       2.4865759884E+02               0
GRID*               2919               02.9455723123E+020.0000000000E+00+
*       2.4021349194E+02               0
GRID*               2920               02.8421972738E+020.0000000000E+00+
*       2.3176938505E+02               0
GRID*               2921               02.7388222353E+020.0000000000E+00+
*       2.2332527815E+02               0
GRID*               2922               02.6354471968E+020.0000000000E+00+
*       2.1488117126E+02               0
GRID*               2923               02.5320721583E+020.0000000000E+00+
*       2.0643706436E+02               0
GRID*               2924               02.4286971198E+020.0000000000E+00+
*       1.9799295747E+02               0
GRID*               2925               03.9996472714E+020.0000000000E+00+
*       3.4337594965E+02               0
GRID*               2926               03.8971543261E+020.0000000000E+00+
*       3.3465423584E+02               0
GRID*               2927               03.7946613809E+020.0000000000E+00+
*       3.2593252202E+02               0
GRID*               2928               03.6934551701E+020.0000000000E+00+
*       3.1722885028E+02               0
GRID*               2929               03.5922489593E+020.0000000000E+00+
*       3.0852517853E+02               0
GRID*               2930               03.4910427485E+020.0000000000E+00+
*       2.9982150679E+02               0
GRID*               2931               03.3898365377E+020.0000000000E+00+
*       2.9111783504E+02               0
GRID*               2932               03.2886303269E+020.0000000000E+00+
*       2.8241416329E+02               0
GRID*               2933               03.1874241161E+020.0000000000E+00+
*       2.7371049155E+02               0
GRID*               2934               03.0862179053E+020.0000000000E+00+
*       2.6500681980E+02               0
GRID*               2935               02.9850116945E+020.0000000000E+00+
*       2.5630314806E+02               0
GRID*               2936               02.8838054836E+020.0000000000E+00+
*       2.4759947631E+02               0
GRID*               2937               02.7825992728E+020.0000000000E+00+
*       2.3889580456E+02               0
GRID*               2938               02.6813930620E+020.0000000000E+00+
*       2.3019213282E+02               0
GRID*               2939               02.5801868512E+020.0000000000E+00+
*       2.2148846107E+02               0
GRID*               2940               02.4789806404E+020.0000000000E+00+
*       2.1278478933E+02               0
GRID*               2941               02.3777744296E+020.0000000000E+00+
*       2.0408111758E+02               0
GRID*               2942               03.9114057707E+020.0000000000E+00+
*       3.5339871270E+02               0
GRID*               2943               03.8111726925E+020.0000000000E+00+
*       3.4442210305E+02               0
GRID*               2944               03.7109396143E+020.0000000000E+00+
*       3.3544549341E+02               0
GRID*               2945               03.6119672240E+020.0000000000E+00+
*       3.2648783992E+02               0
GRID*               2946               03.5129948337E+020.0000000000E+00+
*       3.1753018644E+02               0
GRID*               2947               03.4140224435E+020.0000000000E+00+
*       3.0857253296E+02               0
GRID*               2948               03.3150500532E+020.0000000000E+00+
*       2.9961487947E+02               0
GRID*               2949               03.2160776630E+020.0000000000E+00+
*       2.9065722599E+02               0
GRID*               2950               03.1171052727E+020.0000000000E+00+
*       2.8169957251E+02               0
GRID*               2951               03.0181328824E+020.0000000000E+00+
*       2.7274191902E+02               0
GRID*               2952               02.9191604922E+020.0000000000E+00+
*       2.6378426554E+02               0
GRID*               2953               02.8201881019E+020.0000000000E+00+
*       2.5482661206E+02               0
GRID*               2954               02.7212157116E+020.0000000000E+00+
*       2.4586895857E+02               0
GRID*               2955               02.6222433214E+020.0000000000E+00+
*       2.3691130509E+02               0
GRID*               2956               02.5232709311E+020.0000000000E+00+
*       2.2795365161E+02               0
GRID*               2957               02.4242985409E+020.0000000000E+00+
*       2.1899599812E+02               0
GRID*               2958               02.3253261506E+020.0000000000E+00+
*       2.1003834464E+02               0
GRID*               2959               03.8206539581E+020.0000000000E+00+
*       3.6319469906E+02               0
GRID*               2960               03.7227448613E+020.0000000000E+00+
*       3.5396896763E+02               0
GRID*               2961               03.6248357644E+020.0000000000E+00+
*       3.4474323621E+02               0
GRID*               2962               03.5281608082E+020.0000000000E+00+
*       3.3553735197E+02               0
GRID*               2963               03.4314858520E+020.0000000000E+00+
*       3.2633146774E+02               0
GRID*               2964               03.3348108958E+020.0000000000E+00+
*       3.1712558351E+02               0
GRID*               2965               03.2381359396E+020.0000000000E+00+
*       3.0791969927E+02               0
GRID*               2966               03.1414609834E+020.0000000000E+00+
*       2.9871381504E+02               0
GRID*               2967               03.0447860272E+020.0000000000E+00+
*       2.8950793081E+02               0
GRID*               2968               02.9481110710E+020.0000000000E+00+
*       2.8030204657E+02               0
GRID*               2969               02.8514361148E+020.0000000000E+00+
*       2.7109616234E+02               0
GRID*               2970               02.7547611585E+020.0000000000E+00+
*       2.6189027811E+02               0
GRID*               2971               02.6580862023E+020.0000000000E+00+
*       2.5268439387E+02               0
GRID*               2972               02.5614112461E+020.0000000000E+00+
*       2.4347850964E+02               0
GRID*               2973               02.4647362899E+020.0000000000E+00+
*       2.3427262541E+02               0
GRID*               2974               02.3680613337E+020.0000000000E+00+
*       2.2506674117E+02               0
GRID*               2975               02.2713863775E+020.0000000000E+00+
*       2.1586085694E+02               0
GRID*               2976               03.7274500533E+020.0000000000E+00+
*       3.7275762123E+02               0
GRID*               2977               03.6319275827E+020.0000000000E+00+
*       3.6328870407E+02               0
GRID*               2978               03.5364051121E+020.0000000000E+00+
*       3.5381978690E+02               0
GRID*               2979               03.4420896992E+020.0000000000E+00+
*       3.4437157956E+02               0
GRID*               2980               03.3477742862E+020.0000000000E+00+
*       3.3492337223E+02               0
GRID*               2981               03.2534588733E+020.0000000000E+00+
*       3.2547516489E+02               0
GRID*               2982               03.1591434603E+020.0000000000E+00+
*       3.1602695755E+02               0
GRID*               2983               03.0648280474E+020.0000000000E+00+
*       3.0657875021E+02               0
GRID*               2984               02.9705126344E+020.0000000000E+00+
*       2.9713054287E+02               0
GRID*               2985               02.8761972214E+020.0000000000E+00+
*       2.8768233553E+02               0
GRID*               2986               02.7818818085E+020.0000000000E+00+
*       2.7823412820E+02               0
GRID*               2987               02.6875663955E+020.0000000000E+00+
*       2.6878592086E+02               0
GRID*               2988               02.5932509826E+020.0000000000E+00+
*       2.5933771352E+02               0
GRID*               2989               02.4989355696E+020.0000000000E+00+
*       2.4988950618E+02               0
GRID*               2990               02.4046201566E+020.0000000000E+00+
*       2.4044129884E+02               0
GRID*               2991               02.3103047437E+020.0000000000E+00+
*       2.3099309150E+02               0
GRID*               2992               02.2159893307E+020.0000000000E+00+
*       2.2154488416E+02               0
GRID*               2993               03.6318544676E+020.0000000000E+00+
*       3.8208140152E+02               0
GRID*               2994               03.5387797041E+020.0000000000E+00+
*       3.7237538752E+02               0
GRID*               2995               03.4457049406E+020.0000000000E+00+
*       3.6266937353E+02               0
GRID*               2996               03.3538095831E+020.0000000000E+00+
*       3.5298489816E+02               0
GRID*               2997               03.2619142257E+020.0000000000E+00+
*       3.4330042278E+02               0
GRID*               2998               03.1700188683E+020.0000000000E+00+
*       3.3361594741E+02               0
GRID*               2999               03.0781235108E+020.0000000000E+00+
*       3.2393147204E+02               0
GRID*               3000               02.9862281534E+020.0000000000E+00+
*       3.1424699667E+02               0
GRID*               3001               02.8943327960E+020.0000000000E+00+
*       3.0456252130E+02               0
GRID*               3002               02.8024374385E+020.0000000000E+00+
*       2.9487804592E+02               0
GRID*               3003               02.7105420811E+020.0000000000E+00+
*       2.8519357055E+02               0
GRID*               3004               02.6186467236E+020.0000000000E+00+
*       2.7550909518E+02               0
GRID*               3005               02.5267513662E+020.0000000000E+00+
*       2.6582461981E+02               0
GRID*               3006               02.4348560088E+020.0000000000E+00+
*       2.5614014443E+02               0
GRID*               3007               02.3429606513E+020.0000000000E+00+
*       2.4645566906E+02               0
GRID*               3008               02.2510652939E+020.0000000000E+00+
*       2.3677119369E+02               0
GRID*               3009               02.1591699365E+020.0000000000E+00+
*       2.2708671832E+02               0
GRID*               3010               03.5339279463E+020.0000000000E+00+
*       3.9115999566E+02               0
GRID*               3011               03.4433605196E+020.0000000000E+00+
*       3.8122313816E+02               0
GRID*               3012               03.3527930930E+020.0000000000E+00+
*       3.7128628066E+02               0
GRID*               3013               03.2633768203E+020.0000000000E+00+
*       3.6137175109E+02               0
GRID*               3014               03.1739605477E+020.0000000000E+00+
*       3.5145722152E+02               0
GRID*               3015               03.0845442750E+020.0000000000E+00+
*       3.4154269195E+02               0
GRID*               3016               02.9951280023E+020.0000000000E+00+
*       3.3162816238E+02               0
GRID*               3017               02.9057117296E+020.0000000000E+00+
*       3.2171363281E+02               0
GRID*               3018               02.8162954569E+020.0000000000E+00+
*       3.1179910324E+02               0
GRID*               3019               02.7268791843E+020.0000000000E+00+
*       3.0188457367E+02               0
GRID*               3020               02.6374629116E+020.0000000000E+00+
*       2.9197004410E+02               0
GRID*               3021               02.5480466389E+020.0000000000E+00+
*       2.8205551453E+02               0
GRID*               3022               02.4586303662E+020.0000000000E+00+
*       2.7214098496E+02               0
GRID*               3023               02.3692140935E+020.0000000000E+00+
*       2.6222645539E+02               0
GRID*               3024               02.2797978208E+020.0000000000E+00+
*       2.5231192582E+02               0
GRID*               3025               02.1903815482E+020.0000000000E+00+
*       2.4239739625E+02               0
GRID*               3026               02.1009652755E+020.0000000000E+00+
*       2.3248286668E+02               0
GRID*               3027               03.4337334361E+020.0000000000E+00+
*       3.9998758869E+02               0
GRID*               3028               03.3457314244E+020.0000000000E+00+
*       3.8982629556E+02               0
GRID*               3029               03.2577294127E+020.0000000000E+00+
*       3.7966500243E+02               0
GRID*               3030               03.1708496723E+020.0000000000E+00+
*       3.6952678131E+02               0
GRID*               3031               03.0839699320E+020.0000000000E+00+
*       3.5938856019E+02               0
GRID*               3032               02.9970901916E+020.0000000000E+00+
*       3.4925033907E+02               0
GRID*               3033               02.9102104513E+020.0000000000E+00+
*       3.3911211795E+02               0
GRID*               3034               02.8233307109E+020.0000000000E+00+
*       3.2897389682E+02               0
GRID*               3035               02.7364509705E+020.0000000000E+00+
*       3.1883567570E+02               0
GRID*               3036               02.6495712302E+020.0000000000E+00+
*       3.0869745458E+02               0
GRID*               3037               02.5626914898E+020.0000000000E+00+
*       2.9855923346E+02               0
GRID*               3038               02.4758117494E+020.0000000000E+00+
*       2.8842101234E+02               0
GRID*               3039               02.3889320091E+020.0000000000E+00+
*       2.7828279121E+02               0
GRID*               3040               02.3020522687E+020.0000000000E+00+
*       2.6814457009E+02               0
GRID*               3041               02.2151725284E+020.0000000000E+00+
*       2.5800634897E+02               0
GRID*               3042               02.1282927880E+020.0000000000E+00+
*       2.4786812785E+02               0
GRID*               3043               02.0414130476E+020.0000000000E+00+
*       2.3772990673E+02               0
GRID*               3044               03.3313358452E+020.0000000000E+00+
*       4.0855858603E+02               0
GRID*               3045               03.2459556571E+020.0000000000E+00+
*       3.9817940675E+02               0
GRID*               3046               03.1605754691E+020.0000000000E+00+
*       3.8780022747E+02               0
GRID*               3047               03.0762880120E+020.0000000000E+00+
*       3.7744481330E+02               0
GRID*               3048               02.9920005549E+020.0000000000E+00+
*       3.6708939912E+02               0
GRID*               3049               02.9077130977E+020.0000000000E+00+
*       3.5673398494E+02               0
GRID*               3050               02.8234256406E+020.0000000000E+00+
*       3.4637857076E+02               0
GRID*               3051               02.7391381835E+020.0000000000E+00+
*       3.3602315658E+02               0
GRID*               3052               02.6548507264E+020.0000000000E+00+
*       3.2566774241E+02               0
GRID*               3053               02.5705632692E+020.0000000000E+00+
*       3.1531232823E+02               0
GRID*               3054               02.4862758121E+020.0000000000E+00+
*       3.0495691405E+02               0
GRID*               3055               02.4019883550E+020.0000000000E+00+
*       2.9460149987E+02               0
GRID*               3056               02.3177008979E+020.0000000000E+00+
*       2.8424608569E+02               0
GRID*               3057               02.2334134407E+020.0000000000E+00+
*       2.7389067152E+02               0
GRID*               3058               02.1491259836E+020.0000000000E+00+
*       2.6353525734E+02               0
GRID*               3059               02.0648385265E+020.0000000000E+00+
*       2.5317984316E+02               0
GRID*               3060               01.9805510693E+020.0000000000E+00+
*       2.4282442898E+02               0
GRID*               3061               03.2268003174E+020.0000000000E+00+
*       4.1686742040E+02               0
GRID*               3062               03.1440967225E+020.0000000000E+00+
*       4.0627704945E+02               0
GRID*               3063               03.0613931275E+020.0000000000E+00+
*       3.9568667851E+02               0
GRID*               3064               02.9797520391E+020.0000000000E+00+
*       3.8512070884E+02               0
GRID*               3065               02.8981109507E+020.0000000000E+00+
*       3.7455473917E+02               0
GRID*               3066               02.8164698624E+020.0000000000E+00+
*       3.6398876950E+02               0
GRID*               3067               02.7348287740E+020.0000000000E+00+
*       3.5342279983E+02               0
GRID*               3068               02.6531876856E+020.0000000000E+00+
*       3.4285683017E+02               0
GRID*               3069               02.5715465972E+020.0000000000E+00+
*       3.3229086050E+02               0
GRID*               3070               02.4899055089E+020.0000000000E+00+
*       3.2172489083E+02               0
GRID*               3071               02.4082644205E+020.0000000000E+00+
*       3.1115892116E+02               0
GRID*               3072               02.3266233321E+020.0000000000E+00+
*       3.0059295149E+02               0
GRID*               3073               02.2449822437E+020.0000000000E+00+
*       2.9002698182E+02               0
GRID*               3074               02.1633411553E+020.0000000000E+00+
*       2.7946101215E+02               0
GRID*               3075               02.0817000670E+020.0000000000E+00+
*       2.6889504249E+02               0
GRID*               3076               02.0000589786E+020.0000000000E+00+
*       2.5832907282E+02               0
GRID*               3077               01.9184178902E+020.0000000000E+00+
*       2.4776310315E+02               0
GRID*               3078               03.1201941104E+020.0000000000E+00+
*       4.2490878243E+02               0
GRID*               3079               03.0402202277E+020.0000000000E+00+
*       4.1411405849E+02               0
GRID*               3080               02.9602463450E+020.0000000000E+00+
*       4.0331933456E+02               0
GRID*               3081               02.8813040364E+020.0000000000E+00+
*       3.9254958511E+02               0
GRID*               3082               02.8023617278E+020.0000000000E+00+
*       3.8177983565E+02               0
GRID*               3083               02.7234194192E+020.0000000000E+00+
*       3.7101008620E+02               0
GRID*               3084               02.6444771106E+020.0000000000E+00+
*       3.6024033674E+02               0
GRID*               3085               02.5655348020E+020.0000000000E+00+
*       3.4947058729E+02               0
GRID*               3086               02.4865924935E+020.0000000000E+00+
*       3.3870083783E+02               0
GRID*               3087               02.4076501849E+020.0000000000E+00+
*       3.2793108838E+02               0
GRID*               3088               02.3287078763E+020.0000000000E+00+
*       3.1716133892E+02               0
GRID*               3089               02.2497655677E+020.0000000000E+00+
*       3.0639158947E+02               0
GRID*               3090               02.1708232591E+020.0000000000E+00+
*       2.9562184001E+02               0
GRID*               3091               02.0918809505E+020.0000000000E+00+
*       2.8485209056E+02               0
GRID*               3092               02.0129386420E+020.0000000000E+00+
*       2.7408234110E+02               0
GRID*               3093               01.9339963334E+020.0000000000E+00+
*       2.6331259165E+02               0
GRID*               3094               01.8550540248E+020.0000000000E+00+
*       2.5254284219E+02               0
GRID*               3095               03.0115861194E+020.0000000000E+00+
*       4.3267757725E+02               0
GRID*               3096               02.9343933376E+020.0000000000E+00+
*       4.2168547322E+02               0
GRID*               3097               02.8572005559E+020.0000000000E+00+
*       4.1069336919E+02               0
GRID*               3098               02.7810076856E+020.0000000000E+00+
*       3.9972674376E+02               0
GRID*               3099               02.7048148154E+020.0000000000E+00+
*       3.8876011834E+02               0
GRID*               3100               02.6286219451E+020.0000000000E+00+
*       3.7779349292E+02               0
GRID*               3101               02.5524290748E+020.0000000000E+00+
*       3.6682686749E+02               0
GRID*               3102               02.4762362046E+020.0000000000E+00+
*       3.5586024207E+02               0
GRID*               3103               02.4000433343E+020.0000000000E+00+
*       3.4489361665E+02               0
GRID*               3104               02.3238504640E+020.0000000000E+00+
*       3.3392699122E+02               0
GRID*               3105               02.2476575938E+020.0000000000E+00+
*       3.2296036580E+02               0
GRID*               3106               02.1714647235E+020.0000000000E+00+
*       3.1199374038E+02               0
GRID*               3107               02.0952718533E+020.0000000000E+00+
*       3.0102711495E+02               0
GRID*               3108               02.0190789830E+020.0000000000E+00+
*       2.9006048953E+02               0
GRID*               3109               01.9428861127E+020.0000000000E+00+
*       2.7909386411E+02               0
GRID*               3110               01.8666932425E+020.0000000000E+00+
*       2.6812723868E+02               0
GRID*               3111               01.7905003722E+020.0000000000E+00+
*       2.5716061326E+02               0
GRID*               3112               02.9010454401E+020.0000000000E+00+
*       4.4016873678E+02               0
GRID*               3113               02.8266834047E+020.0000000000E+00+
*       4.2898635831E+02               0
GRID*               3114               02.7523213693E+020.0000000000E+00+
*       4.1780397985E+02               0
GRID*               3115               02.6789268323E+020.0000000000E+00+
*       4.0664750885E+02               0
GRID*               3116               02.6055322954E+020.0000000000E+00+
*       3.9549103785E+02               0
GRID*               3117               02.5321377585E+020.0000000000E+00+
*       3.8433456684E+02               0
GRID*               3118               02.4587432216E+020.0000000000E+00+
*       3.7317809584E+02               0
GRID*               3119               02.3853486846E+020.0000000000E+00+
*       3.6202162484E+02               0
GRID*               3120               02.3119541477E+020.0000000000E+00+
*       3.5086515383E+02               0
GRID*               3121               02.2385596108E+020.0000000000E+00+
*       3.3970868283E+02               0
GRID*               3122               02.1651650739E+020.0000000000E+00+
*       3.2855221183E+02               0
GRID*               3123               02.0917705370E+020.0000000000E+00+
*       3.1739574083E+02               0
GRID*               3124               02.0183760000E+020.0000000000E+00+
*       3.0623926982E+02               0
GRID*               3125               01.9449814631E+020.0000000000E+00+
*       2.9508279882E+02               0
GRID*               3126               01.8715869262E+020.0000000000E+00+
*       2.8392632782E+02               0
GRID*               3127               01.7981923893E+020.0000000000E+00+
*       2.7276985681E+02               0
GRID*               3128               01.7247978523E+020.0000000000E+00+
*       2.6161338581E+02               0
GRID*               3129               02.7886431971E+020.0000000000E+00+
*       4.4737748149E+02               0
GRID*               3130               02.7171597414E+020.0000000000E+00+
*       4.3601205718E+02               0
GRID*               3131               02.6456762857E+020.0000000000E+00+
*       4.2464663287E+02               0
GRID*               3132               02.5751271472E+020.0000000000E+00+
*       4.1330746336E+02               0
GRID*               3133               02.5045780088E+020.0000000000E+00+
*       4.0196829385E+02               0
GRID*               3134               02.4340288704E+020.0000000000E+00+
*       3.9062912433E+02               0
GRID*               3135               02.3634797320E+020.0000000000E+00+
*       3.7928995482E+02               0
GRID*               3136               02.2929305936E+020.0000000000E+00+
*       3.6795078531E+02               0
GRID*               3137               02.2223814551E+020.0000000000E+00+
*       3.5661161580E+02               0
GRID*               3138               02.1518323167E+020.0000000000E+00+
*       3.4527244629E+02               0
GRID*               3139               02.0812831783E+020.0000000000E+00+
*       3.3393327678E+02               0
GRID*               3140               02.0107340399E+020.0000000000E+00+
*       3.2259410727E+02               0
GRID*               3141               01.9401849015E+020.0000000000E+00+
*       3.1125493775E+02               0
GRID*               3142               01.8696357630E+020.0000000000E+00+
*       2.9991576824E+02               0
GRID*               3143               01.7990866246E+020.0000000000E+00+
*       2.8857659873E+02               0
GRID*               3144               01.7285374862E+020.0000000000E+00+
*       2.7723742922E+02               0
GRID*               3145               01.6579883478E+020.0000000000E+00+
*       2.6589825971E+02               0
GRID*               3146               02.6744519683E+020.0000000000E+00+
*       4.5429925645E+02               0
GRID*               3147               02.6058931207E+020.0000000000E+00+
*       4.4275813926E+02               0
GRID*               3148               02.5373342731E+020.0000000000E+00+
*       4.3121702207E+02               0
GRID*               3149               02.4696757772E+020.0000000000E+00+
*       4.1970241914E+02               0
GRID*               3150               02.4020172812E+020.0000000000E+00+
*       4.0818781622E+02               0
GRID*               3151               02.3343587853E+020.0000000000E+00+
*       3.9667321329E+02               0
GRID*               3152               02.2667002894E+020.0000000000E+00+
*       3.8515861037E+02               0
GRID*               3153               02.1990417934E+020.0000000000E+00+
*       3.7364400745E+02               0
GRID*               3154               02.1313832975E+020.0000000000E+00+
*       3.6212940452E+02               0
GRID*               3155               02.0637248015E+020.0000000000E+00+
*       3.5061480160E+02               0
GRID*               3156               01.9960663056E+020.0000000000E+00+
*       3.3910019867E+02               0
GRID*               3157               01.9284078097E+020.0000000000E+00+
*       3.2758559575E+02               0
GRID*               3158               01.8607493137E+020.0000000000E+00+
*       3.1607099283E+02               0
GRID*               3159               01.7930908178E+020.0000000000E+00+
*       3.0455638990E+02               0
GRID*               3160               01.7254323219E+020.0000000000E+00+
*       2.9304178698E+02               0
GRID*               3161               01.6577738259E+020.0000000000E+00+
*       2.8152718405E+02               0
GRID*               3162               01.5901153300E+020.0000000000E+00+
*       2.7001258113E+02               0
GRID*               3163               02.5585445371E+020.0000000000E+00+
*       4.6092953956E+02               0
GRID*               3164               02.4929545169E+020.0000000000E+00+
*       4.4922020680E+02               0
GRID*               3165               02.4273644968E+020.0000000000E+00+
*       4.3751087404E+02               0
GRID*               3166               02.3626400639E+020.0000000000E+00+
*       4.2582822066E+02               0
GRID*               3167               02.2979156311E+020.0000000000E+00+
*       4.1414556729E+02               0
GRID*               3168               02.2331911982E+020.0000000000E+00+
*       4.0246291391E+02               0
GRID*               3169               02.1684667653E+020.0000000000E+00+
*       3.9078026053E+02               0
GRID*               3170               02.1037423325E+020.0000000000E+00+
*       3.7909760715E+02               0
GRID*               3171               02.0390178996E+020.0000000000E+00+
*       3.6741495377E+02               0
GRID*               3172               01.9742934667E+020.0000000000E+00+
*       3.5573230040E+02               0
GRID*               3173               01.9095690339E+020.0000000000E+00+
*       3.4404964702E+02               0
GRID*               3174               01.8448446010E+020.0000000000E+00+
*       3.3236699364E+02               0
GRID*               3175               01.7801201681E+020.0000000000E+00+
*       3.2068434026E+02               0
GRID*               3176               01.7153957353E+020.0000000000E+00+
*       3.0900168688E+02               0
GRID*               3177               01.6506713024E+020.0000000000E+00+
*       2.9731903351E+02               0
GRID*               3178               01.5859468695E+020.0000000000E+00+
*       2.8563638013E+02               0
GRID*               3179               01.5212224366E+020.0000000000E+00+
*       2.7395372675E+02               0
GRID*               3180               02.4409954893E+020.0000000000E+00+
*       4.6726411274E+02               0
GRID*               3181               02.3784166000E+020.0000000000E+00+
*       4.5539414832E+02               0
GRID*               3182               02.3158377107E+020.0000000000E+00+
*       4.4352418390E+02               0
GRID*               3183               02.2540888340E+020.0000000000E+00+
*       4.3168096322E+02               0
GRID*               3184               02.1923399572E+020.0000000000E+00+
*       4.1983774253E+02               0
GRID*               3185               02.1305910805E+020.0000000000E+00+
*       4.0799452185E+02               0
GRID*               3186               02.0688422038E+020.0000000000E+00+
*       3.9615130117E+02               0
GRID*               3187               02.0070933270E+020.0000000000E+00+
*       3.8430808049E+02               0
GRID*               3188               01.9453444503E+020.0000000000E+00+
*       3.7246485981E+02               0
GRID*               3189               01.8835955736E+020.0000000000E+00+
*       3.6062163913E+02               0
GRID*               3190               01.8218466968E+020.0000000000E+00+
*       3.4877841845E+02               0
GRID*               3191               01.7600978201E+020.0000000000E+00+
*       3.3693519776E+02               0
GRID*               3192               01.6983489434E+020.0000000000E+00+
*       3.2509197708E+02               0
GRID*               3193               01.6366000666E+020.0000000000E+00+
*       3.1324875640E+02               0
GRID*               3194               01.5748511899E+020.0000000000E+00+
*       3.0140553572E+02               0
GRID*               3195               01.5131023131E+020.0000000000E+00+
*       2.8956231504E+02               0
GRID*               3196               01.4513534364E+020.0000000000E+00+
*       2.7771909435E+02               0
GRID*               3197               02.3218805376E+020.0000000000E+00+
*       4.7329896381E+02               0
GRID*               3198               02.2623531550E+020.0000000000E+00+
*       4.6127605583E+02               0
GRID*               3199               02.2028257724E+020.0000000000E+00+
*       4.4925314784E+02               0
GRID*               3200               02.1440920077E+020.0000000000E+00+
*       4.3725694072E+02               0
GRID*               3201               02.0853582430E+020.0000000000E+00+
*       4.2526073359E+02               0
GRID*               3202               02.0266244783E+020.0000000000E+00+
*       4.1326452647E+02               0
GRID*               3203               01.9678907136E+020.0000000000E+00+
*       4.0126831935E+02               0
GRID*               3204               01.9091569489E+020.0000000000E+00+
*       3.8927211222E+02               0
GRID*               3205               01.8504231842E+020.0000000000E+00+
*       3.7727590510E+02               0
GRID*               3206               01.7916894195E+020.0000000000E+00+
*       3.6527969797E+02               0
GRID*               3207               01.7329556549E+020.0000000000E+00+
*       3.5328349085E+02               0
GRID*               3208               01.6742218902E+020.0000000000E+00+
*       3.4128728372E+02               0
GRID*               3209               01.6154881255E+020.0000000000E+00+
*       3.2929107659E+02               0
GRID*               3210               01.5567543608E+020.0000000000E+00+
*       3.1729486947E+02               0
GRID*               3211               01.4980205961E+020.0000000000E+00+
*       3.0529866234E+02               0
GRID*               3212               01.4392868314E+020.0000000000E+00+
*       2.9330245522E+02               0
GRID*               3213               01.3805530667E+020.0000000000E+00+
*       2.8130624809E+02               0
GRID*               3214               02.2012756598E+020.0000000000E+00+
*       4.7903013036E+02               0
GRID*               3215               02.1448382846E+020.0000000000E+00+
*       4.6686208202E+02               0
GRID*               3216               02.0884009095E+020.0000000000E+00+
*       4.5469403368E+02               0
GRID*               3217               02.0327199294E+020.0000000000E+00+
*       4.4255252939E+02               0
GRID*               3218               01.9770389493E+020.0000000000E+00+
*       4.3041102511E+02               0
GRID*               3219               01.9213579691E+020.0000000000E+00+
*       4.1826952082E+02               0
GRID*               3220               01.8656769890E+020.0000000000E+00+
*       4.0612801653E+02               0
GRID*               3221               01.8099960089E+020.0000000000E+00+
*       3.9398651225E+02               0
GRID*               3222               01.7543150288E+020.0000000000E+00+
*       3.8184500796E+02               0
GRID*               3223               01.6986340487E+020.0000000000E+00+
*       3.6970350367E+02               0
GRID*               3224               01.6429530686E+020.0000000000E+00+
*       3.5756199939E+02               0
GRID*               3225               01.5872720885E+020.0000000000E+00+
*       3.4542049510E+02               0
GRID*               3226               01.5315911084E+020.0000000000E+00+
*       3.3327899081E+02               0
GRID*               3227               01.4759101283E+020.0000000000E+00+
*       3.2113748652E+02               0
GRID*               3228               01.4202291482E+020.0000000000E+00+
*       3.0899598224E+02               0
GRID*               3229               01.3645481681E+020.0000000000E+00+
*       2.9685447795E+02               0
GRID*               3230               01.3088671880E+020.0000000000E+00+
*       2.8471297366E+02               0
GRID*               3231               02.0792585123E+020.0000000000E+00+
*       4.8445398950E+02               0
GRID*               3232               02.0259476732E+020.0000000000E+00+
*       4.7214870009E+02               0
GRID*               3233               01.9726368340E+020.0000000000E+00+
*       4.5984341069E+02               0
GRID*               3234               01.9200443333E+020.0000000000E+00+
*       4.4756438802E+02               0
GRID*               3235               01.8674518327E+020.0000000000E+00+
*       4.3528536535E+02               0
GRID*               3236               01.8148593320E+020.0000000000E+00+
*       4.2300634268E+02               0
GRID*               3237               01.7622668314E+020.0000000000E+00+
*       4.1072732001E+02               0
GRID*               3238               01.7096743307E+020.0000000000E+00+
*       3.9844829734E+02               0
GRID*               3239               01.6570818301E+020.0000000000E+00+
*       3.8616927467E+02               0
GRID*               3240               01.6044893294E+020.0000000000E+00+
*       3.7389025200E+02               0
GRID*               3241               01.5518968288E+020.0000000000E+00+
*       3.6161122933E+02               0
GRID*               3242               01.4993043281E+020.0000000000E+00+
*       3.4933220666E+02               0
GRID*               3243               01.4467118275E+020.0000000000E+00+
*       3.3705318399E+02               0
GRID*               3244               01.3941193268E+020.0000000000E+00+
*       3.2477416132E+02               0
GRID*               3245               01.3415268261E+020.0000000000E+00+
*       3.1249513865E+02               0
GRID*               3246               01.2889343255E+020.0000000000E+00+
*       3.0021611598E+02               0
GRID*               3247               01.2363418248E+020.0000000000E+00+
*       2.8793709331E+02               0
GRID*               3248               01.9559076333E+020.0000000000E+00+
*       4.8956711592E+02               0
GRID*               3249               01.9057578354E+020.0000000000E+00+
*       4.7713256970E+02               0
GRID*               3250               01.8556080376E+020.0000000000E+00+
*       4.6469802347E+02               0
GRID*               3251               01.8061376851E+020.0000000000E+00+
*       4.5228933960E+02               0
GRID*               3252               01.7566673327E+020.0000000000E+00+
*       4.3988065572E+02               0
GRID*               3253               01.7071969802E+020.0000000000E+00+
*       4.2747197185E+02               0
GRID*               3254               01.6577266278E+020.0000000000E+00+
*       4.1506328797E+02               0
GRID*               3255               01.6082562753E+020.0000000000E+00+
*       4.0265460410E+02               0
GRID*               3256               01.5587859229E+020.0000000000E+00+
*       3.9024592022E+02               0
GRID*               3257               01.5093155704E+020.0000000000E+00+
*       3.7783723635E+02               0
GRID*               3258               01.4598452180E+020.0000000000E+00+
*       3.6542855247E+02               0
GRID*               3259               01.4103748655E+020.0000000000E+00+
*       3.5301986859E+02               0
GRID*               3260               01.3609045130E+020.0000000000E+00+
*       3.4061118472E+02               0
GRID*               3261               01.3114341606E+020.0000000000E+00+
*       3.2820250084E+02               0
GRID*               3262               01.2619638081E+020.0000000000E+00+
*       3.1579381697E+02               0
GRID*               3263               01.2124934557E+020.0000000000E+00+
*       3.0338513309E+02               0
GRID*               3264               01.1630231032E+020.0000000000E+00+
*       2.9097644922E+02               0
GRID*               3265               01.8313018031E+020.0000000000E+00+
*       4.9436613910E+02               0
GRID*               3266               01.7843455697E+020.0000000000E+00+
*       4.8181041465E+02               0
GRID*               3267               01.7373893363E+020.0000000000E+00+
*       4.6925469019E+02               0
GRID*               3268               01.6910728170E+020.0000000000E+00+
*       4.5672428991E+02               0
GRID*               3269               01.6447562977E+020.0000000000E+00+
*       4.4419388962E+02               0
GRID*               3270               01.5984397784E+020.0000000000E+00+
*       4.3166348934E+02               0
GRID*               3271               01.5521232591E+020.0000000000E+00+
*       4.1913308906E+02               0
GRID*               3272               01.5058067398E+020.0000000000E+00+
*       4.0660268877E+02               0
GRID*               3273               01.4594902205E+020.0000000000E+00+
*       3.9407228849E+02               0
GRID*               3274               01.4131737012E+020.0000000000E+00+
*       3.8154188821E+02               0
GRID*               3275               01.3668571819E+020.0000000000E+00+
*       3.6901148793E+02               0
GRID*               3276               01.3205406626E+020.0000000000E+00+
*       3.5648108764E+02               0
GRID*               3277               01.2742241433E+020.0000000000E+00+
*       3.4395068736E+02               0
GRID*               3278               01.2279076240E+020.0000000000E+00+
*       3.3142028708E+02               0
GRID*               3279               01.1815911047E+020.0000000000E+00+
*       3.1888988679E+02               0
GRID*               3280               01.1352745854E+020.0000000000E+00+
*       3.0635948651E+02               0
GRID*               3281               01.0889580661E+020.0000000000E+00+
*       2.9382908622E+02               0
GRID*               3282               01.7055212393E+020.0000000000E+00+
*       4.9884804725E+02               0
GRID*               3283               01.6617890727E+020.0000000000E+00+
*       4.8617930915E+02               0
GRID*               3284               01.6180569060E+020.0000000000E+00+
*       4.7351057106E+02               0
GRID*               3285               01.5749238850E+020.0000000000E+00+
*       4.6086647845E+02               0
GRID*               3286               01.5317908640E+020.0000000000E+00+
*       4.4822238584E+02               0
GRID*               3287               01.4886578429E+020.0000000000E+00+
*       4.3557829324E+02               0
GRID*               3288               01.4455248219E+020.0000000000E+00+
*       4.2293420063E+02               0
GRID*               3289               01.4023918008E+020.0000000000E+00+
*       4.1029010802E+02               0
GRID*               3290               01.3592587798E+020.0000000000E+00+
*       3.9764601541E+02               0
GRID*               3291               01.3161257588E+020.0000000000E+00+
*       3.8500192280E+02               0
GRID*               3292               01.2729927377E+020.0000000000E+00+
*       3.7235783020E+02               0
GRID*               3293               01.2298597167E+020.0000000000E+00+
*       3.5971373759E+02               0
GRID*               3294               01.1867266956E+020.0000000000E+00+
*       3.4706964498E+02               0
GRID*               3295               01.1435936746E+020.0000000000E+00+
*       3.3442555237E+02               0
GRID*               3296               01.1004606536E+020.0000000000E+00+
*       3.2178145976E+02               0
GRID*               3297               01.0573276325E+020.0000000000E+00+
*       3.0913736715E+02               0
GRID*               3298               01.0141946115E+020.0000000000E+00+
*       2.9649327455E+02               0
GRID*               3299               01.5786467961E+020.0000000000E+00+
*       5.0301000548E+02               0
GRID*               3300               01.5381671398E+020.0000000000E+00+
*       4.9023649448E+02               0
GRID*               3301               01.4976874834E+020.0000000000E+00+
*       4.7746298348E+02               0
GRID*               3302               01.4577655702E+020.0000000000E+00+
*       4.6471329209E+02               0
GRID*               3303               01.4178436569E+020.0000000000E+00+
*       4.5196360070E+02               0
GRID*               3304               01.3779217436E+020.0000000000E+00+
*       4.3921390932E+02               0
GRID*               3305               01.3379998303E+020.0000000000E+00+
*       4.2646421793E+02               0
GRID*               3306               01.2980779170E+020.0000000000E+00+
*       4.1371452654E+02               0
GRID*               3307               01.2581560037E+020.0000000000E+00+
*       4.0096483515E+02               0
GRID*               3308               01.2182340905E+020.0000000000E+00+
*       3.8821514376E+02               0
GRID*               3309               01.1783121772E+020.0000000000E+00+
*       3.7546545238E+02               0
GRID*               3310               01.1383902639E+020.0000000000E+00+
*       3.6271576099E+02               0
GRID*               3311               01.0984683506E+020.0000000000E+00+
*       3.4996606960E+02               0
GRID*               3312               01.0585464373E+020.0000000000E+00+
*       3.3721637821E+02               0
GRID*               3313               01.0186245240E+020.0000000000E+00+
*       3.2446668682E+02               0
GRID*               3314               09.7870261074E+010.0000000000E+00+
*       3.1171699543E+02               0
GRID*               3315               09.3878069745E+010.0000000000E+00+
*       2.9896730404E+02               0
GRID*               3316               01.4507595256E+020.0000000000E+00+
*       5.0684923309E+02               0
GRID*               3317               01.4135587553E+020.0000000000E+00+
*       4.9397926394E+02               0
GRID*               3318               01.3763579849E+020.0000000000E+00+
*       4.8110929480E+02               0
GRID*               3319               01.3396727264E+020.0000000000E+00+
*       4.6826216549E+02               0
GRID*               3320               01.3029874678E+020.0000000000E+00+
*       4.5541503617E+02               0
GRID*               3321               01.2663022093E+020.0000000000E+00+
*       4.4256790686E+02               0
GRID*               3322               01.2296169507E+020.0000000000E+00+
*       4.2972077754E+02               0
GRID*               3323               01.1929316921E+020.0000000000E+00+
*       4.1687364823E+02               0
GRID*               3324               01.1562464336E+020.0000000000E+00+
*       4.0402651891E+02               0
GRID*               3325               01.1195611750E+020.0000000000E+00+
*       3.9117938960E+02               0
GRID*               3326               01.0828759164E+020.0000000000E+00+
*       3.7833226028E+02               0
GRID*               3327               01.0461906579E+020.0000000000E+00+
*       3.6548513097E+02               0
GRID*               3328               01.0095053993E+020.0000000000E+00+
*       3.5263800165E+02               0
GRID*               3329               09.7282014075E+010.0000000000E+00+
*       3.3979087233E+02               0
GRID*               3330               09.3613488218E+010.0000000000E+00+
*       3.2694374302E+02               0
GRID*               3331               08.9944962362E+010.0000000000E+00+
*       3.1409661370E+02               0
GRID*               3332               08.6276436505E+010.0000000000E+00+
*       3.0124948439E+02               0
GRID*               3333               01.3219417366E+020.0000000000E+00+
*       5.1036334649E+02               0
GRID*               3334               01.2880441320E+020.0000000000E+00+
*       4.9740529918E+02               0
GRID*               3335               01.2541465275E+020.0000000000E+00+
*       4.8444725187E+02               0
GRID*               3336               01.2207213823E+020.0000000000E+00+
*       4.7151090402E+02               0
GRID*               3337               01.1872962371E+020.0000000000E+00+
*       4.5857455617E+02               0
GRID*               3338               01.1538710919E+020.0000000000E+00+
*       4.4563820832E+02               0
GRID*               3339               01.1204459467E+020.0000000000E+00+
*       4.3270186047E+02               0
GRID*               3340               01.0870208015E+020.0000000000E+00+
*       4.1976551262E+02               0
GRID*               3341               01.0535956563E+020.0000000000E+00+
*       4.0682916477E+02               0
GRID*               3342               01.0201705111E+020.0000000000E+00+
*       3.9389281692E+02               0
GRID*               3343               09.8674536595E+010.0000000000E+00+
*       3.8095646907E+02               0
GRID*               3344               09.5332022076E+010.0000000000E+00+
*       3.6802012122E+02               0
GRID*               3345               09.1989507557E+010.0000000000E+00+
*       3.5508377337E+02               0
GRID*               3346               08.8646993038E+010.0000000000E+00+
*       3.4214742551E+02               0
GRID*               3347               08.5304478519E+010.0000000000E+00+
*       3.2921107766E+02               0
GRID*               3348               08.1961964000E+010.0000000000E+00+
*       3.1627472981E+02               0
GRID*               3349               07.8619449480E+010.0000000000E+00+
*       3.0333838196E+02               0
GRID*               3350               01.1922762304E+020.0000000000E+00+
*       5.1355014427E+02               0
GRID*               3351               01.1617039729E+020.0000000000E+00+
*       5.0051246408E+02               0
GRID*               3352               01.1311317154E+020.0000000000E+00+
*       4.8747478388E+02               0
GRID*               3353               01.1009880533E+020.0000000000E+00+
*       4.7445749546E+02               0
GRID*               3354               01.0708443913E+020.0000000000E+00+
*       4.6144020703E+02               0
GRID*               3355               01.0407007293E+020.0000000000E+00+
*       4.4842291861E+02               0
GRID*               3356               01.0105570673E+020.0000000000E+00+
*       4.3540563019E+02               0
GRID*               3357               09.8041340530E+010.0000000000E+00+
*       4.2238834177E+02               0
GRID*               3358               09.5026974329E+010.0000000000E+00+
*       4.0937105334E+02               0
GRID*               3359               09.2012608128E+010.0000000000E+00+
*       3.9635376492E+02               0
GRID*               3360               08.8998241927E+010.0000000000E+00+
*       3.8333647650E+02               0
GRID*               3361               08.5983875725E+010.0000000000E+00+
*       3.7031918807E+02               0
GRID*               3362               08.2969509524E+010.0000000000E+00+
*       3.5730189965E+02               0
GRID*               3363               07.9955143323E+010.0000000000E+00+
*       3.4428461122E+02               0
GRID*               3364               07.6940777122E+010.0000000000E+00+
*       3.3126732280E+02               0
GRID*               3365               07.3926410921E+010.0000000000E+00+
*       3.1825003438E+02               0
GRID*               3366               07.0912044719E+010.0000000000E+00+
*       3.0523274595E+02               0
GRID*               3367               01.0618459765E+020.0000000000E+00+
*       5.1640748805E+02               0
GRID*               3368               01.0346191373E+020.0000000000E+00+
*       5.0329868211E+02               0
GRID*               3369               01.0073922981E+020.0000000000E+00+
*       4.9018987616E+02               0
GRID*               3370               09.8054939087E+010.0000000000E+00+
*       4.7709998024E+02               0
GRID*               3371               09.5370648366E+010.0000000000E+00+
*       4.6401008432E+02               0
GRID*               3372               09.2686357644E+010.0000000000E+00+
*       4.5092018840E+02               0
GRID*               3373               09.0002066922E+010.0000000000E+00+
*       4.3783029248E+02               0
GRID*               3374               08.7317776200E+010.0000000000E+00+
*       4.2474039656E+02               0
GRID*               3375               08.4633485479E+010.0000000000E+00+
*       4.1165050064E+02               0
GRID*               3376               08.1949194757E+010.0000000000E+00+
*       3.9856060472E+02               0
GRID*               3377               07.9264904035E+010.0000000000E+00+
*       3.8547070880E+02               0
GRID*               3378               07.6580613313E+010.0000000000E+00+
*       3.7238081288E+02               0
GRID*               3379               07.3896322591E+010.0000000000E+00+
*       3.5929091695E+02               0
GRID*               3380               07.1212031869E+010.0000000000E+00+
*       3.4620102103E+02               0
GRID*               3381               06.8527741148E+010.0000000000E+00+
*       3.3311112511E+02               0
GRID*               3382               06.5843450426E+010.0000000000E+00+
*       3.2002122919E+02               0
GRID*               3383               06.3159159704E+010.0000000000E+00+
*       3.0693133327E+02               0
GRID*               3384               09.3073483208E+010.0000000000E+00+
*       5.1893361886E+02               0
GRID*               3385               09.0687132370E+010.0000000000E+00+
*       5.0576223558E+02               0
GRID*               3386               08.8300781532E+010.0000000000E+00+
*       4.9259085230E+02               0
GRID*               3387               08.5948279024E+010.0000000000E+00+
*       4.7943671671E+02               0
GRID*               3388               08.3595776517E+010.0000000000E+00+
*       4.6628258111E+02               0
GRID*               3389               08.1243274009E+010.0000000000E+00+
*       4.5312844552E+02               0
GRID*               3390               07.8890771501E+010.0000000000E+00+
*       4.3997430992E+02               0
GRID*               3391               07.6538268993E+010.0000000000E+00+
*       4.2682017433E+02               0
GRID*               3392               07.4185766486E+010.0000000000E+00+
*       4.1366603873E+02               0
GRID*               3393               07.1833263978E+010.0000000000E+00+
*       4.0051190314E+02               0
GRID*               3394               06.9480761470E+010.0000000000E+00+
*       3.8735776754E+02               0
GRID*               3395               06.7128258962E+010.0000000000E+00+
*       3.7420363194E+02               0
GRID*               3396               06.4775756454E+010.0000000000E+00+
*       3.6104949635E+02               0
GRID*               3397               06.2423253946E+010.0000000000E+00+
*       3.4789536075E+02               0
GRID*               3398               06.0070751439E+010.0000000000E+00+
*       3.3474122516E+02               0
GRID*               3399               05.7718248931E+010.0000000000E+00+
*       3.2158708956E+02               0
GRID*               3400               05.5365746423E+010.0000000000E+00+
*       3.0843295396E+02               0
GRID*               3401               07.9902696701E+010.0000000000E+00+
*       5.2112693623E+02               0
GRID*               3402               07.7854256004E+010.0000000000E+00+
*       5.0790157310E+02               0
GRID*               3403               07.5805815306E+010.0000000000E+00+
*       4.9467620997E+02               0
GRID*               3404               07.3786601174E+010.0000000000E+00+
*       4.8146624492E+02               0
GRID*               3405               07.1767387042E+010.0000000000E+00+
*       4.6825627987E+02               0
GRID*               3406               06.9748172910E+010.0000000000E+00+
*       4.5504631482E+02               0
GRID*               3407               06.7728958777E+010.0000000000E+00+
*       4.4183634977E+02               0
GRID*               3408               06.5709744645E+010.0000000000E+00+
*       4.2862638472E+02               0
GRID*               3409               06.3690530513E+010.0000000000E+00+
*       4.1541641967E+02               0
GRID*               3410               06.1671316381E+010.0000000000E+00+
*       4.0220645462E+02               0
GRID*               3411               05.9652102249E+010.0000000000E+00+
*       3.8899648957E+02               0
GRID*               3412               05.7632888116E+010.0000000000E+00+
*       3.7578652452E+02               0
GRID*               3413               05.5613673984E+010.0000000000E+00+
*       3.6257655946E+02               0
GRID*               3414               05.3594459852E+010.0000000000E+00+
*       3.4936659441E+02               0
GRID*               3415               05.1575245720E+010.0000000000E+00+
*       3.3615662936E+02               0
GRID*               3416               04.9556031588E+010.0000000000E+00+
*       3.2294666431E+02               0
GRID*               3417               04.7536817455E+010.0000000000E+00+
*       3.0973669926E+02               0
GRID*               3418               06.6680672278E+010.0000000000E+00+
*       5.2298592832E+02               0
GRID*               3419               06.4971504687E+010.0000000000E+00+
*       5.0971523558E+02               0
GRID*               3420               06.3262337096E+010.0000000000E+00+
*       4.9644454285E+02               0
GRID*               3421               06.1577699241E+010.0000000000E+00+
*       4.8318720457E+02               0
GRID*               3422               05.9893061386E+010.0000000000E+00+
*       4.6992986629E+02               0
GRID*               3423               05.8208423531E+010.0000000000E+00+
*       4.5667252801E+02               0
GRID*               3424               05.6523785675E+010.0000000000E+00+
*       4.4341518973E+02               0
GRID*               3425               05.4839147820E+010.0000000000E+00+
*       4.3015785145E+02               0
GRID*               3426               05.3154509965E+010.0000000000E+00+
*       4.1690051317E+02               0
GRID*               3427               05.1469872110E+010.0000000000E+00+
*       4.0364317489E+02               0
GRID*               3428               04.9785234254E+010.0000000000E+00+
*       3.9038583660E+02               0
GRID*               3429               04.8100596399E+010.0000000000E+00+
*       3.7712849832E+02               0
GRID*               3430               04.6415958544E+010.0000000000E+00+
*       3.6387116004E+02               0
GRID*               3431               04.4731320688E+010.0000000000E+00+
*       3.5061382176E+02               0
GRID*               3432               04.3046682833E+010.0000000000E+00+
*       3.3735648348E+02               0
GRID*               3433               04.1362044978E+010.0000000000E+00+
*       3.2409914520E+02               0
GRID*               3434               03.9677407122E+010.0000000000E+00+
*       3.1084180691E+02               0
GRID*               3435               05.3415909084E+010.0000000000E+00+
*       5.2450950175E+02               0
GRID*               3436               05.2047159418E+010.0000000000E+00+
*       5.1120215762E+02               0
GRID*               3437               05.0678409753E+010.0000000000E+00+
*       4.9789481348E+02               0
GRID*               3438               04.9329420015E+010.0000000000E+00+
*       4.8459857970E+02               0
GRID*               3439               04.7980430277E+010.0000000000E+00+
*       4.7130234592E+02               0
GRID*               3440               04.6631440540E+010.0000000000E+00+
*       4.5800611213E+02               0
GRID*               3441               04.5282450802E+010.0000000000E+00+
*       4.4470987835E+02               0
GRID*               3442               04.3933461064E+010.0000000000E+00+
*       4.3141364456E+02               0
GRID*               3443               04.2584471327E+010.0000000000E+00+
*       4.1811741078E+02               0
GRID*               3444               04.1235481589E+010.0000000000E+00+
*       4.0482117699E+02               0
GRID*               3445               03.9886491851E+010.0000000000E+00+
*       3.9152494321E+02               0
GRID*               3446               03.8537502113E+010.0000000000E+00+
*       3.7822870942E+02               0
GRID*               3447               03.7188512376E+010.0000000000E+00+
*       3.6493247563E+02               0
GRID*               3448               03.5839522638E+010.0000000000E+00+
*       3.5163624185E+02               0
GRID*               3449               03.4490532900E+010.0000000000E+00+
*       3.3834000806E+02               0
GRID*               3450               03.3141543163E+010.0000000000E+00+
*       3.2504377427E+02               0
GRID*               3451               03.1792553425E+010.0000000000E+00+
*       3.1174754049E+02               0
GRID*               3452               04.0116921804E+010.0000000000E+00+
*       5.2569668716E+02               0
GRID*               3453               03.9089516498E+010.0000000000E+00+
*       5.1236137717E+02               0
GRID*               3454               03.8062111193E+010.0000000000E+00+
*       4.9902606718E+02               0
GRID*               3455               03.7049625327E+010.0000000000E+00+
*       4.8569941676E+02               0
GRID*               3456               03.6037139461E+010.0000000000E+00+
*       4.7237276634E+02               0
GRID*               3457               03.5024653595E+010.0000000000E+00+
*       4.5904611592E+02               0
GRID*               3458               03.4012167730E+010.0000000000E+00+
*       4.4571946550E+02               0
GRID*               3459               03.2999681864E+010.0000000000E+00+
*       4.3239281508E+02               0
GRID*               3460               03.1987195998E+010.0000000000E+00+
*       4.1906616466E+02               0
GRID*               3461               03.0974710132E+010.0000000000E+00+
*       4.0573951424E+02               0
GRID*               3462               02.9962224266E+010.0000000000E+00+
*       3.9241286382E+02               0
GRID*               3463               02.8949738401E+010.0000000000E+00+
*       3.7908621340E+02               0
GRID*               3464               02.7937252535E+010.0000000000E+00+
*       3.6575956298E+02               0
GRID*               3465               02.6924766669E+010.0000000000E+00+
*       3.5243291256E+02               0
GRID*               3466               02.5912280803E+010.0000000000E+00+
*       3.3910626214E+02               0
GRID*               3467               02.4899794938E+010.0000000000E+00+
*       3.2577961172E+02               0
GRID*               3468               02.3887309072E+010.0000000000E+00+
*       3.1245296130E+02               0
GRID*               3469               02.6792237405E+010.0000000000E+00+
*       5.2654635019E+02               0
GRID*               3470               02.6106884302E+010.0000000000E+00+
*       5.1319181086E+02               0
GRID*               3471               02.5421531200E+010.0000000000E+00+
*       4.9983727153E+02               0
GRID*               3472               02.4746188875E+010.0000000000E+00+
*       4.8648872750E+02               0
GRID*               3473               02.4070846551E+010.0000000000E+00+
*       4.7314018347E+02               0
GRID*               3474               02.3395504226E+010.0000000000E+00+
*       4.5979163943E+02               0
GRID*               3475               02.2720161902E+010.0000000000E+00+
*       4.4644309540E+02               0
GRID*               3476               02.2044819578E+010.0000000000E+00+
*       4.3309455137E+02               0
GRID*               3477               02.1369477253E+010.0000000000E+00+
*       4.1974600734E+02               0
GRID*               3478               02.0694134929E+010.0000000000E+00+
*       4.0639746331E+02               0
GRID*               3479               02.0018792605E+010.0000000000E+00+
*       3.9304891928E+02               0
GRID*               3480               01.9343450280E+010.0000000000E+00+
*       3.7970037525E+02               0
GRID*               3481               01.8668107956E+010.0000000000E+00+
*       3.6635183122E+02               0
GRID*               3482               01.7992765632E+010.0000000000E+00+
*       3.5300328720E+02               0
GRID*               3483               01.7317423307E+010.0000000000E+00+
*       3.3965474317E+02               0
GRID*               3484               01.6642080983E+010.0000000000E+00+
*       3.2630619914E+02               0
GRID*               3485               01.5966738659E+010.0000000000E+00+
*       3.1295765511E+02               0
GRID*               3486               01.3450405720E+010.0000000000E+00+
*       5.2705834180E+02               0
GRID*               3487               01.3107594322E+010.0000000000E+00+
*       5.1369335174E+02               0
GRID*               3488               01.2764782923E+010.0000000000E+00+
*       5.0032836169E+02               0
GRID*               3489               01.2427008177E+010.0000000000E+00+
*       4.8696648244E+02               0
GRID*               3490               01.2089233431E+010.0000000000E+00+
*       4.7360460319E+02               0
GRID*               3491               01.1751458685E+010.0000000000E+00+
*       4.6024272393E+02               0
GRID*               3492               01.1413683939E+010.0000000000E+00+
*       4.4688084468E+02               0
GRID*               3493               01.1075909193E+010.0000000000E+00+
*       4.3351896543E+02               0
GRID*               3494               01.0738134447E+010.0000000000E+00+
*       4.2015708618E+02               0
GRID*               3495               01.0400359701E+010.0000000000E+00+
*       4.0679520693E+02               0
GRID*               3496               01.0062584955E+010.0000000000E+00+
*       3.9343332768E+02               0
GRID*               3497               09.7248102091E+000.0000000000E+00+
*       3.8007144843E+02               0
GRID*               3498               09.3870354631E+000.0000000000E+00+
*       3.6670956918E+02               0
GRID*               3499               09.0492607171E+000.0000000000E+00+
*       3.5334768993E+02               0
GRID*               3500               08.7114859711E+000.0000000000E+00+
*       3.3998581068E+02               0
GRID*               3501               08.3737112251E+000.0000000000E+00+
*       3.2662393143E+02               0
GRID*               3502               08.0359364792E+000.0000000000E+00+
*       3.1326205218E+02               0
GRID*               3503               09.9999994040E-020.0000000000E+00+
*       -1.447506110E+03               0
GRID*               3504               09.9999994040E-020.0000000000E+00+
*       -1.457731215E+03               0
GRID*               3505               09.9999994040E-020.0000000000E+00+
*       -1.467956319E+03               0
GRID*               3506               09.9999994040E-020.0000000000E+00+
*       -1.478181424E+03               0
GRID*               3507               09.9999994040E-020.0000000000E+00+
*       -1.488406528E+03               0
GRID*               3508               09.9999994040E-020.0000000000E+00+
*       -1.498631632E+03               0
GRID*               3509               09.9999994040E-020.0000000000E+00+
*       -1.508856737E+03               0
GRID*               3510               09.9999994040E-020.0000000000E+00+
*       -1.519081841E+03               0
GRID*               3511               09.9999994040E-020.0000000000E+00+
*       -1.529306946E+03               0
GRID*               3512               09.9999994040E-020.0000000000E+00+
*       -1.539532050E+03               0
GRID*               3513               09.9999994040E-020.0000000000E+00+
*       -1.549757155E+03               0
GRID*               3514               09.9999994040E-020.0000000000E+00+
*       -1.559982259E+03               0
GRID*               3515               09.9999994040E-020.0000000000E+00+
*       -1.570207364E+03               0
GRID*               3516               09.9999994040E-020.0000000000E+00+
*       -1.580432468E+03               0
GRID*               3517               09.9999994040E-020.0000000000E+00+
*       -1.590657572E+03               0
GRID*               3518               09.9999994040E-020.0000000000E+00+
*       -1.600882677E+03               0
GRID*               3519               09.9999994040E-020.0000000000E+00+
*       -1.611107781E+03               0
GRID*               3520               01.0402153009E+020.0000000000E+00+
*       -1.395719399E+03               0
GRID*               3521               09.8261525591E+010.0000000000E+00+
*       -1.400711213E+03               0
GRID*               3522               09.2270008699E+010.0000000000E+00+
*       -1.405422621E+03               0
GRID*               3523               08.6060509754E+010.0000000000E+00+
*       -1.409842896E+03               0
GRID*               3524               07.9647639266E+010.0000000000E+00+
*       -1.413962580E+03               0
GRID*               3525               07.3045778400E+010.0000000000E+00+
*       -1.417772055E+03               0
GRID*               3526               06.6269979096E+010.0000000000E+00+
*       -1.421262796E+03               0
GRID*               3527               05.9335678542E+010.0000000000E+00+
*       -1.424426997E+03               0
GRID*               3528               05.2258481432E+010.0000000000E+00+
*       -1.427257185E+03               0
GRID*               3529               04.5054567399E+010.0000000000E+00+
*       -1.429747235E+03               0
GRID*               3530               03.7740246901E+010.0000000000E+00+
*       -1.431891387E+03               0
GRID*               3531               03.0332081474E+010.0000000000E+00+
*       -1.433684653E+03               0
GRID*               3532               02.2846951359E+010.0000000000E+00+
*       -1.435123239E+03               0
GRID*               3533               01.5301782094E+010.0000000000E+00+
*       -1.436203082E+03               0
GRID*               3534               07.7136797153E+000.0000000000E+00+
*       -1.436921812E+03               0
GRID*               3535               01.2928820585E+010.0000000000E+00+
*       -1.624914765E+03               0
GRID*               3536               02.5895167343E+010.0000000000E+00+
*       -1.627961220E+03               0
GRID*               3537               03.8977231155E+010.0000000000E+00+
*       -1.630464721E+03               0
GRID*               3538               05.2152146157E+010.0000000000E+00+
*       -1.632421696E+03               0
GRID*               3539               06.5397090925E+010.0000000000E+00+
*       -1.633828647E+03               0
GRID*               3540               07.8689113937E+010.0000000000E+00+
*       -1.634683204E+03               0
GRID*               3541               09.2005181820E+010.0000000000E+00+
*       -1.634983919E+03               0
GRID*               3542               01.0532223019E+020.0000000000E+00+
*       -1.634730216E+03               0
GRID*               3543               01.1861718697E+020.0000000000E+00+
*       -1.633922618E+03               0
GRID*               3544               01.3186701014E+020.0000000000E+00+
*       -1.632562353E+03               0
GRID*               3545               01.4504876124E+020.0000000000E+00+
*       -1.630651973E+03               0
GRID*               3546               01.5813956433E+020.0000000000E+00+
*       -1.628194543E+03               0
GRID*               3547               01.7111678934E+020.0000000000E+00+
*       -1.625194581E+03               0
GRID*               3548               01.8395792232E+020.0000000000E+00+
*       -1.621657150E+03               0
GRID*               3549               01.9664075674E+020.0000000000E+00+
*       -1.617588510E+03               0
GRID*               3550               02.0914326504E+020.0000000000E+00+
*       -1.612995541E+03               0
GRID*               3551               02.2144381213E+020.0000000000E+00+
*       -1.607886266E+03               0
GRID*               3552               02.3352108425E+020.0000000000E+00+
*       -1.602269542E+03               0
GRID*               3553               02.4535413142E+020.0000000000E+00+
*       -1.596155041E+03               0
GRID*               3554               02.5692249224E+020.0000000000E+00+
*       -1.589553455E+03               0
GRID*               3555               02.6820568723E+020.0000000000E+00+
*       -1.582475564E+03               0
GRID*               3556               02.2407576856E+020.0000000000E+00+
*       -1.275924217E+03               0
GRID*               3557               02.1862164515E+020.0000000000E+00+
*       -1.281378340E+03               0
GRID*               3558               02.1316752174E+020.0000000000E+00+
*       -1.286832464E+03               0
GRID*               3559               02.0771339833E+020.0000000000E+00+
*       -1.292286588E+03               0
GRID*               3560               02.0225927492E+020.0000000000E+00+
*       -1.297740712E+03               0
GRID*               3561               01.9680515151E+020.0000000000E+00+
*       -1.303194835E+03               0
GRID*               3562               01.9135102810E+020.0000000000E+00+
*       -1.308648959E+03               0
GRID*               3563               01.8589690469E+020.0000000000E+00+
*       -1.314103083E+03               0
GRID*               3564               01.8044278127E+020.0000000000E+00+
*       -1.319557207E+03               0
GRID*               3565               01.7498865786E+020.0000000000E+00+
*       -1.325011330E+03               0
GRID*               3566               01.6953453445E+020.0000000000E+00+
*       -1.330465454E+03               0
GRID*               3567               01.6408041104E+020.0000000000E+00+
*       -1.335919578E+03               0
GRID*               3568               01.5862628763E+020.0000000000E+00+
*       -1.341373702E+03               0
GRID*               3569               01.5317216422E+020.0000000000E+00+
*       -1.346827825E+03               0
GRID*               3570               01.4771804081E+020.0000000000E+00+
*       -1.352281949E+03               0
GRID*               3571               01.4226391740E+020.0000000000E+00+
*       -1.357736073E+03               0
GRID*               3572               01.3680979399E+020.0000000000E+00+
*       -1.363190197E+03               0
GRID*               3573               01.3135567058E+020.0000000000E+00+
*       -1.368644320E+03               0
GRID*               3574               01.2590154717E+020.0000000000E+00+
*       -1.374098444E+03               0
GRID*               3575               01.2044742376E+020.0000000000E+00+
*       -1.379552568E+03               0
GRID*               3576               01.1499330035E+020.0000000000E+00+
*       -1.385006692E+03               0
GRID*               3577               02.9987983893E+020.0000000000E+00+
*       -1.107897627E+03               0
GRID*               3578               02.9952410730E+020.0000000000E+00+
*       -1.115447606E+03               0
GRID*               3579               02.9893197690E+020.0000000000E+00+
*       -1.122982676E+03               0
GRID*               3580               02.9810278190E+020.0000000000E+00+
*       -1.130495383E+03               0
GRID*               3581               02.9703772700E+020.0000000000E+00+
*       -1.137978327E+03               0
GRID*               3582               02.9573824128E+020.0000000000E+00+
*       -1.145424141E+03               0
GRID*               3583               02.9420557459E+020.0000000000E+00+
*       -1.152825474E+03               0
GRID*               3584               02.9244106448E+020.0000000000E+00+
*       -1.160174983E+03               0
GRID*               3585               02.9044657656E+020.0000000000E+00+
*       -1.167465445E+03               0
GRID*               3586               02.8822417299E+020.0000000000E+00+
*       -1.174689690E+03               0
GRID*               3587               02.8577591959E+020.0000000000E+00+
*       -1.181840553E+03               0
GRID*               3588               02.8310415533E+020.0000000000E+00+
*       -1.188910946E+03               0
GRID*               3589               02.8021169059E+020.0000000000E+00+
*       -1.195893959E+03               0
GRID*               3590               02.7710138248E+020.0000000000E+00+
*       -1.202782702E+03               0
GRID*               3591               02.7377613538E+020.0000000000E+00+
*       -1.209570302E+03               0
GRID*               3592               02.7023930385E+020.0000000000E+00+
*       -1.216250094E+03               0
GRID*               3593               02.6649449173E+020.0000000000E+00+
*       -1.222815548E+03               0
GRID*               3594               02.6254530596E+020.0000000000E+00+
*       -1.229260137E+03               0
GRID*               3595               02.5839553725E+020.0000000000E+00+
*       -1.235577431E+03               0
GRID*               3596               02.5404943066E+020.0000000000E+00+
*       -1.241761295E+03               0
GRID*               3597               02.4951129996E+020.0000000000E+00+
*       -1.247805645E+03               0
GRID*               3598               02.4478534267E+020.0000000000E+00+
*       -1.253704259E+03               0
GRID*               3599               02.3987593934E+020.0000000000E+00+
*       -1.259451055E+03               0
GRID*               3600               02.3478883319E+020.0000000000E+00+
*       -1.265041232E+03               0
GRID*               3601               03.0000000000E+020.0000000000E+00+
*       -1.057191459E+03               0
GRID*               3602               03.0000000000E+020.0000000000E+00+
*       -1.064382917E+03               0
GRID*               3603               03.0000000000E+020.0000000000E+00+
*       -1.071574376E+03               0
GRID*               3604               03.0000000000E+020.0000000000E+00+
*       -1.078765834E+03               0
GRID*               3605               03.0000000000E+020.0000000000E+00+
*       -1.085957293E+03               0
GRID*               3606               03.0000000000E+020.0000000000E+00+
*       -1.093148751E+03               0
GRID*               3607               02.8991270665E+020.0000000000E+00+
*       -1.567234619E+03               0
GRID*               3608               03.0063989694E+020.0000000000E+00+
*       -1.559533691E+03               0
GRID*               3609               03.1136708723E+020.0000000000E+00+
*       -1.551832764E+03               0
GRID*               3610               03.2209427752E+020.0000000000E+00+
*       -1.544131836E+03               0
GRID*               3611               03.3282146781E+020.0000000000E+00+
*       -1.536430908E+03               0
GRID*               3612               03.4354865810E+020.0000000000E+00+
*       -1.528729980E+03               0
GRID*               3613               03.5427584839E+020.0000000000E+00+
*       -1.521029053E+03               0
GRID*               3614               03.6500303868E+020.0000000000E+00+
*       -1.513328125E+03               0
GRID*               3615               03.7573022897E+020.0000000000E+00+
*       -1.505627197E+03               0
GRID*               3616               03.8645741926E+020.0000000000E+00+
*       -1.497926270E+03               0
GRID*               3617               03.9718460955E+020.0000000000E+00+
*       -1.490225342E+03               0
GRID*               3618               04.0791179984E+020.0000000000E+00+
*       -1.482524414E+03               0
GRID*               3619               04.1863899013E+020.0000000000E+00+
*       -1.474823486E+03               0
GRID*               3620               04.3998546240E+020.0000000000E+00+
*       -1.459088726E+03               0
GRID*               3621               04.5019216794E+020.0000000000E+00+
*       -1.450536994E+03               0
GRID*               3622               04.5995882602E+020.0000000000E+00+
*       -1.441485853E+03               0
GRID*               3623               04.6926192313E+020.0000000000E+00+
*       -1.431958874E+03               0
GRID*               3624               04.7807809874E+020.0000000000E+00+
*       -1.421979599E+03               0
GRID*               3625               04.8638559010E+020.0000000000E+00+
*       -1.411573035E+03               0
GRID*               3626               04.9416356164E+020.0000000000E+00+
*       -1.400764981E+03               0
GRID*               3627               05.0139277548E+020.0000000000E+00+
*       -1.389582430E+03               0
GRID*               3628               05.0805513944E+020.0000000000E+00+
*       -1.378053173E+03               0
GRID*               3629               05.1413411502E+020.0000000000E+00+
*       -1.366205935E+03               0
GRID*               3630               05.1961456186E+020.0000000000E+00+
*       -1.354070220E+03               0
GRID*               3631               05.2448278960E+020.0000000000E+00+
*       -1.341676216E+03               0
GRID*               3632               05.2872676081E+020.0000000000E+00+
*       -1.329054822E+03               0
GRID*               3633               05.3233575819E+020.0000000000E+00+
*       -1.316237408E+03               0
GRID*               3634               05.3530100946E+020.0000000000E+00+
*       -1.303255953E+03               0
GRID*               3635               05.3761490462E+020.0000000000E+00+
*       -1.290142721E+03               0
GRID*               3636               05.3927191858E+020.0000000000E+00+
*       -1.276930414E+03               0
GRID*               3637               05.4026660786E+020.0000000000E+00+
*       -1.263651877E+03               0
GRID*               3638               05.4059997559E+020.0000000000E+00+
*       -1.236984196E+03               0
GRID*               3639               05.4059997559E+020.0000000000E+00+
*       -1.223628182E+03               0
GRID*               3640               05.4059997559E+020.0000000000E+00+
*       -1.210272168E+03               0
GRID*               3641               05.4059997559E+020.0000000000E+00+
*       -1.196916154E+03               0
GRID*               3642               05.4059997559E+020.0000000000E+00+
*       -1.183560140E+03               0
GRID*               3643               05.4059997559E+020.0000000000E+00+
*       -1.170204126E+03               0
GRID*               3644               05.4059997559E+020.0000000000E+00+
*       -1.156848112E+03               0
GRID*               3645               05.4059997559E+020.0000000000E+00+
*       -1.143492098E+03               0
GRID*               3646               05.4059997559E+020.0000000000E+00+
*       -1.130136084E+03               0
GRID*               3647               05.4059997559E+020.0000000000E+00+
*       -1.116780070E+03               0
GRID*               3648               05.4059997559E+020.0000000000E+00+
*       -1.103424056E+03               0
GRID*               3649               05.4059997559E+020.0000000000E+00+
*       -1.090068042E+03               0
GRID*               3650               05.4059997559E+020.0000000000E+00+
*       -1.076712028E+03               0
GRID*               3651               05.4059997559E+020.0000000000E+00+
*       -1.063356014E+03               0
GRID*               3652               03.0000000000E+020.0000000000E+00+
*       -1.363636364E+01               0
GRID*               3653               03.0000000000E+020.0000000000E+00+
*       -2.727272727E+01               0
GRID*               3654               03.0000000000E+020.0000000000E+00+
*       -4.090909091E+01               0
GRID*               3655               03.0000000000E+020.0000000000E+00+
*       -5.454545455E+01               0
GRID*               3656               03.0000000000E+020.0000000000E+00+
*       -6.818181818E+01               0
GRID*               3657               03.0000000000E+020.0000000000E+00+
*       -8.181818182E+01               0
GRID*               3658               03.0000000000E+020.0000000000E+00+
*       -9.545454545E+01               0
GRID*               3659               03.0000000000E+020.0000000000E+00+
*       -1.090909091E+02               0
GRID*               3660               03.0000000000E+020.0000000000E+00+
*       -1.227272727E+02               0
GRID*               3661               03.0000000000E+020.0000000000E+00+
*       -1.363636364E+02               0
GRID*               3662               03.0000000000E+020.0000000000E+00+
*       -1.500000000E+02               0
GRID*               3663               03.0000000000E+020.0000000000E+00+
*       -1.636363636E+02               0
GRID*               3664               03.0000000000E+020.0000000000E+00+
*       -1.772727273E+02               0
GRID*               3665               03.0000000000E+020.0000000000E+00+
*       -1.909090909E+02               0
GRID*               3666               03.0000000000E+020.0000000000E+00+
*       -2.045454545E+02               0
GRID*               3667               03.0000000000E+020.0000000000E+00+
*       -2.181818182E+02               0
GRID*               3668               03.0000000000E+020.0000000000E+00+
*       -2.318181818E+02               0
GRID*               3669               03.0000000000E+020.0000000000E+00+
*       -2.454545455E+02               0
GRID*               3670               03.0000000000E+020.0000000000E+00+
*       -2.590909091E+02               0
GRID*               3671               03.0000000000E+020.0000000000E+00+
*       -2.727272727E+02               0
GRID*               3672               03.0000000000E+020.0000000000E+00+
*       -2.863636364E+02               0
GRID*               3673               03.0000000000E+020.0000000000E+00+
*       -3.000000000E+02               0
GRID*               3674               03.0000000000E+020.0000000000E+00+
*       -3.136363636E+02               0
GRID*               3675               03.0000000000E+020.0000000000E+00+
*       -3.272727273E+02               0
GRID*               3676               03.0000000000E+020.0000000000E+00+
*       -3.409090909E+02               0
GRID*               3677               03.0000000000E+020.0000000000E+00+
*       -3.545454545E+02               0
GRID*               3678               03.0000000000E+020.0000000000E+00+
*       -3.681818182E+02               0
GRID*               3679               03.0000000000E+020.0000000000E+00+
*       -3.818181818E+02               0
GRID*               3680               03.0000000000E+020.0000000000E+00+
*       -3.954545455E+02               0
GRID*               3681               03.0000000000E+020.0000000000E+00+
*       -4.090909091E+02               0
GRID*               3682               03.0000000000E+020.0000000000E+00+
*       -4.227272727E+02               0
GRID*               3683               03.0000000000E+020.0000000000E+00+
*       -4.363636364E+02               0
GRID*               3684               03.0000000000E+020.0000000000E+00+
*       -4.500000000E+02               0
GRID*               3685               03.0000000000E+020.0000000000E+00+
*       -4.636363636E+02               0
GRID*               3686               03.0000000000E+020.0000000000E+00+
*       -4.772727273E+02               0
GRID*               3687               03.0000000000E+020.0000000000E+00+
*       -4.909090909E+02               0
GRID*               3688               03.0000000000E+020.0000000000E+00+
*       -5.045454545E+02               0
GRID*               3689               03.0000000000E+020.0000000000E+00+
*       -5.181818182E+02               0
GRID*               3690               03.0000000000E+020.0000000000E+00+
*       -5.318181818E+02               0
GRID*               3691               03.0000000000E+020.0000000000E+00+
*       -5.454545455E+02               0
GRID*               3692               03.0000000000E+020.0000000000E+00+
*       -5.590909091E+02               0
GRID*               3693               03.0000000000E+020.0000000000E+00+
*       -5.727272727E+02               0
GRID*               3694               03.0000000000E+020.0000000000E+00+
*       -5.863636364E+02               0
GRID*               3695               03.0000000000E+020.0000000000E+00+
*       -6.000000000E+02               0
GRID*               3696               03.0000000000E+020.0000000000E+00+
*       -6.136363636E+02               0
GRID*               3697               03.0000000000E+020.0000000000E+00+
*       -6.272727273E+02               0
GRID*               3698               03.0000000000E+020.0000000000E+00+
*       -6.409090909E+02               0
GRID*               3699               03.0000000000E+020.0000000000E+00+
*       -6.545454545E+02               0
GRID*               3700               03.0000000000E+020.0000000000E+00+
*       -6.681818182E+02               0
GRID*               3701               03.0000000000E+020.0000000000E+00+
*       -6.818181818E+02               0
GRID*               3702               03.0000000000E+020.0000000000E+00+
*       -6.954545455E+02               0
GRID*               3703               03.0000000000E+020.0000000000E+00+
*       -7.090909091E+02               0
GRID*               3704               03.0000000000E+020.0000000000E+00+
*       -7.227272727E+02               0
GRID*               3705               03.0000000000E+020.0000000000E+00+
*       -7.363636364E+02               0
GRID*               3706               03.0000000000E+020.0000000000E+00+
*       -7.500000000E+02               0
GRID*               3707               03.0000000000E+020.0000000000E+00+
*       -7.636363636E+02               0
GRID*               3708               03.0000000000E+020.0000000000E+00+
*       -7.772727273E+02               0
GRID*               3709               03.0000000000E+020.0000000000E+00+
*       -7.909090909E+02               0
GRID*               3710               03.0000000000E+020.0000000000E+00+
*       -8.045454545E+02               0
GRID*               3711               03.0000000000E+020.0000000000E+00+
*       -8.181818182E+02               0
GRID*               3712               03.0000000000E+020.0000000000E+00+
*       -8.318181818E+02               0
GRID*               3713               03.0000000000E+020.0000000000E+00+
*       -8.454545455E+02               0
GRID*               3714               03.0000000000E+020.0000000000E+00+
*       -8.590909091E+02               0
GRID*               3715               03.0000000000E+020.0000000000E+00+
*       -8.727272727E+02               0
GRID*               3716               03.0000000000E+020.0000000000E+00+
*       -8.863636364E+02               0
GRID*               3717               03.0000000000E+020.0000000000E+00+
*       -9.000000000E+02               0
GRID*               3718               03.0000000000E+020.0000000000E+00+
*       -9.136363636E+02               0
GRID*               3719               03.0000000000E+020.0000000000E+00+
*       -9.272727273E+02               0
GRID*               3720               03.0000000000E+020.0000000000E+00+
*       -9.409090909E+02               0
GRID*               3721               03.0000000000E+020.0000000000E+00+
*       -9.545454545E+02               0
GRID*               3722               03.0000000000E+020.0000000000E+00+
*       -9.681818182E+02               0
GRID*               3723               03.0000000000E+020.0000000000E+00+
*       -9.818181818E+02               0
GRID*               3724               03.0000000000E+020.0000000000E+00+
*       -9.954545455E+02               0
GRID*               3725               03.0000000000E+020.0000000000E+00+
*       -1.009090909E+03               0
GRID*               3726               03.0000000000E+020.0000000000E+00+
*       -1.022727273E+03               0
GRID*               3727               03.0000000000E+020.0000000000E+00+
*       -1.036363636E+03               0
GRID*               3728               03.1336666531E+020.0000000000E+00+
*       -1.050000000E+03               0
GRID*               3729               03.2673333062E+020.0000000000E+00+
*       -1.050000000E+03               0
GRID*               3730               03.4009999593E+020.0000000000E+00+
*       -1.050000000E+03               0
GRID*               3731               03.5346666124E+020.0000000000E+00+
*       -1.050000000E+03               0
GRID*               3732               03.6683332655E+020.0000000000E+00+
*       -1.050000000E+03               0
GRID*               3733               03.8019999186E+020.0000000000E+00+
*       -1.050000000E+03               0
GRID*               3734               03.9356665717E+020.0000000000E+00+
*       -1.050000000E+03               0
GRID*               3735               04.0693332248E+020.0000000000E+00+
*       -1.050000000E+03               0
GRID*               3736               04.2029998779E+020.0000000000E+00+
*       -1.050000000E+03               0
GRID*               3737               04.3366665310E+020.0000000000E+00+
*       -1.050000000E+03               0
GRID*               3738               04.4703331841E+020.0000000000E+00+
*       -1.050000000E+03               0
GRID*               3739               04.6039998372E+020.0000000000E+00+
*       -1.050000000E+03               0
GRID*               3740               04.7376664903E+020.0000000000E+00+
*       -1.050000000E+03               0
GRID*               3741               04.8713331434E+020.0000000000E+00+
*       -1.050000000E+03               0
GRID*               3742               05.0049997965E+020.0000000000E+00+
*       -1.050000000E+03               0
GRID*               3743               05.1386664497E+020.0000000000E+00+
*       -1.050000000E+03               0
GRID*               3744               05.2723331028E+020.0000000000E+00+
*       -1.050000000E+03               0
GRID*               3745               05.4059997559E+020.0000000000E+00+
*       -1.036363636E+03               0
GRID*               3746               05.4059997559E+020.0000000000E+00+
*       -1.022727273E+03               0
GRID*               3747               05.4059997559E+020.0000000000E+00+
*       -1.009090909E+03               0
GRID*               3748               05.4059997559E+020.0000000000E+00+
*       -9.954545455E+02               0
GRID*               3749               05.4059997559E+020.0000000000E+00+
*       -9.818181818E+02               0
GRID*               3750               05.4059997559E+020.0000000000E+00+
*       -9.681818182E+02               0
GRID*               3751               05.4059997559E+020.0000000000E+00+
*       -9.545454545E+02               0
GRID*               3752               05.4059997559E+020.0000000000E+00+
*       -9.409090909E+02               0
GRID*               3753               05.4059997559E+020.0000000000E+00+
*       -9.272727273E+02               0
GRID*               3754               05.4059997559E+020.0000000000E+00+
*       -9.136363636E+02               0
GRID*               3755               05.4059997559E+020.0000000000E+00+
*       -9.000000000E+02               0
GRID*               3756               05.4059997559E+020.0000000000E+00+
*       -8.863636364E+02               0
GRID*               3757               05.4059997559E+020.0000000000E+00+
*       -8.727272727E+02               0
GRID*               3758               05.4059997559E+020.0000000000E+00+
*       -8.590909091E+02               0
GRID*               3759               05.4059997559E+020.0000000000E+00+
*       -8.454545455E+02               0
GRID*               3760               05.4059997559E+020.0000000000E+00+
*       -8.318181818E+02               0
GRID*               3761               05.4059997559E+020.0000000000E+00+
*       -8.181818182E+02               0
GRID*               3762               05.4059997559E+020.0000000000E+00+
*       -8.045454545E+02               0
GRID*               3763               05.4059997559E+020.0000000000E+00+
*       -7.909090909E+02               0
GRID*               3764               05.4059997559E+020.0000000000E+00+
*       -7.772727273E+02               0
GRID*               3765               05.4059997559E+020.0000000000E+00+
*       -7.636363636E+02               0
GRID*               3766               05.4059997559E+020.0000000000E+00+
*       -7.500000000E+02               0
GRID*               3767               05.4059997559E+020.0000000000E+00+
*       -7.363636364E+02               0
GRID*               3768               05.4059997559E+020.0000000000E+00+
*       -7.227272727E+02               0
GRID*               3769               05.4059997559E+020.0000000000E+00+
*       -7.090909091E+02               0
GRID*               3770               05.4059997559E+020.0000000000E+00+
*       -6.954545455E+02               0
GRID*               3771               05.4059997559E+020.0000000000E+00+
*       -6.818181818E+02               0
GRID*               3772               05.4059997559E+020.0000000000E+00+
*       -6.681818182E+02               0
GRID*               3773               05.4059997559E+020.0000000000E+00+
*       -6.545454545E+02               0
GRID*               3774               05.4059997559E+020.0000000000E+00+
*       -6.409090909E+02               0
GRID*               3775               05.4059997559E+020.0000000000E+00+
*       -6.272727273E+02               0
GRID*               3776               05.4059997559E+020.0000000000E+00+
*       -6.136363636E+02               0
GRID*               3777               05.4059997559E+020.0000000000E+00+
*       -6.000000000E+02               0
GRID*               3778               05.4059997559E+020.0000000000E+00+
*       -5.863636364E+02               0
GRID*               3779               05.4059997559E+020.0000000000E+00+
*       -5.727272727E+02               0
GRID*               3780               05.4059997559E+020.0000000000E+00+
*       -5.590909091E+02               0
GRID*               3781               05.4059997559E+020.0000000000E+00+
*       -5.454545455E+02               0
GRID*               3782               05.4059997559E+020.0000000000E+00+
*       -5.318181818E+02               0
GRID*               3783               05.4059997559E+020.0000000000E+00+
*       -5.181818182E+02               0
GRID*               3784               05.4059997559E+020.0000000000E+00+
*       -5.045454545E+02               0
GRID*               3785               05.4059997559E+020.0000000000E+00+
*       -4.909090909E+02               0
GRID*               3786               05.4059997559E+020.0000000000E+00+
*       -4.772727273E+02               0
GRID*               3787               05.4059997559E+020.0000000000E+00+
*       -4.636363636E+02               0
GRID*               3788               05.4059997559E+020.0000000000E+00+
*       -4.500000000E+02               0
GRID*               3789               05.4059997559E+020.0000000000E+00+
*       -4.363636364E+02               0
GRID*               3790               05.4059997559E+020.0000000000E+00+
*       -4.227272727E+02               0
GRID*               3791               05.4059997559E+020.0000000000E+00+
*       -4.090909091E+02               0
GRID*               3792               05.4059997559E+020.0000000000E+00+
*       -3.954545455E+02               0
GRID*               3793               05.4059997559E+020.0000000000E+00+
*       -3.818181818E+02               0
GRID*               3794               05.4059997559E+020.0000000000E+00+
*       -3.681818182E+02               0
GRID*               3795               05.4059997559E+020.0000000000E+00+
*       -3.545454545E+02               0
GRID*               3796               05.4059997559E+020.0000000000E+00+
*       -3.409090909E+02               0
GRID*               3797               05.4059997559E+020.0000000000E+00+
*       -3.272727273E+02               0
GRID*               3798               05.4059997559E+020.0000000000E+00+
*       -3.136363636E+02               0
GRID*               3799               05.4059997559E+020.0000000000E+00+
*       -3.000000000E+02               0
GRID*               3800               05.4059997559E+020.0000000000E+00+
*       -2.863636364E+02               0
GRID*               3801               05.4059997559E+020.0000000000E+00+
*       -2.727272727E+02               0
GRID*               3802               05.4059997559E+020.0000000000E+00+
*       -2.590909091E+02               0
GRID*               3803               05.4059997559E+020.0000000000E+00+
*       -2.454545455E+02               0
GRID*               3804               05.4059997559E+020.0000000000E+00+
*       -2.318181818E+02               0
GRID*               3805               05.4059997559E+020.0000000000E+00+
*       -2.181818182E+02               0
GRID*               3806               05.4059997559E+020.0000000000E+00+
*       -2.045454545E+02               0
GRID*               3807               05.4059997559E+020.0000000000E+00+
*       -1.909090909E+02               0
GRID*               3808               05.4059997559E+020.0000000000E+00+
*       -1.772727273E+02               0
GRID*               3809               05.4059997559E+020.0000000000E+00+
*       -1.636363636E+02               0
GRID*               3810               05.4059997559E+020.0000000000E+00+
*       -1.500000000E+02               0
GRID*               3811               05.4059997559E+020.0000000000E+00+
*       -1.363636364E+02               0
GRID*               3812               05.4059997559E+020.0000000000E+00+
*       -1.227272727E+02               0
GRID*               3813               05.4059997559E+020.0000000000E+00+
*       -1.090909091E+02               0
GRID*               3814               05.4059997559E+020.0000000000E+00+
*       -9.545454545E+01               0
GRID*               3815               05.4059997559E+020.0000000000E+00+
*       -8.181818182E+01               0
GRID*               3816               05.4059997559E+020.0000000000E+00+
*       -6.818181818E+01               0
GRID*               3817               05.4059997559E+020.0000000000E+00+
*       -5.454545455E+01               0
GRID*               3818               05.4059997559E+020.0000000000E+00+
*       -4.090909091E+01               0
GRID*               3819               05.4059997559E+020.0000000000E+00+
*       -2.727272727E+01               0
GRID*               3820               05.4059997559E+020.0000000000E+00+
*       -1.363636364E+01               0
GRID*               3821               05.2706665039E+020.0000000000E+00+
*       0.0000000000E+00               0
GRID*               3822               05.1353332520E+020.0000000000E+00+
*       0.0000000000E+00               0
GRID*               3823               04.8666666667E+020.0000000000E+00+
*       0.0000000000E+00               0
GRID*               3824               04.7333333333E+020.0000000000E+00+
*       0.0000000000E+00               0
GRID*               3825               04.6000000000E+020.0000000000E+00+
*       0.0000000000E+00               0
GRID*               3826               04.4666666667E+020.0000000000E+00+
*       0.0000000000E+00               0
GRID*               3827               04.3333333333E+020.0000000000E+00+
*       0.0000000000E+00               0
GRID*               3828               04.2000000000E+020.0000000000E+00+
*       0.0000000000E+00               0
GRID*               3829               04.0666666667E+020.0000000000E+00+
*       0.0000000000E+00               0
GRID*               3830               03.9333333333E+020.0000000000E+00+
*       0.0000000000E+00               0
GRID*               3831               03.8000000000E+020.0000000000E+00+
*       0.0000000000E+00               0
GRID*               3832               03.6666666667E+020.0000000000E+00+
*       0.0000000000E+00               0
GRID*               3833               03.5333333333E+020.0000000000E+00+
*       0.0000000000E+00               0
GRID*               3834               03.4000000000E+020.0000000000E+00+
*       0.0000000000E+00               0
GRID*               3835               03.2666666667E+020.0000000000E+00+
*       0.0000000000E+00               0
GRID*               3836               03.1333333333E+020.0000000000E+00+
*       0.0000000000E+00               0
GRID*               3837               09.9999994040E-020.0000000000E+00+
*       5.2723330858E+02               0
GRID*               3838               09.9999994040E-020.0000000000E+00+
*       5.1386664157E+02               0
GRID*               3839               09.9999994040E-020.0000000000E+00+
*       5.0049997457E+02               0
GRID*               3840               09.9999994040E-020.0000000000E+00+
*       4.8713330756E+02               0
GRID*               3841               09.9999994040E-020.0000000000E+00+
*       4.7376664056E+02               0
GRID*               3842               09.9999994040E-020.0000000000E+00+
*       4.6039997355E+02               0
GRID*               3843               09.9999994040E-020.0000000000E+00+
*       4.4703330655E+02               0
GRID*               3844               09.9999994040E-020.0000000000E+00+
*       4.3366663954E+02               0
GRID*               3845               09.9999994040E-020.0000000000E+00+
*       4.2029997253E+02               0
GRID*               3846               09.9999994040E-020.0000000000E+00+
*       4.0693330553E+02               0
GRID*               3847               09.9999994040E-020.0000000000E+00+
*       3.9356663852E+02               0
GRID*               3848               09.9999994040E-020.0000000000E+00+
*       3.8019997152E+02               0
GRID*               3849               09.9999994040E-020.0000000000E+00+
*       3.6683330451E+02               0
GRID*               3850               09.9999994040E-020.0000000000E+00+
*       3.5346663751E+02               0
GRID*               3851               09.9999994040E-020.0000000000E+00+
*       3.4009997050E+02               0
GRID*               3852               09.9999994040E-020.0000000000E+00+
*       3.2673330349E+02               0
GRID*               3853               09.9999994040E-020.0000000000E+00+
*       3.1336663649E+02               0
GRID*               3854               07.6981617332E+000.0000000000E+00+
*       2.9990017292E+02               0
GRID*               3855               01.5291396334E+010.0000000000E+00+
*       2.9960911108E+02               0
GRID*               3856               02.2874823206E+010.0000000000E+00+
*       2.9912631088E+02               0
GRID*               3857               03.0443563687E+010.0000000000E+00+
*       2.9845130670E+02               0
GRID*               3858               03.7992769267E+010.0000000000E+00+
*       2.9758446863E+02               0
GRID*               3859               04.5517603323E+010.0000000000E+00+
*       2.9652673420E+02               0
GRID*               3860               05.3013243915E+010.0000000000E+00+
*       2.9527881836E+02               0
GRID*               3861               06.0474868982E+010.0000000000E+00+
*       2.9384143734E+02               0
GRID*               3862               06.7897678518E+010.0000000000E+00+
*       2.9221545753E+02               0
GRID*               3863               07.5276934961E+010.0000000000E+00+
*       2.9040203411E+02               0
GRID*               3864               08.2607910649E+010.0000000000E+00+
*       2.8840235507E+02               0
GRID*               3865               08.9885878416E+010.0000000000E+00+
*       2.8621761266E+02               0
GRID*               3866               09.7106159043E+010.0000000000E+00+
*       2.8384918194E+02               0
GRID*               3867               01.0426415468E+020.0000000000E+00+
*       2.8129868594E+02               0
GRID*               3868               01.1135527508E+020.0000000000E+00+
*       2.7856776534E+02               0
GRID*               3869               01.1837493242E+020.0000000000E+00+
*       2.7565807064E+02               0
GRID*               3870               01.2531862078E+020.0000000000E+00+
*       2.7257146937E+02               0
GRID*               3871               01.3218193020E+020.0000000000E+00+
*       2.6931004097E+02               0
GRID*               3872               01.3896045597E+020.0000000000E+00+
*       2.6587587367E+02               0
GRID*               3873               01.4564980038E+020.0000000000E+00+
*       2.6227107337E+02               0
GRID*               3874               01.5224568341E+020.0000000000E+00+
*       2.5849797821E+02               0
GRID*               3875               01.5874392093E+020.0000000000E+00+
*       2.5455909020E+02               0
GRID*               3876               01.6514033154E+020.0000000000E+00+
*       2.5045691481E+02               0
GRID*               3877               01.7143075019E+020.0000000000E+00+
*       2.4619398784E+02               0
GRID*               3878               01.7761117162E+020.0000000000E+00+
*       2.4177309274E+02               0
GRID*               3879               01.8367768018E+020.0000000000E+00+
*       2.3719713348E+02               0
GRID*               3880               01.8962636122E+020.0000000000E+00+
*       2.3246901480E+02               0
GRID*               3881               01.9545333073E+020.0000000000E+00+
*       2.2759168561E+02               0
GRID*               3882               02.0115490028E+020.0000000000E+00+
*       2.2256833710E+02               0
GRID*               3883               02.0672745790E+020.0000000000E+00+
*       2.1740224294E+02               0
GRID*               3884               02.1216739178E+020.0000000000E+00+
*       2.1209667683E+02               0
GRID*               3885               02.1747114213E+020.0000000000E+00+
*       2.0665497271E+02               0
GRID*               3886               02.2263537603E+020.0000000000E+00+
*       2.0108069115E+02               0
GRID*               3887               02.2765682188E+020.0000000000E+00+
*       1.9537744583E+02               0
GRID*               3888               02.3253220813E+020.0000000000E+00+
*       1.8954885057E+02               0
GRID*               3889               02.3725834516E+020.0000000000E+00+
*       1.8359859503E+02               0
GRID*               3890               02.4183228484E+020.0000000000E+00+
*       1.7753056366E+02               0
GRID*               3891               02.4625112315E+020.0000000000E+00+
*       1.7134867158E+02               0
GRID*               3892               02.5051195700E+020.0000000000E+00+
*       1.6505683498E+02               0
GRID*               3893               02.5461200607E+020.0000000000E+00+
*       1.5865906101E+02               0
GRID*               3894               02.5854873446E+020.0000000000E+00+
*       1.5215951483E+02               0
GRID*               3895               02.6231963521E+020.0000000000E+00+
*       1.4556237705E+02               0
GRID*               3896               02.6592220465E+020.0000000000E+00+
*       1.3887183101E+02               0
GRID*               3897               02.6935410410E+020.0000000000E+00+
*       1.3209215700E+02               0
GRID*               3898               02.7261323344E+020.0000000000E+00+
*       1.2522775557E+02               0
GRID*               3899               02.7569751119E+020.0000000000E+00+
*       1.1828303461E+02               0
GRID*               3900               02.7860486431E+020.0000000000E+00+
*       1.1126240703E+02               0
GRID*               3901               02.8133342641E+020.0000000000E+00+
*       1.0417037865E+02               0
GRID*               3902               02.8388154432E+020.0000000000E+00+
*       9.7011536149E+01               0
GRID*               3903               02.8624757463E+020.0000000000E+00+
*       8.9790468763E+01               0
GRID*               3904               02.8842989243E+020.0000000000E+00+
*       8.2511773661E+01               0
GRID*               3905               02.9042712575E+020.0000000000E+00+
*       7.5180131331E+01               0
GRID*               3906               02.9223808605E+020.0000000000E+00+
*       6.7800269980E+01               0
GRID*               3907               02.9386158893E+020.0000000000E+00+
*       6.0376918203E+01               0
GRID*               3908               02.9529648199E+020.0000000000E+00+
*       5.2914814283E+01               0
GRID*               3909               02.9654189941E+020.0000000000E+00+
*       4.5418758169E+01               0
GRID*               3910               02.9759712613E+020.0000000000E+00+
*       3.7893572059E+01               0
GRID*               3911               02.9846144846E+020.0000000000E+00+
*       3.0344078058E+01               0
GRID*               3912               02.9913393033E+020.0000000000E+00+
*       2.2775113058E+01               0
GRID*               3913               02.9961420346E+020.0000000000E+00+
*       1.5191525727E+01               0
GRID*               3914               02.9990273513E+020.0000000000E+00+
*       7.5981945654E+00               0
GRID*               3915               05.4042588580E+020.0000000000E+00+
*       1.3693249985E+01               0
GRID*               3916               05.3990598660E+020.0000000000E+00+
*       2.7377720379E+01               0
GRID*               3917               05.3903962482E+020.0000000000E+00+
*       4.1044617773E+01               0
GRID*               3918               05.3782698342E+020.0000000000E+00+
*       5.4685172489E+01               0
GRID*               3919               05.3626925398E+020.0000000000E+00+
*       6.8290639578E+01               0
GRID*               3920               05.3436743064E+020.0000000000E+00+
*       8.1852287953E+01               0
GRID*               3921               05.3212264279E+020.0000000000E+00+
*       9.5361402038E+01               0
GRID*               3922               05.2953644037E+020.0000000000E+00+
*       1.0880933161E+02               0
GRID*               3923               05.2661045515E+020.0000000000E+00+
*       1.2218744219E+02               0
GRID*               3924               05.2334647974E+020.0000000000E+00+
*       1.3548713017E+02               0
GRID*               3925               05.1974672261E+020.0000000000E+00+
*       1.4869988921E+02               0
GRID*               3926               05.1581345931E+020.0000000000E+00+
*       1.6181723165E+02               0
GRID*               3927               05.1154914063E+020.0000000000E+00+
*       1.7483071789E+02               0
GRID*               3928               05.0695661282E+020.0000000000E+00+
*       1.8773203334E+02               0
GRID*               3929               05.0203877789E+020.0000000000E+00+
*       2.0051288352E+02               0
GRID*               3930               04.9679872976E+020.0000000000E+00+
*       2.1316504283E+02               0
GRID*               3931               04.9123993751E+020.0000000000E+00+
*       2.2568043657E+02               0
GRID*               3932               04.8536591606E+020.0000000000E+00+
*       2.3805101066E+02               0
GRID*               3933               04.7918038370E+020.0000000000E+00+
*       2.5026880212E+02               0
GRID*               3934               04.7268741317E+020.0000000000E+00+
*       2.6232602341E+02               0
GRID*               3935               04.6589111655E+020.0000000000E+00+
*       2.7421490831E+02               0
GRID*               3936               04.5879581752E+020.0000000000E+00+
*       2.8592780607E+02               0
GRID*               3937               04.5140616133E+020.0000000000E+00+
*       2.9745725664E+02               0
GRID*               3938               04.4372682571E+020.0000000000E+00+
*       3.0879582067E+02               0
GRID*               3939               04.3576271248E+020.0000000000E+00+
*       3.1993620412E+02               0
GRID*               3940               04.2751901967E+020.0000000000E+00+
*       3.3087132086E+02               0
GRID*               3941               04.1900097260E+020.0000000000E+00+
*       3.4159410521E+02               0
GRID*               3942               04.1021402166E+020.0000000000E+00+
*       3.5209766346E+02               0
GRID*               3943               04.0116388490E+020.0000000000E+00+
*       3.6237532234E+02               0
GRID*               3944               03.9185630550E+020.0000000000E+00+
*       3.7242043049E+02               0
GRID*               3945               03.8229725238E+020.0000000000E+00+
*       3.8222653839E+02               0
GRID*               3946               03.7249292311E+020.0000000000E+00+
*       3.9178741551E+02               0
GRID*               3947               03.6244953729E+020.0000000000E+00+
*       4.0109685315E+02               0
GRID*               3948               03.5217354478E+020.0000000000E+00+
*       4.1014888183E+02               0
GRID*               3949               03.4167160332E+020.0000000000E+00+
*       4.1893776531E+02               0
GRID*               3950               03.3095039124E+020.0000000000E+00+
*       4.2745779134E+02               0
GRID*               3951               03.2001679931E+020.0000000000E+00+
*       4.3570350636E+02               0
GRID*               3952               03.0887789012E+020.0000000000E+00+
*       4.4366968128E+02               0
GRID*               3953               02.9754074756E+020.0000000000E+00+
*       4.5135111524E+02               0
GRID*               3954               02.8601266528E+020.0000000000E+00+
*       4.5874290581E+02               0
GRID*               3955               02.7430108160E+020.0000000000E+00+
*       4.6584037364E+02               0
GRID*               3956               02.6241345572E+020.0000000000E+00+
*       4.7263887232E+02               0
GRID*               3957               02.5035743786E+020.0000000000E+00+
*       4.7913407716E+02               0
GRID*               3958               02.3814079202E+020.0000000000E+00+
*       4.8532187180E+02               0
GRID*               3959               02.2577130349E+020.0000000000E+00+
*       4.9119817870E+02               0
GRID*               3960               02.1325693515E+020.0000000000E+00+
*       4.9675927890E+02               0
GRID*               3961               02.0060574311E+020.0000000000E+00+
*       5.0200166215E+02               0
GRID*               3962               01.8782580366E+020.0000000000E+00+
*       5.0692186356E+02               0
GRID*               3963               01.7492534060E+020.0000000000E+00+
*       5.1151678535E+02               0
GRID*               3964               01.6191264525E+020.0000000000E+00+
*       5.1578351648E+02               0
GRID*               3965               01.4879602959E+020.0000000000E+00+
*       5.1971920223E+02               0
GRID*               3966               01.3558393411E+020.0000000000E+00+
*       5.2332139380E+02               0
GRID*               3967               01.2228484879E+020.0000000000E+00+
*       5.2658782447E+02               0
GRID*               3968               01.0890728158E+020.0000000000E+00+
*       5.2951629400E+02               0
GRID*               3969               09.5459834046E+010.0000000000E+00+
*       5.3210500214E+02               0
GRID*               3970               08.1951137399E+010.0000000000E+00+
*       5.3435229936E+02               0
GRID*               3971               06.8389839869E+010.0000000000E+00+
*       5.3625662105E+02               0
GRID*               3972               05.4784658750E+010.0000000000E+00+
*       5.3781684589E+02               0
GRID*               3973               04.1144327110E+010.0000000000E+00+
*       5.3903199715E+02               0
GRID*               3974               02.7477590508E+010.0000000000E+00+
*       5.3990088952E+02               0
GRID*               3975               01.3793217119E+010.0000000000E+00+
*       5.4042333185E+02               0
GRID*               3976               09.9999994040E-020.0000000000E+00+
*       -1.437281006E+03               0
GRID*               3977               09.9999994040E-020.0000000000E+00+
*       -1.621332886E+03               0
GRID*               3978               01.0953917694E+020.0000000000E+00+
*       -1.390460815E+03               0
GRID*               3979               02.7918551636E+020.0000000000E+00+
*       -1.574935547E+03               0
GRID*               3980               02.2952989197E+020.0000000000E+00+
*       -1.270470093E+03               0
GRID*               3981               03.0000000000E+020.0000000000E+00+
*       -1.100340210E+03               0
GRID*               3982               04.2936618042E+020.0000000000E+00+
*       -1.467122559E+03               0
GRID*               3983               05.4059997559E+020.0000000000E+00+
*       -1.250340210E+03               0
GRID*               3984               03.0000000000E+020.0000000000E+00+
*       0.0000000000E+00               0
GRID*               3985               03.0000000000E+020.0000000000E+00+
*       -1.050000000E+03               0
GRID*               3986               05.4059997559E+020.0000000000E+00+
*       -1.050000000E+03               0
GRID*               3987               05.4059997559E+020.0000000000E+00+
*       0.0000000000E+00               0
GRID*               3988               05.0000000000E+020.0000000000E+00+
*       0.0000000000E+00               0
GRID*               3989               09.9999994040E-020.0000000000E+00+
*       5.4059997559E+02               0
GRID*               3990               09.9999994040E-020.0000000000E+00+
*       2.9999996948E+02               0
$*
$* ELEMENT CARDS
$*
$*  Mesh Collector: Solid Axisymmetric ZX Collector(1)
$*  Mesh: 2d_mapped_mesh(1)
CQUADX4        1       1       1      77      78       2
CQUADX4        2       1       2      78      79       3
CQUADX4        3       1       3      79      80       4
CQUADX4        4       1       4      80      81       5
CQUADX4        5       1       5      81      82       6
CQUADX4        6       1       6      82      83       7
CQUADX4        7       1       7      83      84       8
CQUADX4        8       1       8      84      85       9
CQUADX4        9       1       9      85      86      10
CQUADX4       10       1      10      86      87      11
CQUADX4       11       1      11      87      88      12
CQUADX4       12       1      12      88      89      13
CQUADX4       13       1      13      89      90      14
CQUADX4       14       1      14      90      91      15
CQUADX4       15       1      15      91      92      16
CQUADX4       16       1      16      92      93      17
CQUADX4       17       1      17      93      94      18
CQUADX4       18       1      18      94      95      19
CQUADX4       19       1      19      95      96      20
CQUADX4       20       1      20      96      97      21
CQUADX4       21       1      21      97      98      22
CQUADX4       22       1      22      98      99      23
CQUADX4       23       1      23      99     100      24
CQUADX4       24       1      24     100     101      25
CQUADX4       25       1      25     101     102      26
CQUADX4       26       1      26     102     103      27
CQUADX4       27       1      27     103     104      28
CQUADX4       28       1      28     104     105      29
CQUADX4       29       1      29     105     106      30
CQUADX4       30       1      30     106     107      31
CQUADX4       31       1      31     107     108      32
CQUADX4       32       1      32     108     109      33
CQUADX4       33       1      33     109     110      34
CQUADX4       34       1      34     110     111      35
CQUADX4       35       1      35     111     112      36
CQUADX4       36       1      36     112     113      37
CQUADX4       37       1      37     113     114      38
CQUADX4       38       1      38     114     115      39
CQUADX4       39       1      39     115     116      40
CQUADX4       40       1      40     116     117      41
CQUADX4       41       1      41     117     118      42
CQUADX4       42       1      42     118     119      43
CQUADX4       43       1      43     119     120      44
CQUADX4       44       1      44     120     121      45
CQUADX4       45       1      45     121     122      46
CQUADX4       46       1      46     122     123      47
CQUADX4       47       1      47     123     124      48
CQUADX4       48       1      48     124     125      49
CQUADX4       49       1      49     125     126      50
CQUADX4       50       1      50     126     127      51
CQUADX4       51       1      51     127     128      52
CQUADX4       52       1      52     128     129      53
CQUADX4       53       1      53     129     130      54
CQUADX4       54       1      54     130     131      55
CQUADX4       55       1      55     131     132      56
CQUADX4       56       1      56     132     133      57
CQUADX4       57       1      57     133     134      58
CQUADX4       58       1      58     134     135      59
CQUADX4       59       1      59     135     136      60
CQUADX4       60       1      60     136     137      61
CQUADX4       61       1      61     137     138      62
CQUADX4       62       1      62     138     139      63
CQUADX4       63       1      63     139     140      64
CQUADX4       64       1      64     140     141      65
CQUADX4       65       1      65     141     142      66
CQUADX4       66       1      66     142     143      67
CQUADX4       67       1      67     143     144      68
CQUADX4       68       1      68     144     145      69
CQUADX4       69       1      69     145     146      70
CQUADX4       70       1      70     146     147      71
CQUADX4       71       1      71     147     148      72
CQUADX4       72       1      72     148     149      73
CQUADX4       73       1      73     149     150      74
CQUADX4       74       1      74     150     151      75
CQUADX4       75       1      75     151     152      76
CQUADX4       76       1      77     153     154      78
CQUADX4       77       1      78     154     155      79
CQUADX4       78       1      79     155     156      80
CQUADX4       79       1      80     156     157      81
CQUADX4       80       1      81     157     158      82
CQUADX4       81       1      82     158     159      83
CQUADX4       82       1      83     159     160      84
CQUADX4       83       1      84     160     161      85
CQUADX4       84       1      85     161     162      86
CQUADX4       85       1      86     162     163      87
CQUADX4       86       1      87     163     164      88
CQUADX4       87       1      88     164     165      89
CQUADX4       88       1      89     165     166      90
CQUADX4       89       1      90     166     167      91
CQUADX4       90       1      91     167     168      92
CQUADX4       91       1      92     168     169      93
CQUADX4       92       1      93     169     170      94
CQUADX4       93       1      94     170     171      95
CQUADX4       94       1      95     171     172      96
CQUADX4       95       1      96     172     173      97
CQUADX4       96       1      97     173     174      98
CQUADX4       97       1      98     174     175      99
CQUADX4       98       1      99     175     176     100
CQUADX4       99       1     100     176     177     101
CQUADX4      100       1     101     177     178     102
CQUADX4      101       1     102     178     179     103
CQUADX4      102       1     103     179     180     104
CQUADX4      103       1     104     180     181     105
CQUADX4      104       1     105     181     182     106
CQUADX4      105       1     106     182     183     107
CQUADX4      106       1     107     183     184     108
CQUADX4      107       1     108     184     185     109
CQUADX4      108       1     109     185     186     110
CQUADX4      109       1     110     186     187     111
CQUADX4      110       1     111     187     188     112
CQUADX4      111       1     112     188     189     113
CQUADX4      112       1     113     189     190     114
CQUADX4      113       1     114     190     191     115
CQUADX4      114       1     115     191     192     116
CQUADX4      115       1     116     192     193     117
CQUADX4      116       1     117     193     194     118
CQUADX4      117       1     118     194     195     119
CQUADX4      118       1     119     195     196     120
CQUADX4      119       1     120     196     197     121
CQUADX4      120       1     121     197     198     122
CQUADX4      121       1     122     198     199     123
CQUADX4      122       1     123     199     200     124
CQUADX4      123       1     124     200     201     125
CQUADX4      124       1     125     201     202     126
CQUADX4      125       1     126     202     203     127
CQUADX4      126       1     127     203     204     128
CQUADX4      127       1     128     204     205     129
CQUADX4      128       1     129     205     206     130
CQUADX4      129       1     130     206     207     131
CQUADX4      130       1     131     207     208     132
CQUADX4      131       1     132     208     209     133
CQUADX4      132       1     133     209     210     134
CQUADX4      133       1     134     210     211     135
CQUADX4      134       1     135     211     212     136
CQUADX4      135       1     136     212     213     137
CQUADX4      136       1     137     213     214     138
CQUADX4      137       1     138     214     215     139
CQUADX4      138       1     139     215     216     140
CQUADX4      139       1     140     216     217     141
CQUADX4      140       1     141     217     218     142
CQUADX4      141       1     142     218     219     143
CQUADX4      142       1     143     219     220     144
CQUADX4      143       1     144     220     221     145
CQUADX4      144       1     145     221     222     146
CQUADX4      145       1     146     222     223     147
CQUADX4      146       1     147     223     224     148
CQUADX4      147       1     148     224     225     149
CQUADX4      148       1     149     225     226     150
CQUADX4      149       1     150     226     227     151
CQUADX4      150       1     151     227     228     152
CQUADX4      151       1     153     229     230     154
CQUADX4      152       1     154     230     231     155
CQUADX4      153       1     155     231     232     156
CQUADX4      154       1     156     232     233     157
CQUADX4      155       1     157     233     234     158
CQUADX4      156       1     158     234     235     159
CQUADX4      157       1     159     235     236     160
CQUADX4      158       1     160     236     237     161
CQUADX4      159       1     161     237     238     162
CQUADX4      160       1     162     238     239     163
CQUADX4      161       1     163     239     240     164
CQUADX4      162       1     164     240     241     165
CQUADX4      163       1     165     241     242     166
CQUADX4      164       1     166     242     243     167
CQUADX4      165       1     167     243     244     168
CQUADX4      166       1     168     244     245     169
CQUADX4      167       1     169     245     246     170
CQUADX4      168       1     170     246     247     171
CQUADX4      169       1     171     247     248     172
CQUADX4      170       1     172     248     249     173
CQUADX4      171       1     173     249     250     174
CQUADX4      172       1     174     250     251     175
CQUADX4      173       1     175     251     252     176
CQUADX4      174       1     176     252     253     177
CQUADX4      175       1     177     253     254     178
CQUADX4      176       1     178     254     255     179
CQUADX4      177       1     179     255     256     180
CQUADX4      178       1     180     256     257     181
CQUADX4      179       1     181     257     258     182
CQUADX4      180       1     182     258     259     183
CQUADX4      181       1     183     259     260     184
CQUADX4      182       1     184     260     261     185
CQUADX4      183       1     185     261     262     186
CQUADX4      184       1     186     262     263     187
CQUADX4      185       1     187     263     264     188
CQUADX4      186       1     188     264     265     189
CQUADX4      187       1     189     265     266     190
CQUADX4      188       1     190     266     267     191
CQUADX4      189       1     191     267     268     192
CQUADX4      190       1     192     268     269     193
CQUADX4      191       1     193     269     270     194
CQUADX4      192       1     194     270     271     195
CQUADX4      193       1     195     271     272     196
CQUADX4      194       1     196     272     273     197
CQUADX4      195       1     197     273     274     198
CQUADX4      196       1     198     274     275     199
CQUADX4      197       1     199     275     276     200
CQUADX4      198       1     200     276     277     201
CQUADX4      199       1     201     277     278     202
CQUADX4      200       1     202     278     279     203
CQUADX4      201       1     203     279     280     204
CQUADX4      202       1     204     280     281     205
CQUADX4      203       1     205     281     282     206
CQUADX4      204       1     206     282     283     207
CQUADX4      205       1     207     283     284     208
CQUADX4      206       1     208     284     285     209
CQUADX4      207       1     209     285     286     210
CQUADX4      208       1     210     286     287     211
CQUADX4      209       1     211     287     288     212
CQUADX4      210       1     212     288     289     213
CQUADX4      211       1     213     289     290     214
CQUADX4      212       1     214     290     291     215
CQUADX4      213       1     215     291     292     216
CQUADX4      214       1     216     292     293     217
CQUADX4      215       1     217     293     294     218
CQUADX4      216       1     218     294     295     219
CQUADX4      217       1     219     295     296     220
CQUADX4      218       1     220     296     297     221
CQUADX4      219       1     221     297     298     222
CQUADX4      220       1     222     298     299     223
CQUADX4      221       1     223     299     300     224
CQUADX4      222       1     224     300     301     225
CQUADX4      223       1     225     301     302     226
CQUADX4      224       1     226     302     303     227
CQUADX4      225       1     227     303     304     228
CQUADX4      226       1     229     305     306     230
CQUADX4      227       1     230     306     307     231
CQUADX4      228       1     231     307     308     232
CQUADX4      229       1     232     308     309     233
CQUADX4      230       1     233     309     310     234
CQUADX4      231       1     234     310     311     235
CQUADX4      232       1     235     311     312     236
CQUADX4      233       1     236     312     313     237
CQUADX4      234       1     237     313     314     238
CQUADX4      235       1     238     314     315     239
CQUADX4      236       1     239     315     316     240
CQUADX4      237       1     240     316     317     241
CQUADX4      238       1     241     317     318     242
CQUADX4      239       1     242     318     319     243
CQUADX4      240       1     243     319     320     244
CQUADX4      241       1     244     320     321     245
CQUADX4      242       1     245     321     322     246
CQUADX4      243       1     246     322     323     247
CQUADX4      244       1     247     323     324     248
CQUADX4      245       1     248     324     325     249
CQUADX4      246       1     249     325     326     250
CQUADX4      247       1     250     326     327     251
CQUADX4      248       1     251     327     328     252
CQUADX4      249       1     252     328     329     253
CQUADX4      250       1     253     329     330     254
CQUADX4      251       1     254     330     331     255
CQUADX4      252       1     255     331     332     256
CQUADX4      253       1     256     332     333     257
CQUADX4      254       1     257     333     334     258
CQUADX4      255       1     258     334     335     259
CQUADX4      256       1     259     335     336     260
CQUADX4      257       1     260     336     337     261
CQUADX4      258       1     261     337     338     262
CQUADX4      259       1     262     338     339     263
CQUADX4      260       1     263     339     340     264
CQUADX4      261       1     264     340     341     265
CQUADX4      262       1     265     341     342     266
CQUADX4      263       1     266     342     343     267
CQUADX4      264       1     267     343     344     268
CQUADX4      265       1     268     344     345     269
CQUADX4      266       1     269     345     346     270
CQUADX4      267       1     270     346     347     271
CQUADX4      268       1     271     347     348     272
CQUADX4      269       1     272     348     349     273
CQUADX4      270       1     273     349     350     274
CQUADX4      271       1     274     350     351     275
CQUADX4      272       1     275     351     352     276
CQUADX4      273       1     276     352     353     277
CQUADX4      274       1     277     353     354     278
CQUADX4      275       1     278     354     355     279
CQUADX4      276       1     279     355     356     280
CQUADX4      277       1     280     356     357     281
CQUADX4      278       1     281     357     358     282
CQUADX4      279       1     282     358     359     283
CQUADX4      280       1     283     359     360     284
CQUADX4      281       1     284     360     361     285
CQUADX4      282       1     285     361     362     286
CQUADX4      283       1     286     362     363     287
CQUADX4      284       1     287     363     364     288
CQUADX4      285       1     288     364     365     289
CQUADX4      286       1     289     365     366     290
CQUADX4      287       1     290     366     367     291
CQUADX4      288       1     291     367     368     292
CQUADX4      289       1     292     368     369     293
CQUADX4      290       1     293     369     370     294
CQUADX4      291       1     294     370     371     295
CQUADX4      292       1     295     371     372     296
CQUADX4      293       1     296     372     373     297
CQUADX4      294       1     297     373     374     298
CQUADX4      295       1     298     374     375     299
CQUADX4      296       1     299     375     376     300
CQUADX4      297       1     300     376     377     301
CQUADX4      298       1     301     377     378     302
CQUADX4      299       1     302     378     379     303
CQUADX4      300       1     303     379     380     304
CQUADX4      301       1     305     381     382     306
CQUADX4      302       1     306     382     383     307
CQUADX4      303       1     307     383     384     308
CQUADX4      304       1     308     384     385     309
CQUADX4      305       1     309     385     386     310
CQUADX4      306       1     310     386     387     311
CQUADX4      307       1     311     387     388     312
CQUADX4      308       1     312     388     389     313
CQUADX4      309       1     313     389     390     314
CQUADX4      310       1     314     390     391     315
CQUADX4      311       1     315     391     392     316
CQUADX4      312       1     316     392     393     317
CQUADX4      313       1     317     393     394     318
CQUADX4      314       1     318     394     395     319
CQUADX4      315       1     319     395     396     320
CQUADX4      316       1     320     396     397     321
CQUADX4      317       1     321     397     398     322
CQUADX4      318       1     322     398     399     323
CQUADX4      319       1     323     399     400     324
CQUADX4      320       1     324     400     401     325
CQUADX4      321       1     325     401     402     326
CQUADX4      322       1     326     402     403     327
CQUADX4      323       1     327     403     404     328
CQUADX4      324       1     328     404     405     329
CQUADX4      325       1     329     405     406     330
CQUADX4      326       1     330     406     407     331
CQUADX4      327       1     331     407     408     332
CQUADX4      328       1     332     408     409     333
CQUADX4      329       1     333     409     410     334
CQUADX4      330       1     334     410     411     335
CQUADX4      331       1     335     411     412     336
CQUADX4      332       1     336     412     413     337
CQUADX4      333       1     337     413     414     338
CQUADX4      334       1     338     414     415     339
CQUADX4      335       1     339     415     416     340
CQUADX4      336       1     340     416     417     341
CQUADX4      337       1     341     417     418     342
CQUADX4      338       1     342     418     419     343
CQUADX4      339       1     343     419     420     344
CQUADX4      340       1     344     420     421     345
CQUADX4      341       1     345     421     422     346
CQUADX4      342       1     346     422     423     347
CQUADX4      343       1     347     423     424     348
CQUADX4      344       1     348     424     425     349
CQUADX4      345       1     349     425     426     350
CQUADX4      346       1     350     426     427     351
CQUADX4      347       1     351     427     428     352
CQUADX4      348       1     352     428     429     353
CQUADX4      349       1     353     429     430     354
CQUADX4      350       1     354     430     431     355
CQUADX4      351       1     355     431     432     356
CQUADX4      352       1     356     432     433     357
CQUADX4      353       1     357     433     434     358
CQUADX4      354       1     358     434     435     359
CQUADX4      355       1     359     435     436     360
CQUADX4      356       1     360     436     437     361
CQUADX4      357       1     361     437     438     362
CQUADX4      358       1     362     438     439     363
CQUADX4      359       1     363     439     440     364
CQUADX4      360       1     364     440     441     365
CQUADX4      361       1     365     441     442     366
CQUADX4      362       1     366     442     443     367
CQUADX4      363       1     367     443     444     368
CQUADX4      364       1     368     444     445     369
CQUADX4      365       1     369     445     446     370
CQUADX4      366       1     370     446     447     371
CQUADX4      367       1     371     447     448     372
CQUADX4      368       1     372     448     449     373
CQUADX4      369       1     373     449     450     374
CQUADX4      370       1     374     450     451     375
CQUADX4      371       1     375     451     452     376
CQUADX4      372       1     376     452     453     377
CQUADX4      373       1     377     453     454     378
CQUADX4      374       1     378     454     455     379
CQUADX4      375       1     379     455     456     380
CQUADX4      376       1     381     457     458     382
CQUADX4      377       1     382     458     459     383
CQUADX4      378       1     383     459     460     384
CQUADX4      379       1     384     460     461     385
CQUADX4      380       1     385     461     462     386
CQUADX4      381       1     386     462     463     387
CQUADX4      382       1     387     463     464     388
CQUADX4      383       1     388     464     465     389
CQUADX4      384       1     389     465     466     390
CQUADX4      385       1     390     466     467     391
CQUADX4      386       1     391     467     468     392
CQUADX4      387       1     392     468     469     393
CQUADX4      388       1     393     469     470     394
CQUADX4      389       1     394     470     471     395
CQUADX4      390       1     395     471     472     396
CQUADX4      391       1     396     472     473     397
CQUADX4      392       1     397     473     474     398
CQUADX4      393       1     398     474     475     399
CQUADX4      394       1     399     475     476     400
CQUADX4      395       1     400     476     477     401
CQUADX4      396       1     401     477     478     402
CQUADX4      397       1     402     478     479     403
CQUADX4      398       1     403     479     480     404
CQUADX4      399       1     404     480     481     405
CQUADX4      400       1     405     481     482     406
CQUADX4      401       1     406     482     483     407
CQUADX4      402       1     407     483     484     408
CQUADX4      403       1     408     484     485     409
CQUADX4      404       1     409     485     486     410
CQUADX4      405       1     410     486     487     411
CQUADX4      406       1     411     487     488     412
CQUADX4      407       1     412     488     489     413
CQUADX4      408       1     413     489     490     414
CQUADX4      409       1     414     490     491     415
CQUADX4      410       1     415     491     492     416
CQUADX4      411       1     416     492     493     417
CQUADX4      412       1     417     493     494     418
CQUADX4      413       1     418     494     495     419
CQUADX4      414       1     419     495     496     420
CQUADX4      415       1     420     496     497     421
CQUADX4      416       1     421     497     498     422
CQUADX4      417       1     422     498     499     423
CQUADX4      418       1     423     499     500     424
CQUADX4      419       1     424     500     501     425
CQUADX4      420       1     425     501     502     426
CQUADX4      421       1     426     502     503     427
CQUADX4      422       1     427     503     504     428
CQUADX4      423       1     428     504     505     429
CQUADX4      424       1     429     505     506     430
CQUADX4      425       1     430     506     507     431
CQUADX4      426       1     431     507     508     432
CQUADX4      427       1     432     508     509     433
CQUADX4      428       1     433     509     510     434
CQUADX4      429       1     434     510     511     435
CQUADX4      430       1     435     511     512     436
CQUADX4      431       1     436     512     513     437
CQUADX4      432       1     437     513     514     438
CQUADX4      433       1     438     514     515     439
CQUADX4      434       1     439     515     516     440
CQUADX4      435       1     440     516     517     441
CQUADX4      436       1     441     517     518     442
CQUADX4      437       1     442     518     519     443
CQUADX4      438       1     443     519     520     444
CQUADX4      439       1     444     520     521     445
CQUADX4      440       1     445     521     522     446
CQUADX4      441       1     446     522     523     447
CQUADX4      442       1     447     523     524     448
CQUADX4      443       1     448     524     525     449
CQUADX4      444       1     449     525     526     450
CQUADX4      445       1     450     526     527     451
CQUADX4      446       1     451     527     528     452
CQUADX4      447       1     452     528     529     453
CQUADX4      448       1     453     529     530     454
CQUADX4      449       1     454     530     531     455
CQUADX4      450       1     455     531     532     456
CQUADX4      451       1     457     533     534     458
CQUADX4      452       1     458     534     535     459
CQUADX4      453       1     459     535     536     460
CQUADX4      454       1     460     536     537     461
CQUADX4      455       1     461     537     538     462
CQUADX4      456       1     462     538     539     463
CQUADX4      457       1     463     539     540     464
CQUADX4      458       1     464     540     541     465
CQUADX4      459       1     465     541     542     466
CQUADX4      460       1     466     542     543     467
CQUADX4      461       1     467     543     544     468
CQUADX4      462       1     468     544     545     469
CQUADX4      463       1     469     545     546     470
CQUADX4      464       1     470     546     547     471
CQUADX4      465       1     471     547     548     472
CQUADX4      466       1     472     548     549     473
CQUADX4      467       1     473     549     550     474
CQUADX4      468       1     474     550     551     475
CQUADX4      469       1     475     551     552     476
CQUADX4      470       1     476     552     553     477
CQUADX4      471       1     477     553     554     478
CQUADX4      472       1     478     554     555     479
CQUADX4      473       1     479     555     556     480
CQUADX4      474       1     480     556     557     481
CQUADX4      475       1     481     557     558     482
CQUADX4      476       1     482     558     559     483
CQUADX4      477       1     483     559     560     484
CQUADX4      478       1     484     560     561     485
CQUADX4      479       1     485     561     562     486
CQUADX4      480       1     486     562     563     487
CQUADX4      481       1     487     563     564     488
CQUADX4      482       1     488     564     565     489
CQUADX4      483       1     489     565     566     490
CQUADX4      484       1     490     566     567     491
CQUADX4      485       1     491     567     568     492
CQUADX4      486       1     492     568     569     493
CQUADX4      487       1     493     569     570     494
CQUADX4      488       1     494     570     571     495
CQUADX4      489       1     495     571     572     496
CQUADX4      490       1     496     572     573     497
CQUADX4      491       1     497     573     574     498
CQUADX4      492       1     498     574     575     499
CQUADX4      493       1     499     575     576     500
CQUADX4      494       1     500     576     577     501
CQUADX4      495       1     501     577     578     502
CQUADX4      496       1     502     578     579     503
CQUADX4      497       1     503     579     580     504
CQUADX4      498       1     504     580     581     505
CQUADX4      499       1     505     581     582     506
CQUADX4      500       1     506     582     583     507
CQUADX4      501       1     507     583     584     508
CQUADX4      502       1     508     584     585     509
CQUADX4      503       1     509     585     586     510
CQUADX4      504       1     510     586     587     511
CQUADX4      505       1     511     587     588     512
CQUADX4      506       1     512     588     589     513
CQUADX4      507       1     513     589     590     514
CQUADX4      508       1     514     590     591     515
CQUADX4      509       1     515     591     592     516
CQUADX4      510       1     516     592     593     517
CQUADX4      511       1     517     593     594     518
CQUADX4      512       1     518     594     595     519
CQUADX4      513       1     519     595     596     520
CQUADX4      514       1     520     596     597     521
CQUADX4      515       1     521     597     598     522
CQUADX4      516       1     522     598     599     523
CQUADX4      517       1     523     599     600     524
CQUADX4      518       1     524     600     601     525
CQUADX4      519       1     525     601     602     526
CQUADX4      520       1     526     602     603     527
CQUADX4      521       1     527     603     604     528
CQUADX4      522       1     528     604     605     529
CQUADX4      523       1     529     605     606     530
CQUADX4      524       1     530     606     607     531
CQUADX4      525       1     531     607     608     532
CQUADX4      526       1     533     609     610     534
CQUADX4      527       1     534     610     611     535
CQUADX4      528       1     535     611     612     536
CQUADX4      529       1     536     612     613     537
CQUADX4      530       1     537     613     614     538
CQUADX4      531       1     538     614     615     539
CQUADX4      532       1     539     615     616     540
CQUADX4      533       1     540     616     617     541
CQUADX4      534       1     541     617     618     542
CQUADX4      535       1     542     618     619     543
CQUADX4      536       1     543     619     620     544
CQUADX4      537       1     544     620     621     545
CQUADX4      538       1     545     621     622     546
CQUADX4      539       1     546     622     623     547
CQUADX4      540       1     547     623     624     548
CQUADX4      541       1     548     624     625     549
CQUADX4      542       1     549     625     626     550
CQUADX4      543       1     550     626     627     551
CQUADX4      544       1     551     627     628     552
CQUADX4      545       1     552     628     629     553
CQUADX4      546       1     553     629     630     554
CQUADX4      547       1     554     630     631     555
CQUADX4      548       1     555     631     632     556
CQUADX4      549       1     556     632     633     557
CQUADX4      550       1     557     633     634     558
CQUADX4      551       1     558     634     635     559
CQUADX4      552       1     559     635     636     560
CQUADX4      553       1     560     636     637     561
CQUADX4      554       1     561     637     638     562
CQUADX4      555       1     562     638     639     563
CQUADX4      556       1     563     639     640     564
CQUADX4      557       1     564     640     641     565
CQUADX4      558       1     565     641     642     566
CQUADX4      559       1     566     642     643     567
CQUADX4      560       1     567     643     644     568
CQUADX4      561       1     568     644     645     569
CQUADX4      562       1     569     645     646     570
CQUADX4      563       1     570     646     647     571
CQUADX4      564       1     571     647     648     572
CQUADX4      565       1     572     648     649     573
CQUADX4      566       1     573     649     650     574
CQUADX4      567       1     574     650     651     575
CQUADX4      568       1     575     651     652     576
CQUADX4      569       1     576     652     653     577
CQUADX4      570       1     577     653     654     578
CQUADX4      571       1     578     654     655     579
CQUADX4      572       1     579     655     656     580
CQUADX4      573       1     580     656     657     581
CQUADX4      574       1     581     657     658     582
CQUADX4      575       1     582     658     659     583
CQUADX4      576       1     583     659     660     584
CQUADX4      577       1     584     660     661     585
CQUADX4      578       1     585     661     662     586
CQUADX4      579       1     586     662     663     587
CQUADX4      580       1     587     663     664     588
CQUADX4      581       1     588     664     665     589
CQUADX4      582       1     589     665     666     590
CQUADX4      583       1     590     666     667     591
CQUADX4      584       1     591     667     668     592
CQUADX4      585       1     592     668     669     593
CQUADX4      586       1     593     669     670     594
CQUADX4      587       1     594     670     671     595
CQUADX4      588       1     595     671     672     596
CQUADX4      589       1     596     672     673     597
CQUADX4      590       1     597     673     674     598
CQUADX4      591       1     598     674     675     599
CQUADX4      592       1     599     675     676     600
CQUADX4      593       1     600     676     677     601
CQUADX4      594       1     601     677     678     602
CQUADX4      595       1     602     678     679     603
CQUADX4      596       1     603     679     680     604
CQUADX4      597       1     604     680     681     605
CQUADX4      598       1     605     681     682     606
CQUADX4      599       1     606     682     683     607
CQUADX4      600       1     607     683     684     608
CQUADX4      601       1     609     685     686     610
CQUADX4      602       1     610     686     687     611
CQUADX4      603       1     611     687     688     612
CQUADX4      604       1     612     688     689     613
CQUADX4      605       1     613     689     690     614
CQUADX4      606       1     614     690     691     615
CQUADX4      607       1     615     691     692     616
CQUADX4      608       1     616     692     693     617
CQUADX4      609       1     617     693     694     618
CQUADX4      610       1     618     694     695     619
CQUADX4      611       1     619     695     696     620
CQUADX4      612       1     620     696     697     621
CQUADX4      613       1     621     697     698     622
CQUADX4      614       1     622     698     699     623
CQUADX4      615       1     623     699     700     624
CQUADX4      616       1     624     700     701     625
CQUADX4      617       1     625     701     702     626
CQUADX4      618       1     626     702     703     627
CQUADX4      619       1     627     703     704     628
CQUADX4      620       1     628     704     705     629
CQUADX4      621       1     629     705     706     630
CQUADX4      622       1     630     706     707     631
CQUADX4      623       1     631     707     708     632
CQUADX4      624       1     632     708     709     633
CQUADX4      625       1     633     709     710     634
CQUADX4      626       1     634     710     711     635
CQUADX4      627       1     635     711     712     636
CQUADX4      628       1     636     712     713     637
CQUADX4      629       1     637     713     714     638
CQUADX4      630       1     638     714     715     639
CQUADX4      631       1     639     715     716     640
CQUADX4      632       1     640     716     717     641
CQUADX4      633       1     641     717     718     642
CQUADX4      634       1     642     718     719     643
CQUADX4      635       1     643     719     720     644
CQUADX4      636       1     644     720     721     645
CQUADX4      637       1     645     721     722     646
CQUADX4      638       1     646     722     723     647
CQUADX4      639       1     647     723     724     648
CQUADX4      640       1     648     724     725     649
CQUADX4      641       1     649     725     726     650
CQUADX4      642       1     650     726     727     651
CQUADX4      643       1     651     727     728     652
CQUADX4      644       1     652     728     729     653
CQUADX4      645       1     653     729     730     654
CQUADX4      646       1     654     730     731     655
CQUADX4      647       1     655     731     732     656
CQUADX4      648       1     656     732     733     657
CQUADX4      649       1     657     733     734     658
CQUADX4      650       1     658     734     735     659
CQUADX4      651       1     659     735     736     660
CQUADX4      652       1     660     736     737     661
CQUADX4      653       1     661     737     738     662
CQUADX4      654       1     662     738     739     663
CQUADX4      655       1     663     739     740     664
CQUADX4      656       1     664     740     741     665
CQUADX4      657       1     665     741     742     666
CQUADX4      658       1     666     742     743     667
CQUADX4      659       1     667     743     744     668
CQUADX4      660       1     668     744     745     669
CQUADX4      661       1     669     745     746     670
CQUADX4      662       1     670     746     747     671
CQUADX4      663       1     671     747     748     672
CQUADX4      664       1     672     748     749     673
CQUADX4      665       1     673     749     750     674
CQUADX4      666       1     674     750     751     675
CQUADX4      667       1     675     751     752     676
CQUADX4      668       1     676     752     753     677
CQUADX4      669       1     677     753     754     678
CQUADX4      670       1     678     754     755     679
CQUADX4      671       1     679     755     756     680
CQUADX4      672       1     680     756     757     681
CQUADX4      673       1     681     757     758     682
CQUADX4      674       1     682     758     759     683
CQUADX4      675       1     683     759     760     684
CQUADX4      676       1     685     761     762     686
CQUADX4      677       1     686     762     763     687
CQUADX4      678       1     687     763     764     688
CQUADX4      679       1     688     764     765     689
CQUADX4      680       1     689     765     766     690
CQUADX4      681       1     690     766     767     691
CQUADX4      682       1     691     767     768     692
CQUADX4      683       1     692     768     769     693
CQUADX4      684       1     693     769     770     694
CQUADX4      685       1     694     770     771     695
CQUADX4      686       1     695     771     772     696
CQUADX4      687       1     696     772     773     697
CQUADX4      688       1     697     773     774     698
CQUADX4      689       1     698     774     775     699
CQUADX4      690       1     699     775     776     700
CQUADX4      691       1     700     776     777     701
CQUADX4      692       1     701     777     778     702
CQUADX4      693       1     702     778     779     703
CQUADX4      694       1     703     779     780     704
CQUADX4      695       1     704     780     781     705
CQUADX4      696       1     705     781     782     706
CQUADX4      697       1     706     782     783     707
CQUADX4      698       1     707     783     784     708
CQUADX4      699       1     708     784     785     709
CQUADX4      700       1     709     785     786     710
CQUADX4      701       1     710     786     787     711
CQUADX4      702       1     711     787     788     712
CQUADX4      703       1     712     788     789     713
CQUADX4      704       1     713     789     790     714
CQUADX4      705       1     714     790     791     715
CQUADX4      706       1     715     791     792     716
CQUADX4      707       1     716     792     793     717
CQUADX4      708       1     717     793     794     718
CQUADX4      709       1     718     794     795     719
CQUADX4      710       1     719     795     796     720
CQUADX4      711       1     720     796     797     721
CQUADX4      712       1     721     797     798     722
CQUADX4      713       1     722     798     799     723
CQUADX4      714       1     723     799     800     724
CQUADX4      715       1     724     800     801     725
CQUADX4      716       1     725     801     802     726
CQUADX4      717       1     726     802     803     727
CQUADX4      718       1     727     803     804     728
CQUADX4      719       1     728     804     805     729
CQUADX4      720       1     729     805     806     730
CQUADX4      721       1     730     806     807     731
CQUADX4      722       1     731     807     808     732
CQUADX4      723       1     732     808     809     733
CQUADX4      724       1     733     809     810     734
CQUADX4      725       1     734     810     811     735
CQUADX4      726       1     735     811     812     736
CQUADX4      727       1     736     812     813     737
CQUADX4      728       1     737     813     814     738
CQUADX4      729       1     738     814     815     739
CQUADX4      730       1     739     815     816     740
CQUADX4      731       1     740     816     817     741
CQUADX4      732       1     741     817     818     742
CQUADX4      733       1     742     818     819     743
CQUADX4      734       1     743     819     820     744
CQUADX4      735       1     744     820     821     745
CQUADX4      736       1     745     821     822     746
CQUADX4      737       1     746     822     823     747
CQUADX4      738       1     747     823     824     748
CQUADX4      739       1     748     824     825     749
CQUADX4      740       1     749     825     826     750
CQUADX4      741       1     750     826     827     751
CQUADX4      742       1     751     827     828     752
CQUADX4      743       1     752     828     829     753
CQUADX4      744       1     753     829     830     754
CQUADX4      745       1     754     830     831     755
CQUADX4      746       1     755     831     832     756
CQUADX4      747       1     756     832     833     757
CQUADX4      748       1     757     833     834     758
CQUADX4      749       1     758     834     835     759
CQUADX4      750       1     759     835     836     760
CQUADX4      751       1     761     837     838     762
CQUADX4      752       1     762     838     839     763
CQUADX4      753       1     763     839     840     764
CQUADX4      754       1     764     840     841     765
CQUADX4      755       1     765     841     842     766
CQUADX4      756       1     766     842     843     767
CQUADX4      757       1     767     843     844     768
CQUADX4      758       1     768     844     845     769
CQUADX4      759       1     769     845     846     770
CQUADX4      760       1     770     846     847     771
CQUADX4      761       1     771     847     848     772
CQUADX4      762       1     772     848     849     773
CQUADX4      763       1     773     849     850     774
CQUADX4      764       1     774     850     851     775
CQUADX4      765       1     775     851     852     776
CQUADX4      766       1     776     852     853     777
CQUADX4      767       1     777     853     854     778
CQUADX4      768       1     778     854     855     779
CQUADX4      769       1     779     855     856     780
CQUADX4      770       1     780     856     857     781
CQUADX4      771       1     781     857     858     782
CQUADX4      772       1     782     858     859     783
CQUADX4      773       1     783     859     860     784
CQUADX4      774       1     784     860     861     785
CQUADX4      775       1     785     861     862     786
CQUADX4      776       1     786     862     863     787
CQUADX4      777       1     787     863     864     788
CQUADX4      778       1     788     864     865     789
CQUADX4      779       1     789     865     866     790
CQUADX4      780       1     790     866     867     791
CQUADX4      781       1     791     867     868     792
CQUADX4      782       1     792     868     869     793
CQUADX4      783       1     793     869     870     794
CQUADX4      784       1     794     870     871     795
CQUADX4      785       1     795     871     872     796
CQUADX4      786       1     796     872     873     797
CQUADX4      787       1     797     873     874     798
CQUADX4      788       1     798     874     875     799
CQUADX4      789       1     799     875     876     800
CQUADX4      790       1     800     876     877     801
CQUADX4      791       1     801     877     878     802
CQUADX4      792       1     802     878     879     803
CQUADX4      793       1     803     879     880     804
CQUADX4      794       1     804     880     881     805
CQUADX4      795       1     805     881     882     806
CQUADX4      796       1     806     882     883     807
CQUADX4      797       1     807     883     884     808
CQUADX4      798       1     808     884     885     809
CQUADX4      799       1     809     885     886     810
CQUADX4      800       1     810     886     887     811
CQUADX4      801       1     811     887     888     812
CQUADX4      802       1     812     888     889     813
CQUADX4      803       1     813     889     890     814
CQUADX4      804       1     814     890     891     815
CQUADX4      805       1     815     891     892     816
CQUADX4      806       1     816     892     893     817
CQUADX4      807       1     817     893     894     818
CQUADX4      808       1     818     894     895     819
CQUADX4      809       1     819     895     896     820
CQUADX4      810       1     820     896     897     821
CQUADX4      811       1     821     897     898     822
CQUADX4      812       1     822     898     899     823
CQUADX4      813       1     823     899     900     824
CQUADX4      814       1     824     900     901     825
CQUADX4      815       1     825     901     902     826
CQUADX4      816       1     826     902     903     827
CQUADX4      817       1     827     903     904     828
CQUADX4      818       1     828     904     905     829
CQUADX4      819       1     829     905     906     830
CQUADX4      820       1     830     906     907     831
CQUADX4      821       1     831     907     908     832
CQUADX4      822       1     832     908     909     833
CQUADX4      823       1     833     909     910     834
CQUADX4      824       1     834     910     911     835
CQUADX4      825       1     835     911     912     836
CQUADX4      826       1     837     913     914     838
CQUADX4      827       1     838     914     915     839
CQUADX4      828       1     839     915     916     840
CQUADX4      829       1     840     916     917     841
CQUADX4      830       1     841     917     918     842
CQUADX4      831       1     842     918     919     843
CQUADX4      832       1     843     919     920     844
CQUADX4      833       1     844     920     921     845
CQUADX4      834       1     845     921     922     846
CQUADX4      835       1     846     922     923     847
CQUADX4      836       1     847     923     924     848
CQUADX4      837       1     848     924     925     849
CQUADX4      838       1     849     925     926     850
CQUADX4      839       1     850     926     927     851
CQUADX4      840       1     851     927     928     852
CQUADX4      841       1     852     928     929     853
CQUADX4      842       1     853     929     930     854
CQUADX4      843       1     854     930     931     855
CQUADX4      844       1     855     931     932     856
CQUADX4      845       1     856     932     933     857
CQUADX4      846       1     857     933     934     858
CQUADX4      847       1     858     934     935     859
CQUADX4      848       1     859     935     936     860
CQUADX4      849       1     860     936     937     861
CQUADX4      850       1     861     937     938     862
CQUADX4      851       1     862     938     939     863
CQUADX4      852       1     863     939     940     864
CQUADX4      853       1     864     940     941     865
CQUADX4      854       1     865     941     942     866
CQUADX4      855       1     866     942     943     867
CQUADX4      856       1     867     943     944     868
CQUADX4      857       1     868     944     945     869
CQUADX4      858       1     869     945     946     870
CQUADX4      859       1     870     946     947     871
CQUADX4      860       1     871     947     948     872
CQUADX4      861       1     872     948     949     873
CQUADX4      862       1     873     949     950     874
CQUADX4      863       1     874     950     951     875
CQUADX4      864       1     875     951     952     876
CQUADX4      865       1     876     952     953     877
CQUADX4      866       1     877     953     954     878
CQUADX4      867       1     878     954     955     879
CQUADX4      868       1     879     955     956     880
CQUADX4      869       1     880     956     957     881
CQUADX4      870       1     881     957     958     882
CQUADX4      871       1     882     958     959     883
CQUADX4      872       1     883     959     960     884
CQUADX4      873       1     884     960     961     885
CQUADX4      874       1     885     961     962     886
CQUADX4      875       1     886     962     963     887
CQUADX4      876       1     887     963     964     888
CQUADX4      877       1     888     964     965     889
CQUADX4      878       1     889     965     966     890
CQUADX4      879       1     890     966     967     891
CQUADX4      880       1     891     967     968     892
CQUADX4      881       1     892     968     969     893
CQUADX4      882       1     893     969     970     894
CQUADX4      883       1     894     970     971     895
CQUADX4      884       1     895     971     972     896
CQUADX4      885       1     896     972     973     897
CQUADX4      886       1     897     973     974     898
CQUADX4      887       1     898     974     975     899
CQUADX4      888       1     899     975     976     900
CQUADX4      889       1     900     976     977     901
CQUADX4      890       1     901     977     978     902
CQUADX4      891       1     902     978     979     903
CQUADX4      892       1     903     979     980     904
CQUADX4      893       1     904     980     981     905
CQUADX4      894       1     905     981     982     906
CQUADX4      895       1     906     982     983     907
CQUADX4      896       1     907     983     984     908
CQUADX4      897       1     908     984     985     909
CQUADX4      898       1     909     985     986     910
CQUADX4      899       1     910     986     987     911
CQUADX4      900       1     911     987     988     912
CQUADX4      901       1     913     989     990     914
CQUADX4      902       1     914     990     991     915
CQUADX4      903       1     915     991     992     916
CQUADX4      904       1     916     992     993     917
CQUADX4      905       1     917     993     994     918
CQUADX4      906       1     918     994     995     919
CQUADX4      907       1     919     995     996     920
CQUADX4      908       1     920     996     997     921
CQUADX4      909       1     921     997     998     922
CQUADX4      910       1     922     998     999     923
CQUADX4      911       1     923     999    1000     924
CQUADX4      912       1     924    1000    1001     925
CQUADX4      913       1     925    1001    1002     926
CQUADX4      914       1     926    1002    1003     927
CQUADX4      915       1     927    1003    1004     928
CQUADX4      916       1     928    1004    1005     929
CQUADX4      917       1     929    1005    1006     930
CQUADX4      918       1     930    1006    1007     931
CQUADX4      919       1     931    1007    1008     932
CQUADX4      920       1     932    1008    1009     933
CQUADX4      921       1     933    1009    1010     934
CQUADX4      922       1     934    1010    1011     935
CQUADX4      923       1     935    1011    1012     936
CQUADX4      924       1     936    1012    1013     937
CQUADX4      925       1     937    1013    1014     938
CQUADX4      926       1     938    1014    1015     939
CQUADX4      927       1     939    1015    1016     940
CQUADX4      928       1     940    1016    1017     941
CQUADX4      929       1     941    1017    1018     942
CQUADX4      930       1     942    1018    1019     943
CQUADX4      931       1     943    1019    1020     944
CQUADX4      932       1     944    1020    1021     945
CQUADX4      933       1     945    1021    1022     946
CQUADX4      934       1     946    1022    1023     947
CQUADX4      935       1     947    1023    1024     948
CQUADX4      936       1     948    1024    1025     949
CQUADX4      937       1     949    1025    1026     950
CQUADX4      938       1     950    1026    1027     951
CQUADX4      939       1     951    1027    1028     952
CQUADX4      940       1     952    1028    1029     953
CQUADX4      941       1     953    1029    1030     954
CQUADX4      942       1     954    1030    1031     955
CQUADX4      943       1     955    1031    1032     956
CQUADX4      944       1     956    1032    1033     957
CQUADX4      945       1     957    1033    1034     958
CQUADX4      946       1     958    1034    1035     959
CQUADX4      947       1     959    1035    1036     960
CQUADX4      948       1     960    1036    1037     961
CQUADX4      949       1     961    1037    1038     962
CQUADX4      950       1     962    1038    1039     963
CQUADX4      951       1     963    1039    1040     964
CQUADX4      952       1     964    1040    1041     965
CQUADX4      953       1     965    1041    1042     966
CQUADX4      954       1     966    1042    1043     967
CQUADX4      955       1     967    1043    1044     968
CQUADX4      956       1     968    1044    1045     969
CQUADX4      957       1     969    1045    1046     970
CQUADX4      958       1     970    1046    1047     971
CQUADX4      959       1     971    1047    1048     972
CQUADX4      960       1     972    1048    1049     973
CQUADX4      961       1     973    1049    1050     974
CQUADX4      962       1     974    1050    1051     975
CQUADX4      963       1     975    1051    1052     976
CQUADX4      964       1     976    1052    1053     977
CQUADX4      965       1     977    1053    1054     978
CQUADX4      966       1     978    1054    1055     979
CQUADX4      967       1     979    1055    1056     980
CQUADX4      968       1     980    1056    1057     981
CQUADX4      969       1     981    1057    1058     982
CQUADX4      970       1     982    1058    1059     983
CQUADX4      971       1     983    1059    1060     984
CQUADX4      972       1     984    1060    1061     985
CQUADX4      973       1     985    1061    1062     986
CQUADX4      974       1     986    1062    1063     987
CQUADX4      975       1     987    1063    1064     988
CQUADX4      976       1     989    1065    1066     990
CQUADX4      977       1     990    1066    1067     991
CQUADX4      978       1     991    1067    1068     992
CQUADX4      979       1     992    1068    1069     993
CQUADX4      980       1     993    1069    1070     994
CQUADX4      981       1     994    1070    1071     995
CQUADX4      982       1     995    1071    1072     996
CQUADX4      983       1     996    1072    1073     997
CQUADX4      984       1     997    1073    1074     998
CQUADX4      985       1     998    1074    1075     999
CQUADX4      986       1     999    1075    1076    1000
CQUADX4      987       1    1000    1076    1077    1001
CQUADX4      988       1    1001    1077    1078    1002
CQUADX4      989       1    1002    1078    1079    1003
CQUADX4      990       1    1003    1079    1080    1004
CQUADX4      991       1    1004    1080    1081    1005
CQUADX4      992       1    1005    1081    1082    1006
CQUADX4      993       1    1006    1082    1083    1007
CQUADX4      994       1    1007    1083    1084    1008
CQUADX4      995       1    1008    1084    1085    1009
CQUADX4      996       1    1009    1085    1086    1010
CQUADX4      997       1    1010    1086    1087    1011
CQUADX4      998       1    1011    1087    1088    1012
CQUADX4      999       1    1012    1088    1089    1013
CQUADX4     1000       1    1013    1089    1090    1014
CQUADX4     1001       1    1014    1090    1091    1015
CQUADX4     1002       1    1015    1091    1092    1016
CQUADX4     1003       1    1016    1092    1093    1017
CQUADX4     1004       1    1017    1093    1094    1018
CQUADX4     1005       1    1018    1094    1095    1019
CQUADX4     1006       1    1019    1095    1096    1020
CQUADX4     1007       1    1020    1096    1097    1021
CQUADX4     1008       1    1021    1097    1098    1022
CQUADX4     1009       1    1022    1098    1099    1023
CQUADX4     1010       1    1023    1099    1100    1024
CQUADX4     1011       1    1024    1100    1101    1025
CQUADX4     1012       1    1025    1101    1102    1026
CQUADX4     1013       1    1026    1102    1103    1027
CQUADX4     1014       1    1027    1103    1104    1028
CQUADX4     1015       1    1028    1104    1105    1029
CQUADX4     1016       1    1029    1105    1106    1030
CQUADX4     1017       1    1030    1106    1107    1031
CQUADX4     1018       1    1031    1107    1108    1032
CQUADX4     1019       1    1032    1108    1109    1033
CQUADX4     1020       1    1033    1109    1110    1034
CQUADX4     1021       1    1034    1110    1111    1035
CQUADX4     1022       1    1035    1111    1112    1036
CQUADX4     1023       1    1036    1112    1113    1037
CQUADX4     1024       1    1037    1113    1114    1038
CQUADX4     1025       1    1038    1114    1115    1039
CQUADX4     1026       1    1039    1115    1116    1040
CQUADX4     1027       1    1040    1116    1117    1041
CQUADX4     1028       1    1041    1117    1118    1042
CQUADX4     1029       1    1042    1118    1119    1043
CQUADX4     1030       1    1043    1119    1120    1044
CQUADX4     1031       1    1044    1120    1121    1045
CQUADX4     1032       1    1045    1121    1122    1046
CQUADX4     1033       1    1046    1122    1123    1047
CQUADX4     1034       1    1047    1123    1124    1048
CQUADX4     1035       1    1048    1124    1125    1049
CQUADX4     1036       1    1049    1125    1126    1050
CQUADX4     1037       1    1050    1126    1127    1051
CQUADX4     1038       1    1051    1127    1128    1052
CQUADX4     1039       1    1052    1128    1129    1053
CQUADX4     1040       1    1053    1129    1130    1054
CQUADX4     1041       1    1054    1130    1131    1055
CQUADX4     1042       1    1055    1131    1132    1056
CQUADX4     1043       1    1056    1132    1133    1057
CQUADX4     1044       1    1057    1133    1134    1058
CQUADX4     1045       1    1058    1134    1135    1059
CQUADX4     1046       1    1059    1135    1136    1060
CQUADX4     1047       1    1060    1136    1137    1061
CQUADX4     1048       1    1061    1137    1138    1062
CQUADX4     1049       1    1062    1138    1139    1063
CQUADX4     1050       1    1063    1139    1140    1064
CQUADX4     1051       1    1065    1141    1142    1066
CQUADX4     1052       1    1066    1142    1143    1067
CQUADX4     1053       1    1067    1143    1144    1068
CQUADX4     1054       1    1068    1144    1145    1069
CQUADX4     1055       1    1069    1145    1146    1070
CQUADX4     1056       1    1070    1146    1147    1071
CQUADX4     1057       1    1071    1147    1148    1072
CQUADX4     1058       1    1072    1148    1149    1073
CQUADX4     1059       1    1073    1149    1150    1074
CQUADX4     1060       1    1074    1150    1151    1075
CQUADX4     1061       1    1075    1151    1152    1076
CQUADX4     1062       1    1076    1152    1153    1077
CQUADX4     1063       1    1077    1153    1154    1078
CQUADX4     1064       1    1078    1154    1155    1079
CQUADX4     1065       1    1079    1155    1156    1080
CQUADX4     1066       1    1080    1156    1157    1081
CQUADX4     1067       1    1081    1157    1158    1082
CQUADX4     1068       1    1082    1158    1159    1083
CQUADX4     1069       1    1083    1159    1160    1084
CQUADX4     1070       1    1084    1160    1161    1085
CQUADX4     1071       1    1085    1161    1162    1086
CQUADX4     1072       1    1086    1162    1163    1087
CQUADX4     1073       1    1087    1163    1164    1088
CQUADX4     1074       1    1088    1164    1165    1089
CQUADX4     1075       1    1089    1165    1166    1090
CQUADX4     1076       1    1090    1166    1167    1091
CQUADX4     1077       1    1091    1167    1168    1092
CQUADX4     1078       1    1092    1168    1169    1093
CQUADX4     1079       1    1093    1169    1170    1094
CQUADX4     1080       1    1094    1170    1171    1095
CQUADX4     1081       1    1095    1171    1172    1096
CQUADX4     1082       1    1096    1172    1173    1097
CQUADX4     1083       1    1097    1173    1174    1098
CQUADX4     1084       1    1098    1174    1175    1099
CQUADX4     1085       1    1099    1175    1176    1100
CQUADX4     1086       1    1100    1176    1177    1101
CQUADX4     1087       1    1101    1177    1178    1102
CQUADX4     1088       1    1102    1178    1179    1103
CQUADX4     1089       1    1103    1179    1180    1104
CQUADX4     1090       1    1104    1180    1181    1105
CQUADX4     1091       1    1105    1181    1182    1106
CQUADX4     1092       1    1106    1182    1183    1107
CQUADX4     1093       1    1107    1183    1184    1108
CQUADX4     1094       1    1108    1184    1185    1109
CQUADX4     1095       1    1109    1185    1186    1110
CQUADX4     1096       1    1110    1186    1187    1111
CQUADX4     1097       1    1111    1187    1188    1112
CQUADX4     1098       1    1112    1188    1189    1113
CQUADX4     1099       1    1113    1189    1190    1114
CQUADX4     1100       1    1114    1190    1191    1115
CQUADX4     1101       1    1115    1191    1192    1116
CQUADX4     1102       1    1116    1192    1193    1117
CQUADX4     1103       1    1117    1193    1194    1118
CQUADX4     1104       1    1118    1194    1195    1119
CQUADX4     1105       1    1119    1195    1196    1120
CQUADX4     1106       1    1120    1196    1197    1121
CQUADX4     1107       1    1121    1197    1198    1122
CQUADX4     1108       1    1122    1198    1199    1123
CQUADX4     1109       1    1123    1199    1200    1124
CQUADX4     1110       1    1124    1200    1201    1125
CQUADX4     1111       1    1125    1201    1202    1126
CQUADX4     1112       1    1126    1202    1203    1127
CQUADX4     1113       1    1127    1203    1204    1128
CQUADX4     1114       1    1128    1204    1205    1129
CQUADX4     1115       1    1129    1205    1206    1130
CQUADX4     1116       1    1130    1206    1207    1131
CQUADX4     1117       1    1131    1207    1208    1132
CQUADX4     1118       1    1132    1208    1209    1133
CQUADX4     1119       1    1133    1209    1210    1134
CQUADX4     1120       1    1134    1210    1211    1135
CQUADX4     1121       1    1135    1211    1212    1136
CQUADX4     1122       1    1136    1212    1213    1137
CQUADX4     1123       1    1137    1213    1214    1138
CQUADX4     1124       1    1138    1214    1215    1139
CQUADX4     1125       1    1139    1215    1216    1140
CQUADX4     1126       1    1141    1217    1218    1142
CQUADX4     1127       1    1142    1218    1219    1143
CQUADX4     1128       1    1143    1219    1220    1144
CQUADX4     1129       1    1144    1220    1221    1145
CQUADX4     1130       1    1145    1221    1222    1146
CQUADX4     1131       1    1146    1222    1223    1147
CQUADX4     1132       1    1147    1223    1224    1148
CQUADX4     1133       1    1148    1224    1225    1149
CQUADX4     1134       1    1149    1225    1226    1150
CQUADX4     1135       1    1150    1226    1227    1151
CQUADX4     1136       1    1151    1227    1228    1152
CQUADX4     1137       1    1152    1228    1229    1153
CQUADX4     1138       1    1153    1229    1230    1154
CQUADX4     1139       1    1154    1230    1231    1155
CQUADX4     1140       1    1155    1231    1232    1156
CQUADX4     1141       1    1156    1232    1233    1157
CQUADX4     1142       1    1157    1233    1234    1158
CQUADX4     1143       1    1158    1234    1235    1159
CQUADX4     1144       1    1159    1235    1236    1160
CQUADX4     1145       1    1160    1236    1237    1161
CQUADX4     1146       1    1161    1237    1238    1162
CQUADX4     1147       1    1162    1238    1239    1163
CQUADX4     1148       1    1163    1239    1240    1164
CQUADX4     1149       1    1164    1240    1241    1165
CQUADX4     1150       1    1165    1241    1242    1166
CQUADX4     1151       1    1166    1242    1243    1167
CQUADX4     1152       1    1167    1243    1244    1168
CQUADX4     1153       1    1168    1244    1245    1169
CQUADX4     1154       1    1169    1245    1246    1170
CQUADX4     1155       1    1170    1246    1247    1171
CQUADX4     1156       1    1171    1247    1248    1172
CQUADX4     1157       1    1172    1248    1249    1173
CQUADX4     1158       1    1173    1249    1250    1174
CQUADX4     1159       1    1174    1250    1251    1175
CQUADX4     1160       1    1175    1251    1252    1176
CQUADX4     1161       1    1176    1252    1253    1177
CQUADX4     1162       1    1177    1253    1254    1178
CQUADX4     1163       1    1178    1254    1255    1179
CQUADX4     1164       1    1179    1255    1256    1180
CQUADX4     1165       1    1180    1256    1257    1181
CQUADX4     1166       1    1181    1257    1258    1182
CQUADX4     1167       1    1182    1258    1259    1183
CQUADX4     1168       1    1183    1259    1260    1184
CQUADX4     1169       1    1184    1260    1261    1185
CQUADX4     1170       1    1185    1261    1262    1186
CQUADX4     1171       1    1186    1262    1263    1187
CQUADX4     1172       1    1187    1263    1264    1188
CQUADX4     1173       1    1188    1264    1265    1189
CQUADX4     1174       1    1189    1265    1266    1190
CQUADX4     1175       1    1190    1266    1267    1191
CQUADX4     1176       1    1191    1267    1268    1192
CQUADX4     1177       1    1192    1268    1269    1193
CQUADX4     1178       1    1193    1269    1270    1194
CQUADX4     1179       1    1194    1270    1271    1195
CQUADX4     1180       1    1195    1271    1272    1196
CQUADX4     1181       1    1196    1272    1273    1197
CQUADX4     1182       1    1197    1273    1274    1198
CQUADX4     1183       1    1198    1274    1275    1199
CQUADX4     1184       1    1199    1275    1276    1200
CQUADX4     1185       1    1200    1276    1277    1201
CQUADX4     1186       1    1201    1277    1278    1202
CQUADX4     1187       1    1202    1278    1279    1203
CQUADX4     1188       1    1203    1279    1280    1204
CQUADX4     1189       1    1204    1280    1281    1205
CQUADX4     1190       1    1205    1281    1282    1206
CQUADX4     1191       1    1206    1282    1283    1207
CQUADX4     1192       1    1207    1283    1284    1208
CQUADX4     1193       1    1208    1284    1285    1209
CQUADX4     1194       1    1209    1285    1286    1210
CQUADX4     1195       1    1210    1286    1287    1211
CQUADX4     1196       1    1211    1287    1288    1212
CQUADX4     1197       1    1212    1288    1289    1213
CQUADX4     1198       1    1213    1289    1290    1214
CQUADX4     1199       1    1214    1290    1291    1215
CQUADX4     1200       1    1215    1291    1292    1216
CQUADX4     1201       1    3985    3728       1    3727
CQUADX4     1202       1    3728    3729      77       1
CQUADX4     1203       1    3729    3730     153      77
CQUADX4     1204       1    3730    3731     229     153
CQUADX4     1205       1    3731    3732     305     229
CQUADX4     1206       1    3732    3733     381     305
CQUADX4     1207       1    3733    3734     457     381
CQUADX4     1208       1    3734    3735     533     457
CQUADX4     1209       1    3735    3736     609     533
CQUADX4     1210       1    3736    3737     685     609
CQUADX4     1211       1    3737    3738     761     685
CQUADX4     1212       1    3738    3739     837     761
CQUADX4     1213       1    3739    3740     913     837
CQUADX4     1214       1    3740    3741     989     913
CQUADX4     1215       1    3741    3742    1065     989
CQUADX4     1216       1    3742    3743    1141    1065
CQUADX4     1217       1    3743    3744    1217    1141
CQUADX4     1218       1    3744    3986    3745    1217
CQUADX4     1219       1    1217    3745    3746    1218
CQUADX4     1220       1    1218    3746    3747    1219
CQUADX4     1221       1    1219    3747    3748    1220
CQUADX4     1222       1    1220    3748    3749    1221
CQUADX4     1223       1    1221    3749    3750    1222
CQUADX4     1224       1    1222    3750    3751    1223
CQUADX4     1225       1    1223    3751    3752    1224
CQUADX4     1226       1    1224    3752    3753    1225
CQUADX4     1227       1    1225    3753    3754    1226
CQUADX4     1228       1    1226    3754    3755    1227
CQUADX4     1229       1    1227    3755    3756    1228
CQUADX4     1230       1    1228    3756    3757    1229
CQUADX4     1231       1    1229    3757    3758    1230
CQUADX4     1232       1    1230    3758    3759    1231
CQUADX4     1233       1    1231    3759    3760    1232
CQUADX4     1234       1    1232    3760    3761    1233
CQUADX4     1235       1    1233    3761    3762    1234
CQUADX4     1236       1    1234    3762    3763    1235
CQUADX4     1237       1    1235    3763    3764    1236
CQUADX4     1238       1    1236    3764    3765    1237
CQUADX4     1239       1    1237    3765    3766    1238
CQUADX4     1240       1    1238    3766    3767    1239
CQUADX4     1241       1    1239    3767    3768    1240
CQUADX4     1242       1    1240    3768    3769    1241
CQUADX4     1243       1    1241    3769    3770    1242
CQUADX4     1244       1    1242    3770    3771    1243
CQUADX4     1245       1    1243    3771    3772    1244
CQUADX4     1246       1    1244    3772    3773    1245
CQUADX4     1247       1    1245    3773    3774    1246
CQUADX4     1248       1    1246    3774    3775    1247
CQUADX4     1249       1    1247    3775    3776    1248
CQUADX4     1250       1    1248    3776    3777    1249
CQUADX4     1251       1    1249    3777    3778    1250
CQUADX4     1252       1    1250    3778    3779    1251
CQUADX4     1253       1    1251    3779    3780    1252
CQUADX4     1254       1    1252    3780    3781    1253
CQUADX4     1255       1    1253    3781    3782    1254
CQUADX4     1256       1    1254    3782    3783    1255
CQUADX4     1257       1    1255    3783    3784    1256
CQUADX4     1258       1    1256    3784    3785    1257
CQUADX4     1259       1    1257    3785    3786    1258
CQUADX4     1260       1    1258    3786    3787    1259
CQUADX4     1261       1    1259    3787    3788    1260
CQUADX4     1262       1    1260    3788    3789    1261
CQUADX4     1263       1    1261    3789    3790    1262
CQUADX4     1264       1    1262    3790    3791    1263
CQUADX4     1265       1    1263    3791    3792    1264
CQUADX4     1266       1    1264    3792    3793    1265
CQUADX4     1267       1    1265    3793    3794    1266
CQUADX4     1268       1    1266    3794    3795    1267
CQUADX4     1269       1    1267    3795    3796    1268
CQUADX4     1270       1    1268    3796    3797    1269
CQUADX4     1271       1    1269    3797    3798    1270
CQUADX4     1272       1    1270    3798    3799    1271
CQUADX4     1273       1    1271    3799    3800    1272
CQUADX4     1274       1    1272    3800    3801    1273
CQUADX4     1275       1    1273    3801    3802    1274
CQUADX4     1276       1    1274    3802    3803    1275
CQUADX4     1277       1    1275    3803    3804    1276
CQUADX4     1278       1    1276    3804    3805    1277
CQUADX4     1279       1    1277    3805    3806    1278
CQUADX4     1280       1    1278    3806    3807    1279
CQUADX4     1281       1    1279    3807    3808    1280
CQUADX4     1282       1    1280    3808    3809    1281
CQUADX4     1283       1    1281    3809    3810    1282
CQUADX4     1284       1    1282    3810    3811    1283
CQUADX4     1285       1    1283    3811    3812    1284
CQUADX4     1286       1    1284    3812    3813    1285
CQUADX4     1287       1    1285    3813    3814    1286
CQUADX4     1288       1    1286    3814    3815    1287
CQUADX4     1289       1    1287    3815    3816    1288
CQUADX4     1290       1    1288    3816    3817    1289
CQUADX4     1291       1    1289    3817    3818    1290
CQUADX4     1292       1    1290    3818    3819    1291
CQUADX4     1293       1    1291    3819    3820    1292
CQUADX4     1294       1    1292    3820    3987    3821
CQUADX4     1295       1    1216    1292    3821    3822
CQUADX4     1296       1    1140    1216    3822    3988
CQUADX4     1297       1    1064    1140    3988    3823
CQUADX4     1298       1     988    1064    3823    3824
CQUADX4     1299       1     912     988    3824    3825
CQUADX4     1300       1     836     912    3825    3826
CQUADX4     1301       1     760     836    3826    3827
CQUADX4     1302       1     684     760    3827    3828
CQUADX4     1303       1     608     684    3828    3829
CQUADX4     1304       1     532     608    3829    3830
CQUADX4     1305       1     456     532    3830    3831
CQUADX4     1306       1     380     456    3831    3832
CQUADX4     1307       1     304     380    3832    3833
CQUADX4     1308       1     228     304    3833    3834
CQUADX4     1309       1     152     228    3834    3835
CQUADX4     1310       1      76     152    3835    3836
CQUADX4     1311       1    3652      76    3836    3984
CQUADX4     1312       1    3653      75      76    3652
CQUADX4     1313       1    3654      74      75    3653
CQUADX4     1314       1    3655      73      74    3654
CQUADX4     1315       1    3656      72      73    3655
CQUADX4     1316       1    3657      71      72    3656
CQUADX4     1317       1    3658      70      71    3657
CQUADX4     1318       1    3659      69      70    3658
CQUADX4     1319       1    3660      68      69    3659
CQUADX4     1320       1    3661      67      68    3660
CQUADX4     1321       1    3662      66      67    3661
CQUADX4     1322       1    3663      65      66    3662
CQUADX4     1323       1    3664      64      65    3663
CQUADX4     1324       1    3665      63      64    3664
CQUADX4     1325       1    3666      62      63    3665
CQUADX4     1326       1    3667      61      62    3666
CQUADX4     1327       1    3668      60      61    3667
CQUADX4     1328       1    3669      59      60    3668
CQUADX4     1329       1    3670      58      59    3669
CQUADX4     1330       1    3671      57      58    3670
CQUADX4     1331       1    3672      56      57    3671
CQUADX4     1332       1    3673      55      56    3672
CQUADX4     1333       1    3674      54      55    3673
CQUADX4     1334       1    3675      53      54    3674
CQUADX4     1335       1    3676      52      53    3675
CQUADX4     1336       1    3677      51      52    3676
CQUADX4     1337       1    3678      50      51    3677
CQUADX4     1338       1    3679      49      50    3678
CQUADX4     1339       1    3680      48      49    3679
CQUADX4     1340       1    3681      47      48    3680
CQUADX4     1341       1    3682      46      47    3681
CQUADX4     1342       1    3683      45      46    3682
CQUADX4     1343       1    3684      44      45    3683
CQUADX4     1344       1    3685      43      44    3684
CQUADX4     1345       1    3686      42      43    3685
CQUADX4     1346       1    3687      41      42    3686
CQUADX4     1347       1    3688      40      41    3687
CQUADX4     1348       1    3689      39      40    3688
CQUADX4     1349       1    3690      38      39    3689
CQUADX4     1350       1    3691      37      38    3690
CQUADX4     1351       1    3692      36      37    3691
CQUADX4     1352       1    3693      35      36    3692
CQUADX4     1353       1    3694      34      35    3693
CQUADX4     1354       1    3695      33      34    3694
CQUADX4     1355       1    3696      32      33    3695
CQUADX4     1356       1    3697      31      32    3696
CQUADX4     1357       1    3698      30      31    3697
CQUADX4     1358       1    3699      29      30    3698
CQUADX4     1359       1    3700      28      29    3699
CQUADX4     1360       1    3701      27      28    3700
CQUADX4     1361       1    3702      26      27    3701
CQUADX4     1362       1    3703      25      26    3702
CQUADX4     1363       1    3704      24      25    3703
CQUADX4     1364       1    3705      23      24    3704
CQUADX4     1365       1    3706      22      23    3705
CQUADX4     1366       1    3707      21      22    3706
CQUADX4     1367       1    3708      20      21    3707
CQUADX4     1368       1    3709      19      20    3708
CQUADX4     1369       1    3710      18      19    3709
CQUADX4     1370       1    3711      17      18    3710
CQUADX4     1371       1    3712      16      17    3711
CQUADX4     1372       1    3713      15      16    3712
CQUADX4     1373       1    3714      14      15    3713
CQUADX4     1374       1    3715      13      14    3714
CQUADX4     1375       1    3716      12      13    3715
CQUADX4     1376       1    3717      11      12    3716
CQUADX4     1377       1    3718      10      11    3717
CQUADX4     1378       1    3719       9      10    3718
CQUADX4     1379       1    3720       8       9    3719
CQUADX4     1380       1    3721       7       8    3720
CQUADX4     1381       1    3722       6       7    3721
CQUADX4     1382       1    3723       5       6    3722
CQUADX4     1383       1    3724       4       5    3723
CQUADX4     1384       1    3725       3       4    3724
CQUADX4     1385       1    3726       2       3    3725
CQUADX4     1386       1    3727       1       2    3726
CQUADX4     1387       1    1293    1362    1363    1294
CQUADX4     1388       1    1294    1363    1364    1295
CQUADX4     1389       1    1295    1364    1365    1296
CQUADX4     1390       1    1296    1365    1366    1297
CQUADX4     1391       1    1297    1366    1367    1298
CQUADX4     1392       1    1298    1367    1368    1299
CQUADX4     1393       1    1299    1368    1369    1300
CQUADX4     1394       1    1300    1369    1370    1301
CQUADX4     1395       1    1301    1370    1371    1302
CQUADX4     1396       1    1302    1371    1372    1303
CQUADX4     1397       1    1303    1372    1373    1304
CQUADX4     1398       1    1304    1373    1374    1305
CQUADX4     1399       1    1305    1374    1375    1306
CQUADX4     1400       1    1306    1375    1376    1307
CQUADX4     1401       1    1307    1376    1377    1308
CQUADX4     1402       1    1308    1377    1378    1309
CQUADX4     1403       1    1309    1378    1379    1310
CQUADX4     1404       1    1310    1379    1380    1311
CQUADX4     1405       1    1311    1380    1381    1312
CQUADX4     1406       1    1312    1381    1382    1313
CQUADX4     1407       1    1313    1382    1383    1314
CQUADX4     1408       1    1314    1383    1384    1315
CQUADX4     1409       1    1315    1384    1385    1316
CQUADX4     1410       1    1316    1385    1386    1317
CQUADX4     1411       1    1317    1386    1387    1318
CQUADX4     1412       1    1318    1387    1388    1319
CQUADX4     1413       1    1319    1388    1389    1320
CQUADX4     1414       1    1320    1389    1390    1321
CQUADX4     1415       1    1321    1390    1391    1322
CQUADX4     1416       1    1322    1391    1392    1323
CQUADX4     1417       1    1323    1392    1393    1324
CQUADX4     1418       1    1324    1393    1394    1325
CQUADX4     1419       1    1325    1394    1395    1326
CQUADX4     1420       1    1326    1395    1396    1327
CQUADX4     1421       1    1327    1396    1397    1328
CQUADX4     1422       1    1328    1397    1398    1329
CQUADX4     1423       1    1329    1398    1399    1330
CQUADX4     1424       1    1330    1399    1400    1331
CQUADX4     1425       1    1331    1400    1401    1332
CQUADX4     1426       1    1332    1401    1402    1333
CQUADX4     1427       1    1333    1402    1403    1334
CQUADX4     1428       1    1334    1403    1404    1335
CQUADX4     1429       1    1335    1404    1405    1336
CQUADX4     1430       1    1336    1405    1406    1337
CQUADX4     1431       1    1337    1406    1407    1338
CQUADX4     1432       1    1338    1407    1408    1339
CQUADX4     1433       1    1339    1408    1409    1340
CQUADX4     1434       1    1340    1409    1410    1341
CQUADX4     1435       1    1341    1410    1411    1342
CQUADX4     1436       1    1342    1411    1412    1343
CQUADX4     1437       1    1343    1412    1413    1344
CQUADX4     1438       1    1344    1413    1414    1345
CQUADX4     1439       1    1345    1414    1415    1346
CQUADX4     1440       1    1346    1415    1416    1347
CQUADX4     1441       1    1347    1416    1417    1348
CQUADX4     1442       1    1348    1417    1418    1349
CQUADX4     1443       1    1349    1418    1419    1350
CQUADX4     1444       1    1350    1419    1420    1351
CQUADX4     1445       1    1351    1420    1421    1352
CQUADX4     1446       1    1352    1421    1422    1353
CQUADX4     1447       1    1353    1422    1423    1354
CQUADX4     1448       1    1354    1423    1424    1355
CQUADX4     1449       1    1355    1424    1425    1356
CQUADX4     1450       1    1356    1425    1426    1357
CQUADX4     1451       1    1357    1426    1427    1358
CQUADX4     1452       1    1358    1427    1428    1359
CQUADX4     1453       1    1359    1428    1429    1360
CQUADX4     1454       1    1360    1429    1430    1361
CQUADX4     1455       1    1362    1431    1432    1363
CQUADX4     1456       1    1363    1432    1433    1364
CQUADX4     1457       1    1364    1433    1434    1365
CQUADX4     1458       1    1365    1434    1435    1366
CQUADX4     1459       1    1366    1435    1436    1367
CQUADX4     1460       1    1367    1436    1437    1368
CQUADX4     1461       1    1368    1437    1438    1369
CQUADX4     1462       1    1369    1438    1439    1370
CQUADX4     1463       1    1370    1439    1440    1371
CQUADX4     1464       1    1371    1440    1441    1372
CQUADX4     1465       1    1372    1441    1442    1373
CQUADX4     1466       1    1373    1442    1443    1374
CQUADX4     1467       1    1374    1443    1444    1375
CQUADX4     1468       1    1375    1444    1445    1376
CQUADX4     1469       1    1376    1445    1446    1377
CQUADX4     1470       1    1377    1446    1447    1378
CQUADX4     1471       1    1378    1447    1448    1379
CQUADX4     1472       1    1379    1448    1449    1380
CQUADX4     1473       1    1380    1449    1450    1381
CQUADX4     1474       1    1381    1450    1451    1382
CQUADX4     1475       1    1382    1451    1452    1383
CQUADX4     1476       1    1383    1452    1453    1384
CQUADX4     1477       1    1384    1453    1454    1385
CQUADX4     1478       1    1385    1454    1455    1386
CQUADX4     1479       1    1386    1455    1456    1387
CQUADX4     1480       1    1387    1456    1457    1388
CQUADX4     1481       1    1388    1457    1458    1389
CQUADX4     1482       1    1389    1458    1459    1390
CQUADX4     1483       1    1390    1459    1460    1391
CQUADX4     1484       1    1391    1460    1461    1392
CQUADX4     1485       1    1392    1461    1462    1393
CQUADX4     1486       1    1393    1462    1463    1394
CQUADX4     1487       1    1394    1463    1464    1395
CQUADX4     1488       1    1395    1464    1465    1396
CQUADX4     1489       1    1396    1465    1466    1397
CQUADX4     1490       1    1397    1466    1467    1398
CQUADX4     1491       1    1398    1467    1468    1399
CQUADX4     1492       1    1399    1468    1469    1400
CQUADX4     1493       1    1400    1469    1470    1401
CQUADX4     1494       1    1401    1470    1471    1402
CQUADX4     1495       1    1402    1471    1472    1403
CQUADX4     1496       1    1403    1472    1473    1404
CQUADX4     1497       1    1404    1473    1474    1405
CQUADX4     1498       1    1405    1474    1475    1406
CQUADX4     1499       1    1406    1475    1476    1407
CQUADX4     1500       1    1407    1476    1477    1408
CQUADX4     1501       1    1408    1477    1478    1409
CQUADX4     1502       1    1409    1478    1479    1410
CQUADX4     1503       1    1410    1479    1480    1411
CQUADX4     1504       1    1411    1480    1481    1412
CQUADX4     1505       1    1412    1481    1482    1413
CQUADX4     1506       1    1413    1482    1483    1414
CQUADX4     1507       1    1414    1483    1484    1415
CQUADX4     1508       1    1415    1484    1485    1416
CQUADX4     1509       1    1416    1485    1486    1417
CQUADX4     1510       1    1417    1486    1487    1418
CQUADX4     1511       1    1418    1487    1488    1419
CQUADX4     1512       1    1419    1488    1489    1420
CQUADX4     1513       1    1420    1489    1490    1421
CQUADX4     1514       1    1421    1490    1491    1422
CQUADX4     1515       1    1422    1491    1492    1423
CQUADX4     1516       1    1423    1492    1493    1424
CQUADX4     1517       1    1424    1493    1494    1425
CQUADX4     1518       1    1425    1494    1495    1426
CQUADX4     1519       1    1426    1495    1496    1427
CQUADX4     1520       1    1427    1496    1497    1428
CQUADX4     1521       1    1428    1497    1498    1429
CQUADX4     1522       1    1429    1498    1499    1430
CQUADX4     1523       1    1431    1500    1501    1432
CQUADX4     1524       1    1432    1501    1502    1433
CQUADX4     1525       1    1433    1502    1503    1434
CQUADX4     1526       1    1434    1503    1504    1435
CQUADX4     1527       1    1435    1504    1505    1436
CQUADX4     1528       1    1436    1505    1506    1437
CQUADX4     1529       1    1437    1506    1507    1438
CQUADX4     1530       1    1438    1507    1508    1439
CQUADX4     1531       1    1439    1508    1509    1440
CQUADX4     1532       1    1440    1509    1510    1441
CQUADX4     1533       1    1441    1510    1511    1442
CQUADX4     1534       1    1442    1511    1512    1443
CQUADX4     1535       1    1443    1512    1513    1444
CQUADX4     1536       1    1444    1513    1514    1445
CQUADX4     1537       1    1445    1514    1515    1446
CQUADX4     1538       1    1446    1515    1516    1447
CQUADX4     1539       1    1447    1516    1517    1448
CQUADX4     1540       1    1448    1517    1518    1449
CQUADX4     1541       1    1449    1518    1519    1450
CQUADX4     1542       1    1450    1519    1520    1451
CQUADX4     1543       1    1451    1520    1521    1452
CQUADX4     1544       1    1452    1521    1522    1453
CQUADX4     1545       1    1453    1522    1523    1454
CQUADX4     1546       1    1454    1523    1524    1455
CQUADX4     1547       1    1455    1524    1525    1456
CQUADX4     1548       1    1456    1525    1526    1457
CQUADX4     1549       1    1457    1526    1527    1458
CQUADX4     1550       1    1458    1527    1528    1459
CQUADX4     1551       1    1459    1528    1529    1460
CQUADX4     1552       1    1460    1529    1530    1461
CQUADX4     1553       1    1461    1530    1531    1462
CQUADX4     1554       1    1462    1531    1532    1463
CQUADX4     1555       1    1463    1532    1533    1464
CQUADX4     1556       1    1464    1533    1534    1465
CQUADX4     1557       1    1465    1534    1535    1466
CQUADX4     1558       1    1466    1535    1536    1467
CQUADX4     1559       1    1467    1536    1537    1468
CQUADX4     1560       1    1468    1537    1538    1469
CQUADX4     1561       1    1469    1538    1539    1470
CQUADX4     1562       1    1470    1539    1540    1471
CQUADX4     1563       1    1471    1540    1541    1472
CQUADX4     1564       1    1472    1541    1542    1473
CQUADX4     1565       1    1473    1542    1543    1474
CQUADX4     1566       1    1474    1543    1544    1475
CQUADX4     1567       1    1475    1544    1545    1476
CQUADX4     1568       1    1476    1545    1546    1477
CQUADX4     1569       1    1477    1546    1547    1478
CQUADX4     1570       1    1478    1547    1548    1479
CQUADX4     1571       1    1479    1548    1549    1480
CQUADX4     1572       1    1480    1549    1550    1481
CQUADX4     1573       1    1481    1550    1551    1482
CQUADX4     1574       1    1482    1551    1552    1483
CQUADX4     1575       1    1483    1552    1553    1484
CQUADX4     1576       1    1484    1553    1554    1485
CQUADX4     1577       1    1485    1554    1555    1486
CQUADX4     1578       1    1486    1555    1556    1487
CQUADX4     1579       1    1487    1556    1557    1488
CQUADX4     1580       1    1488    1557    1558    1489
CQUADX4     1581       1    1489    1558    1559    1490
CQUADX4     1582       1    1490    1559    1560    1491
CQUADX4     1583       1    1491    1560    1561    1492
CQUADX4     1584       1    1492    1561    1562    1493
CQUADX4     1585       1    1493    1562    1563    1494
CQUADX4     1586       1    1494    1563    1564    1495
CQUADX4     1587       1    1495    1564    1565    1496
CQUADX4     1588       1    1496    1565    1566    1497
CQUADX4     1589       1    1497    1566    1567    1498
CQUADX4     1590       1    1498    1567    1568    1499
CQUADX4     1591       1    1500    1569    1570    1501
CQUADX4     1592       1    1501    1570    1571    1502
CQUADX4     1593       1    1502    1571    1572    1503
CQUADX4     1594       1    1503    1572    1573    1504
CQUADX4     1595       1    1504    1573    1574    1505
CQUADX4     1596       1    1505    1574    1575    1506
CQUADX4     1597       1    1506    1575    1576    1507
CQUADX4     1598       1    1507    1576    1577    1508
CQUADX4     1599       1    1508    1577    1578    1509
CQUADX4     1600       1    1509    1578    1579    1510
CQUADX4     1601       1    1510    1579    1580    1511
CQUADX4     1602       1    1511    1580    1581    1512
CQUADX4     1603       1    1512    1581    1582    1513
CQUADX4     1604       1    1513    1582    1583    1514
CQUADX4     1605       1    1514    1583    1584    1515
CQUADX4     1606       1    1515    1584    1585    1516
CQUADX4     1607       1    1516    1585    1586    1517
CQUADX4     1608       1    1517    1586    1587    1518
CQUADX4     1609       1    1518    1587    1588    1519
CQUADX4     1610       1    1519    1588    1589    1520
CQUADX4     1611       1    1520    1589    1590    1521
CQUADX4     1612       1    1521    1590    1591    1522
CQUADX4     1613       1    1522    1591    1592    1523
CQUADX4     1614       1    1523    1592    1593    1524
CQUADX4     1615       1    1524    1593    1594    1525
CQUADX4     1616       1    1525    1594    1595    1526
CQUADX4     1617       1    1526    1595    1596    1527
CQUADX4     1618       1    1527    1596    1597    1528
CQUADX4     1619       1    1528    1597    1598    1529
CQUADX4     1620       1    1529    1598    1599    1530
CQUADX4     1621       1    1530    1599    1600    1531
CQUADX4     1622       1    1531    1600    1601    1532
CQUADX4     1623       1    1532    1601    1602    1533
CQUADX4     1624       1    1533    1602    1603    1534
CQUADX4     1625       1    1534    1603    1604    1535
CQUADX4     1626       1    1535    1604    1605    1536
CQUADX4     1627       1    1536    1605    1606    1537
CQUADX4     1628       1    1537    1606    1607    1538
CQUADX4     1629       1    1538    1607    1608    1539
CQUADX4     1630       1    1539    1608    1609    1540
CQUADX4     1631       1    1540    1609    1610    1541
CQUADX4     1632       1    1541    1610    1611    1542
CQUADX4     1633       1    1542    1611    1612    1543
CQUADX4     1634       1    1543    1612    1613    1544
CQUADX4     1635       1    1544    1613    1614    1545
CQUADX4     1636       1    1545    1614    1615    1546
CQUADX4     1637       1    1546    1615    1616    1547
CQUADX4     1638       1    1547    1616    1617    1548
CQUADX4     1639       1    1548    1617    1618    1549
CQUADX4     1640       1    1549    1618    1619    1550
CQUADX4     1641       1    1550    1619    1620    1551
CQUADX4     1642       1    1551    1620    1621    1552
CQUADX4     1643       1    1552    1621    1622    1553
CQUADX4     1644       1    1553    1622    1623    1554
CQUADX4     1645       1    1554    1623    1624    1555
CQUADX4     1646       1    1555    1624    1625    1556
CQUADX4     1647       1    1556    1625    1626    1557
CQUADX4     1648       1    1557    1626    1627    1558
CQUADX4     1649       1    1558    1627    1628    1559
CQUADX4     1650       1    1559    1628    1629    1560
CQUADX4     1651       1    1560    1629    1630    1561
CQUADX4     1652       1    1561    1630    1631    1562
CQUADX4     1653       1    1562    1631    1632    1563
CQUADX4     1654       1    1563    1632    1633    1564
CQUADX4     1655       1    1564    1633    1634    1565
CQUADX4     1656       1    1565    1634    1635    1566
CQUADX4     1657       1    1566    1635    1636    1567
CQUADX4     1658       1    1567    1636    1637    1568
CQUADX4     1659       1    1569    1638    1639    1570
CQUADX4     1660       1    1570    1639    1640    1571
CQUADX4     1661       1    1571    1640    1641    1572
CQUADX4     1662       1    1572    1641    1642    1573
CQUADX4     1663       1    1573    1642    1643    1574
CQUADX4     1664       1    1574    1643    1644    1575
CQUADX4     1665       1    1575    1644    1645    1576
CQUADX4     1666       1    1576    1645    1646    1577
CQUADX4     1667       1    1577    1646    1647    1578
CQUADX4     1668       1    1578    1647    1648    1579
CQUADX4     1669       1    1579    1648    1649    1580
CQUADX4     1670       1    1580    1649    1650    1581
CQUADX4     1671       1    1581    1650    1651    1582
CQUADX4     1672       1    1582    1651    1652    1583
CQUADX4     1673       1    1583    1652    1653    1584
CQUADX4     1674       1    1584    1653    1654    1585
CQUADX4     1675       1    1585    1654    1655    1586
CQUADX4     1676       1    1586    1655    1656    1587
CQUADX4     1677       1    1587    1656    1657    1588
CQUADX4     1678       1    1588    1657    1658    1589
CQUADX4     1679       1    1589    1658    1659    1590
CQUADX4     1680       1    1590    1659    1660    1591
CQUADX4     1681       1    1591    1660    1661    1592
CQUADX4     1682       1    1592    1661    1662    1593
CQUADX4     1683       1    1593    1662    1663    1594
CQUADX4     1684       1    1594    1663    1664    1595
CQUADX4     1685       1    1595    1664    1665    1596
CQUADX4     1686       1    1596    1665    1666    1597
CQUADX4     1687       1    1597    1666    1667    1598
CQUADX4     1688       1    1598    1667    1668    1599
CQUADX4     1689       1    1599    1668    1669    1600
CQUADX4     1690       1    1600    1669    1670    1601
CQUADX4     1691       1    1601    1670    1671    1602
CQUADX4     1692       1    1602    1671    1672    1603
CQUADX4     1693       1    1603    1672    1673    1604
CQUADX4     1694       1    1604    1673    1674    1605
CQUADX4     1695       1    1605    1674    1675    1606
CQUADX4     1696       1    1606    1675    1676    1607
CQUADX4     1697       1    1607    1676    1677    1608
CQUADX4     1698       1    1608    1677    1678    1609
CQUADX4     1699       1    1609    1678    1679    1610
CQUADX4     1700       1    1610    1679    1680    1611
CQUADX4     1701       1    1611    1680    1681    1612
CQUADX4     1702       1    1612    1681    1682    1613
CQUADX4     1703       1    1613    1682    1683    1614
CQUADX4     1704       1    1614    1683    1684    1615
CQUADX4     1705       1    1615    1684    1685    1616
CQUADX4     1706       1    1616    1685    1686    1617
CQUADX4     1707       1    1617    1686    1687    1618
CQUADX4     1708       1    1618    1687    1688    1619
CQUADX4     1709       1    1619    1688    1689    1620
CQUADX4     1710       1    1620    1689    1690    1621
CQUADX4     1711       1    1621    1690    1691    1622
CQUADX4     1712       1    1622    1691    1692    1623
CQUADX4     1713       1    1623    1692    1693    1624
CQUADX4     1714       1    1624    1693    1694    1625
CQUADX4     1715       1    1625    1694    1695    1626
CQUADX4     1716       1    1626    1695    1696    1627
CQUADX4     1717       1    1627    1696    1697    1628
CQUADX4     1718       1    1628    1697    1698    1629
CQUADX4     1719       1    1629    1698    1699    1630
CQUADX4     1720       1    1630    1699    1700    1631
CQUADX4     1721       1    1631    1700    1701    1632
CQUADX4     1722       1    1632    1701    1702    1633
CQUADX4     1723       1    1633    1702    1703    1634
CQUADX4     1724       1    1634    1703    1704    1635
CQUADX4     1725       1    1635    1704    1705    1636
CQUADX4     1726       1    1636    1705    1706    1637
CQUADX4     1727       1    1638    1707    1708    1639
CQUADX4     1728       1    1639    1708    1709    1640
CQUADX4     1729       1    1640    1709    1710    1641
CQUADX4     1730       1    1641    1710    1711    1642
CQUADX4     1731       1    1642    1711    1712    1643
CQUADX4     1732       1    1643    1712    1713    1644
CQUADX4     1733       1    1644    1713    1714    1645
CQUADX4     1734       1    1645    1714    1715    1646
CQUADX4     1735       1    1646    1715    1716    1647
CQUADX4     1736       1    1647    1716    1717    1648
CQUADX4     1737       1    1648    1717    1718    1649
CQUADX4     1738       1    1649    1718    1719    1650
CQUADX4     1739       1    1650    1719    1720    1651
CQUADX4     1740       1    1651    1720    1721    1652
CQUADX4     1741       1    1652    1721    1722    1653
CQUADX4     1742       1    1653    1722    1723    1654
CQUADX4     1743       1    1654    1723    1724    1655
CQUADX4     1744       1    1655    1724    1725    1656
CQUADX4     1745       1    1656    1725    1726    1657
CQUADX4     1746       1    1657    1726    1727    1658
CQUADX4     1747       1    1658    1727    1728    1659
CQUADX4     1748       1    1659    1728    1729    1660
CQUADX4     1749       1    1660    1729    1730    1661
CQUADX4     1750       1    1661    1730    1731    1662
CQUADX4     1751       1    1662    1731    1732    1663
CQUADX4     1752       1    1663    1732    1733    1664
CQUADX4     1753       1    1664    1733    1734    1665
CQUADX4     1754       1    1665    1734    1735    1666
CQUADX4     1755       1    1666    1735    1736    1667
CQUADX4     1756       1    1667    1736    1737    1668
CQUADX4     1757       1    1668    1737    1738    1669
CQUADX4     1758       1    1669    1738    1739    1670
CQUADX4     1759       1    1670    1739    1740    1671
CQUADX4     1760       1    1671    1740    1741    1672
CQUADX4     1761       1    1672    1741    1742    1673
CQUADX4     1762       1    1673    1742    1743    1674
CQUADX4     1763       1    1674    1743    1744    1675
CQUADX4     1764       1    1675    1744    1745    1676
CQUADX4     1765       1    1676    1745    1746    1677
CQUADX4     1766       1    1677    1746    1747    1678
CQUADX4     1767       1    1678    1747    1748    1679
CQUADX4     1768       1    1679    1748    1749    1680
CQUADX4     1769       1    1680    1749    1750    1681
CQUADX4     1770       1    1681    1750    1751    1682
CQUADX4     1771       1    1682    1751    1752    1683
CQUADX4     1772       1    1683    1752    1753    1684
CQUADX4     1773       1    1684    1753    1754    1685
CQUADX4     1774       1    1685    1754    1755    1686
CQUADX4     1775       1    1686    1755    1756    1687
CQUADX4     1776       1    1687    1756    1757    1688
CQUADX4     1777       1    1688    1757    1758    1689
CQUADX4     1778       1    1689    1758    1759    1690
CQUADX4     1779       1    1690    1759    1760    1691
CQUADX4     1780       1    1691    1760    1761    1692
CQUADX4     1781       1    1692    1761    1762    1693
CQUADX4     1782       1    1693    1762    1763    1694
CQUADX4     1783       1    1694    1763    1764    1695
CQUADX4     1784       1    1695    1764    1765    1696
CQUADX4     1785       1    1696    1765    1766    1697
CQUADX4     1786       1    1697    1766    1767    1698
CQUADX4     1787       1    1698    1767    1768    1699
CQUADX4     1788       1    1699    1768    1769    1700
CQUADX4     1789       1    1700    1769    1770    1701
CQUADX4     1790       1    1701    1770    1771    1702
CQUADX4     1791       1    1702    1771    1772    1703
CQUADX4     1792       1    1703    1772    1773    1704
CQUADX4     1793       1    1704    1773    1774    1705
CQUADX4     1794       1    1705    1774    1775    1706
CQUADX4     1795       1    1707    1776    1777    1708
CQUADX4     1796       1    1708    1777    1778    1709
CQUADX4     1797       1    1709    1778    1779    1710
CQUADX4     1798       1    1710    1779    1780    1711
CQUADX4     1799       1    1711    1780    1781    1712
CQUADX4     1800       1    1712    1781    1782    1713
CQUADX4     1801       1    1713    1782    1783    1714
CQUADX4     1802       1    1714    1783    1784    1715
CQUADX4     1803       1    1715    1784    1785    1716
CQUADX4     1804       1    1716    1785    1786    1717
CQUADX4     1805       1    1717    1786    1787    1718
CQUADX4     1806       1    1718    1787    1788    1719
CQUADX4     1807       1    1719    1788    1789    1720
CQUADX4     1808       1    1720    1789    1790    1721
CQUADX4     1809       1    1721    1790    1791    1722
CQUADX4     1810       1    1722    1791    1792    1723
CQUADX4     1811       1    1723    1792    1793    1724
CQUADX4     1812       1    1724    1793    1794    1725
CQUADX4     1813       1    1725    1794    1795    1726
CQUADX4     1814       1    1726    1795    1796    1727
CQUADX4     1815       1    1727    1796    1797    1728
CQUADX4     1816       1    1728    1797    1798    1729
CQUADX4     1817       1    1729    1798    1799    1730
CQUADX4     1818       1    1730    1799    1800    1731
CQUADX4     1819       1    1731    1800    1801    1732
CQUADX4     1820       1    1732    1801    1802    1733
CQUADX4     1821       1    1733    1802    1803    1734
CQUADX4     1822       1    1734    1803    1804    1735
CQUADX4     1823       1    1735    1804    1805    1736
CQUADX4     1824       1    1736    1805    1806    1737
CQUADX4     1825       1    1737    1806    1807    1738
CQUADX4     1826       1    1738    1807    1808    1739
CQUADX4     1827       1    1739    1808    1809    1740
CQUADX4     1828       1    1740    1809    1810    1741
CQUADX4     1829       1    1741    1810    1811    1742
CQUADX4     1830       1    1742    1811    1812    1743
CQUADX4     1831       1    1743    1812    1813    1744
CQUADX4     1832       1    1744    1813    1814    1745
CQUADX4     1833       1    1745    1814    1815    1746
CQUADX4     1834       1    1746    1815    1816    1747
CQUADX4     1835       1    1747    1816    1817    1748
CQUADX4     1836       1    1748    1817    1818    1749
CQUADX4     1837       1    1749    1818    1819    1750
CQUADX4     1838       1    1750    1819    1820    1751
CQUADX4     1839       1    1751    1820    1821    1752
CQUADX4     1840       1    1752    1821    1822    1753
CQUADX4     1841       1    1753    1822    1823    1754
CQUADX4     1842       1    1754    1823    1824    1755
CQUADX4     1843       1    1755    1824    1825    1756
CQUADX4     1844       1    1756    1825    1826    1757
CQUADX4     1845       1    1757    1826    1827    1758
CQUADX4     1846       1    1758    1827    1828    1759
CQUADX4     1847       1    1759    1828    1829    1760
CQUADX4     1848       1    1760    1829    1830    1761
CQUADX4     1849       1    1761    1830    1831    1762
CQUADX4     1850       1    1762    1831    1832    1763
CQUADX4     1851       1    1763    1832    1833    1764
CQUADX4     1852       1    1764    1833    1834    1765
CQUADX4     1853       1    1765    1834    1835    1766
CQUADX4     1854       1    1766    1835    1836    1767
CQUADX4     1855       1    1767    1836    1837    1768
CQUADX4     1856       1    1768    1837    1838    1769
CQUADX4     1857       1    1769    1838    1839    1770
CQUADX4     1858       1    1770    1839    1840    1771
CQUADX4     1859       1    1771    1840    1841    1772
CQUADX4     1860       1    1772    1841    1842    1773
CQUADX4     1861       1    1773    1842    1843    1774
CQUADX4     1862       1    1774    1843    1844    1775
CQUADX4     1863       1    1776    1845    1846    1777
CQUADX4     1864       1    1777    1846    1847    1778
CQUADX4     1865       1    1778    1847    1848    1779
CQUADX4     1866       1    1779    1848    1849    1780
CQUADX4     1867       1    1780    1849    1850    1781
CQUADX4     1868       1    1781    1850    1851    1782
CQUADX4     1869       1    1782    1851    1852    1783
CQUADX4     1870       1    1783    1852    1853    1784
CQUADX4     1871       1    1784    1853    1854    1785
CQUADX4     1872       1    1785    1854    1855    1786
CQUADX4     1873       1    1786    1855    1856    1787
CQUADX4     1874       1    1787    1856    1857    1788
CQUADX4     1875       1    1788    1857    1858    1789
CQUADX4     1876       1    1789    1858    1859    1790
CQUADX4     1877       1    1790    1859    1860    1791
CQUADX4     1878       1    1791    1860    1861    1792
CQUADX4     1879       1    1792    1861    1862    1793
CQUADX4     1880       1    1793    1862    1863    1794
CQUADX4     1881       1    1794    1863    1864    1795
CQUADX4     1882       1    1795    1864    1865    1796
CQUADX4     1883       1    1796    1865    1866    1797
CQUADX4     1884       1    1797    1866    1867    1798
CQUADX4     1885       1    1798    1867    1868    1799
CQUADX4     1886       1    1799    1868    1869    1800
CQUADX4     1887       1    1800    1869    1870    1801
CQUADX4     1888       1    1801    1870    1871    1802
CQUADX4     1889       1    1802    1871    1872    1803
CQUADX4     1890       1    1803    1872    1873    1804
CQUADX4     1891       1    1804    1873    1874    1805
CQUADX4     1892       1    1805    1874    1875    1806
CQUADX4     1893       1    1806    1875    1876    1807
CQUADX4     1894       1    1807    1876    1877    1808
CQUADX4     1895       1    1808    1877    1878    1809
CQUADX4     1896       1    1809    1878    1879    1810
CQUADX4     1897       1    1810    1879    1880    1811
CQUADX4     1898       1    1811    1880    1881    1812
CQUADX4     1899       1    1812    1881    1882    1813
CQUADX4     1900       1    1813    1882    1883    1814
CQUADX4     1901       1    1814    1883    1884    1815
CQUADX4     1902       1    1815    1884    1885    1816
CQUADX4     1903       1    1816    1885    1886    1817
CQUADX4     1904       1    1817    1886    1887    1818
CQUADX4     1905       1    1818    1887    1888    1819
CQUADX4     1906       1    1819    1888    1889    1820
CQUADX4     1907       1    1820    1889    1890    1821
CQUADX4     1908       1    1821    1890    1891    1822
CQUADX4     1909       1    1822    1891    1892    1823
CQUADX4     1910       1    1823    1892    1893    1824
CQUADX4     1911       1    1824    1893    1894    1825
CQUADX4     1912       1    1825    1894    1895    1826
CQUADX4     1913       1    1826    1895    1896    1827
CQUADX4     1914       1    1827    1896    1897    1828
CQUADX4     1915       1    1828    1897    1898    1829
CQUADX4     1916       1    1829    1898    1899    1830
CQUADX4     1917       1    1830    1899    1900    1831
CQUADX4     1918       1    1831    1900    1901    1832
CQUADX4     1919       1    1832    1901    1902    1833
CQUADX4     1920       1    1833    1902    1903    1834
CQUADX4     1921       1    1834    1903    1904    1835
CQUADX4     1922       1    1835    1904    1905    1836
CQUADX4     1923       1    1836    1905    1906    1837
CQUADX4     1924       1    1837    1906    1907    1838
CQUADX4     1925       1    1838    1907    1908    1839
CQUADX4     1926       1    1839    1908    1909    1840
CQUADX4     1927       1    1840    1909    1910    1841
CQUADX4     1928       1    1841    1910    1911    1842
CQUADX4     1929       1    1842    1911    1912    1843
CQUADX4     1930       1    1843    1912    1913    1844
CQUADX4     1931       1    1845    1914    1915    1846
CQUADX4     1932       1    1846    1915    1916    1847
CQUADX4     1933       1    1847    1916    1917    1848
CQUADX4     1934       1    1848    1917    1918    1849
CQUADX4     1935       1    1849    1918    1919    1850
CQUADX4     1936       1    1850    1919    1920    1851
CQUADX4     1937       1    1851    1920    1921    1852
CQUADX4     1938       1    1852    1921    1922    1853
CQUADX4     1939       1    1853    1922    1923    1854
CQUADX4     1940       1    1854    1923    1924    1855
CQUADX4     1941       1    1855    1924    1925    1856
CQUADX4     1942       1    1856    1925    1926    1857
CQUADX4     1943       1    1857    1926    1927    1858
CQUADX4     1944       1    1858    1927    1928    1859
CQUADX4     1945       1    1859    1928    1929    1860
CQUADX4     1946       1    1860    1929    1930    1861
CQUADX4     1947       1    1861    1930    1931    1862
CQUADX4     1948       1    1862    1931    1932    1863
CQUADX4     1949       1    1863    1932    1933    1864
CQUADX4     1950       1    1864    1933    1934    1865
CQUADX4     1951       1    1865    1934    1935    1866
CQUADX4     1952       1    1866    1935    1936    1867
CQUADX4     1953       1    1867    1936    1937    1868
CQUADX4     1954       1    1868    1937    1938    1869
CQUADX4     1955       1    1869    1938    1939    1870
CQUADX4     1956       1    1870    1939    1940    1871
CQUADX4     1957       1    1871    1940    1941    1872
CQUADX4     1958       1    1872    1941    1942    1873
CQUADX4     1959       1    1873    1942    1943    1874
CQUADX4     1960       1    1874    1943    1944    1875
CQUADX4     1961       1    1875    1944    1945    1876
CQUADX4     1962       1    1876    1945    1946    1877
CQUADX4     1963       1    1877    1946    1947    1878
CQUADX4     1964       1    1878    1947    1948    1879
CQUADX4     1965       1    1879    1948    1949    1880
CQUADX4     1966       1    1880    1949    1950    1881
CQUADX4     1967       1    1881    1950    1951    1882
CQUADX4     1968       1    1882    1951    1952    1883
CQUADX4     1969       1    1883    1952    1953    1884
CQUADX4     1970       1    1884    1953    1954    1885
CQUADX4     1971       1    1885    1954    1955    1886
CQUADX4     1972       1    1886    1955    1956    1887
CQUADX4     1973       1    1887    1956    1957    1888
CQUADX4     1974       1    1888    1957    1958    1889
CQUADX4     1975       1    1889    1958    1959    1890
CQUADX4     1976       1    1890    1959    1960    1891
CQUADX4     1977       1    1891    1960    1961    1892
CQUADX4     1978       1    1892    1961    1962    1893
CQUADX4     1979       1    1893    1962    1963    1894
CQUADX4     1980       1    1894    1963    1964    1895
CQUADX4     1981       1    1895    1964    1965    1896
CQUADX4     1982       1    1896    1965    1966    1897
CQUADX4     1983       1    1897    1966    1967    1898
CQUADX4     1984       1    1898    1967    1968    1899
CQUADX4     1985       1    1899    1968    1969    1900
CQUADX4     1986       1    1900    1969    1970    1901
CQUADX4     1987       1    1901    1970    1971    1902
CQUADX4     1988       1    1902    1971    1972    1903
CQUADX4     1989       1    1903    1972    1973    1904
CQUADX4     1990       1    1904    1973    1974    1905
CQUADX4     1991       1    1905    1974    1975    1906
CQUADX4     1992       1    1906    1975    1976    1907
CQUADX4     1993       1    1907    1976    1977    1908
CQUADX4     1994       1    1908    1977    1978    1909
CQUADX4     1995       1    1909    1978    1979    1910
CQUADX4     1996       1    1910    1979    1980    1911
CQUADX4     1997       1    1911    1980    1981    1912
CQUADX4     1998       1    1912    1981    1982    1913
CQUADX4     1999       1    1914    1983    1984    1915
CQUADX4     2000       1    1915    1984    1985    1916
CQUADX4     2001       1    1916    1985    1986    1917
CQUADX4     2002       1    1917    1986    1987    1918
CQUADX4     2003       1    1918    1987    1988    1919
CQUADX4     2004       1    1919    1988    1989    1920
CQUADX4     2005       1    1920    1989    1990    1921
CQUADX4     2006       1    1921    1990    1991    1922
CQUADX4     2007       1    1922    1991    1992    1923
CQUADX4     2008       1    1923    1992    1993    1924
CQUADX4     2009       1    1924    1993    1994    1925
CQUADX4     2010       1    1925    1994    1995    1926
CQUADX4     2011       1    1926    1995    1996    1927
CQUADX4     2012       1    1927    1996    1997    1928
CQUADX4     2013       1    1928    1997    1998    1929
CQUADX4     2014       1    1929    1998    1999    1930
CQUADX4     2015       1    1930    1999    2000    1931
CQUADX4     2016       1    1931    2000    2001    1932
CQUADX4     2017       1    1932    2001    2002    1933
CQUADX4     2018       1    1933    2002    2003    1934
CQUADX4     2019       1    1934    2003    2004    1935
CQUADX4     2020       1    1935    2004    2005    1936
CQUADX4     2021       1    1936    2005    2006    1937
CQUADX4     2022       1    1937    2006    2007    1938
CQUADX4     2023       1    1938    2007    2008    1939
CQUADX4     2024       1    1939    2008    2009    1940
CQUADX4     2025       1    1940    2009    2010    1941
CQUADX4     2026       1    1941    2010    2011    1942
CQUADX4     2027       1    1942    2011    2012    1943
CQUADX4     2028       1    1943    2012    2013    1944
CQUADX4     2029       1    1944    2013    2014    1945
CQUADX4     2030       1    1945    2014    2015    1946
CQUADX4     2031       1    1946    2015    2016    1947
CQUADX4     2032       1    1947    2016    2017    1948
CQUADX4     2033       1    1948    2017    2018    1949
CQUADX4     2034       1    1949    2018    2019    1950
CQUADX4     2035       1    1950    2019    2020    1951
CQUADX4     2036       1    1951    2020    2021    1952
CQUADX4     2037       1    1952    2021    2022    1953
CQUADX4     2038       1    1953    2022    2023    1954
CQUADX4     2039       1    1954    2023    2024    1955
CQUADX4     2040       1    1955    2024    2025    1956
CQUADX4     2041       1    1956    2025    2026    1957
CQUADX4     2042       1    1957    2026    2027    1958
CQUADX4     2043       1    1958    2027    2028    1959
CQUADX4     2044       1    1959    2028    2029    1960
CQUADX4     2045       1    1960    2029    2030    1961
CQUADX4     2046       1    1961    2030    2031    1962
CQUADX4     2047       1    1962    2031    2032    1963
CQUADX4     2048       1    1963    2032    2033    1964
CQUADX4     2049       1    1964    2033    2034    1965
CQUADX4     2050       1    1965    2034    2035    1966
CQUADX4     2051       1    1966    2035    2036    1967
CQUADX4     2052       1    1967    2036    2037    1968
CQUADX4     2053       1    1968    2037    2038    1969
CQUADX4     2054       1    1969    2038    2039    1970
CQUADX4     2055       1    1970    2039    2040    1971
CQUADX4     2056       1    1971    2040    2041    1972
CQUADX4     2057       1    1972    2041    2042    1973
CQUADX4     2058       1    1973    2042    2043    1974
CQUADX4     2059       1    1974    2043    2044    1975
CQUADX4     2060       1    1975    2044    2045    1976
CQUADX4     2061       1    1976    2045    2046    1977
CQUADX4     2062       1    1977    2046    2047    1978
CQUADX4     2063       1    1978    2047    2048    1979
CQUADX4     2064       1    1979    2048    2049    1980
CQUADX4     2065       1    1980    2049    2050    1981
CQUADX4     2066       1    1981    2050    2051    1982
CQUADX4     2067       1    1983    2052    2053    1984
CQUADX4     2068       1    1984    2053    2054    1985
CQUADX4     2069       1    1985    2054    2055    1986
CQUADX4     2070       1    1986    2055    2056    1987
CQUADX4     2071       1    1987    2056    2057    1988
CQUADX4     2072       1    1988    2057    2058    1989
CQUADX4     2073       1    1989    2058    2059    1990
CQUADX4     2074       1    1990    2059    2060    1991
CQUADX4     2075       1    1991    2060    2061    1992
CQUADX4     2076       1    1992    2061    2062    1993
CQUADX4     2077       1    1993    2062    2063    1994
CQUADX4     2078       1    1994    2063    2064    1995
CQUADX4     2079       1    1995    2064    2065    1996
CQUADX4     2080       1    1996    2065    2066    1997
CQUADX4     2081       1    1997    2066    2067    1998
CQUADX4     2082       1    1998    2067    2068    1999
CQUADX4     2083       1    1999    2068    2069    2000
CQUADX4     2084       1    2000    2069    2070    2001
CQUADX4     2085       1    2001    2070    2071    2002
CQUADX4     2086       1    2002    2071    2072    2003
CQUADX4     2087       1    2003    2072    2073    2004
CQUADX4     2088       1    2004    2073    2074    2005
CQUADX4     2089       1    2005    2074    2075    2006
CQUADX4     2090       1    2006    2075    2076    2007
CQUADX4     2091       1    2007    2076    2077    2008
CQUADX4     2092       1    2008    2077    2078    2009
CQUADX4     2093       1    2009    2078    2079    2010
CQUADX4     2094       1    2010    2079    2080    2011
CQUADX4     2095       1    2011    2080    2081    2012
CQUADX4     2096       1    2012    2081    2082    2013
CQUADX4     2097       1    2013    2082    2083    2014
CQUADX4     2098       1    2014    2083    2084    2015
CQUADX4     2099       1    2015    2084    2085    2016
CQUADX4     2100       1    2016    2085    2086    2017
CQUADX4     2101       1    2017    2086    2087    2018
CQUADX4     2102       1    2018    2087    2088    2019
CQUADX4     2103       1    2019    2088    2089    2020
CQUADX4     2104       1    2020    2089    2090    2021
CQUADX4     2105       1    2021    2090    2091    2022
CQUADX4     2106       1    2022    2091    2092    2023
CQUADX4     2107       1    2023    2092    2093    2024
CQUADX4     2108       1    2024    2093    2094    2025
CQUADX4     2109       1    2025    2094    2095    2026
CQUADX4     2110       1    2026    2095    2096    2027
CQUADX4     2111       1    2027    2096    2097    2028
CQUADX4     2112       1    2028    2097    2098    2029
CQUADX4     2113       1    2029    2098    2099    2030
CQUADX4     2114       1    2030    2099    2100    2031
CQUADX4     2115       1    2031    2100    2101    2032
CQUADX4     2116       1    2032    2101    2102    2033
CQUADX4     2117       1    2033    2102    2103    2034
CQUADX4     2118       1    2034    2103    2104    2035
CQUADX4     2119       1    2035    2104    2105    2036
CQUADX4     2120       1    2036    2105    2106    2037
CQUADX4     2121       1    2037    2106    2107    2038
CQUADX4     2122       1    2038    2107    2108    2039
CQUADX4     2123       1    2039    2108    2109    2040
CQUADX4     2124       1    2040    2109    2110    2041
CQUADX4     2125       1    2041    2110    2111    2042
CQUADX4     2126       1    2042    2111    2112    2043
CQUADX4     2127       1    2043    2112    2113    2044
CQUADX4     2128       1    2044    2113    2114    2045
CQUADX4     2129       1    2045    2114    2115    2046
CQUADX4     2130       1    2046    2115    2116    2047
CQUADX4     2131       1    2047    2116    2117    2048
CQUADX4     2132       1    2048    2117    2118    2049
CQUADX4     2133       1    2049    2118    2119    2050
CQUADX4     2134       1    2050    2119    2120    2051
CQUADX4     2135       1    2052    2121    2122    2053
CQUADX4     2136       1    2053    2122    2123    2054
CQUADX4     2137       1    2054    2123    2124    2055
CQUADX4     2138       1    2055    2124    2125    2056
CQUADX4     2139       1    2056    2125    2126    2057
CQUADX4     2140       1    2057    2126    2127    2058
CQUADX4     2141       1    2058    2127    2128    2059
CQUADX4     2142       1    2059    2128    2129    2060
CQUADX4     2143       1    2060    2129    2130    2061
CQUADX4     2144       1    2061    2130    2131    2062
CQUADX4     2145       1    2062    2131    2132    2063
CQUADX4     2146       1    2063    2132    2133    2064
CQUADX4     2147       1    2064    2133    2134    2065
CQUADX4     2148       1    2065    2134    2135    2066
CQUADX4     2149       1    2066    2135    2136    2067
CQUADX4     2150       1    2067    2136    2137    2068
CQUADX4     2151       1    2068    2137    2138    2069
CQUADX4     2152       1    2069    2138    2139    2070
CQUADX4     2153       1    2070    2139    2140    2071
CQUADX4     2154       1    2071    2140    2141    2072
CQUADX4     2155       1    2072    2141    2142    2073
CQUADX4     2156       1    2073    2142    2143    2074
CQUADX4     2157       1    2074    2143    2144    2075
CQUADX4     2158       1    2075    2144    2145    2076
CQUADX4     2159       1    2076    2145    2146    2077
CQUADX4     2160       1    2077    2146    2147    2078
CQUADX4     2161       1    2078    2147    2148    2079
CQUADX4     2162       1    2079    2148    2149    2080
CQUADX4     2163       1    2080    2149    2150    2081
CQUADX4     2164       1    2081    2150    2151    2082
CQUADX4     2165       1    2082    2151    2152    2083
CQUADX4     2166       1    2083    2152    2153    2084
CQUADX4     2167       1    2084    2153    2154    2085
CQUADX4     2168       1    2085    2154    2155    2086
CQUADX4     2169       1    2086    2155    2156    2087
CQUADX4     2170       1    2087    2156    2157    2088
CQUADX4     2171       1    2088    2157    2158    2089
CQUADX4     2172       1    2089    2158    2159    2090
CQUADX4     2173       1    2090    2159    2160    2091
CQUADX4     2174       1    2091    2160    2161    2092
CQUADX4     2175       1    2092    2161    2162    2093
CQUADX4     2176       1    2093    2162    2163    2094
CQUADX4     2177       1    2094    2163    2164    2095
CQUADX4     2178       1    2095    2164    2165    2096
CQUADX4     2179       1    2096    2165    2166    2097
CQUADX4     2180       1    2097    2166    2167    2098
CQUADX4     2181       1    2098    2167    2168    2099
CQUADX4     2182       1    2099    2168    2169    2100
CQUADX4     2183       1    2100    2169    2170    2101
CQUADX4     2184       1    2101    2170    2171    2102
CQUADX4     2185       1    2102    2171    2172    2103
CQUADX4     2186       1    2103    2172    2173    2104
CQUADX4     2187       1    2104    2173    2174    2105
CQUADX4     2188       1    2105    2174    2175    2106
CQUADX4     2189       1    2106    2175    2176    2107
CQUADX4     2190       1    2107    2176    2177    2108
CQUADX4     2191       1    2108    2177    2178    2109
CQUADX4     2192       1    2109    2178    2179    2110
CQUADX4     2193       1    2110    2179    2180    2111
CQUADX4     2194       1    2111    2180    2181    2112
CQUADX4     2195       1    2112    2181    2182    2113
CQUADX4     2196       1    2113    2182    2183    2114
CQUADX4     2197       1    2114    2183    2184    2115
CQUADX4     2198       1    2115    2184    2185    2116
CQUADX4     2199       1    2116    2185    2186    2117
CQUADX4     2200       1    2117    2186    2187    2118
CQUADX4     2201       1    2118    2187    2188    2119
CQUADX4     2202       1    2119    2188    2189    2120
CQUADX4     2203       1    2121    2190    2191    2122
CQUADX4     2204       1    2122    2191    2192    2123
CQUADX4     2205       1    2123    2192    2193    2124
CQUADX4     2206       1    2124    2193    2194    2125
CQUADX4     2207       1    2125    2194    2195    2126
CQUADX4     2208       1    2126    2195    2196    2127
CQUADX4     2209       1    2127    2196    2197    2128
CQUADX4     2210       1    2128    2197    2198    2129
CQUADX4     2211       1    2129    2198    2199    2130
CQUADX4     2212       1    2130    2199    2200    2131
CQUADX4     2213       1    2131    2200    2201    2132
CQUADX4     2214       1    2132    2201    2202    2133
CQUADX4     2215       1    2133    2202    2203    2134
CQUADX4     2216       1    2134    2203    2204    2135
CQUADX4     2217       1    2135    2204    2205    2136
CQUADX4     2218       1    2136    2205    2206    2137
CQUADX4     2219       1    2137    2206    2207    2138
CQUADX4     2220       1    2138    2207    2208    2139
CQUADX4     2221       1    2139    2208    2209    2140
CQUADX4     2222       1    2140    2209    2210    2141
CQUADX4     2223       1    2141    2210    2211    2142
CQUADX4     2224       1    2142    2211    2212    2143
CQUADX4     2225       1    2143    2212    2213    2144
CQUADX4     2226       1    2144    2213    2214    2145
CQUADX4     2227       1    2145    2214    2215    2146
CQUADX4     2228       1    2146    2215    2216    2147
CQUADX4     2229       1    2147    2216    2217    2148
CQUADX4     2230       1    2148    2217    2218    2149
CQUADX4     2231       1    2149    2218    2219    2150
CQUADX4     2232       1    2150    2219    2220    2151
CQUADX4     2233       1    2151    2220    2221    2152
CQUADX4     2234       1    2152    2221    2222    2153
CQUADX4     2235       1    2153    2222    2223    2154
CQUADX4     2236       1    2154    2223    2224    2155
CQUADX4     2237       1    2155    2224    2225    2156
CQUADX4     2238       1    2156    2225    2226    2157
CQUADX4     2239       1    2157    2226    2227    2158
CQUADX4     2240       1    2158    2227    2228    2159
CQUADX4     2241       1    2159    2228    2229    2160
CQUADX4     2242       1    2160    2229    2230    2161
CQUADX4     2243       1    2161    2230    2231    2162
CQUADX4     2244       1    2162    2231    2232    2163
CQUADX4     2245       1    2163    2232    2233    2164
CQUADX4     2246       1    2164    2233    2234    2165
CQUADX4     2247       1    2165    2234    2235    2166
CQUADX4     2248       1    2166    2235    2236    2167
CQUADX4     2249       1    2167    2236    2237    2168
CQUADX4     2250       1    2168    2237    2238    2169
CQUADX4     2251       1    2169    2238    2239    2170
CQUADX4     2252       1    2170    2239    2240    2171
CQUADX4     2253       1    2171    2240    2241    2172
CQUADX4     2254       1    2172    2241    2242    2173
CQUADX4     2255       1    2173    2242    2243    2174
CQUADX4     2256       1    2174    2243    2244    2175
CQUADX4     2257       1    2175    2244    2245    2176
CQUADX4     2258       1    2176    2245    2246    2177
CQUADX4     2259       1    2177    2246    2247    2178
CQUADX4     2260       1    2178    2247    2248    2179
CQUADX4     2261       1    2179    2248    2249    2180
CQUADX4     2262       1    2180    2249    2250    2181
CQUADX4     2263       1    2181    2250    2251    2182
CQUADX4     2264       1    2182    2251    2252    2183
CQUADX4     2265       1    2183    2252    2253    2184
CQUADX4     2266       1    2184    2253    2254    2185
CQUADX4     2267       1    2185    2254    2255    2186
CQUADX4     2268       1    2186    2255    2256    2187
CQUADX4     2269       1    2187    2256    2257    2188
CQUADX4     2270       1    2188    2257    2258    2189
CQUADX4     2271       1    2190    2259    2260    2191
CQUADX4     2272       1    2191    2260    2261    2192
CQUADX4     2273       1    2192    2261    2262    2193
CQUADX4     2274       1    2193    2262    2263    2194
CQUADX4     2275       1    2194    2263    2264    2195
CQUADX4     2276       1    2195    2264    2265    2196
CQUADX4     2277       1    2196    2265    2266    2197
CQUADX4     2278       1    2197    2266    2267    2198
CQUADX4     2279       1    2198    2267    2268    2199
CQUADX4     2280       1    2199    2268    2269    2200
CQUADX4     2281       1    2200    2269    2270    2201
CQUADX4     2282       1    2201    2270    2271    2202
CQUADX4     2283       1    2202    2271    2272    2203
CQUADX4     2284       1    2203    2272    2273    2204
CQUADX4     2285       1    2204    2273    2274    2205
CQUADX4     2286       1    2205    2274    2275    2206
CQUADX4     2287       1    2206    2275    2276    2207
CQUADX4     2288       1    2207    2276    2277    2208
CQUADX4     2289       1    2208    2277    2278    2209
CQUADX4     2290       1    2209    2278    2279    2210
CQUADX4     2291       1    2210    2279    2280    2211
CQUADX4     2292       1    2211    2280    2281    2212
CQUADX4     2293       1    2212    2281    2282    2213
CQUADX4     2294       1    2213    2282    2283    2214
CQUADX4     2295       1    2214    2283    2284    2215
CQUADX4     2296       1    2215    2284    2285    2216
CQUADX4     2297       1    2216    2285    2286    2217
CQUADX4     2298       1    2217    2286    2287    2218
CQUADX4     2299       1    2218    2287    2288    2219
CQUADX4     2300       1    2219    2288    2289    2220
CQUADX4     2301       1    2220    2289    2290    2221
CQUADX4     2302       1    2221    2290    2291    2222
CQUADX4     2303       1    2222    2291    2292    2223
CQUADX4     2304       1    2223    2292    2293    2224
CQUADX4     2305       1    2224    2293    2294    2225
CQUADX4     2306       1    2225    2294    2295    2226
CQUADX4     2307       1    2226    2295    2296    2227
CQUADX4     2308       1    2227    2296    2297    2228
CQUADX4     2309       1    2228    2297    2298    2229
CQUADX4     2310       1    2229    2298    2299    2230
CQUADX4     2311       1    2230    2299    2300    2231
CQUADX4     2312       1    2231    2300    2301    2232
CQUADX4     2313       1    2232    2301    2302    2233
CQUADX4     2314       1    2233    2302    2303    2234
CQUADX4     2315       1    2234    2303    2304    2235
CQUADX4     2316       1    2235    2304    2305    2236
CQUADX4     2317       1    2236    2305    2306    2237
CQUADX4     2318       1    2237    2306    2307    2238
CQUADX4     2319       1    2238    2307    2308    2239
CQUADX4     2320       1    2239    2308    2309    2240
CQUADX4     2321       1    2240    2309    2310    2241
CQUADX4     2322       1    2241    2310    2311    2242
CQUADX4     2323       1    2242    2311    2312    2243
CQUADX4     2324       1    2243    2312    2313    2244
CQUADX4     2325       1    2244    2313    2314    2245
CQUADX4     2326       1    2245    2314    2315    2246
CQUADX4     2327       1    2246    2315    2316    2247
CQUADX4     2328       1    2247    2316    2317    2248
CQUADX4     2329       1    2248    2317    2318    2249
CQUADX4     2330       1    2249    2318    2319    2250
CQUADX4     2331       1    2250    2319    2320    2251
CQUADX4     2332       1    2251    2320    2321    2252
CQUADX4     2333       1    2252    2321    2322    2253
CQUADX4     2334       1    2253    2322    2323    2254
CQUADX4     2335       1    2254    2323    2324    2255
CQUADX4     2336       1    2255    2324    2325    2256
CQUADX4     2337       1    2256    2325    2326    2257
CQUADX4     2338       1    2257    2326    2327    2258
CQUADX4     2339       1    2259    2328    2329    2260
CQUADX4     2340       1    2260    2329    2330    2261
CQUADX4     2341       1    2261    2330    2331    2262
CQUADX4     2342       1    2262    2331    2332    2263
CQUADX4     2343       1    2263    2332    2333    2264
CQUADX4     2344       1    2264    2333    2334    2265
CQUADX4     2345       1    2265    2334    2335    2266
CQUADX4     2346       1    2266    2335    2336    2267
CQUADX4     2347       1    2267    2336    2337    2268
CQUADX4     2348       1    2268    2337    2338    2269
CQUADX4     2349       1    2269    2338    2339    2270
CQUADX4     2350       1    2270    2339    2340    2271
CQUADX4     2351       1    2271    2340    2341    2272
CQUADX4     2352       1    2272    2341    2342    2273
CQUADX4     2353       1    2273    2342    2343    2274
CQUADX4     2354       1    2274    2343    2344    2275
CQUADX4     2355       1    2275    2344    2345    2276
CQUADX4     2356       1    2276    2345    2346    2277
CQUADX4     2357       1    2277    2346    2347    2278
CQUADX4     2358       1    2278    2347    2348    2279
CQUADX4     2359       1    2279    2348    2349    2280
CQUADX4     2360       1    2280    2349    2350    2281
CQUADX4     2361       1    2281    2350    2351    2282
CQUADX4     2362       1    2282    2351    2352    2283
CQUADX4     2363       1    2283    2352    2353    2284
CQUADX4     2364       1    2284    2353    2354    2285
CQUADX4     2365       1    2285    2354    2355    2286
CQUADX4     2366       1    2286    2355    2356    2287
CQUADX4     2367       1    2287    2356    2357    2288
CQUADX4     2368       1    2288    2357    2358    2289
CQUADX4     2369       1    2289    2358    2359    2290
CQUADX4     2370       1    2290    2359    2360    2291
CQUADX4     2371       1    2291    2360    2361    2292
CQUADX4     2372       1    2292    2361    2362    2293
CQUADX4     2373       1    2293    2362    2363    2294
CQUADX4     2374       1    2294    2363    2364    2295
CQUADX4     2375       1    2295    2364    2365    2296
CQUADX4     2376       1    2296    2365    2366    2297
CQUADX4     2377       1    2297    2366    2367    2298
CQUADX4     2378       1    2298    2367    2368    2299
CQUADX4     2379       1    2299    2368    2369    2300
CQUADX4     2380       1    2300    2369    2370    2301
CQUADX4     2381       1    2301    2370    2371    2302
CQUADX4     2382       1    2302    2371    2372    2303
CQUADX4     2383       1    2303    2372    2373    2304
CQUADX4     2384       1    2304    2373    2374    2305
CQUADX4     2385       1    2305    2374    2375    2306
CQUADX4     2386       1    2306    2375    2376    2307
CQUADX4     2387       1    2307    2376    2377    2308
CQUADX4     2388       1    2308    2377    2378    2309
CQUADX4     2389       1    2309    2378    2379    2310
CQUADX4     2390       1    2310    2379    2380    2311
CQUADX4     2391       1    2311    2380    2381    2312
CQUADX4     2392       1    2312    2381    2382    2313
CQUADX4     2393       1    2313    2382    2383    2314
CQUADX4     2394       1    2314    2383    2384    2315
CQUADX4     2395       1    2315    2384    2385    2316
CQUADX4     2396       1    2316    2385    2386    2317
CQUADX4     2397       1    2317    2386    2387    2318
CQUADX4     2398       1    2318    2387    2388    2319
CQUADX4     2399       1    2319    2388    2389    2320
CQUADX4     2400       1    2320    2389    2390    2321
CQUADX4     2401       1    2321    2390    2391    2322
CQUADX4     2402       1    2322    2391    2392    2323
CQUADX4     2403       1    2323    2392    2393    2324
CQUADX4     2404       1    2324    2393    2394    2325
CQUADX4     2405       1    2325    2394    2395    2326
CQUADX4     2406       1    2326    2395    2396    2327
CQUADX4     2407       1    2328    2397    2398    2329
CQUADX4     2408       1    2329    2398    2399    2330
CQUADX4     2409       1    2330    2399    2400    2331
CQUADX4     2410       1    2331    2400    2401    2332
CQUADX4     2411       1    2332    2401    2402    2333
CQUADX4     2412       1    2333    2402    2403    2334
CQUADX4     2413       1    2334    2403    2404    2335
CQUADX4     2414       1    2335    2404    2405    2336
CQUADX4     2415       1    2336    2405    2406    2337
CQUADX4     2416       1    2337    2406    2407    2338
CQUADX4     2417       1    2338    2407    2408    2339
CQUADX4     2418       1    2339    2408    2409    2340
CQUADX4     2419       1    2340    2409    2410    2341
CQUADX4     2420       1    2341    2410    2411    2342
CQUADX4     2421       1    2342    2411    2412    2343
CQUADX4     2422       1    2343    2412    2413    2344
CQUADX4     2423       1    2344    2413    2414    2345
CQUADX4     2424       1    2345    2414    2415    2346
CQUADX4     2425       1    2346    2415    2416    2347
CQUADX4     2426       1    2347    2416    2417    2348
CQUADX4     2427       1    2348    2417    2418    2349
CQUADX4     2428       1    2349    2418    2419    2350
CQUADX4     2429       1    2350    2419    2420    2351
CQUADX4     2430       1    2351    2420    2421    2352
CQUADX4     2431       1    2352    2421    2422    2353
CQUADX4     2432       1    2353    2422    2423    2354
CQUADX4     2433       1    2354    2423    2424    2355
CQUADX4     2434       1    2355    2424    2425    2356
CQUADX4     2435       1    2356    2425    2426    2357
CQUADX4     2436       1    2357    2426    2427    2358
CQUADX4     2437       1    2358    2427    2428    2359
CQUADX4     2438       1    2359    2428    2429    2360
CQUADX4     2439       1    2360    2429    2430    2361
CQUADX4     2440       1    2361    2430    2431    2362
CQUADX4     2441       1    2362    2431    2432    2363
CQUADX4     2442       1    2363    2432    2433    2364
CQUADX4     2443       1    2364    2433    2434    2365
CQUADX4     2444       1    2365    2434    2435    2366
CQUADX4     2445       1    2366    2435    2436    2367
CQUADX4     2446       1    2367    2436    2437    2368
CQUADX4     2447       1    2368    2437    2438    2369
CQUADX4     2448       1    2369    2438    2439    2370
CQUADX4     2449       1    2370    2439    2440    2371
CQUADX4     2450       1    2371    2440    2441    2372
CQUADX4     2451       1    2372    2441    2442    2373
CQUADX4     2452       1    2373    2442    2443    2374
CQUADX4     2453       1    2374    2443    2444    2375
CQUADX4     2454       1    2375    2444    2445    2376
CQUADX4     2455       1    2376    2445    2446    2377
CQUADX4     2456       1    2377    2446    2447    2378
CQUADX4     2457       1    2378    2447    2448    2379
CQUADX4     2458       1    2379    2448    2449    2380
CQUADX4     2459       1    2380    2449    2450    2381
CQUADX4     2460       1    2381    2450    2451    2382
CQUADX4     2461       1    2382    2451    2452    2383
CQUADX4     2462       1    2383    2452    2453    2384
CQUADX4     2463       1    2384    2453    2454    2385
CQUADX4     2464       1    2385    2454    2455    2386
CQUADX4     2465       1    2386    2455    2456    2387
CQUADX4     2466       1    2387    2456    2457    2388
CQUADX4     2467       1    2388    2457    2458    2389
CQUADX4     2468       1    2389    2458    2459    2390
CQUADX4     2469       1    2390    2459    2460    2391
CQUADX4     2470       1    2391    2460    2461    2392
CQUADX4     2471       1    2392    2461    2462    2393
CQUADX4     2472       1    2393    2462    2463    2394
CQUADX4     2473       1    2394    2463    2464    2395
CQUADX4     2474       1    2395    2464    2465    2396
CQUADX4     2475       1    3986    3744    1293    3651
CQUADX4     2476       1    3744    3743    1362    1293
CQUADX4     2477       1    3743    3742    1431    1362
CQUADX4     2478       1    3742    3741    1500    1431
CQUADX4     2479       1    3741    3740    1569    1500
CQUADX4     2480       1    3740    3739    1638    1569
CQUADX4     2481       1    3739    3738    1707    1638
CQUADX4     2482       1    3738    3737    1776    1707
CQUADX4     2483       1    3737    3736    1845    1776
CQUADX4     2484       1    3736    3735    1914    1845
CQUADX4     2485       1    3735    3734    1983    1914
CQUADX4     2486       1    3734    3733    2052    1983
CQUADX4     2487       1    3733    3732    2121    2052
CQUADX4     2488       1    3732    3731    2190    2121
CQUADX4     2489       1    3731    3730    2259    2190
CQUADX4     2490       1    3730    3729    2328    2259
CQUADX4     2491       1    3729    3728    2397    2328
CQUADX4     2492       1    3728    3985    3601    2397
CQUADX4     2493       1    2397    3601    3602    2398
CQUADX4     2494       1    2398    3602    3603    2399
CQUADX4     2495       1    2399    3603    3604    2400
CQUADX4     2496       1    2400    3604    3605    2401
CQUADX4     2497       1    2401    3605    3606    2402
CQUADX4     2498       1    2402    3606    3981    2403
CQUADX4     2499       1    2403    3981    3577    2404
CQUADX4     2500       1    2404    3577    3578    2405
CQUADX4     2501       1    2405    3578    3579    2406
CQUADX4     2502       1    2406    3579    3580    2407
CQUADX4     2503       1    2407    3580    3581    2408
CQUADX4     2504       1    2408    3581    3582    2409
CQUADX4     2505       1    2409    3582    3583    2410
CQUADX4     2506       1    2410    3583    3584    2411
CQUADX4     2507       1    2411    3584    3585    2412
CQUADX4     2508       1    2412    3585    3586    2413
CQUADX4     2509       1    2413    3586    3587    2414
CQUADX4     2510       1    2414    3587    3588    2415
CQUADX4     2511       1    2415    3588    3589    2416
CQUADX4     2512       1    2416    3589    3590    2417
CQUADX4     2513       1    2417    3590    3591    2418
CQUADX4     2514       1    2418    3591    3592    2419
CQUADX4     2515       1    2419    3592    3593    2420
CQUADX4     2516       1    2420    3593    3594    2421
CQUADX4     2517       1    2421    3594    3595    2422
CQUADX4     2518       1    2422    3595    3596    2423
CQUADX4     2519       1    2423    3596    3597    2424
CQUADX4     2520       1    2424    3597    3598    2425
CQUADX4     2521       1    2425    3598    3599    2426
CQUADX4     2522       1    2426    3599    3600    2427
CQUADX4     2523       1    2427    3600    3980    2428
CQUADX4     2524       1    2428    3980    3556    2429
CQUADX4     2525       1    2429    3556    3557    2430
CQUADX4     2526       1    2430    3557    3558    2431
CQUADX4     2527       1    2431    3558    3559    2432
CQUADX4     2528       1    2432    3559    3560    2433
CQUADX4     2529       1    2433    3560    3561    2434
CQUADX4     2530       1    2434    3561    3562    2435
CQUADX4     2531       1    2435    3562    3563    2436
CQUADX4     2532       1    2436    3563    3564    2437
CQUADX4     2533       1    2437    3564    3565    2438
CQUADX4     2534       1    2438    3565    3566    2439
CQUADX4     2535       1    2439    3566    3567    2440
CQUADX4     2536       1    2440    3567    3568    2441
CQUADX4     2537       1    2441    3568    3569    2442
CQUADX4     2538       1    2442    3569    3570    2443
CQUADX4     2539       1    2443    3570    3571    2444
CQUADX4     2540       1    2444    3571    3572    2445
CQUADX4     2541       1    2445    3572    3573    2446
CQUADX4     2542       1    2446    3573    3574    2447
CQUADX4     2543       1    2447    3574    3575    2448
CQUADX4     2544       1    2448    3575    3576    2449
CQUADX4     2545       1    2449    3576    3978    2450
CQUADX4     2546       1    2450    3978    3520    2451
CQUADX4     2547       1    2451    3520    3521    2452
CQUADX4     2548       1    2452    3521    3522    2453
CQUADX4     2549       1    2453    3522    3523    2454
CQUADX4     2550       1    2454    3523    3524    2455
CQUADX4     2551       1    2455    3524    3525    2456
CQUADX4     2552       1    2456    3525    3526    2457
CQUADX4     2553       1    2457    3526    3527    2458
CQUADX4     2554       1    2458    3527    3528    2459
CQUADX4     2555       1    2459    3528    3529    2460
CQUADX4     2556       1    2460    3529    3530    2461
CQUADX4     2557       1    2461    3530    3531    2462
CQUADX4     2558       1    2462    3531    3532    2463
CQUADX4     2559       1    2463    3532    3533    2464
CQUADX4     2560       1    2464    3533    3534    2465
CQUADX4     2561       1    2465    3534    3976    3503
CQUADX4     2562       1    2396    2465    3503    3504
CQUADX4     2563       1    2327    2396    3504    3505
CQUADX4     2564       1    2258    2327    3505    3506
CQUADX4     2565       1    2189    2258    3506    3507
CQUADX4     2566       1    2120    2189    3507    3508
CQUADX4     2567       1    2051    2120    3508    3509
CQUADX4     2568       1    1982    2051    3509    3510
CQUADX4     2569       1    1913    1982    3510    3511
CQUADX4     2570       1    1844    1913    3511    3512
CQUADX4     2571       1    1775    1844    3512    3513
CQUADX4     2572       1    1706    1775    3513    3514
CQUADX4     2573       1    1637    1706    3514    3515
CQUADX4     2574       1    1568    1637    3515    3516
CQUADX4     2575       1    1499    1568    3516    3517
CQUADX4     2576       1    1430    1499    3517    3518
CQUADX4     2577       1    1361    1430    3518    3519
CQUADX4     2578       1    3535    1361    3519    3977
CQUADX4     2579       1    3536    1360    1361    3535
CQUADX4     2580       1    3537    1359    1360    3536
CQUADX4     2581       1    3538    1358    1359    3537
CQUADX4     2582       1    3539    1357    1358    3538
CQUADX4     2583       1    3540    1356    1357    3539
CQUADX4     2584       1    3541    1355    1356    3540
CQUADX4     2585       1    3542    1354    1355    3541
CQUADX4     2586       1    3543    1353    1354    3542
CQUADX4     2587       1    3544    1352    1353    3543
CQUADX4     2588       1    3545    1351    1352    3544
CQUADX4     2589       1    3546    1350    1351    3545
CQUADX4     2590       1    3547    1349    1350    3546
CQUADX4     2591       1    3548    1348    1349    3547
CQUADX4     2592       1    3549    1347    1348    3548
CQUADX4     2593       1    3550    1346    1347    3549
CQUADX4     2594       1    3551    1345    1346    3550
CQUADX4     2595       1    3552    1344    1345    3551
CQUADX4     2596       1    3553    1343    1344    3552
CQUADX4     2597       1    3554    1342    1343    3553
CQUADX4     2598       1    3555    1341    1342    3554
CQUADX4     2599       1    3979    1340    1341    3555
CQUADX4     2600       1    3607    1339    1340    3979
CQUADX4     2601       1    3608    1338    1339    3607
CQUADX4     2602       1    3609    1337    1338    3608
CQUADX4     2603       1    3610    1336    1337    3609
CQUADX4     2604       1    3611    1335    1336    3610
CQUADX4     2605       1    3612    1334    1335    3611
CQUADX4     2606       1    3613    1333    1334    3612
CQUADX4     2607       1    3614    1332    1333    3613
CQUADX4     2608       1    3615    1331    1332    3614
CQUADX4     2609       1    3616    1330    1331    3615
CQUADX4     2610       1    3617    1329    1330    3616
CQUADX4     2611       1    3618    1328    1329    3617
CQUADX4     2612       1    3619    1327    1328    3618
CQUADX4     2613       1    3982    1326    1327    3619
CQUADX4     2614       1    3620    1325    1326    3982
CQUADX4     2615       1    3621    1324    1325    3620
CQUADX4     2616       1    3622    1323    1324    3621
CQUADX4     2617       1    3623    1322    1323    3622
CQUADX4     2618       1    3624    1321    1322    3623
CQUADX4     2619       1    3625    1320    1321    3624
CQUADX4     2620       1    3626    1319    1320    3625
CQUADX4     2621       1    3627    1318    1319    3626
CQUADX4     2622       1    3628    1317    1318    3627
CQUADX4     2623       1    3629    1316    1317    3628
CQUADX4     2624       1    3630    1315    1316    3629
CQUADX4     2625       1    3631    1314    1315    3630
CQUADX4     2626       1    3632    1313    1314    3631
CQUADX4     2627       1    3633    1312    1313    3632
CQUADX4     2628       1    3634    1311    1312    3633
CQUADX4     2629       1    3635    1310    1311    3634
CQUADX4     2630       1    3636    1309    1310    3635
CQUADX4     2631       1    3637    1308    1309    3636
CQUADX4     2632       1    3983    1307    1308    3637
CQUADX4     2633       1    3638    1306    1307    3983
CQUADX4     2634       1    3639    1305    1306    3638
CQUADX4     2635       1    3640    1304    1305    3639
CQUADX4     2636       1    3641    1303    1304    3640
CQUADX4     2637       1    3642    1302    1303    3641
CQUADX4     2638       1    3643    1301    1302    3642
CQUADX4     2639       1    3644    1300    1301    3643
CQUADX4     2640       1    3645    1299    1300    3644
CQUADX4     2641       1    3646    1298    1299    3645
CQUADX4     2642       1    3647    1297    1298    3646
CQUADX4     2643       1    3648    1296    1297    3647
CQUADX4     2644       1    3649    1295    1296    3648
CQUADX4     2645       1    3650    1294    1295    3649
CQUADX4     2646       1    3651    1293    1294    3650
CQUADX4     2647       1    2467    2466    2483    2484
CQUADX4     2648       1    2468    2467    2484    2485
CQUADX4     2649       1    2469    2468    2485    2486
CQUADX4     2650       1    2470    2469    2486    2487
CQUADX4     2651       1    2471    2470    2487    2488
CQUADX4     2652       1    2472    2471    2488    2489
CQUADX4     2653       1    2473    2472    2489    2490
CQUADX4     2654       1    2474    2473    2490    2491
CQUADX4     2655       1    2475    2474    2491    2492
CQUADX4     2656       1    2476    2475    2492    2493
CQUADX4     2657       1    2477    2476    2493    2494
CQUADX4     2658       1    2478    2477    2494    2495
CQUADX4     2659       1    2479    2478    2495    2496
CQUADX4     2660       1    2480    2479    2496    2497
CQUADX4     2661       1    2481    2480    2497    2498
CQUADX4     2662       1    2482    2481    2498    2499
CQUADX4     2663       1    2484    2483    2500    2501
CQUADX4     2664       1    2485    2484    2501    2502
CQUADX4     2665       1    2486    2485    2502    2503
CQUADX4     2666       1    2487    2486    2503    2504
CQUADX4     2667       1    2488    2487    2504    2505
CQUADX4     2668       1    2489    2488    2505    2506
CQUADX4     2669       1    2490    2489    2506    2507
CQUADX4     2670       1    2491    2490    2507    2508
CQUADX4     2671       1    2492    2491    2508    2509
CQUADX4     2672       1    2493    2492    2509    2510
CQUADX4     2673       1    2494    2493    2510    2511
CQUADX4     2674       1    2495    2494    2511    2512
CQUADX4     2675       1    2496    2495    2512    2513
CQUADX4     2676       1    2497    2496    2513    2514
CQUADX4     2677       1    2498    2497    2514    2515
CQUADX4     2678       1    2499    2498    2515    2516
CQUADX4     2679       1    2501    2500    2517    2518
CQUADX4     2680       1    2502    2501    2518    2519
CQUADX4     2681       1    2503    2502    2519    2520
CQUADX4     2682       1    2504    2503    2520    2521
CQUADX4     2683       1    2505    2504    2521    2522
CQUADX4     2684       1    2506    2505    2522    2523
CQUADX4     2685       1    2507    2506    2523    2524
CQUADX4     2686       1    2508    2507    2524    2525
CQUADX4     2687       1    2509    2508    2525    2526
CQUADX4     2688       1    2510    2509    2526    2527
CQUADX4     2689       1    2511    2510    2527    2528
CQUADX4     2690       1    2512    2511    2528    2529
CQUADX4     2691       1    2513    2512    2529    2530
CQUADX4     2692       1    2514    2513    2530    2531
CQUADX4     2693       1    2515    2514    2531    2532
CQUADX4     2694       1    2516    2515    2532    2533
CQUADX4     2695       1    2518    2517    2534    2535
CQUADX4     2696       1    2519    2518    2535    2536
CQUADX4     2697       1    2520    2519    2536    2537
CQUADX4     2698       1    2521    2520    2537    2538
CQUADX4     2699       1    2522    2521    2538    2539
CQUADX4     2700       1    2523    2522    2539    2540
CQUADX4     2701       1    2524    2523    2540    2541
CQUADX4     2702       1    2525    2524    2541    2542
CQUADX4     2703       1    2526    2525    2542    2543
CQUADX4     2704       1    2527    2526    2543    2544
CQUADX4     2705       1    2528    2527    2544    2545
CQUADX4     2706       1    2529    2528    2545    2546
CQUADX4     2707       1    2530    2529    2546    2547
CQUADX4     2708       1    2531    2530    2547    2548
CQUADX4     2709       1    2532    2531    2548    2549
CQUADX4     2710       1    2533    2532    2549    2550
CQUADX4     2711       1    2535    2534    2551    2552
CQUADX4     2712       1    2536    2535    2552    2553
CQUADX4     2713       1    2537    2536    2553    2554
CQUADX4     2714       1    2538    2537    2554    2555
CQUADX4     2715       1    2539    2538    2555    2556
CQUADX4     2716       1    2540    2539    2556    2557
CQUADX4     2717       1    2541    2540    2557    2558
CQUADX4     2718       1    2542    2541    2558    2559
CQUADX4     2719       1    2543    2542    2559    2560
CQUADX4     2720       1    2544    2543    2560    2561
CQUADX4     2721       1    2545    2544    2561    2562
CQUADX4     2722       1    2546    2545    2562    2563
CQUADX4     2723       1    2547    2546    2563    2564
CQUADX4     2724       1    2548    2547    2564    2565
CQUADX4     2725       1    2549    2548    2565    2566
CQUADX4     2726       1    2550    2549    2566    2567
CQUADX4     2727       1    2552    2551    2568    2569
CQUADX4     2728       1    2553    2552    2569    2570
CQUADX4     2729       1    2554    2553    2570    2571
CQUADX4     2730       1    2555    2554    2571    2572
CQUADX4     2731       1    2556    2555    2572    2573
CQUADX4     2732       1    2557    2556    2573    2574
CQUADX4     2733       1    2558    2557    2574    2575
CQUADX4     2734       1    2559    2558    2575    2576
CQUADX4     2735       1    2560    2559    2576    2577
CQUADX4     2736       1    2561    2560    2577    2578
CQUADX4     2737       1    2562    2561    2578    2579
CQUADX4     2738       1    2563    2562    2579    2580
CQUADX4     2739       1    2564    2563    2580    2581
CQUADX4     2740       1    2565    2564    2581    2582
CQUADX4     2741       1    2566    2565    2582    2583
CQUADX4     2742       1    2567    2566    2583    2584
CQUADX4     2743       1    2569    2568    2585    2586
CQUADX4     2744       1    2570    2569    2586    2587
CQUADX4     2745       1    2571    2570    2587    2588
CQUADX4     2746       1    2572    2571    2588    2589
CQUADX4     2747       1    2573    2572    2589    2590
CQUADX4     2748       1    2574    2573    2590    2591
CQUADX4     2749       1    2575    2574    2591    2592
CQUADX4     2750       1    2576    2575    2592    2593
CQUADX4     2751       1    2577    2576    2593    2594
CQUADX4     2752       1    2578    2577    2594    2595
CQUADX4     2753       1    2579    2578    2595    2596
CQUADX4     2754       1    2580    2579    2596    2597
CQUADX4     2755       1    2581    2580    2597    2598
CQUADX4     2756       1    2582    2581    2598    2599
CQUADX4     2757       1    2583    2582    2599    2600
CQUADX4     2758       1    2584    2583    2600    2601
CQUADX4     2759       1    2586    2585    2602    2603
CQUADX4     2760       1    2587    2586    2603    2604
CQUADX4     2761       1    2588    2587    2604    2605
CQUADX4     2762       1    2589    2588    2605    2606
CQUADX4     2763       1    2590    2589    2606    2607
CQUADX4     2764       1    2591    2590    2607    2608
CQUADX4     2765       1    2592    2591    2608    2609
CQUADX4     2766       1    2593    2592    2609    2610
CQUADX4     2767       1    2594    2593    2610    2611
CQUADX4     2768       1    2595    2594    2611    2612
CQUADX4     2769       1    2596    2595    2612    2613
CQUADX4     2770       1    2597    2596    2613    2614
CQUADX4     2771       1    2598    2597    2614    2615
CQUADX4     2772       1    2599    2598    2615    2616
CQUADX4     2773       1    2600    2599    2616    2617
CQUADX4     2774       1    2601    2600    2617    2618
CQUADX4     2775       1    2603    2602    2619    2620
CQUADX4     2776       1    2604    2603    2620    2621
CQUADX4     2777       1    2605    2604    2621    2622
CQUADX4     2778       1    2606    2605    2622    2623
CQUADX4     2779       1    2607    2606    2623    2624
CQUADX4     2780       1    2608    2607    2624    2625
CQUADX4     2781       1    2609    2608    2625    2626
CQUADX4     2782       1    2610    2609    2626    2627
CQUADX4     2783       1    2611    2610    2627    2628
CQUADX4     2784       1    2612    2611    2628    2629
CQUADX4     2785       1    2613    2612    2629    2630
CQUADX4     2786       1    2614    2613    2630    2631
CQUADX4     2787       1    2615    2614    2631    2632
CQUADX4     2788       1    2616    2615    2632    2633
CQUADX4     2789       1    2617    2616    2633    2634
CQUADX4     2790       1    2618    2617    2634    2635
CQUADX4     2791       1    2620    2619    2636    2637
CQUADX4     2792       1    2621    2620    2637    2638
CQUADX4     2793       1    2622    2621    2638    2639
CQUADX4     2794       1    2623    2622    2639    2640
CQUADX4     2795       1    2624    2623    2640    2641
CQUADX4     2796       1    2625    2624    2641    2642
CQUADX4     2797       1    2626    2625    2642    2643
CQUADX4     2798       1    2627    2626    2643    2644
CQUADX4     2799       1    2628    2627    2644    2645
CQUADX4     2800       1    2629    2628    2645    2646
CQUADX4     2801       1    2630    2629    2646    2647
CQUADX4     2802       1    2631    2630    2647    2648
CQUADX4     2803       1    2632    2631    2648    2649
CQUADX4     2804       1    2633    2632    2649    2650
CQUADX4     2805       1    2634    2633    2650    2651
CQUADX4     2806       1    2635    2634    2651    2652
CQUADX4     2807       1    2637    2636    2653    2654
CQUADX4     2808       1    2638    2637    2654    2655
CQUADX4     2809       1    2639    2638    2655    2656
CQUADX4     2810       1    2640    2639    2656    2657
CQUADX4     2811       1    2641    2640    2657    2658
CQUADX4     2812       1    2642    2641    2658    2659
CQUADX4     2813       1    2643    2642    2659    2660
CQUADX4     2814       1    2644    2643    2660    2661
CQUADX4     2815       1    2645    2644    2661    2662
CQUADX4     2816       1    2646    2645    2662    2663
CQUADX4     2817       1    2647    2646    2663    2664
CQUADX4     2818       1    2648    2647    2664    2665
CQUADX4     2819       1    2649    2648    2665    2666
CQUADX4     2820       1    2650    2649    2666    2667
CQUADX4     2821       1    2651    2650    2667    2668
CQUADX4     2822       1    2652    2651    2668    2669
CQUADX4     2823       1    2654    2653    2670    2671
CQUADX4     2824       1    2655    2654    2671    2672
CQUADX4     2825       1    2656    2655    2672    2673
CQUADX4     2826       1    2657    2656    2673    2674
CQUADX4     2827       1    2658    2657    2674    2675
CQUADX4     2828       1    2659    2658    2675    2676
CQUADX4     2829       1    2660    2659    2676    2677
CQUADX4     2830       1    2661    2660    2677    2678
CQUADX4     2831       1    2662    2661    2678    2679
CQUADX4     2832       1    2663    2662    2679    2680
CQUADX4     2833       1    2664    2663    2680    2681
CQUADX4     2834       1    2665    2664    2681    2682
CQUADX4     2835       1    2666    2665    2682    2683
CQUADX4     2836       1    2667    2666    2683    2684
CQUADX4     2837       1    2668    2667    2684    2685
CQUADX4     2838       1    2669    2668    2685    2686
CQUADX4     2839       1    2671    2670    2687    2688
CQUADX4     2840       1    2672    2671    2688    2689
CQUADX4     2841       1    2673    2672    2689    2690
CQUADX4     2842       1    2674    2673    2690    2691
CQUADX4     2843       1    2675    2674    2691    2692
CQUADX4     2844       1    2676    2675    2692    2693
CQUADX4     2845       1    2677    2676    2693    2694
CQUADX4     2846       1    2678    2677    2694    2695
CQUADX4     2847       1    2679    2678    2695    2696
CQUADX4     2848       1    2680    2679    2696    2697
CQUADX4     2849       1    2681    2680    2697    2698
CQUADX4     2850       1    2682    2681    2698    2699
CQUADX4     2851       1    2683    2682    2699    2700
CQUADX4     2852       1    2684    2683    2700    2701
CQUADX4     2853       1    2685    2684    2701    2702
CQUADX4     2854       1    2686    2685    2702    2703
CQUADX4     2855       1    2688    2687    2704    2705
CQUADX4     2856       1    2689    2688    2705    2706
CQUADX4     2857       1    2690    2689    2706    2707
CQUADX4     2858       1    2691    2690    2707    2708
CQUADX4     2859       1    2692    2691    2708    2709
CQUADX4     2860       1    2693    2692    2709    2710
CQUADX4     2861       1    2694    2693    2710    2711
CQUADX4     2862       1    2695    2694    2711    2712
CQUADX4     2863       1    2696    2695    2712    2713
CQUADX4     2864       1    2697    2696    2713    2714
CQUADX4     2865       1    2698    2697    2714    2715
CQUADX4     2866       1    2699    2698    2715    2716
CQUADX4     2867       1    2700    2699    2716    2717
CQUADX4     2868       1    2701    2700    2717    2718
CQUADX4     2869       1    2702    2701    2718    2719
CQUADX4     2870       1    2703    2702    2719    2720
CQUADX4     2871       1    2705    2704    2721    2722
CQUADX4     2872       1    2706    2705    2722    2723
CQUADX4     2873       1    2707    2706    2723    2724
CQUADX4     2874       1    2708    2707    2724    2725
CQUADX4     2875       1    2709    2708    2725    2726
CQUADX4     2876       1    2710    2709    2726    2727
CQUADX4     2877       1    2711    2710    2727    2728
CQUADX4     2878       1    2712    2711    2728    2729
CQUADX4     2879       1    2713    2712    2729    2730
CQUADX4     2880       1    2714    2713    2730    2731
CQUADX4     2881       1    2715    2714    2731    2732
CQUADX4     2882       1    2716    2715    2732    2733
CQUADX4     2883       1    2717    2716    2733    2734
CQUADX4     2884       1    2718    2717    2734    2735
CQUADX4     2885       1    2719    2718    2735    2736
CQUADX4     2886       1    2720    2719    2736    2737
CQUADX4     2887       1    2722    2721    2738    2739
CQUADX4     2888       1    2723    2722    2739    2740
CQUADX4     2889       1    2724    2723    2740    2741
CQUADX4     2890       1    2725    2724    2741    2742
CQUADX4     2891       1    2726    2725    2742    2743
CQUADX4     2892       1    2727    2726    2743    2744
CQUADX4     2893       1    2728    2727    2744    2745
CQUADX4     2894       1    2729    2728    2745    2746
CQUADX4     2895       1    2730    2729    2746    2747
CQUADX4     2896       1    2731    2730    2747    2748
CQUADX4     2897       1    2732    2731    2748    2749
CQUADX4     2898       1    2733    2732    2749    2750
CQUADX4     2899       1    2734    2733    2750    2751
CQUADX4     2900       1    2735    2734    2751    2752
CQUADX4     2901       1    2736    2735    2752    2753
CQUADX4     2902       1    2737    2736    2753    2754
CQUADX4     2903       1    2739    2738    2755    2756
CQUADX4     2904       1    2740    2739    2756    2757
CQUADX4     2905       1    2741    2740    2757    2758
CQUADX4     2906       1    2742    2741    2758    2759
CQUADX4     2907       1    2743    2742    2759    2760
CQUADX4     2908       1    2744    2743    2760    2761
CQUADX4     2909       1    2745    2744    2761    2762
CQUADX4     2910       1    2746    2745    2762    2763
CQUADX4     2911       1    2747    2746    2763    2764
CQUADX4     2912       1    2748    2747    2764    2765
CQUADX4     2913       1    2749    2748    2765    2766
CQUADX4     2914       1    2750    2749    2766    2767
CQUADX4     2915       1    2751    2750    2767    2768
CQUADX4     2916       1    2752    2751    2768    2769
CQUADX4     2917       1    2753    2752    2769    2770
CQUADX4     2918       1    2754    2753    2770    2771
CQUADX4     2919       1    2756    2755    2772    2773
CQUADX4     2920       1    2757    2756    2773    2774
CQUADX4     2921       1    2758    2757    2774    2775
CQUADX4     2922       1    2759    2758    2775    2776
CQUADX4     2923       1    2760    2759    2776    2777
CQUADX4     2924       1    2761    2760    2777    2778
CQUADX4     2925       1    2762    2761    2778    2779
CQUADX4     2926       1    2763    2762    2779    2780
CQUADX4     2927       1    2764    2763    2780    2781
CQUADX4     2928       1    2765    2764    2781    2782
CQUADX4     2929       1    2766    2765    2782    2783
CQUADX4     2930       1    2767    2766    2783    2784
CQUADX4     2931       1    2768    2767    2784    2785
CQUADX4     2932       1    2769    2768    2785    2786
CQUADX4     2933       1    2770    2769    2786    2787
CQUADX4     2934       1    2771    2770    2787    2788
CQUADX4     2935       1    2773    2772    2789    2790
CQUADX4     2936       1    2774    2773    2790    2791
CQUADX4     2937       1    2775    2774    2791    2792
CQUADX4     2938       1    2776    2775    2792    2793
CQUADX4     2939       1    2777    2776    2793    2794
CQUADX4     2940       1    2778    2777    2794    2795
CQUADX4     2941       1    2779    2778    2795    2796
CQUADX4     2942       1    2780    2779    2796    2797
CQUADX4     2943       1    2781    2780    2797    2798
CQUADX4     2944       1    2782    2781    2798    2799
CQUADX4     2945       1    2783    2782    2799    2800
CQUADX4     2946       1    2784    2783    2800    2801
CQUADX4     2947       1    2785    2784    2801    2802
CQUADX4     2948       1    2786    2785    2802    2803
CQUADX4     2949       1    2787    2786    2803    2804
CQUADX4     2950       1    2788    2787    2804    2805
CQUADX4     2951       1    2790    2789    2806    2807
CQUADX4     2952       1    2791    2790    2807    2808
CQUADX4     2953       1    2792    2791    2808    2809
CQUADX4     2954       1    2793    2792    2809    2810
CQUADX4     2955       1    2794    2793    2810    2811
CQUADX4     2956       1    2795    2794    2811    2812
CQUADX4     2957       1    2796    2795    2812    2813
CQUADX4     2958       1    2797    2796    2813    2814
CQUADX4     2959       1    2798    2797    2814    2815
CQUADX4     2960       1    2799    2798    2815    2816
CQUADX4     2961       1    2800    2799    2816    2817
CQUADX4     2962       1    2801    2800    2817    2818
CQUADX4     2963       1    2802    2801    2818    2819
CQUADX4     2964       1    2803    2802    2819    2820
CQUADX4     2965       1    2804    2803    2820    2821
CQUADX4     2966       1    2805    2804    2821    2822
CQUADX4     2967       1    2807    2806    2823    2824
CQUADX4     2968       1    2808    2807    2824    2825
CQUADX4     2969       1    2809    2808    2825    2826
CQUADX4     2970       1    2810    2809    2826    2827
CQUADX4     2971       1    2811    2810    2827    2828
CQUADX4     2972       1    2812    2811    2828    2829
CQUADX4     2973       1    2813    2812    2829    2830
CQUADX4     2974       1    2814    2813    2830    2831
CQUADX4     2975       1    2815    2814    2831    2832
CQUADX4     2976       1    2816    2815    2832    2833
CQUADX4     2977       1    2817    2816    2833    2834
CQUADX4     2978       1    2818    2817    2834    2835
CQUADX4     2979       1    2819    2818    2835    2836
CQUADX4     2980       1    2820    2819    2836    2837
CQUADX4     2981       1    2821    2820    2837    2838
CQUADX4     2982       1    2822    2821    2838    2839
CQUADX4     2983       1    2824    2823    2840    2841
CQUADX4     2984       1    2825    2824    2841    2842
CQUADX4     2985       1    2826    2825    2842    2843
CQUADX4     2986       1    2827    2826    2843    2844
CQUADX4     2987       1    2828    2827    2844    2845
CQUADX4     2988       1    2829    2828    2845    2846
CQUADX4     2989       1    2830    2829    2846    2847
CQUADX4     2990       1    2831    2830    2847    2848
CQUADX4     2991       1    2832    2831    2848    2849
CQUADX4     2992       1    2833    2832    2849    2850
CQUADX4     2993       1    2834    2833    2850    2851
CQUADX4     2994       1    2835    2834    2851    2852
CQUADX4     2995       1    2836    2835    2852    2853
CQUADX4     2996       1    2837    2836    2853    2854
CQUADX4     2997       1    2838    2837    2854    2855
CQUADX4     2998       1    2839    2838    2855    2856
CQUADX4     2999       1    2841    2840    2857    2858
CQUADX4     3000       1    2842    2841    2858    2859
CQUADX4     3001       1    2843    2842    2859    2860
CQUADX4     3002       1    2844    2843    2860    2861
CQUADX4     3003       1    2845    2844    2861    2862
CQUADX4     3004       1    2846    2845    2862    2863
CQUADX4     3005       1    2847    2846    2863    2864
CQUADX4     3006       1    2848    2847    2864    2865
CQUADX4     3007       1    2849    2848    2865    2866
CQUADX4     3008       1    2850    2849    2866    2867
CQUADX4     3009       1    2851    2850    2867    2868
CQUADX4     3010       1    2852    2851    2868    2869
CQUADX4     3011       1    2853    2852    2869    2870
CQUADX4     3012       1    2854    2853    2870    2871
CQUADX4     3013       1    2855    2854    2871    2872
CQUADX4     3014       1    2856    2855    2872    2873
CQUADX4     3015       1    2858    2857    2874    2875
CQUADX4     3016       1    2859    2858    2875    2876
CQUADX4     3017       1    2860    2859    2876    2877
CQUADX4     3018       1    2861    2860    2877    2878
CQUADX4     3019       1    2862    2861    2878    2879
CQUADX4     3020       1    2863    2862    2879    2880
CQUADX4     3021       1    2864    2863    2880    2881
CQUADX4     3022       1    2865    2864    2881    2882
CQUADX4     3023       1    2866    2865    2882    2883
CQUADX4     3024       1    2867    2866    2883    2884
CQUADX4     3025       1    2868    2867    2884    2885
CQUADX4     3026       1    2869    2868    2885    2886
CQUADX4     3027       1    2870    2869    2886    2887
CQUADX4     3028       1    2871    2870    2887    2888
CQUADX4     3029       1    2872    2871    2888    2889
CQUADX4     3030       1    2873    2872    2889    2890
CQUADX4     3031       1    2875    2874    2891    2892
CQUADX4     3032       1    2876    2875    2892    2893
CQUADX4     3033       1    2877    2876    2893    2894
CQUADX4     3034       1    2878    2877    2894    2895
CQUADX4     3035       1    2879    2878    2895    2896
CQUADX4     3036       1    2880    2879    2896    2897
CQUADX4     3037       1    2881    2880    2897    2898
CQUADX4     3038       1    2882    2881    2898    2899
CQUADX4     3039       1    2883    2882    2899    2900
CQUADX4     3040       1    2884    2883    2900    2901
CQUADX4     3041       1    2885    2884    2901    2902
CQUADX4     3042       1    2886    2885    2902    2903
CQUADX4     3043       1    2887    2886    2903    2904
CQUADX4     3044       1    2888    2887    2904    2905
CQUADX4     3045       1    2889    2888    2905    2906
CQUADX4     3046       1    2890    2889    2906    2907
CQUADX4     3047       1    2892    2891    2908    2909
CQUADX4     3048       1    2893    2892    2909    2910
CQUADX4     3049       1    2894    2893    2910    2911
CQUADX4     3050       1    2895    2894    2911    2912
CQUADX4     3051       1    2896    2895    2912    2913
CQUADX4     3052       1    2897    2896    2913    2914
CQUADX4     3053       1    2898    2897    2914    2915
CQUADX4     3054       1    2899    2898    2915    2916
CQUADX4     3055       1    2900    2899    2916    2917
CQUADX4     3056       1    2901    2900    2917    2918
CQUADX4     3057       1    2902    2901    2918    2919
CQUADX4     3058       1    2903    2902    2919    2920
CQUADX4     3059       1    2904    2903    2920    2921
CQUADX4     3060       1    2905    2904    2921    2922
CQUADX4     3061       1    2906    2905    2922    2923
CQUADX4     3062       1    2907    2906    2923    2924
CQUADX4     3063       1    2909    2908    2925    2926
CQUADX4     3064       1    2910    2909    2926    2927
CQUADX4     3065       1    2911    2910    2927    2928
CQUADX4     3066       1    2912    2911    2928    2929
CQUADX4     3067       1    2913    2912    2929    2930
CQUADX4     3068       1    2914    2913    2930    2931
CQUADX4     3069       1    2915    2914    2931    2932
CQUADX4     3070       1    2916    2915    2932    2933
CQUADX4     3071       1    2917    2916    2933    2934
CQUADX4     3072       1    2918    2917    2934    2935
CQUADX4     3073       1    2919    2918    2935    2936
CQUADX4     3074       1    2920    2919    2936    2937
CQUADX4     3075       1    2921    2920    2937    2938
CQUADX4     3076       1    2922    2921    2938    2939
CQUADX4     3077       1    2923    2922    2939    2940
CQUADX4     3078       1    2924    2923    2940    2941
CQUADX4     3079       1    2926    2925    2942    2943
CQUADX4     3080       1    2927    2926    2943    2944
CQUADX4     3081       1    2928    2927    2944    2945
CQUADX4     3082       1    2929    2928    2945    2946
CQUADX4     3083       1    2930    2929    2946    2947
CQUADX4     3084       1    2931    2930    2947    2948
CQUADX4     3085       1    2932    2931    2948    2949
CQUADX4     3086       1    2933    2932    2949    2950
CQUADX4     3087       1    2934    2933    2950    2951
CQUADX4     3088       1    2935    2934    2951    2952
CQUADX4     3089       1    2936    2935    2952    2953
CQUADX4     3090       1    2937    2936    2953    2954
CQUADX4     3091       1    2938    2937    2954    2955
CQUADX4     3092       1    2939    2938    2955    2956
CQUADX4     3093       1    2940    2939    2956    2957
CQUADX4     3094       1    2941    2940    2957    2958
CQUADX4     3095       1    2943    2942    2959    2960
CQUADX4     3096       1    2944    2943    2960    2961
CQUADX4     3097       1    2945    2944    2961    2962
CQUADX4     3098       1    2946    2945    2962    2963
CQUADX4     3099       1    2947    2946    2963    2964
CQUADX4     3100       1    2948    2947    2964    2965
CQUADX4     3101       1    2949    2948    2965    2966
CQUADX4     3102       1    2950    2949    2966    2967
CQUADX4     3103       1    2951    2950    2967    2968
CQUADX4     3104       1    2952    2951    2968    2969
CQUADX4     3105       1    2953    2952    2969    2970
CQUADX4     3106       1    2954    2953    2970    2971
CQUADX4     3107       1    2955    2954    2971    2972
CQUADX4     3108       1    2956    2955    2972    2973
CQUADX4     3109       1    2957    2956    2973    2974
CQUADX4     3110       1    2958    2957    2974    2975
CQUADX4     3111       1    2960    2959    2976    2977
CQUADX4     3112       1    2961    2960    2977    2978
CQUADX4     3113       1    2962    2961    2978    2979
CQUADX4     3114       1    2963    2962    2979    2980
CQUADX4     3115       1    2964    2963    2980    2981
CQUADX4     3116       1    2965    2964    2981    2982
CQUADX4     3117       1    2966    2965    2982    2983
CQUADX4     3118       1    2967    2966    2983    2984
CQUADX4     3119       1    2968    2967    2984    2985
CQUADX4     3120       1    2969    2968    2985    2986
CQUADX4     3121       1    2970    2969    2986    2987
CQUADX4     3122       1    2971    2970    2987    2988
CQUADX4     3123       1    2972    2971    2988    2989
CQUADX4     3124       1    2973    2972    2989    2990
CQUADX4     3125       1    2974    2973    2990    2991
CQUADX4     3126       1    2975    2974    2991    2992
CQUADX4     3127       1    2977    2976    2993    2994
CQUADX4     3128       1    2978    2977    2994    2995
CQUADX4     3129       1    2979    2978    2995    2996
CQUADX4     3130       1    2980    2979    2996    2997
CQUADX4     3131       1    2981    2980    2997    2998
CQUADX4     3132       1    2982    2981    2998    2999
CQUADX4     3133       1    2983    2982    2999    3000
CQUADX4     3134       1    2984    2983    3000    3001
CQUADX4     3135       1    2985    2984    3001    3002
CQUADX4     3136       1    2986    2985    3002    3003
CQUADX4     3137       1    2987    2986    3003    3004
CQUADX4     3138       1    2988    2987    3004    3005
CQUADX4     3139       1    2989    2988    3005    3006
CQUADX4     3140       1    2990    2989    3006    3007
CQUADX4     3141       1    2991    2990    3007    3008
CQUADX4     3142       1    2992    2991    3008    3009
CQUADX4     3143       1    2994    2993    3010    3011
CQUADX4     3144       1    2995    2994    3011    3012
CQUADX4     3145       1    2996    2995    3012    3013
CQUADX4     3146       1    2997    2996    3013    3014
CQUADX4     3147       1    2998    2997    3014    3015
CQUADX4     3148       1    2999    2998    3015    3016
CQUADX4     3149       1    3000    2999    3016    3017
CQUADX4     3150       1    3001    3000    3017    3018
CQUADX4     3151       1    3002    3001    3018    3019
CQUADX4     3152       1    3003    3002    3019    3020
CQUADX4     3153       1    3004    3003    3020    3021
CQUADX4     3154       1    3005    3004    3021    3022
CQUADX4     3155       1    3006    3005    3022    3023
CQUADX4     3156       1    3007    3006    3023    3024
CQUADX4     3157       1    3008    3007    3024    3025
CQUADX4     3158       1    3009    3008    3025    3026
CQUADX4     3159       1    3011    3010    3027    3028
CQUADX4     3160       1    3012    3011    3028    3029
CQUADX4     3161       1    3013    3012    3029    3030
CQUADX4     3162       1    3014    3013    3030    3031
CQUADX4     3163       1    3015    3014    3031    3032
CQUADX4     3164       1    3016    3015    3032    3033
CQUADX4     3165       1    3017    3016    3033    3034
CQUADX4     3166       1    3018    3017    3034    3035
CQUADX4     3167       1    3019    3018    3035    3036
CQUADX4     3168       1    3020    3019    3036    3037
CQUADX4     3169       1    3021    3020    3037    3038
CQUADX4     3170       1    3022    3021    3038    3039
CQUADX4     3171       1    3023    3022    3039    3040
CQUADX4     3172       1    3024    3023    3040    3041
CQUADX4     3173       1    3025    3024    3041    3042
CQUADX4     3174       1    3026    3025    3042    3043
CQUADX4     3175       1    3028    3027    3044    3045
CQUADX4     3176       1    3029    3028    3045    3046
CQUADX4     3177       1    3030    3029    3046    3047
CQUADX4     3178       1    3031    3030    3047    3048
CQUADX4     3179       1    3032    3031    3048    3049
CQUADX4     3180       1    3033    3032    3049    3050
CQUADX4     3181       1    3034    3033    3050    3051
CQUADX4     3182       1    3035    3034    3051    3052
CQUADX4     3183       1    3036    3035    3052    3053
CQUADX4     3184       1    3037    3036    3053    3054
CQUADX4     3185       1    3038    3037    3054    3055
CQUADX4     3186       1    3039    3038    3055    3056
CQUADX4     3187       1    3040    3039    3056    3057
CQUADX4     3188       1    3041    3040    3057    3058
CQUADX4     3189       1    3042    3041    3058    3059
CQUADX4     3190       1    3043    3042    3059    3060
CQUADX4     3191       1    3045    3044    3061    3062
CQUADX4     3192       1    3046    3045    3062    3063
CQUADX4     3193       1    3047    3046    3063    3064
CQUADX4     3194       1    3048    3047    3064    3065
CQUADX4     3195       1    3049    3048    3065    3066
CQUADX4     3196       1    3050    3049    3066    3067
CQUADX4     3197       1    3051    3050    3067    3068
CQUADX4     3198       1    3052    3051    3068    3069
CQUADX4     3199       1    3053    3052    3069    3070
CQUADX4     3200       1    3054    3053    3070    3071
CQUADX4     3201       1    3055    3054    3071    3072
CQUADX4     3202       1    3056    3055    3072    3073
CQUADX4     3203       1    3057    3056    3073    3074
CQUADX4     3204       1    3058    3057    3074    3075
CQUADX4     3205       1    3059    3058    3075    3076
CQUADX4     3206       1    3060    3059    3076    3077
CQUADX4     3207       1    3062    3061    3078    3079
CQUADX4     3208       1    3063    3062    3079    3080
CQUADX4     3209       1    3064    3063    3080    3081
CQUADX4     3210       1    3065    3064    3081    3082
CQUADX4     3211       1    3066    3065    3082    3083
CQUADX4     3212       1    3067    3066    3083    3084
CQUADX4     3213       1    3068    3067    3084    3085
CQUADX4     3214       1    3069    3068    3085    3086
CQUADX4     3215       1    3070    3069    3086    3087
CQUADX4     3216       1    3071    3070    3087    3088
CQUADX4     3217       1    3072    3071    3088    3089
CQUADX4     3218       1    3073    3072    3089    3090
CQUADX4     3219       1    3074    3073    3090    3091
CQUADX4     3220       1    3075    3074    3091    3092
CQUADX4     3221       1    3076    3075    3092    3093
CQUADX4     3222       1    3077    3076    3093    3094
CQUADX4     3223       1    3079    3078    3095    3096
CQUADX4     3224       1    3080    3079    3096    3097
CQUADX4     3225       1    3081    3080    3097    3098
CQUADX4     3226       1    3082    3081    3098    3099
CQUADX4     3227       1    3083    3082    3099    3100
CQUADX4     3228       1    3084    3083    3100    3101
CQUADX4     3229       1    3085    3084    3101    3102
CQUADX4     3230       1    3086    3085    3102    3103
CQUADX4     3231       1    3087    3086    3103    3104
CQUADX4     3232       1    3088    3087    3104    3105
CQUADX4     3233       1    3089    3088    3105    3106
CQUADX4     3234       1    3090    3089    3106    3107
CQUADX4     3235       1    3091    3090    3107    3108
CQUADX4     3236       1    3092    3091    3108    3109
CQUADX4     3237       1    3093    3092    3109    3110
CQUADX4     3238       1    3094    3093    3110    3111
CQUADX4     3239       1    3096    3095    3112    3113
CQUADX4     3240       1    3097    3096    3113    3114
CQUADX4     3241       1    3098    3097    3114    3115
CQUADX4     3242       1    3099    3098    3115    3116
CQUADX4     3243       1    3100    3099    3116    3117
CQUADX4     3244       1    3101    3100    3117    3118
CQUADX4     3245       1    3102    3101    3118    3119
CQUADX4     3246       1    3103    3102    3119    3120
CQUADX4     3247       1    3104    3103    3120    3121
CQUADX4     3248       1    3105    3104    3121    3122
CQUADX4     3249       1    3106    3105    3122    3123
CQUADX4     3250       1    3107    3106    3123    3124
CQUADX4     3251       1    3108    3107    3124    3125
CQUADX4     3252       1    3109    3108    3125    3126
CQUADX4     3253       1    3110    3109    3126    3127
CQUADX4     3254       1    3111    3110    3127    3128
CQUADX4     3255       1    3113    3112    3129    3130
CQUADX4     3256       1    3114    3113    3130    3131
CQUADX4     3257       1    3115    3114    3131    3132
CQUADX4     3258       1    3116    3115    3132    3133
CQUADX4     3259       1    3117    3116    3133    3134
CQUADX4     3260       1    3118    3117    3134    3135
CQUADX4     3261       1    3119    3118    3135    3136
CQUADX4     3262       1    3120    3119    3136    3137
CQUADX4     3263       1    3121    3120    3137    3138
CQUADX4     3264       1    3122    3121    3138    3139
CQUADX4     3265       1    3123    3122    3139    3140
CQUADX4     3266       1    3124    3123    3140    3141
CQUADX4     3267       1    3125    3124    3141    3142
CQUADX4     3268       1    3126    3125    3142    3143
CQUADX4     3269       1    3127    3126    3143    3144
CQUADX4     3270       1    3128    3127    3144    3145
CQUADX4     3271       1    3130    3129    3146    3147
CQUADX4     3272       1    3131    3130    3147    3148
CQUADX4     3273       1    3132    3131    3148    3149
CQUADX4     3274       1    3133    3132    3149    3150
CQUADX4     3275       1    3134    3133    3150    3151
CQUADX4     3276       1    3135    3134    3151    3152
CQUADX4     3277       1    3136    3135    3152    3153
CQUADX4     3278       1    3137    3136    3153    3154
CQUADX4     3279       1    3138    3137    3154    3155
CQUADX4     3280       1    3139    3138    3155    3156
CQUADX4     3281       1    3140    3139    3156    3157
CQUADX4     3282       1    3141    3140    3157    3158
CQUADX4     3283       1    3142    3141    3158    3159
CQUADX4     3284       1    3143    3142    3159    3160
CQUADX4     3285       1    3144    3143    3160    3161
CQUADX4     3286       1    3145    3144    3161    3162
CQUADX4     3287       1    3147    3146    3163    3164
CQUADX4     3288       1    3148    3147    3164    3165
CQUADX4     3289       1    3149    3148    3165    3166
CQUADX4     3290       1    3150    3149    3166    3167
CQUADX4     3291       1    3151    3150    3167    3168
CQUADX4     3292       1    3152    3151    3168    3169
CQUADX4     3293       1    3153    3152    3169    3170
CQUADX4     3294       1    3154    3153    3170    3171
CQUADX4     3295       1    3155    3154    3171    3172
CQUADX4     3296       1    3156    3155    3172    3173
CQUADX4     3297       1    3157    3156    3173    3174
CQUADX4     3298       1    3158    3157    3174    3175
CQUADX4     3299       1    3159    3158    3175    3176
CQUADX4     3300       1    3160    3159    3176    3177
CQUADX4     3301       1    3161    3160    3177    3178
CQUADX4     3302       1    3162    3161    3178    3179
CQUADX4     3303       1    3164    3163    3180    3181
CQUADX4     3304       1    3165    3164    3181    3182
CQUADX4     3305       1    3166    3165    3182    3183
CQUADX4     3306       1    3167    3166    3183    3184
CQUADX4     3307       1    3168    3167    3184    3185
CQUADX4     3308       1    3169    3168    3185    3186
CQUADX4     3309       1    3170    3169    3186    3187
CQUADX4     3310       1    3171    3170    3187    3188
CQUADX4     3311       1    3172    3171    3188    3189
CQUADX4     3312       1    3173    3172    3189    3190
CQUADX4     3313       1    3174    3173    3190    3191
CQUADX4     3314       1    3175    3174    3191    3192
CQUADX4     3315       1    3176    3175    3192    3193
CQUADX4     3316       1    3177    3176    3193    3194
CQUADX4     3317       1    3178    3177    3194    3195
CQUADX4     3318       1    3179    3178    3195    3196
CQUADX4     3319       1    3181    3180    3197    3198
CQUADX4     3320       1    3182    3181    3198    3199
CQUADX4     3321       1    3183    3182    3199    3200
CQUADX4     3322       1    3184    3183    3200    3201
CQUADX4     3323       1    3185    3184    3201    3202
CQUADX4     3324       1    3186    3185    3202    3203
CQUADX4     3325       1    3187    3186    3203    3204
CQUADX4     3326       1    3188    3187    3204    3205
CQUADX4     3327       1    3189    3188    3205    3206
CQUADX4     3328       1    3190    3189    3206    3207
CQUADX4     3329       1    3191    3190    3207    3208
CQUADX4     3330       1    3192    3191    3208    3209
CQUADX4     3331       1    3193    3192    3209    3210
CQUADX4     3332       1    3194    3193    3210    3211
CQUADX4     3333       1    3195    3194    3211    3212
CQUADX4     3334       1    3196    3195    3212    3213
CQUADX4     3335       1    3198    3197    3214    3215
CQUADX4     3336       1    3199    3198    3215    3216
CQUADX4     3337       1    3200    3199    3216    3217
CQUADX4     3338       1    3201    3200    3217    3218
CQUADX4     3339       1    3202    3201    3218    3219
CQUADX4     3340       1    3203    3202    3219    3220
CQUADX4     3341       1    3204    3203    3220    3221
CQUADX4     3342       1    3205    3204    3221    3222
CQUADX4     3343       1    3206    3205    3222    3223
CQUADX4     3344       1    3207    3206    3223    3224
CQUADX4     3345       1    3208    3207    3224    3225
CQUADX4     3346       1    3209    3208    3225    3226
CQUADX4     3347       1    3210    3209    3226    3227
CQUADX4     3348       1    3211    3210    3227    3228
CQUADX4     3349       1    3212    3211    3228    3229
CQUADX4     3350       1    3213    3212    3229    3230
CQUADX4     3351       1    3215    3214    3231    3232
CQUADX4     3352       1    3216    3215    3232    3233
CQUADX4     3353       1    3217    3216    3233    3234
CQUADX4     3354       1    3218    3217    3234    3235
CQUADX4     3355       1    3219    3218    3235    3236
CQUADX4     3356       1    3220    3219    3236    3237
CQUADX4     3357       1    3221    3220    3237    3238
CQUADX4     3358       1    3222    3221    3238    3239
CQUADX4     3359       1    3223    3222    3239    3240
CQUADX4     3360       1    3224    3223    3240    3241
CQUADX4     3361       1    3225    3224    3241    3242
CQUADX4     3362       1    3226    3225    3242    3243
CQUADX4     3363       1    3227    3226    3243    3244
CQUADX4     3364       1    3228    3227    3244    3245
CQUADX4     3365       1    3229    3228    3245    3246
CQUADX4     3366       1    3230    3229    3246    3247
CQUADX4     3367       1    3232    3231    3248    3249
CQUADX4     3368       1    3233    3232    3249    3250
CQUADX4     3369       1    3234    3233    3250    3251
CQUADX4     3370       1    3235    3234    3251    3252
CQUADX4     3371       1    3236    3235    3252    3253
CQUADX4     3372       1    3237    3236    3253    3254
CQUADX4     3373       1    3238    3237    3254    3255
CQUADX4     3374       1    3239    3238    3255    3256
CQUADX4     3375       1    3240    3239    3256    3257
CQUADX4     3376       1    3241    3240    3257    3258
CQUADX4     3377       1    3242    3241    3258    3259
CQUADX4     3378       1    3243    3242    3259    3260
CQUADX4     3379       1    3244    3243    3260    3261
CQUADX4     3380       1    3245    3244    3261    3262
CQUADX4     3381       1    3246    3245    3262    3263
CQUADX4     3382       1    3247    3246    3263    3264
CQUADX4     3383       1    3249    3248    3265    3266
CQUADX4     3384       1    3250    3249    3266    3267
CQUADX4     3385       1    3251    3250    3267    3268
CQUADX4     3386       1    3252    3251    3268    3269
CQUADX4     3387       1    3253    3252    3269    3270
CQUADX4     3388       1    3254    3253    3270    3271
CQUADX4     3389       1    3255    3254    3271    3272
CQUADX4     3390       1    3256    3255    3272    3273
CQUADX4     3391       1    3257    3256    3273    3274
CQUADX4     3392       1    3258    3257    3274    3275
CQUADX4     3393       1    3259    3258    3275    3276
CQUADX4     3394       1    3260    3259    3276    3277
CQUADX4     3395       1    3261    3260    3277    3278
CQUADX4     3396       1    3262    3261    3278    3279
CQUADX4     3397       1    3263    3262    3279    3280
CQUADX4     3398       1    3264    3263    3280    3281
CQUADX4     3399       1    3266    3265    3282    3283
CQUADX4     3400       1    3267    3266    3283    3284
CQUADX4     3401       1    3268    3267    3284    3285
CQUADX4     3402       1    3269    3268    3285    3286
CQUADX4     3403       1    3270    3269    3286    3287
CQUADX4     3404       1    3271    3270    3287    3288
CQUADX4     3405       1    3272    3271    3288    3289
CQUADX4     3406       1    3273    3272    3289    3290
CQUADX4     3407       1    3274    3273    3290    3291
CQUADX4     3408       1    3275    3274    3291    3292
CQUADX4     3409       1    3276    3275    3292    3293
CQUADX4     3410       1    3277    3276    3293    3294
CQUADX4     3411       1    3278    3277    3294    3295
CQUADX4     3412       1    3279    3278    3295    3296
CQUADX4     3413       1    3280    3279    3296    3297
CQUADX4     3414       1    3281    3280    3297    3298
CQUADX4     3415       1    3283    3282    3299    3300
CQUADX4     3416       1    3284    3283    3300    3301
CQUADX4     3417       1    3285    3284    3301    3302
CQUADX4     3418       1    3286    3285    3302    3303
CQUADX4     3419       1    3287    3286    3303    3304
CQUADX4     3420       1    3288    3287    3304    3305
CQUADX4     3421       1    3289    3288    3305    3306
CQUADX4     3422       1    3290    3289    3306    3307
CQUADX4     3423       1    3291    3290    3307    3308
CQUADX4     3424       1    3292    3291    3308    3309
CQUADX4     3425       1    3293    3292    3309    3310
CQUADX4     3426       1    3294    3293    3310    3311
CQUADX4     3427       1    3295    3294    3311    3312
CQUADX4     3428       1    3296    3295    3312    3313
CQUADX4     3429       1    3297    3296    3313    3314
CQUADX4     3430       1    3298    3297    3314    3315
CQUADX4     3431       1    3300    3299    3316    3317
CQUADX4     3432       1    3301    3300    3317    3318
CQUADX4     3433       1    3302    3301    3318    3319
CQUADX4     3434       1    3303    3302    3319    3320
CQUADX4     3435       1    3304    3303    3320    3321
CQUADX4     3436       1    3305    3304    3321    3322
CQUADX4     3437       1    3306    3305    3322    3323
CQUADX4     3438       1    3307    3306    3323    3324
CQUADX4     3439       1    3308    3307    3324    3325
CQUADX4     3440       1    3309    3308    3325    3326
CQUADX4     3441       1    3310    3309    3326    3327
CQUADX4     3442       1    3311    3310    3327    3328
CQUADX4     3443       1    3312    3311    3328    3329
CQUADX4     3444       1    3313    3312    3329    3330
CQUADX4     3445       1    3314    3313    3330    3331
CQUADX4     3446       1    3315    3314    3331    3332
CQUADX4     3447       1    3317    3316    3333    3334
CQUADX4     3448       1    3318    3317    3334    3335
CQUADX4     3449       1    3319    3318    3335    3336
CQUADX4     3450       1    3320    3319    3336    3337
CQUADX4     3451       1    3321    3320    3337    3338
CQUADX4     3452       1    3322    3321    3338    3339
CQUADX4     3453       1    3323    3322    3339    3340
CQUADX4     3454       1    3324    3323    3340    3341
CQUADX4     3455       1    3325    3324    3341    3342
CQUADX4     3456       1    3326    3325    3342    3343
CQUADX4     3457       1    3327    3326    3343    3344
CQUADX4     3458       1    3328    3327    3344    3345
CQUADX4     3459       1    3329    3328    3345    3346
CQUADX4     3460       1    3330    3329    3346    3347
CQUADX4     3461       1    3331    3330    3347    3348
CQUADX4     3462       1    3332    3331    3348    3349
CQUADX4     3463       1    3334    3333    3350    3351
CQUADX4     3464       1    3335    3334    3351    3352
CQUADX4     3465       1    3336    3335    3352    3353
CQUADX4     3466       1    3337    3336    3353    3354
CQUADX4     3467       1    3338    3337    3354    3355
CQUADX4     3468       1    3339    3338    3355    3356
CQUADX4     3469       1    3340    3339    3356    3357
CQUADX4     3470       1    3341    3340    3357    3358
CQUADX4     3471       1    3342    3341    3358    3359
CQUADX4     3472       1    3343    3342    3359    3360
CQUADX4     3473       1    3344    3343    3360    3361
CQUADX4     3474       1    3345    3344    3361    3362
CQUADX4     3475       1    3346    3345    3362    3363
CQUADX4     3476       1    3347    3346    3363    3364
CQUADX4     3477       1    3348    3347    3364    3365
CQUADX4     3478       1    3349    3348    3365    3366
CQUADX4     3479       1    3351    3350    3367    3368
CQUADX4     3480       1    3352    3351    3368    3369
CQUADX4     3481       1    3353    3352    3369    3370
CQUADX4     3482       1    3354    3353    3370    3371
CQUADX4     3483       1    3355    3354    3371    3372
CQUADX4     3484       1    3356    3355    3372    3373
CQUADX4     3485       1    3357    3356    3373    3374
CQUADX4     3486       1    3358    3357    3374    3375
CQUADX4     3487       1    3359    3358    3375    3376
CQUADX4     3488       1    3360    3359    3376    3377
CQUADX4     3489       1    3361    3360    3377    3378
CQUADX4     3490       1    3362    3361    3378    3379
CQUADX4     3491       1    3363    3362    3379    3380
CQUADX4     3492       1    3364    3363    3380    3381
CQUADX4     3493       1    3365    3364    3381    3382
CQUADX4     3494       1    3366    3365    3382    3383
CQUADX4     3495       1    3368    3367    3384    3385
CQUADX4     3496       1    3369    3368    3385    3386
CQUADX4     3497       1    3370    3369    3386    3387
CQUADX4     3498       1    3371    3370    3387    3388
CQUADX4     3499       1    3372    3371    3388    3389
CQUADX4     3500       1    3373    3372    3389    3390
CQUADX4     3501       1    3374    3373    3390    3391
CQUADX4     3502       1    3375    3374    3391    3392
CQUADX4     3503       1    3376    3375    3392    3393
CQUADX4     3504       1    3377    3376    3393    3394
CQUADX4     3505       1    3378    3377    3394    3395
CQUADX4     3506       1    3379    3378    3395    3396
CQUADX4     3507       1    3380    3379    3396    3397
CQUADX4     3508       1    3381    3380    3397    3398
CQUADX4     3509       1    3382    3381    3398    3399
CQUADX4     3510       1    3383    3382    3399    3400
CQUADX4     3511       1    3385    3384    3401    3402
CQUADX4     3512       1    3386    3385    3402    3403
CQUADX4     3513       1    3387    3386    3403    3404
CQUADX4     3514       1    3388    3387    3404    3405
CQUADX4     3515       1    3389    3388    3405    3406
CQUADX4     3516       1    3390    3389    3406    3407
CQUADX4     3517       1    3391    3390    3407    3408
CQUADX4     3518       1    3392    3391    3408    3409
CQUADX4     3519       1    3393    3392    3409    3410
CQUADX4     3520       1    3394    3393    3410    3411
CQUADX4     3521       1    3395    3394    3411    3412
CQUADX4     3522       1    3396    3395    3412    3413
CQUADX4     3523       1    3397    3396    3413    3414
CQUADX4     3524       1    3398    3397    3414    3415
CQUADX4     3525       1    3399    3398    3415    3416
CQUADX4     3526       1    3400    3399    3416    3417
CQUADX4     3527       1    3402    3401    3418    3419
CQUADX4     3528       1    3403    3402    3419    3420
CQUADX4     3529       1    3404    3403    3420    3421
CQUADX4     3530       1    3405    3404    3421    3422
CQUADX4     3531       1    3406    3405    3422    3423
CQUADX4     3532       1    3407    3406    3423    3424
CQUADX4     3533       1    3408    3407    3424    3425
CQUADX4     3534       1    3409    3408    3425    3426
CQUADX4     3535       1    3410    3409    3426    3427
CQUADX4     3536       1    3411    3410    3427    3428
CQUADX4     3537       1    3412    3411    3428    3429
CQUADX4     3538       1    3413    3412    3429    3430
CQUADX4     3539       1    3414    3413    3430    3431
CQUADX4     3540       1    3415    3414    3431    3432
CQUADX4     3541       1    3416    3415    3432    3433
CQUADX4     3542       1    3417    3416    3433    3434
CQUADX4     3543       1    3419    3418    3435    3436
CQUADX4     3544       1    3420    3419    3436    3437
CQUADX4     3545       1    3421    3420    3437    3438
CQUADX4     3546       1    3422    3421    3438    3439
CQUADX4     3547       1    3423    3422    3439    3440
CQUADX4     3548       1    3424    3423    3440    3441
CQUADX4     3549       1    3425    3424    3441    3442
CQUADX4     3550       1    3426    3425    3442    3443
CQUADX4     3551       1    3427    3426    3443    3444
CQUADX4     3552       1    3428    3427    3444    3445
CQUADX4     3553       1    3429    3428    3445    3446
CQUADX4     3554       1    3430    3429    3446    3447
CQUADX4     3555       1    3431    3430    3447    3448
CQUADX4     3556       1    3432    3431    3448    3449
CQUADX4     3557       1    3433    3432    3449    3450
CQUADX4     3558       1    3434    3433    3450    3451
CQUADX4     3559       1    3436    3435    3452    3453
CQUADX4     3560       1    3437    3436    3453    3454
CQUADX4     3561       1    3438    3437    3454    3455
CQUADX4     3562       1    3439    3438    3455    3456
CQUADX4     3563       1    3440    3439    3456    3457
CQUADX4     3564       1    3441    3440    3457    3458
CQUADX4     3565       1    3442    3441    3458    3459
CQUADX4     3566       1    3443    3442    3459    3460
CQUADX4     3567       1    3444    3443    3460    3461
CQUADX4     3568       1    3445    3444    3461    3462
CQUADX4     3569       1    3446    3445    3462    3463
CQUADX4     3570       1    3447    3446    3463    3464
CQUADX4     3571       1    3448    3447    3464    3465
CQUADX4     3572       1    3449    3448    3465    3466
CQUADX4     3573       1    3450    3449    3466    3467
CQUADX4     3574       1    3451    3450    3467    3468
CQUADX4     3575       1    3453    3452    3469    3470
CQUADX4     3576       1    3454    3453    3470    3471
CQUADX4     3577       1    3455    3454    3471    3472
CQUADX4     3578       1    3456    3455    3472    3473
CQUADX4     3579       1    3457    3456    3473    3474
CQUADX4     3580       1    3458    3457    3474    3475
CQUADX4     3581       1    3459    3458    3475    3476
CQUADX4     3582       1    3460    3459    3476    3477
CQUADX4     3583       1    3461    3460    3477    3478
CQUADX4     3584       1    3462    3461    3478    3479
CQUADX4     3585       1    3463    3462    3479    3480
CQUADX4     3586       1    3464    3463    3480    3481
CQUADX4     3587       1    3465    3464    3481    3482
CQUADX4     3588       1    3466    3465    3482    3483
CQUADX4     3589       1    3467    3466    3483    3484
CQUADX4     3590       1    3468    3467    3484    3485
CQUADX4     3591       1    3470    3469    3486    3487
CQUADX4     3592       1    3471    3470    3487    3488
CQUADX4     3593       1    3472    3471    3488    3489
CQUADX4     3594       1    3473    3472    3489    3490
CQUADX4     3595       1    3474    3473    3490    3491
CQUADX4     3596       1    3475    3474    3491    3492
CQUADX4     3597       1    3476    3475    3492    3493
CQUADX4     3598       1    3477    3476    3493    3494
CQUADX4     3599       1    3478    3477    3494    3495
CQUADX4     3600       1    3479    3478    3495    3496
CQUADX4     3601       1    3480    3479    3496    3497
CQUADX4     3602       1    3481    3480    3497    3498
CQUADX4     3603       1    3482    3481    3498    3499
CQUADX4     3604       1    3483    3482    3499    3500
CQUADX4     3605       1    3484    3483    3500    3501
CQUADX4     3606       1    3485    3484    3501    3502
CQUADX4     3607       1    3821    3987    3915    2466
CQUADX4     3608       1    2466    3915    3916    2483
CQUADX4     3609       1    2483    3916    3917    2500
CQUADX4     3610       1    2500    3917    3918    2517
CQUADX4     3611       1    2517    3918    3919    2534
CQUADX4     3612       1    2534    3919    3920    2551
CQUADX4     3613       1    2551    3920    3921    2568
CQUADX4     3614       1    2568    3921    3922    2585
CQUADX4     3615       1    2585    3922    3923    2602
CQUADX4     3616       1    2602    3923    3924    2619
CQUADX4     3617       1    2619    3924    3925    2636
CQUADX4     3618       1    2636    3925    3926    2653
CQUADX4     3619       1    2653    3926    3927    2670
CQUADX4     3620       1    2670    3927    3928    2687
CQUADX4     3621       1    2687    3928    3929    2704
CQUADX4     3622       1    2704    3929    3930    2721
CQUADX4     3623       1    2721    3930    3931    2738
CQUADX4     3624       1    2738    3931    3932    2755
CQUADX4     3625       1    2755    3932    3933    2772
CQUADX4     3626       1    2772    3933    3934    2789
CQUADX4     3627       1    2789    3934    3935    2806
CQUADX4     3628       1    2806    3935    3936    2823
CQUADX4     3629       1    2823    3936    3937    2840
CQUADX4     3630       1    2840    3937    3938    2857
CQUADX4     3631       1    2857    3938    3939    2874
CQUADX4     3632       1    2874    3939    3940    2891
CQUADX4     3633       1    2891    3940    3941    2908
CQUADX4     3634       1    2908    3941    3942    2925
CQUADX4     3635       1    2925    3942    3943    2942
CQUADX4     3636       1    2942    3943    3944    2959
CQUADX4     3637       1    2959    3944    3945    2976
CQUADX4     3638       1    2976    3945    3946    2993
CQUADX4     3639       1    2993    3946    3947    3010
CQUADX4     3640       1    3010    3947    3948    3027
CQUADX4     3641       1    3027    3948    3949    3044
CQUADX4     3642       1    3044    3949    3950    3061
CQUADX4     3643       1    3061    3950    3951    3078
CQUADX4     3644       1    3078    3951    3952    3095
CQUADX4     3645       1    3095    3952    3953    3112
CQUADX4     3646       1    3112    3953    3954    3129
CQUADX4     3647       1    3129    3954    3955    3146
CQUADX4     3648       1    3146    3955    3956    3163
CQUADX4     3649       1    3163    3956    3957    3180
CQUADX4     3650       1    3180    3957    3958    3197
CQUADX4     3651       1    3197    3958    3959    3214
CQUADX4     3652       1    3214    3959    3960    3231
CQUADX4     3653       1    3231    3960    3961    3248
CQUADX4     3654       1    3248    3961    3962    3265
CQUADX4     3655       1    3265    3962    3963    3282
CQUADX4     3656       1    3282    3963    3964    3299
CQUADX4     3657       1    3299    3964    3965    3316
CQUADX4     3658       1    3316    3965    3966    3333
CQUADX4     3659       1    3333    3966    3967    3350
CQUADX4     3660       1    3350    3967    3968    3367
CQUADX4     3661       1    3367    3968    3969    3384
CQUADX4     3662       1    3384    3969    3970    3401
CQUADX4     3663       1    3401    3970    3971    3418
CQUADX4     3664       1    3418    3971    3972    3435
CQUADX4     3665       1    3435    3972    3973    3452
CQUADX4     3666       1    3452    3973    3974    3469
CQUADX4     3667       1    3469    3974    3975    3486
CQUADX4     3668       1    3486    3975    3989    3837
CQUADX4     3669       1    3487    3486    3837    3838
CQUADX4     3670       1    3488    3487    3838    3839
CQUADX4     3671       1    3489    3488    3839    3840
CQUADX4     3672       1    3490    3489    3840    3841
CQUADX4     3673       1    3491    3490    3841    3842
CQUADX4     3674       1    3492    3491    3842    3843
CQUADX4     3675       1    3493    3492    3843    3844
CQUADX4     3676       1    3494    3493    3844    3845
CQUADX4     3677       1    3495    3494    3845    3846
CQUADX4     3678       1    3496    3495    3846    3847
CQUADX4     3679       1    3497    3496    3847    3848
CQUADX4     3680       1    3498    3497    3848    3849
CQUADX4     3681       1    3499    3498    3849    3850
CQUADX4     3682       1    3500    3499    3850    3851
CQUADX4     3683       1    3501    3500    3851    3852
CQUADX4     3684       1    3502    3501    3852    3853
CQUADX4     3685       1    3854    3502    3853    3990
CQUADX4     3686       1    3855    3485    3502    3854
CQUADX4     3687       1    3856    3468    3485    3855
CQUADX4     3688       1    3857    3451    3468    3856
CQUADX4     3689       1    3858    3434    3451    3857
CQUADX4     3690       1    3859    3417    3434    3858
CQUADX4     3691       1    3860    3400    3417    3859
CQUADX4     3692       1    3861    3383    3400    3860
CQUADX4     3693       1    3862    3366    3383    3861
CQUADX4     3694       1    3863    3349    3366    3862
CQUADX4     3695       1    3864    3332    3349    3863
CQUADX4     3696       1    3865    3315    3332    3864
CQUADX4     3697       1    3866    3298    3315    3865
CQUADX4     3698       1    3867    3281    3298    3866
CQUADX4     3699       1    3868    3264    3281    3867
CQUADX4     3700       1    3869    3247    3264    3868
CQUADX4     3701       1    3870    3230    3247    3869
CQUADX4     3702       1    3871    3213    3230    3870
CQUADX4     3703       1    3872    3196    3213    3871
CQUADX4     3704       1    3873    3179    3196    3872
CQUADX4     3705       1    3874    3162    3179    3873
CQUADX4     3706       1    3875    3145    3162    3874
CQUADX4     3707       1    3876    3128    3145    3875
CQUADX4     3708       1    3877    3111    3128    3876
CQUADX4     3709       1    3878    3094    3111    3877
CQUADX4     3710       1    3879    3077    3094    3878
CQUADX4     3711       1    3880    3060    3077    3879
CQUADX4     3712       1    3881    3043    3060    3880
CQUADX4     3713       1    3882    3026    3043    3881
CQUADX4     3714       1    3883    3009    3026    3882
CQUADX4     3715       1    3884    2992    3009    3883
CQUADX4     3716       1    3885    2975    2992    3884
CQUADX4     3717       1    3886    2958    2975    3885
CQUADX4     3718       1    3887    2941    2958    3886
CQUADX4     3719       1    3888    2924    2941    3887
CQUADX4     3720       1    3889    2907    2924    3888
CQUADX4     3721       1    3890    2890    2907    3889
CQUADX4     3722       1    3891    2873    2890    3890
CQUADX4     3723       1    3892    2856    2873    3891
CQUADX4     3724       1    3893    2839    2856    3892
CQUADX4     3725       1    3894    2822    2839    3893
CQUADX4     3726       1    3895    2805    2822    3894
CQUADX4     3727       1    3896    2788    2805    3895
CQUADX4     3728       1    3897    2771    2788    3896
CQUADX4     3729       1    3898    2754    2771    3897
CQUADX4     3730       1    3899    2737    2754    3898
CQUADX4     3731       1    3900    2720    2737    3899
CQUADX4     3732       1    3901    2703    2720    3900
CQUADX4     3733       1    3902    2686    2703    3901
CQUADX4     3734       1    3903    2669    2686    3902
CQUADX4     3735       1    3904    2652    2669    3903
CQUADX4     3736       1    3905    2635    2652    3904
CQUADX4     3737       1    3906    2618    2635    3905
CQUADX4     3738       1    3907    2601    2618    3906
CQUADX4     3739       1    3908    2584    2601    3907
CQUADX4     3740       1    3909    2567    2584    3908
CQUADX4     3741       1    3910    2550    2567    3909
CQUADX4     3742       1    3911    2533    2550    3910
CQUADX4     3743       1    3912    2516    2533    3911
CQUADX4     3744       1    3913    2499    2516    3912
CQUADX4     3745       1    3914    2482    2499    3913
CQUADX4     3746       1    3984    3836    2482    3914
CQUADX4     3747       1    3836    3835    2481    2482
CQUADX4     3748       1    3835    3834    2480    2481
CQUADX4     3749       1    3834    3833    2479    2480
CQUADX4     3750       1    3833    3832    2478    2479
CQUADX4     3751       1    3832    3831    2477    2478
CQUADX4     3752       1    3831    3830    2476    2477
CQUADX4     3753       1    3830    3829    2475    2476
CQUADX4     3754       1    3829    3828    2474    2475
CQUADX4     3755       1    3828    3827    2473    2474
CQUADX4     3756       1    3827    3826    2472    2473
CQUADX4     3757       1    3826    3825    2471    2472
CQUADX4     3758       1    3825    3824    2470    2471
CQUADX4     3759       1    3824    3823    2469    2470
CQUADX4     3760       1    3823    3988    2468    2469
CQUADX4     3761       1    3988    3822    2467    2468
CQUADX4     3762       1    3822    3821    2466    2467
$*
$* PROPERTY CARDS
$*
$*  Property: PSOLID1
PSOLID         1       1                                   SMECH
$*
$* MATERIAL CARDS
$*
$*  Material: ACERO::ahoraSinZunchado_fem1::[1]
MAT1           12.0000+8        0.300000  0.0000
$*
$* LOAD AND CONSTRAINT CARDS
$*
$*  Constraint: UserDefined(1)
SPC            1    3503       1  0.0000
SPC            1    3504       1  0.0000
SPC            1    3505       1  0.0000
SPC            1    3506       1  0.0000
SPC            1    3507       1  0.0000
SPC            1    3508       1  0.0000
SPC            1    3509       1  0.0000
SPC            1    3510       1  0.0000
SPC            1    3511       1  0.0000
SPC            1    3512       1  0.0000
SPC            1    3513       1  0.0000
SPC            1    3514       1  0.0000
SPC            1    3515       1  0.0000
SPC            1    3516       1  0.0000
SPC            1    3517       1  0.0000
SPC            1    3518       1  0.0000
SPC            1    3519       1  0.0000
SPC            1    3837       1  0.0000
SPC            1    3838       1  0.0000
SPC            1    3839       1  0.0000
SPC            1    3840       1  0.0000
SPC            1    3841       1  0.0000
SPC            1    3842       1  0.0000
SPC            1    3843       1  0.0000
SPC            1    3844       1  0.0000
SPC            1    3845       1  0.0000
SPC            1    3846       1  0.0000
SPC            1    3847       1  0.0000
SPC            1    3848       1  0.0000
SPC            1    3849       1  0.0000
SPC            1    3850       1  0.0000
SPC            1    3851       1  0.0000
SPC            1    3852       1  0.0000
SPC            1    3853       1  0.0000
SPC            1    3976       1  0.0000
SPC            1    3977       1  0.0000
SPC            1    3989       1  0.0000
SPC            1    3990       1  0.0000
$*  Constraint: UserDefined(2)
SPC            2    3988       3  0.0000
SPCADD       100       1       2
$*  Load: Pressure(1)
PLOADX1        3    12011.0000+51.0000+5    3727    3985  0.0000
PLOADX1        3    13111.0000+51.0000+5    3984    3652  0.0000
PLOADX1        3    13121.0000+51.0000+5    3652    3653  0.0000
PLOADX1        3    13131.0000+51.0000+5    3653    3654  0.0000
PLOADX1        3    13141.0000+51.0000+5    3654    3655  0.0000
PLOADX1        3    13151.0000+51.0000+5    3655    3656  0.0000
PLOADX1        3    13161.0000+51.0000+5    3656    3657  0.0000
PLOADX1        3    13171.0000+51.0000+5    3657    3658  0.0000
PLOADX1        3    13181.0000+51.0000+5    3658    3659  0.0000
PLOADX1        3    13191.0000+51.0000+5    3659    3660  0.0000
PLOADX1        3    13201.0000+51.0000+5    3660    3661  0.0000
PLOADX1        3    13211.0000+51.0000+5    3661    3662  0.0000
PLOADX1        3    13221.0000+51.0000+5    3662    3663  0.0000
PLOADX1        3    13231.0000+51.0000+5    3663    3664  0.0000
PLOADX1        3    13241.0000+51.0000+5    3664    3665  0.0000
PLOADX1        3    13251.0000+51.0000+5    3665    3666  0.0000
PLOADX1        3    13261.0000+51.0000+5    3666    3667  0.0000
PLOADX1        3    13271.0000+51.0000+5    3667    3668  0.0000
PLOADX1        3    13281.0000+51.0000+5    3668    3669  0.0000
PLOADX1        3    13291.0000+51.0000+5    3669    3670  0.0000
PLOADX1        3    13301.0000+51.0000+5    3670    3671  0.0000
PLOADX1        3    13311.0000+51.0000+5    3671    3672  0.0000
PLOADX1        3    13321.0000+51.0000+5    3672    3673  0.0000
PLOADX1        3    13331.0000+51.0000+5    3673    3674  0.0000
PLOADX1        3    13341.0000+51.0000+5    3674    3675  0.0000
PLOADX1        3    13351.0000+51.0000+5    3675    3676  0.0000
PLOADX1        3    13361.0000+51.0000+5    3676    3677  0.0000
PLOADX1        3    13371.0000+51.0000+5    3677    3678  0.0000
PLOADX1        3    13381.0000+51.0000+5    3678    3679  0.0000
PLOADX1        3    13391.0000+51.0000+5    3679    3680  0.0000
PLOADX1        3    13401.0000+51.0000+5    3680    3681  0.0000
PLOADX1        3    13411.0000+51.0000+5    3681    3682  0.0000
PLOADX1        3    13421.0000+51.0000+5    3682    3683  0.0000
PLOADX1        3    13431.0000+51.0000+5    3683    3684  0.0000
PLOADX1        3    13441.0000+51.0000+5    3684    3685  0.0000
PLOADX1        3    13451.0000+51.0000+5    3685    3686  0.0000
PLOADX1        3    13461.0000+51.0000+5    3686    3687  0.0000
PLOADX1        3    13471.0000+51.0000+5    3687    3688  0.0000
PLOADX1        3    13481.0000+51.0000+5    3688    3689  0.0000
PLOADX1        3    13491.0000+51.0000+5    3689    3690  0.0000
PLOADX1        3    13501.0000+51.0000+5    3690    3691  0.0000
PLOADX1        3    13511.0000+51.0000+5    3691    3692  0.0000
PLOADX1        3    13521.0000+51.0000+5    3692    3693  0.0000
PLOADX1        3    13531.0000+51.0000+5    3693    3694  0.0000
PLOADX1        3    13541.0000+51.0000+5    3694    3695  0.0000
PLOADX1        3    13551.0000+51.0000+5    3695    3696  0.0000
PLOADX1        3    13561.0000+51.0000+5    3696    3697  0.0000
PLOADX1        3    13571.0000+51.0000+5    3697    3698  0.0000
PLOADX1        3    13581.0000+51.0000+5    3698    3699  0.0000
PLOADX1        3    13591.0000+51.0000+5    3699    3700  0.0000
PLOADX1        3    13601.0000+51.0000+5    3700    3701  0.0000
PLOADX1        3    13611.0000+51.0000+5    3701    3702  0.0000
PLOADX1        3    13621.0000+51.0000+5    3702    3703  0.0000
PLOADX1        3    13631.0000+51.0000+5    3703    3704  0.0000
PLOADX1        3    13641.0000+51.0000+5    3704    3705  0.0000
PLOADX1        3    13651.0000+51.0000+5    3705    3706  0.0000
PLOADX1        3    13661.0000+51.0000+5    3706    3707  0.0000
PLOADX1        3    13671.0000+51.0000+5    3707    3708  0.0000
PLOADX1        3    13681.0000+51.0000+5    3708    3709  0.0000
PLOADX1        3    13691.0000+51.0000+5    3709    3710  0.0000
PLOADX1        3    13701.0000+51.0000+5    3710    3711  0.0000
PLOADX1        3    13711.0000+51.0000+5    3711    3712  0.0000
PLOADX1        3    13721.0000+51.0000+5    3712    3713  0.0000
PLOADX1        3    13731.0000+51.0000+5    3713    3714  0.0000
PLOADX1        3    13741.0000+51.0000+5    3714    3715  0.0000
PLOADX1        3    13751.0000+51.0000+5    3715    3716  0.0000
PLOADX1        3    13761.0000+51.0000+5    3716    3717  0.0000
PLOADX1        3    13771.0000+51.0000+5    3717    3718  0.0000
PLOADX1        3    13781.0000+51.0000+5    3718    3719  0.0000
PLOADX1        3    13791.0000+51.0000+5    3719    3720  0.0000
PLOADX1        3    13801.0000+51.0000+5    3720    3721  0.0000
PLOADX1        3    13811.0000+51.0000+5    3721    3722  0.0000
PLOADX1        3    13821.0000+51.0000+5    3722    3723  0.0000
PLOADX1        3    13831.0000+51.0000+5    3723    3724  0.0000
PLOADX1        3    13841.0000+51.0000+5    3724    3725  0.0000
PLOADX1        3    13851.0000+51.0000+5    3725    3726  0.0000
PLOADX1        3    13861.0000+51.0000+5    3726    3727  0.0000
PLOADX1        3    24921.0000+51.0000+5    3985    3601  0.0000
PLOADX1        3    24931.0000+51.0000+5    3601    3602  0.0000
PLOADX1        3    24941.0000+51.0000+5    3602    3603  0.0000
PLOADX1        3    24951.0000+51.0000+5    3603    3604  0.0000
PLOADX1        3    24961.0000+51.0000+5    3604    3605  0.0000
PLOADX1        3    24971.0000+51.0000+5    3605    3606  0.0000
PLOADX1        3    24981.0000+51.0000+5    3606    3981  0.0000
PLOADX1        3    24991.0000+51.0000+5    3981    3577  0.0000
PLOADX1        3    25001.0000+51.0000+5    3577    3578  0.0000
PLOADX1        3    25011.0000+51.0000+5    3578    3579  0.0000
PLOADX1        3    25021.0000+51.0000+5    3579    3580  0.0000
PLOADX1        3    25031.0000+51.0000+5    3580    3581  0.0000
PLOADX1        3    25041.0000+51.0000+5    3581    3582  0.0000
PLOADX1        3    25051.0000+51.0000+5    3582    3583  0.0000
PLOADX1        3    25061.0000+51.0000+5    3583    3584  0.0000
PLOADX1        3    25071.0000+51.0000+5    3584    3585  0.0000
PLOADX1        3    25081.0000+51.0000+5    3585    3586  0.0000
PLOADX1        3    25091.0000+51.0000+5    3586    3587  0.0000
PLOADX1        3    25101.0000+51.0000+5    3587    3588  0.0000
PLOADX1        3    25111.0000+51.0000+5    3588    3589  0.0000
PLOADX1        3    25121.0000+51.0000+5    3589    3590  0.0000
PLOADX1        3    25131.0000+51.0000+5    3590    3591  0.0000
PLOADX1        3    25141.0000+51.0000+5    3591    3592  0.0000
PLOADX1        3    25151.0000+51.0000+5    3592    3593  0.0000
PLOADX1        3    25161.0000+51.0000+5    3593    3594  0.0000
PLOADX1        3    25171.0000+51.0000+5    3594    3595  0.0000
PLOADX1        3    25181.0000+51.0000+5    3595    3596  0.0000
PLOADX1        3    25191.0000+51.0000+5    3596    3597  0.0000
PLOADX1        3    25201.0000+51.0000+5    3597    3598  0.0000
PLOADX1        3    25211.0000+51.0000+5    3598    3599  0.0000
PLOADX1        3    25221.0000+51.0000+5    3599    3600  0.0000
PLOADX1        3    25231.0000+51.0000+5    3600    3980  0.0000
PLOADX1        3    25241.0000+51.0000+5    3980    3556  0.0000
PLOADX1        3    25251.0000+51.0000+5    3556    3557  0.0000
PLOADX1        3    25261.0000+51.0000+5    3557    3558  0.0000
PLOADX1        3    25271.0000+51.0000+5    3558    3559  0.0000
PLOADX1        3    25281.0000+51.0000+5    3559    3560  0.0000
PLOADX1        3    25291.0000+51.0000+5    3560    3561  0.0000
PLOADX1        3    25301.0000+51.0000+5    3561    3562  0.0000
PLOADX1        3    25311.0000+51.0000+5    3562    3563  0.0000
PLOADX1        3    25321.0000+51.0000+5    3563    3564  0.0000
PLOADX1        3    25331.0000+51.0000+5    3564    3565  0.0000
PLOADX1        3    25341.0000+51.0000+5    3565    3566  0.0000
PLOADX1        3    25351.0000+51.0000+5    3566    3567  0.0000
PLOADX1        3    25361.0000+51.0000+5    3567    3568  0.0000
PLOADX1        3    25371.0000+51.0000+5    3568    3569  0.0000
PLOADX1        3    25381.0000+51.0000+5    3569    3570  0.0000
PLOADX1        3    25391.0000+51.0000+5    3570    3571  0.0000
PLOADX1        3    25401.0000+51.0000+5    3571    3572  0.0000
PLOADX1        3    25411.0000+51.0000+5    3572    3573  0.0000
PLOADX1        3    25421.0000+51.0000+5    3573    3574  0.0000
PLOADX1        3    25431.0000+51.0000+5    3574    3575  0.0000
PLOADX1        3    25441.0000+51.0000+5    3575    3576  0.0000
PLOADX1        3    25451.0000+51.0000+5    3576    3978  0.0000
PLOADX1        3    25461.0000+51.0000+5    3978    3520  0.0000
PLOADX1        3    25471.0000+51.0000+5    3520    3521  0.0000
PLOADX1        3    25481.0000+51.0000+5    3521    3522  0.0000
PLOADX1        3    25491.0000+51.0000+5    3522    3523  0.0000
PLOADX1        3    25501.0000+51.0000+5    3523    3524  0.0000
PLOADX1        3    25511.0000+51.0000+5    3524    3525  0.0000
PLOADX1        3    25521.0000+51.0000+5    3525    3526  0.0000
PLOADX1        3    25531.0000+51.0000+5    3526    3527  0.0000
PLOADX1        3    25541.0000+51.0000+5    3527    3528  0.0000
PLOADX1        3    25551.0000+51.0000+5    3528    3529  0.0000
PLOADX1        3    25561.0000+51.0000+5    3529    3530  0.0000
PLOADX1        3    25571.0000+51.0000+5    3530    3531  0.0000
PLOADX1        3    25581.0000+51.0000+5    3531    3532  0.0000
PLOADX1        3    25591.0000+51.0000+5    3532    3533  0.0000
PLOADX1        3    25601.0000+51.0000+5    3533    3534  0.0000
PLOADX1        3    25611.0000+51.0000+5    3534    3976  0.0000
PLOADX1        3    36851.0000+51.0000+5    3990    3854  0.0000
PLOADX1        3    36861.0000+51.0000+5    3854    3855  0.0000
PLOADX1        3    36871.0000+51.0000+5    3855    3856  0.0000
PLOADX1        3    36881.0000+51.0000+5    3856    3857  0.0000
PLOADX1        3    36891.0000+51.0000+5    3857    3858  0.0000
PLOADX1        3    36901.0000+51.0000+5    3858    3859  0.0000
PLOADX1        3    36911.0000+51.0000+5    3859    3860  0.0000
PLOADX1        3    36921.0000+51.0000+5    3860    3861  0.0000
PLOADX1        3    36931.0000+51.0000+5    3861    3862  0.0000
PLOADX1        3    36941.0000+51.0000+5    3862    3863  0.0000
PLOADX1        3    36951.0000+51.0000+5    3863    3864  0.0000
PLOADX1        3    36961.0000+51.0000+5    3864    3865  0.0000
PLOADX1        3    36971.0000+51.0000+5    3865    3866  0.0000
PLOADX1        3    36981.0000+51.0000+5    3866    3867  0.0000
PLOADX1        3    36991.0000+51.0000+5    3867    3868  0.0000
PLOADX1        3    37001.0000+51.0000+5    3868    3869  0.0000
PLOADX1        3    37011.0000+51.0000+5    3869    3870  0.0000
PLOADX1        3    37021.0000+51.0000+5    3870    3871  0.0000
PLOADX1        3    37031.0000+51.0000+5    3871    3872  0.0000
PLOADX1        3    37041.0000+51.0000+5    3872    3873  0.0000
PLOADX1        3    37051.0000+51.0000+5    3873    3874  0.0000
PLOADX1        3    37061.0000+51.0000+5    3874    3875  0.0000
PLOADX1        3    37071.0000+51.0000+5    3875    3876  0.0000
PLOADX1        3    37081.0000+51.0000+5    3876    3877  0.0000
PLOADX1        3    37091.0000+51.0000+5    3877    3878  0.0000
PLOADX1        3    37101.0000+51.0000+5    3878    3879  0.0000
PLOADX1        3    37111.0000+51.0000+5    3879    3880  0.0000
PLOADX1        3    37121.0000+51.0000+5    3880    3881  0.0000
PLOADX1        3    37131.0000+51.0000+5    3881    3882  0.0000
PLOADX1        3    37141.0000+51.0000+5    3882    3883  0.0000
PLOADX1        3    37151.0000+51.0000+5    3883    3884  0.0000
PLOADX1        3    37161.0000+51.0000+5    3884    3885  0.0000
PLOADX1        3    37171.0000+51.0000+5    3885    3886  0.0000
PLOADX1        3    37181.0000+51.0000+5    3886    3887  0.0000
PLOADX1        3    37191.0000+51.0000+5    3887    3888  0.0000
PLOADX1        3    37201.0000+51.0000+5    3888    3889  0.0000
PLOADX1        3    37211.0000+51.0000+5    3889    3890  0.0000
PLOADX1        3    37221.0000+51.0000+5    3890    3891  0.0000
PLOADX1        3    37231.0000+51.0000+5    3891    3892  0.0000
PLOADX1        3    37241.0000+51.0000+5    3892    3893  0.0000
PLOADX1        3    37251.0000+51.0000+5    3893    3894  0.0000
PLOADX1        3    37261.0000+51.0000+5    3894    3895  0.0000
PLOADX1        3    37271.0000+51.0000+5    3895    3896  0.0000
PLOADX1        3    37281.0000+51.0000+5    3896    3897  0.0000
PLOADX1        3    37291.0000+51.0000+5    3897    3898  0.0000
PLOADX1        3    37301.0000+51.0000+5    3898    3899  0.0000
PLOADX1        3    37311.0000+51.0000+5    3899    3900  0.0000
PLOADX1        3    37321.0000+51.0000+5    3900    3901  0.0000
PLOADX1        3    37331.0000+51.0000+5    3901    3902  0.0000
PLOADX1        3    37341.0000+51.0000+5    3902    3903  0.0000
PLOADX1        3    37351.0000+51.0000+5    3903    3904  0.0000
PLOADX1        3    37361.0000+51.0000+5    3904    3905  0.0000
PLOADX1        3    37371.0000+51.0000+5    3905    3906  0.0000
PLOADX1        3    37381.0000+51.0000+5    3906    3907  0.0000
PLOADX1        3    37391.0000+51.0000+5    3907    3908  0.0000
PLOADX1        3    37401.0000+51.0000+5    3908    3909  0.0000
PLOADX1        3    37411.0000+51.0000+5    3909    3910  0.0000
PLOADX1        3    37421.0000+51.0000+5    3910    3911  0.0000
PLOADX1        3    37431.0000+51.0000+5    3911    3912  0.0000
PLOADX1        3    37441.0000+51.0000+5    3912    3913  0.0000
PLOADX1        3    37451.0000+51.0000+5    3913    3914  0.0000
PLOADX1        3    37461.0000+51.0000+5    3914    3984  0.0000
ENDDATA 0343c030
