$*$$$$$$$$$$$$$$$$$$$$$$$$$$$$$$$$$$$$$$$$$$$$$$$$$$$$$$$$$$$$$$$$$
$*
$*                    Simcenter v12.0.2.9 Translator
$*                    for NX Nastran version 12.2
$*
$*             FEM FILE: C:\Users\usuario\Documents\NX\ahoraConElCono_fem1.fem
$*             SIM FILE: C:\Users\usuario\Documents\NX\ahoraConElCono_sim1.sim
$*        ANALYSIS TYPE: Axisymmetric Structural
$*        SOLUTION NAME: Solution 1
$*        SOLUTION TYPE: SOL 101 Linear Statics - Global Constraints
$*
$*    SOLVER INPUT FILE: ahoraconelcono_sim1-solution_1.dat
$*        CREATION DATE: 18-Dec-2023
$*        CREATION TIME: 20:38:28
$*             HOSTNAME: DESKTOP-08LFC3S
$*      NASTRAN LICENSE: Desktop Bundle
$*
$*                UNITS: mm (milli-newton)
$*                      ... LENGTH : mm
$*                      ... TIME   : sec
$*                      ... MASS   : kilogram (kg)
$*                      ... TEMPERATURE : deg Celsius
$*                      ... FORCE  : milli-newton
$*                      ... THERMAL ENERGY : mN-mm (micro-joule)
$*
$* IMPORTANT NOTE:
$*     This banner was generated by Simcenter and altering this 
$*     information may compromise the pre and post processing of results
$*
$*$$$$$$$$$$$$$$$$$$$$$$$$$$$$$$$$$$$$$$$$$$$$$$$$$$$$$$$$$$$$$$$$$
$*
$*$$$$$$$$$$$$$$$$$$$$$$$$$$$$$$$$$$$
$*
$* FILE MANAGEMENT
$*
$*$$$$$$$$$$$$$$$$$$$$$$$$$$$$$$$$$$$
$*
$*
$*$$$$$$$$$$$$$$$$$$$$$$$$$$$$$$$$$$$
$*
$* EXECUTIVE CONTROL
$*
$*$$$$$$$$$$$$$$$$$$$$$$$$$$$$$$$$$$$
$*
ID,NASTRAN,ahoraconelcono_sim1-solution_1
SOL 101
CEND
$*
$*$$$$$$$$$$$$$$$$$$$$$$$$$$$$$$$$$$$
$*
$* CASE CONTROL
$*
$*$$$$$$$$$$$$$$$$$$$$$$$$$$$$$$$$$$$
$*
ECHO = NONE
SPC = 100
BCSET = 100
OUTPUT
BCRESULTS(TRACTION,FORCE,PLOT) = ALL
DISPLACEMENT(PLOT,REAL) = ALL
FORCE(PLOT,REAL,CENTER) = ALL
OLOAD(PLOT,REAL) = ALL
SPCFORCES(PLOT,REAL) = ALL
STRESS(PLOT,REAL,VONMISES,CENTER) = ALL
PARAM,BAILOUT,0
$*  Step: Subcase - Static Loads 1
SUBCASE 1
  LABEL = Subcase - Static Loads 1
  LOAD = 4
$*
$*$$$$$$$$$$$$$$$$$$$$$$$$$$$$$$$$$$$
$*
$* BULK DATA
$*
$*$$$$$$$$$$$$$$$$$$$$$$$$$$$$$$$$$$$
$*
BEGIN BULK
$*
$* SOLUTION CARDS
$*
BCTADD       100     101
$*  Simulation Object: Edge-to-Edge Contact(2)
BCTSET       101       9      10  0.0000-1.000001.000000
$*
$* PARAM CARDS
$*
PARAM      K6ROT100.0000
PARAM     OIBULK     YES
PARAM    OMACHPR     YES
PARAM       POST      -2
PARAM    POSTEXT     YES
PARAM    UNITSYS   MN-MM
$*
$* GRID CARDS
$*
GRID*                  1               03.0720666707E+020.0000000000E+00+
*       -1.040000000E+03               0
GRID*                  2               03.0720666707E+020.0000000000E+00+
*       -1.030000000E+03               0
GRID*                  3               03.0720666707E+020.0000000000E+00+
*       -1.020000000E+03               0
GRID*                  4               03.0720666707E+020.0000000000E+00+
*       -1.010000000E+03               0
GRID*                  5               03.0720666707E+020.0000000000E+00+
*       -1.000000000E+03               0
GRID*                  6               03.0720666707E+020.0000000000E+00+
*       -9.900000000E+02               0
GRID*                  7               03.0720666707E+020.0000000000E+00+
*       -9.800000000E+02               0
GRID*                  8               03.0720666707E+020.0000000000E+00+
*       -9.700000000E+02               0
GRID*                  9               03.0720666707E+020.0000000000E+00+
*       -9.600000000E+02               0
GRID*                 10               03.0720666707E+020.0000000000E+00+
*       -9.500000000E+02               0
GRID*                 11               03.0720666707E+020.0000000000E+00+
*       -9.400000000E+02               0
GRID*                 12               03.0720666707E+020.0000000000E+00+
*       -9.300000000E+02               0
GRID*                 13               03.0720666707E+020.0000000000E+00+
*       -9.200000000E+02               0
GRID*                 14               03.0720666707E+020.0000000000E+00+
*       -9.100000000E+02               0
GRID*                 15               03.0720666707E+020.0000000000E+00+
*       -9.000000000E+02               0
GRID*                 16               03.0720666707E+020.0000000000E+00+
*       -8.900000000E+02               0
GRID*                 17               03.0720666707E+020.0000000000E+00+
*       -8.800000000E+02               0
GRID*                 18               03.0720666707E+020.0000000000E+00+
*       -8.700000000E+02               0
GRID*                 19               03.0720666707E+020.0000000000E+00+
*       -8.600000000E+02               0
GRID*                 20               03.0720666707E+020.0000000000E+00+
*       -8.500000000E+02               0
GRID*                 21               03.0720666707E+020.0000000000E+00+
*       -8.400000000E+02               0
GRID*                 22               03.0720666707E+020.0000000000E+00+
*       -8.300000000E+02               0
GRID*                 23               03.0720666707E+020.0000000000E+00+
*       -8.200000000E+02               0
GRID*                 24               03.0720666707E+020.0000000000E+00+
*       -8.100000000E+02               0
GRID*                 25               03.0720666707E+020.0000000000E+00+
*       -8.000000000E+02               0
GRID*                 26               03.0720666707E+020.0000000000E+00+
*       -7.900000000E+02               0
GRID*                 27               03.0720666707E+020.0000000000E+00+
*       -7.800000000E+02               0
GRID*                 28               03.0720666707E+020.0000000000E+00+
*       -7.700000000E+02               0
GRID*                 29               03.0720666707E+020.0000000000E+00+
*       -7.600000000E+02               0
GRID*                 30               03.0720666707E+020.0000000000E+00+
*       -7.500000000E+02               0
GRID*                 31               03.0720666707E+020.0000000000E+00+
*       -7.400000000E+02               0
GRID*                 32               03.0720666707E+020.0000000000E+00+
*       -7.300000000E+02               0
GRID*                 33               03.0720666707E+020.0000000000E+00+
*       -7.200000000E+02               0
GRID*                 34               03.0720666707E+020.0000000000E+00+
*       -7.100000000E+02               0
GRID*                 35               03.0720666707E+020.0000000000E+00+
*       -7.000000000E+02               0
GRID*                 36               03.0720666707E+020.0000000000E+00+
*       -6.900000000E+02               0
GRID*                 37               03.0720666707E+020.0000000000E+00+
*       -6.800000000E+02               0
GRID*                 38               03.0720666707E+020.0000000000E+00+
*       -6.700000000E+02               0
GRID*                 39               03.0720666707E+020.0000000000E+00+
*       -6.600000000E+02               0
GRID*                 40               03.0720666707E+020.0000000000E+00+
*       -6.500000000E+02               0
GRID*                 41               03.0720666707E+020.0000000000E+00+
*       -6.400000000E+02               0
GRID*                 42               03.0720666707E+020.0000000000E+00+
*       -6.300000000E+02               0
GRID*                 43               03.0720666707E+020.0000000000E+00+
*       -6.200000000E+02               0
GRID*                 44               03.0720666707E+020.0000000000E+00+
*       -6.100000000E+02               0
GRID*                 45               03.0720666707E+020.0000000000E+00+
*       -6.000000000E+02               0
GRID*                 46               03.0720666707E+020.0000000000E+00+
*       -5.900000000E+02               0
GRID*                 47               03.0720666707E+020.0000000000E+00+
*       -5.800000000E+02               0
GRID*                 48               03.0720666707E+020.0000000000E+00+
*       -5.700000000E+02               0
GRID*                 49               03.0720666707E+020.0000000000E+00+
*       -5.600000000E+02               0
GRID*                 50               03.0720666707E+020.0000000000E+00+
*       -5.500000000E+02               0
GRID*                 51               03.0720666707E+020.0000000000E+00+
*       -5.400000000E+02               0
GRID*                 52               03.0720666707E+020.0000000000E+00+
*       -5.300000000E+02               0
GRID*                 53               03.0720666707E+020.0000000000E+00+
*       -5.200000000E+02               0
GRID*                 54               03.0720666707E+020.0000000000E+00+
*       -5.100000000E+02               0
GRID*                 55               03.0720666707E+020.0000000000E+00+
*       -5.000000000E+02               0
GRID*                 56               03.0720666707E+020.0000000000E+00+
*       -4.900000000E+02               0
GRID*                 57               03.0720666707E+020.0000000000E+00+
*       -4.800000000E+02               0
GRID*                 58               03.0720666707E+020.0000000000E+00+
*       -4.700000000E+02               0
GRID*                 59               03.0720666707E+020.0000000000E+00+
*       -4.600000000E+02               0
GRID*                 60               03.0720666707E+020.0000000000E+00+
*       -4.500000000E+02               0
GRID*                 61               03.0720666707E+020.0000000000E+00+
*       -4.400000000E+02               0
GRID*                 62               03.0720666707E+020.0000000000E+00+
*       -4.300000000E+02               0
GRID*                 63               03.0720666707E+020.0000000000E+00+
*       -4.200000000E+02               0
GRID*                 64               03.0720666707E+020.0000000000E+00+
*       -4.100000000E+02               0
GRID*                 65               03.0720666707E+020.0000000000E+00+
*       -4.000000000E+02               0
GRID*                 66               03.0720666707E+020.0000000000E+00+
*       -3.900000000E+02               0
GRID*                 67               03.0720666707E+020.0000000000E+00+
*       -3.800000000E+02               0
GRID*                 68               03.0720666707E+020.0000000000E+00+
*       -3.700000000E+02               0
GRID*                 69               03.0720666707E+020.0000000000E+00+
*       -3.600000000E+02               0
GRID*                 70               03.0720666707E+020.0000000000E+00+
*       -3.500000000E+02               0
GRID*                 71               03.0720666707E+020.0000000000E+00+
*       -3.400000000E+02               0
GRID*                 72               03.0720666707E+020.0000000000E+00+
*       -3.300000000E+02               0
GRID*                 73               03.0720666707E+020.0000000000E+00+
*       -3.200000000E+02               0
GRID*                 74               03.0720666707E+020.0000000000E+00+
*       -3.100000000E+02               0
GRID*                 75               03.0720666707E+020.0000000000E+00+
*       -3.000000000E+02               0
GRID*                 76               03.0720666707E+020.0000000000E+00+
*       -2.900000000E+02               0
GRID*                 77               03.0720666707E+020.0000000000E+00+
*       -2.800000000E+02               0
GRID*                 78               03.0720666707E+020.0000000000E+00+
*       -2.700000000E+02               0
GRID*                 79               03.0720666707E+020.0000000000E+00+
*       -2.600000000E+02               0
GRID*                 80               03.0720666707E+020.0000000000E+00+
*       -2.500000000E+02               0
GRID*                 81               03.0720666707E+020.0000000000E+00+
*       -2.400000000E+02               0
GRID*                 82               03.0720666707E+020.0000000000E+00+
*       -2.300000000E+02               0
GRID*                 83               03.0720666707E+020.0000000000E+00+
*       -2.200000000E+02               0
GRID*                 84               03.0720666707E+020.0000000000E+00+
*       -2.100000000E+02               0
GRID*                 85               03.0720666707E+020.0000000000E+00+
*       -2.000000000E+02               0
GRID*                 86               03.0720666707E+020.0000000000E+00+
*       -1.900000000E+02               0
GRID*                 87               03.0720666707E+020.0000000000E+00+
*       -1.800000000E+02               0
GRID*                 88               03.0720666707E+020.0000000000E+00+
*       -1.700000000E+02               0
GRID*                 89               03.0720666707E+020.0000000000E+00+
*       -1.600000000E+02               0
GRID*                 90               03.0720666707E+020.0000000000E+00+
*       -1.500000000E+02               0
GRID*                 91               03.0720666707E+020.0000000000E+00+
*       -1.400000000E+02               0
GRID*                 92               03.0720666707E+020.0000000000E+00+
*       -1.300000000E+02               0
GRID*                 93               03.0720666707E+020.0000000000E+00+
*       -1.200000000E+02               0
GRID*                 94               03.0720666707E+020.0000000000E+00+
*       -1.100000000E+02               0
GRID*                 95               03.0720666707E+020.0000000000E+00+
*       -1.000000000E+02               0
GRID*                 96               03.0720666707E+020.0000000000E+00+
*       -9.000000000E+01               0
GRID*                 97               03.0720666707E+020.0000000000E+00+
*       -8.000000000E+01               0
GRID*                 98               03.0720666707E+020.0000000000E+00+
*       -7.000000000E+01               0
GRID*                 99               03.0720666707E+020.0000000000E+00+
*       -6.000000000E+01               0
GRID*                100               03.0720666707E+020.0000000000E+00+
*       -5.000000000E+01               0
GRID*                101               03.0720666707E+020.0000000000E+00+
*       -4.000000000E+01               0
GRID*                102               03.0720666707E+020.0000000000E+00+
*       -3.000000000E+01               0
GRID*                103               03.0720666707E+020.0000000000E+00+
*       -2.000000000E+01               0
GRID*                104               03.0720666707E+020.0000000000E+00+
*       -1.000000000E+01               0
GRID*                105               03.1441333415E+020.0000000000E+00+
*       -1.040000000E+03               0
GRID*                106               03.1441333415E+020.0000000000E+00+
*       -1.030000000E+03               0
GRID*                107               03.1441333415E+020.0000000000E+00+
*       -1.020000000E+03               0
GRID*                108               03.1441333415E+020.0000000000E+00+
*       -1.010000000E+03               0
GRID*                109               03.1441333415E+020.0000000000E+00+
*       -1.000000000E+03               0
GRID*                110               03.1441333415E+020.0000000000E+00+
*       -9.900000000E+02               0
GRID*                111               03.1441333415E+020.0000000000E+00+
*       -9.800000000E+02               0
GRID*                112               03.1441333415E+020.0000000000E+00+
*       -9.700000000E+02               0
GRID*                113               03.1441333415E+020.0000000000E+00+
*       -9.600000000E+02               0
GRID*                114               03.1441333415E+020.0000000000E+00+
*       -9.500000000E+02               0
GRID*                115               03.1441333415E+020.0000000000E+00+
*       -9.400000000E+02               0
GRID*                116               03.1441333415E+020.0000000000E+00+
*       -9.300000000E+02               0
GRID*                117               03.1441333415E+020.0000000000E+00+
*       -9.200000000E+02               0
GRID*                118               03.1441333415E+020.0000000000E+00+
*       -9.100000000E+02               0
GRID*                119               03.1441333415E+020.0000000000E+00+
*       -9.000000000E+02               0
GRID*                120               03.1441333415E+020.0000000000E+00+
*       -8.900000000E+02               0
GRID*                121               03.1441333415E+020.0000000000E+00+
*       -8.800000000E+02               0
GRID*                122               03.1441333415E+020.0000000000E+00+
*       -8.700000000E+02               0
GRID*                123               03.1441333415E+020.0000000000E+00+
*       -8.600000000E+02               0
GRID*                124               03.1441333415E+020.0000000000E+00+
*       -8.500000000E+02               0
GRID*                125               03.1441333415E+020.0000000000E+00+
*       -8.400000000E+02               0
GRID*                126               03.1441333415E+020.0000000000E+00+
*       -8.300000000E+02               0
GRID*                127               03.1441333415E+020.0000000000E+00+
*       -8.200000000E+02               0
GRID*                128               03.1441333415E+020.0000000000E+00+
*       -8.100000000E+02               0
GRID*                129               03.1441333415E+020.0000000000E+00+
*       -8.000000000E+02               0
GRID*                130               03.1441333415E+020.0000000000E+00+
*       -7.900000000E+02               0
GRID*                131               03.1441333415E+020.0000000000E+00+
*       -7.800000000E+02               0
GRID*                132               03.1441333415E+020.0000000000E+00+
*       -7.700000000E+02               0
GRID*                133               03.1441333415E+020.0000000000E+00+
*       -7.600000000E+02               0
GRID*                134               03.1441333415E+020.0000000000E+00+
*       -7.500000000E+02               0
GRID*                135               03.1441333415E+020.0000000000E+00+
*       -7.400000000E+02               0
GRID*                136               03.1441333415E+020.0000000000E+00+
*       -7.300000000E+02               0
GRID*                137               03.1441333415E+020.0000000000E+00+
*       -7.200000000E+02               0
GRID*                138               03.1441333415E+020.0000000000E+00+
*       -7.100000000E+02               0
GRID*                139               03.1441333415E+020.0000000000E+00+
*       -7.000000000E+02               0
GRID*                140               03.1441333415E+020.0000000000E+00+
*       -6.900000000E+02               0
GRID*                141               03.1441333415E+020.0000000000E+00+
*       -6.800000000E+02               0
GRID*                142               03.1441333415E+020.0000000000E+00+
*       -6.700000000E+02               0
GRID*                143               03.1441333415E+020.0000000000E+00+
*       -6.600000000E+02               0
GRID*                144               03.1441333415E+020.0000000000E+00+
*       -6.500000000E+02               0
GRID*                145               03.1441333415E+020.0000000000E+00+
*       -6.400000000E+02               0
GRID*                146               03.1441333415E+020.0000000000E+00+
*       -6.300000000E+02               0
GRID*                147               03.1441333415E+020.0000000000E+00+
*       -6.200000000E+02               0
GRID*                148               03.1441333415E+020.0000000000E+00+
*       -6.100000000E+02               0
GRID*                149               03.1441333415E+020.0000000000E+00+
*       -6.000000000E+02               0
GRID*                150               03.1441333415E+020.0000000000E+00+
*       -5.900000000E+02               0
GRID*                151               03.1441333415E+020.0000000000E+00+
*       -5.800000000E+02               0
GRID*                152               03.1441333415E+020.0000000000E+00+
*       -5.700000000E+02               0
GRID*                153               03.1441333415E+020.0000000000E+00+
*       -5.600000000E+02               0
GRID*                154               03.1441333415E+020.0000000000E+00+
*       -5.500000000E+02               0
GRID*                155               03.1441333415E+020.0000000000E+00+
*       -5.400000000E+02               0
GRID*                156               03.1441333415E+020.0000000000E+00+
*       -5.300000000E+02               0
GRID*                157               03.1441333415E+020.0000000000E+00+
*       -5.200000000E+02               0
GRID*                158               03.1441333415E+020.0000000000E+00+
*       -5.100000000E+02               0
GRID*                159               03.1441333415E+020.0000000000E+00+
*       -5.000000000E+02               0
GRID*                160               03.1441333415E+020.0000000000E+00+
*       -4.900000000E+02               0
GRID*                161               03.1441333415E+020.0000000000E+00+
*       -4.800000000E+02               0
GRID*                162               03.1441333415E+020.0000000000E+00+
*       -4.700000000E+02               0
GRID*                163               03.1441333415E+020.0000000000E+00+
*       -4.600000000E+02               0
GRID*                164               03.1441333415E+020.0000000000E+00+
*       -4.500000000E+02               0
GRID*                165               03.1441333415E+020.0000000000E+00+
*       -4.400000000E+02               0
GRID*                166               03.1441333415E+020.0000000000E+00+
*       -4.300000000E+02               0
GRID*                167               03.1441333415E+020.0000000000E+00+
*       -4.200000000E+02               0
GRID*                168               03.1441333415E+020.0000000000E+00+
*       -4.100000000E+02               0
GRID*                169               03.1441333415E+020.0000000000E+00+
*       -4.000000000E+02               0
GRID*                170               03.1441333415E+020.0000000000E+00+
*       -3.900000000E+02               0
GRID*                171               03.1441333415E+020.0000000000E+00+
*       -3.800000000E+02               0
GRID*                172               03.1441333415E+020.0000000000E+00+
*       -3.700000000E+02               0
GRID*                173               03.1441333415E+020.0000000000E+00+
*       -3.600000000E+02               0
GRID*                174               03.1441333415E+020.0000000000E+00+
*       -3.500000000E+02               0
GRID*                175               03.1441333415E+020.0000000000E+00+
*       -3.400000000E+02               0
GRID*                176               03.1441333415E+020.0000000000E+00+
*       -3.300000000E+02               0
GRID*                177               03.1441333415E+020.0000000000E+00+
*       -3.200000000E+02               0
GRID*                178               03.1441333415E+020.0000000000E+00+
*       -3.100000000E+02               0
GRID*                179               03.1441333415E+020.0000000000E+00+
*       -3.000000000E+02               0
GRID*                180               03.1441333415E+020.0000000000E+00+
*       -2.900000000E+02               0
GRID*                181               03.1441333415E+020.0000000000E+00+
*       -2.800000000E+02               0
GRID*                182               03.1441333415E+020.0000000000E+00+
*       -2.700000000E+02               0
GRID*                183               03.1441333415E+020.0000000000E+00+
*       -2.600000000E+02               0
GRID*                184               03.1441333415E+020.0000000000E+00+
*       -2.500000000E+02               0
GRID*                185               03.1441333415E+020.0000000000E+00+
*       -2.400000000E+02               0
GRID*                186               03.1441333415E+020.0000000000E+00+
*       -2.300000000E+02               0
GRID*                187               03.1441333415E+020.0000000000E+00+
*       -2.200000000E+02               0
GRID*                188               03.1441333415E+020.0000000000E+00+
*       -2.100000000E+02               0
GRID*                189               03.1441333415E+020.0000000000E+00+
*       -2.000000000E+02               0
GRID*                190               03.1441333415E+020.0000000000E+00+
*       -1.900000000E+02               0
GRID*                191               03.1441333415E+020.0000000000E+00+
*       -1.800000000E+02               0
GRID*                192               03.1441333415E+020.0000000000E+00+
*       -1.700000000E+02               0
GRID*                193               03.1441333415E+020.0000000000E+00+
*       -1.600000000E+02               0
GRID*                194               03.1441333415E+020.0000000000E+00+
*       -1.500000000E+02               0
GRID*                195               03.1441333415E+020.0000000000E+00+
*       -1.400000000E+02               0
GRID*                196               03.1441333415E+020.0000000000E+00+
*       -1.300000000E+02               0
GRID*                197               03.1441333415E+020.0000000000E+00+
*       -1.200000000E+02               0
GRID*                198               03.1441333415E+020.0000000000E+00+
*       -1.100000000E+02               0
GRID*                199               03.1441333415E+020.0000000000E+00+
*       -1.000000000E+02               0
GRID*                200               03.1441333415E+020.0000000000E+00+
*       -9.000000000E+01               0
GRID*                201               03.1441333415E+020.0000000000E+00+
*       -8.000000000E+01               0
GRID*                202               03.1441333415E+020.0000000000E+00+
*       -7.000000000E+01               0
GRID*                203               03.1441333415E+020.0000000000E+00+
*       -6.000000000E+01               0
GRID*                204               03.1441333415E+020.0000000000E+00+
*       -5.000000000E+01               0
GRID*                205               03.1441333415E+020.0000000000E+00+
*       -4.000000000E+01               0
GRID*                206               03.1441333415E+020.0000000000E+00+
*       -3.000000000E+01               0
GRID*                207               03.1441333415E+020.0000000000E+00+
*       -2.000000000E+01               0
GRID*                208               03.1441333415E+020.0000000000E+00+
*       -1.000000000E+01               0
GRID*                209               03.2162000122E+020.0000000000E+00+
*       -1.040000000E+03               0
GRID*                210               03.2162000122E+020.0000000000E+00+
*       -1.030000000E+03               0
GRID*                211               03.2162000122E+020.0000000000E+00+
*       -1.020000000E+03               0
GRID*                212               03.2162000122E+020.0000000000E+00+
*       -1.010000000E+03               0
GRID*                213               03.2162000122E+020.0000000000E+00+
*       -1.000000000E+03               0
GRID*                214               03.2162000122E+020.0000000000E+00+
*       -9.900000000E+02               0
GRID*                215               03.2162000122E+020.0000000000E+00+
*       -9.800000000E+02               0
GRID*                216               03.2162000122E+020.0000000000E+00+
*       -9.700000000E+02               0
GRID*                217               03.2162000122E+020.0000000000E+00+
*       -9.600000000E+02               0
GRID*                218               03.2162000122E+020.0000000000E+00+
*       -9.500000000E+02               0
GRID*                219               03.2162000122E+020.0000000000E+00+
*       -9.400000000E+02               0
GRID*                220               03.2162000122E+020.0000000000E+00+
*       -9.300000000E+02               0
GRID*                221               03.2162000122E+020.0000000000E+00+
*       -9.200000000E+02               0
GRID*                222               03.2162000122E+020.0000000000E+00+
*       -9.100000000E+02               0
GRID*                223               03.2162000122E+020.0000000000E+00+
*       -9.000000000E+02               0
GRID*                224               03.2162000122E+020.0000000000E+00+
*       -8.900000000E+02               0
GRID*                225               03.2162000122E+020.0000000000E+00+
*       -8.800000000E+02               0
GRID*                226               03.2162000122E+020.0000000000E+00+
*       -8.700000000E+02               0
GRID*                227               03.2162000122E+020.0000000000E+00+
*       -8.600000000E+02               0
GRID*                228               03.2162000122E+020.0000000000E+00+
*       -8.500000000E+02               0
GRID*                229               03.2162000122E+020.0000000000E+00+
*       -8.400000000E+02               0
GRID*                230               03.2162000122E+020.0000000000E+00+
*       -8.300000000E+02               0
GRID*                231               03.2162000122E+020.0000000000E+00+
*       -8.200000000E+02               0
GRID*                232               03.2162000122E+020.0000000000E+00+
*       -8.100000000E+02               0
GRID*                233               03.2162000122E+020.0000000000E+00+
*       -8.000000000E+02               0
GRID*                234               03.2162000122E+020.0000000000E+00+
*       -7.900000000E+02               0
GRID*                235               03.2162000122E+020.0000000000E+00+
*       -7.800000000E+02               0
GRID*                236               03.2162000122E+020.0000000000E+00+
*       -7.700000000E+02               0
GRID*                237               03.2162000122E+020.0000000000E+00+
*       -7.600000000E+02               0
GRID*                238               03.2162000122E+020.0000000000E+00+
*       -7.500000000E+02               0
GRID*                239               03.2162000122E+020.0000000000E+00+
*       -7.400000000E+02               0
GRID*                240               03.2162000122E+020.0000000000E+00+
*       -7.300000000E+02               0
GRID*                241               03.2162000122E+020.0000000000E+00+
*       -7.200000000E+02               0
GRID*                242               03.2162000122E+020.0000000000E+00+
*       -7.100000000E+02               0
GRID*                243               03.2162000122E+020.0000000000E+00+
*       -7.000000000E+02               0
GRID*                244               03.2162000122E+020.0000000000E+00+
*       -6.900000000E+02               0
GRID*                245               03.2162000122E+020.0000000000E+00+
*       -6.800000000E+02               0
GRID*                246               03.2162000122E+020.0000000000E+00+
*       -6.700000000E+02               0
GRID*                247               03.2162000122E+020.0000000000E+00+
*       -6.600000000E+02               0
GRID*                248               03.2162000122E+020.0000000000E+00+
*       -6.500000000E+02               0
GRID*                249               03.2162000122E+020.0000000000E+00+
*       -6.400000000E+02               0
GRID*                250               03.2162000122E+020.0000000000E+00+
*       -6.300000000E+02               0
GRID*                251               03.2162000122E+020.0000000000E+00+
*       -6.200000000E+02               0
GRID*                252               03.2162000122E+020.0000000000E+00+
*       -6.100000000E+02               0
GRID*                253               03.2162000122E+020.0000000000E+00+
*       -6.000000000E+02               0
GRID*                254               03.2162000122E+020.0000000000E+00+
*       -5.900000000E+02               0
GRID*                255               03.2162000122E+020.0000000000E+00+
*       -5.800000000E+02               0
GRID*                256               03.2162000122E+020.0000000000E+00+
*       -5.700000000E+02               0
GRID*                257               03.2162000122E+020.0000000000E+00+
*       -5.600000000E+02               0
GRID*                258               03.2162000122E+020.0000000000E+00+
*       -5.500000000E+02               0
GRID*                259               03.2162000122E+020.0000000000E+00+
*       -5.400000000E+02               0
GRID*                260               03.2162000122E+020.0000000000E+00+
*       -5.300000000E+02               0
GRID*                261               03.2162000122E+020.0000000000E+00+
*       -5.200000000E+02               0
GRID*                262               03.2162000122E+020.0000000000E+00+
*       -5.100000000E+02               0
GRID*                263               03.2162000122E+020.0000000000E+00+
*       -5.000000000E+02               0
GRID*                264               03.2162000122E+020.0000000000E+00+
*       -4.900000000E+02               0
GRID*                265               03.2162000122E+020.0000000000E+00+
*       -4.800000000E+02               0
GRID*                266               03.2162000122E+020.0000000000E+00+
*       -4.700000000E+02               0
GRID*                267               03.2162000122E+020.0000000000E+00+
*       -4.600000000E+02               0
GRID*                268               03.2162000122E+020.0000000000E+00+
*       -4.500000000E+02               0
GRID*                269               03.2162000122E+020.0000000000E+00+
*       -4.400000000E+02               0
GRID*                270               03.2162000122E+020.0000000000E+00+
*       -4.300000000E+02               0
GRID*                271               03.2162000122E+020.0000000000E+00+
*       -4.200000000E+02               0
GRID*                272               03.2162000122E+020.0000000000E+00+
*       -4.100000000E+02               0
GRID*                273               03.2162000122E+020.0000000000E+00+
*       -4.000000000E+02               0
GRID*                274               03.2162000122E+020.0000000000E+00+
*       -3.900000000E+02               0
GRID*                275               03.2162000122E+020.0000000000E+00+
*       -3.800000000E+02               0
GRID*                276               03.2162000122E+020.0000000000E+00+
*       -3.700000000E+02               0
GRID*                277               03.2162000122E+020.0000000000E+00+
*       -3.600000000E+02               0
GRID*                278               03.2162000122E+020.0000000000E+00+
*       -3.500000000E+02               0
GRID*                279               03.2162000122E+020.0000000000E+00+
*       -3.400000000E+02               0
GRID*                280               03.2162000122E+020.0000000000E+00+
*       -3.300000000E+02               0
GRID*                281               03.2162000122E+020.0000000000E+00+
*       -3.200000000E+02               0
GRID*                282               03.2162000122E+020.0000000000E+00+
*       -3.100000000E+02               0
GRID*                283               03.2162000122E+020.0000000000E+00+
*       -3.000000000E+02               0
GRID*                284               03.2162000122E+020.0000000000E+00+
*       -2.900000000E+02               0
GRID*                285               03.2162000122E+020.0000000000E+00+
*       -2.800000000E+02               0
GRID*                286               03.2162000122E+020.0000000000E+00+
*       -2.700000000E+02               0
GRID*                287               03.2162000122E+020.0000000000E+00+
*       -2.600000000E+02               0
GRID*                288               03.2162000122E+020.0000000000E+00+
*       -2.500000000E+02               0
GRID*                289               03.2162000122E+020.0000000000E+00+
*       -2.400000000E+02               0
GRID*                290               03.2162000122E+020.0000000000E+00+
*       -2.300000000E+02               0
GRID*                291               03.2162000122E+020.0000000000E+00+
*       -2.200000000E+02               0
GRID*                292               03.2162000122E+020.0000000000E+00+
*       -2.100000000E+02               0
GRID*                293               03.2162000122E+020.0000000000E+00+
*       -2.000000000E+02               0
GRID*                294               03.2162000122E+020.0000000000E+00+
*       -1.900000000E+02               0
GRID*                295               03.2162000122E+020.0000000000E+00+
*       -1.800000000E+02               0
GRID*                296               03.2162000122E+020.0000000000E+00+
*       -1.700000000E+02               0
GRID*                297               03.2162000122E+020.0000000000E+00+
*       -1.600000000E+02               0
GRID*                298               03.2162000122E+020.0000000000E+00+
*       -1.500000000E+02               0
GRID*                299               03.2162000122E+020.0000000000E+00+
*       -1.400000000E+02               0
GRID*                300               03.2162000122E+020.0000000000E+00+
*       -1.300000000E+02               0
GRID*                301               03.2162000122E+020.0000000000E+00+
*       -1.200000000E+02               0
GRID*                302               03.2162000122E+020.0000000000E+00+
*       -1.100000000E+02               0
GRID*                303               03.2162000122E+020.0000000000E+00+
*       -1.000000000E+02               0
GRID*                304               03.2162000122E+020.0000000000E+00+
*       -9.000000000E+01               0
GRID*                305               03.2162000122E+020.0000000000E+00+
*       -8.000000000E+01               0
GRID*                306               03.2162000122E+020.0000000000E+00+
*       -7.000000000E+01               0
GRID*                307               03.2162000122E+020.0000000000E+00+
*       -6.000000000E+01               0
GRID*                308               03.2162000122E+020.0000000000E+00+
*       -5.000000000E+01               0
GRID*                309               03.2162000122E+020.0000000000E+00+
*       -4.000000000E+01               0
GRID*                310               03.2162000122E+020.0000000000E+00+
*       -3.000000000E+01               0
GRID*                311               03.2162000122E+020.0000000000E+00+
*       -2.000000000E+01               0
GRID*                312               03.2162000122E+020.0000000000E+00+
*       -1.000000000E+01               0
GRID*                313               03.2882666829E+020.0000000000E+00+
*       -1.040000000E+03               0
GRID*                314               03.2882666829E+020.0000000000E+00+
*       -1.030000000E+03               0
GRID*                315               03.2882666829E+020.0000000000E+00+
*       -1.020000000E+03               0
GRID*                316               03.2882666829E+020.0000000000E+00+
*       -1.010000000E+03               0
GRID*                317               03.2882666829E+020.0000000000E+00+
*       -1.000000000E+03               0
GRID*                318               03.2882666829E+020.0000000000E+00+
*       -9.900000000E+02               0
GRID*                319               03.2882666829E+020.0000000000E+00+
*       -9.800000000E+02               0
GRID*                320               03.2882666829E+020.0000000000E+00+
*       -9.700000000E+02               0
GRID*                321               03.2882666829E+020.0000000000E+00+
*       -9.600000000E+02               0
GRID*                322               03.2882666829E+020.0000000000E+00+
*       -9.500000000E+02               0
GRID*                323               03.2882666829E+020.0000000000E+00+
*       -9.400000000E+02               0
GRID*                324               03.2882666829E+020.0000000000E+00+
*       -9.300000000E+02               0
GRID*                325               03.2882666829E+020.0000000000E+00+
*       -9.200000000E+02               0
GRID*                326               03.2882666829E+020.0000000000E+00+
*       -9.100000000E+02               0
GRID*                327               03.2882666829E+020.0000000000E+00+
*       -9.000000000E+02               0
GRID*                328               03.2882666829E+020.0000000000E+00+
*       -8.900000000E+02               0
GRID*                329               03.2882666829E+020.0000000000E+00+
*       -8.800000000E+02               0
GRID*                330               03.2882666829E+020.0000000000E+00+
*       -8.700000000E+02               0
GRID*                331               03.2882666829E+020.0000000000E+00+
*       -8.600000000E+02               0
GRID*                332               03.2882666829E+020.0000000000E+00+
*       -8.500000000E+02               0
GRID*                333               03.2882666829E+020.0000000000E+00+
*       -8.400000000E+02               0
GRID*                334               03.2882666829E+020.0000000000E+00+
*       -8.300000000E+02               0
GRID*                335               03.2882666829E+020.0000000000E+00+
*       -8.200000000E+02               0
GRID*                336               03.2882666829E+020.0000000000E+00+
*       -8.100000000E+02               0
GRID*                337               03.2882666829E+020.0000000000E+00+
*       -8.000000000E+02               0
GRID*                338               03.2882666829E+020.0000000000E+00+
*       -7.900000000E+02               0
GRID*                339               03.2882666829E+020.0000000000E+00+
*       -7.800000000E+02               0
GRID*                340               03.2882666829E+020.0000000000E+00+
*       -7.700000000E+02               0
GRID*                341               03.2882666829E+020.0000000000E+00+
*       -7.600000000E+02               0
GRID*                342               03.2882666829E+020.0000000000E+00+
*       -7.500000000E+02               0
GRID*                343               03.2882666829E+020.0000000000E+00+
*       -7.400000000E+02               0
GRID*                344               03.2882666829E+020.0000000000E+00+
*       -7.300000000E+02               0
GRID*                345               03.2882666829E+020.0000000000E+00+
*       -7.200000000E+02               0
GRID*                346               03.2882666829E+020.0000000000E+00+
*       -7.100000000E+02               0
GRID*                347               03.2882666829E+020.0000000000E+00+
*       -7.000000000E+02               0
GRID*                348               03.2882666829E+020.0000000000E+00+
*       -6.900000000E+02               0
GRID*                349               03.2882666829E+020.0000000000E+00+
*       -6.800000000E+02               0
GRID*                350               03.2882666829E+020.0000000000E+00+
*       -6.700000000E+02               0
GRID*                351               03.2882666829E+020.0000000000E+00+
*       -6.600000000E+02               0
GRID*                352               03.2882666829E+020.0000000000E+00+
*       -6.500000000E+02               0
GRID*                353               03.2882666829E+020.0000000000E+00+
*       -6.400000000E+02               0
GRID*                354               03.2882666829E+020.0000000000E+00+
*       -6.300000000E+02               0
GRID*                355               03.2882666829E+020.0000000000E+00+
*       -6.200000000E+02               0
GRID*                356               03.2882666829E+020.0000000000E+00+
*       -6.100000000E+02               0
GRID*                357               03.2882666829E+020.0000000000E+00+
*       -6.000000000E+02               0
GRID*                358               03.2882666829E+020.0000000000E+00+
*       -5.900000000E+02               0
GRID*                359               03.2882666829E+020.0000000000E+00+
*       -5.800000000E+02               0
GRID*                360               03.2882666829E+020.0000000000E+00+
*       -5.700000000E+02               0
GRID*                361               03.2882666829E+020.0000000000E+00+
*       -5.600000000E+02               0
GRID*                362               03.2882666829E+020.0000000000E+00+
*       -5.500000000E+02               0
GRID*                363               03.2882666829E+020.0000000000E+00+
*       -5.400000000E+02               0
GRID*                364               03.2882666829E+020.0000000000E+00+
*       -5.300000000E+02               0
GRID*                365               03.2882666829E+020.0000000000E+00+
*       -5.200000000E+02               0
GRID*                366               03.2882666829E+020.0000000000E+00+
*       -5.100000000E+02               0
GRID*                367               03.2882666829E+020.0000000000E+00+
*       -5.000000000E+02               0
GRID*                368               03.2882666829E+020.0000000000E+00+
*       -4.900000000E+02               0
GRID*                369               03.2882666829E+020.0000000000E+00+
*       -4.800000000E+02               0
GRID*                370               03.2882666829E+020.0000000000E+00+
*       -4.700000000E+02               0
GRID*                371               03.2882666829E+020.0000000000E+00+
*       -4.600000000E+02               0
GRID*                372               03.2882666829E+020.0000000000E+00+
*       -4.500000000E+02               0
GRID*                373               03.2882666829E+020.0000000000E+00+
*       -4.400000000E+02               0
GRID*                374               03.2882666829E+020.0000000000E+00+
*       -4.300000000E+02               0
GRID*                375               03.2882666829E+020.0000000000E+00+
*       -4.200000000E+02               0
GRID*                376               03.2882666829E+020.0000000000E+00+
*       -4.100000000E+02               0
GRID*                377               03.2882666829E+020.0000000000E+00+
*       -4.000000000E+02               0
GRID*                378               03.2882666829E+020.0000000000E+00+
*       -3.900000000E+02               0
GRID*                379               03.2882666829E+020.0000000000E+00+
*       -3.800000000E+02               0
GRID*                380               03.2882666829E+020.0000000000E+00+
*       -3.700000000E+02               0
GRID*                381               03.2882666829E+020.0000000000E+00+
*       -3.600000000E+02               0
GRID*                382               03.2882666829E+020.0000000000E+00+
*       -3.500000000E+02               0
GRID*                383               03.2882666829E+020.0000000000E+00+
*       -3.400000000E+02               0
GRID*                384               03.2882666829E+020.0000000000E+00+
*       -3.300000000E+02               0
GRID*                385               03.2882666829E+020.0000000000E+00+
*       -3.200000000E+02               0
GRID*                386               03.2882666829E+020.0000000000E+00+
*       -3.100000000E+02               0
GRID*                387               03.2882666829E+020.0000000000E+00+
*       -3.000000000E+02               0
GRID*                388               03.2882666829E+020.0000000000E+00+
*       -2.900000000E+02               0
GRID*                389               03.2882666829E+020.0000000000E+00+
*       -2.800000000E+02               0
GRID*                390               03.2882666829E+020.0000000000E+00+
*       -2.700000000E+02               0
GRID*                391               03.2882666829E+020.0000000000E+00+
*       -2.600000000E+02               0
GRID*                392               03.2882666829E+020.0000000000E+00+
*       -2.500000000E+02               0
GRID*                393               03.2882666829E+020.0000000000E+00+
*       -2.400000000E+02               0
GRID*                394               03.2882666829E+020.0000000000E+00+
*       -2.300000000E+02               0
GRID*                395               03.2882666829E+020.0000000000E+00+
*       -2.200000000E+02               0
GRID*                396               03.2882666829E+020.0000000000E+00+
*       -2.100000000E+02               0
GRID*                397               03.2882666829E+020.0000000000E+00+
*       -2.000000000E+02               0
GRID*                398               03.2882666829E+020.0000000000E+00+
*       -1.900000000E+02               0
GRID*                399               03.2882666829E+020.0000000000E+00+
*       -1.800000000E+02               0
GRID*                400               03.2882666829E+020.0000000000E+00+
*       -1.700000000E+02               0
GRID*                401               03.2882666829E+020.0000000000E+00+
*       -1.600000000E+02               0
GRID*                402               03.2882666829E+020.0000000000E+00+
*       -1.500000000E+02               0
GRID*                403               03.2882666829E+020.0000000000E+00+
*       -1.400000000E+02               0
GRID*                404               03.2882666829E+020.0000000000E+00+
*       -1.300000000E+02               0
GRID*                405               03.2882666829E+020.0000000000E+00+
*       -1.200000000E+02               0
GRID*                406               03.2882666829E+020.0000000000E+00+
*       -1.100000000E+02               0
GRID*                407               03.2882666829E+020.0000000000E+00+
*       -1.000000000E+02               0
GRID*                408               03.2882666829E+020.0000000000E+00+
*       -9.000000000E+01               0
GRID*                409               03.2882666829E+020.0000000000E+00+
*       -8.000000000E+01               0
GRID*                410               03.2882666829E+020.0000000000E+00+
*       -7.000000000E+01               0
GRID*                411               03.2882666829E+020.0000000000E+00+
*       -6.000000000E+01               0
GRID*                412               03.2882666829E+020.0000000000E+00+
*       -5.000000000E+01               0
GRID*                413               03.2882666829E+020.0000000000E+00+
*       -4.000000000E+01               0
GRID*                414               03.2882666829E+020.0000000000E+00+
*       -3.000000000E+01               0
GRID*                415               03.2882666829E+020.0000000000E+00+
*       -2.000000000E+01               0
GRID*                416               03.2882666829E+020.0000000000E+00+
*       -1.000000000E+01               0
GRID*                417               03.3603333537E+020.0000000000E+00+
*       -1.040000000E+03               0
GRID*                418               03.3603333537E+020.0000000000E+00+
*       -1.030000000E+03               0
GRID*                419               03.3603333537E+020.0000000000E+00+
*       -1.020000000E+03               0
GRID*                420               03.3603333537E+020.0000000000E+00+
*       -1.010000000E+03               0
GRID*                421               03.3603333537E+020.0000000000E+00+
*       -1.000000000E+03               0
GRID*                422               03.3603333537E+020.0000000000E+00+
*       -9.900000000E+02               0
GRID*                423               03.3603333537E+020.0000000000E+00+
*       -9.800000000E+02               0
GRID*                424               03.3603333537E+020.0000000000E+00+
*       -9.700000000E+02               0
GRID*                425               03.3603333537E+020.0000000000E+00+
*       -9.600000000E+02               0
GRID*                426               03.3603333537E+020.0000000000E+00+
*       -9.500000000E+02               0
GRID*                427               03.3603333537E+020.0000000000E+00+
*       -9.400000000E+02               0
GRID*                428               03.3603333537E+020.0000000000E+00+
*       -9.300000000E+02               0
GRID*                429               03.3603333537E+020.0000000000E+00+
*       -9.200000000E+02               0
GRID*                430               03.3603333537E+020.0000000000E+00+
*       -9.100000000E+02               0
GRID*                431               03.3603333537E+020.0000000000E+00+
*       -9.000000000E+02               0
GRID*                432               03.3603333537E+020.0000000000E+00+
*       -8.900000000E+02               0
GRID*                433               03.3603333537E+020.0000000000E+00+
*       -8.800000000E+02               0
GRID*                434               03.3603333537E+020.0000000000E+00+
*       -8.700000000E+02               0
GRID*                435               03.3603333537E+020.0000000000E+00+
*       -8.600000000E+02               0
GRID*                436               03.3603333537E+020.0000000000E+00+
*       -8.500000000E+02               0
GRID*                437               03.3603333537E+020.0000000000E+00+
*       -8.400000000E+02               0
GRID*                438               03.3603333537E+020.0000000000E+00+
*       -8.300000000E+02               0
GRID*                439               03.3603333537E+020.0000000000E+00+
*       -8.200000000E+02               0
GRID*                440               03.3603333537E+020.0000000000E+00+
*       -8.100000000E+02               0
GRID*                441               03.3603333537E+020.0000000000E+00+
*       -8.000000000E+02               0
GRID*                442               03.3603333537E+020.0000000000E+00+
*       -7.900000000E+02               0
GRID*                443               03.3603333537E+020.0000000000E+00+
*       -7.800000000E+02               0
GRID*                444               03.3603333537E+020.0000000000E+00+
*       -7.700000000E+02               0
GRID*                445               03.3603333537E+020.0000000000E+00+
*       -7.600000000E+02               0
GRID*                446               03.3603333537E+020.0000000000E+00+
*       -7.500000000E+02               0
GRID*                447               03.3603333537E+020.0000000000E+00+
*       -7.400000000E+02               0
GRID*                448               03.3603333537E+020.0000000000E+00+
*       -7.300000000E+02               0
GRID*                449               03.3603333537E+020.0000000000E+00+
*       -7.200000000E+02               0
GRID*                450               03.3603333537E+020.0000000000E+00+
*       -7.100000000E+02               0
GRID*                451               03.3603333537E+020.0000000000E+00+
*       -7.000000000E+02               0
GRID*                452               03.3603333537E+020.0000000000E+00+
*       -6.900000000E+02               0
GRID*                453               03.3603333537E+020.0000000000E+00+
*       -6.800000000E+02               0
GRID*                454               03.3603333537E+020.0000000000E+00+
*       -6.700000000E+02               0
GRID*                455               03.3603333537E+020.0000000000E+00+
*       -6.600000000E+02               0
GRID*                456               03.3603333537E+020.0000000000E+00+
*       -6.500000000E+02               0
GRID*                457               03.3603333537E+020.0000000000E+00+
*       -6.400000000E+02               0
GRID*                458               03.3603333537E+020.0000000000E+00+
*       -6.300000000E+02               0
GRID*                459               03.3603333537E+020.0000000000E+00+
*       -6.200000000E+02               0
GRID*                460               03.3603333537E+020.0000000000E+00+
*       -6.100000000E+02               0
GRID*                461               03.3603333537E+020.0000000000E+00+
*       -6.000000000E+02               0
GRID*                462               03.3603333537E+020.0000000000E+00+
*       -5.900000000E+02               0
GRID*                463               03.3603333537E+020.0000000000E+00+
*       -5.800000000E+02               0
GRID*                464               03.3603333537E+020.0000000000E+00+
*       -5.700000000E+02               0
GRID*                465               03.3603333537E+020.0000000000E+00+
*       -5.600000000E+02               0
GRID*                466               03.3603333537E+020.0000000000E+00+
*       -5.500000000E+02               0
GRID*                467               03.3603333537E+020.0000000000E+00+
*       -5.400000000E+02               0
GRID*                468               03.3603333537E+020.0000000000E+00+
*       -5.300000000E+02               0
GRID*                469               03.3603333537E+020.0000000000E+00+
*       -5.200000000E+02               0
GRID*                470               03.3603333537E+020.0000000000E+00+
*       -5.100000000E+02               0
GRID*                471               03.3603333537E+020.0000000000E+00+
*       -5.000000000E+02               0
GRID*                472               03.3603333537E+020.0000000000E+00+
*       -4.900000000E+02               0
GRID*                473               03.3603333537E+020.0000000000E+00+
*       -4.800000000E+02               0
GRID*                474               03.3603333537E+020.0000000000E+00+
*       -4.700000000E+02               0
GRID*                475               03.3603333537E+020.0000000000E+00+
*       -4.600000000E+02               0
GRID*                476               03.3603333537E+020.0000000000E+00+
*       -4.500000000E+02               0
GRID*                477               03.3603333537E+020.0000000000E+00+
*       -4.400000000E+02               0
GRID*                478               03.3603333537E+020.0000000000E+00+
*       -4.300000000E+02               0
GRID*                479               03.3603333537E+020.0000000000E+00+
*       -4.200000000E+02               0
GRID*                480               03.3603333537E+020.0000000000E+00+
*       -4.100000000E+02               0
GRID*                481               03.3603333537E+020.0000000000E+00+
*       -4.000000000E+02               0
GRID*                482               03.3603333537E+020.0000000000E+00+
*       -3.900000000E+02               0
GRID*                483               03.3603333537E+020.0000000000E+00+
*       -3.800000000E+02               0
GRID*                484               03.3603333537E+020.0000000000E+00+
*       -3.700000000E+02               0
GRID*                485               03.3603333537E+020.0000000000E+00+
*       -3.600000000E+02               0
GRID*                486               03.3603333537E+020.0000000000E+00+
*       -3.500000000E+02               0
GRID*                487               03.3603333537E+020.0000000000E+00+
*       -3.400000000E+02               0
GRID*                488               03.3603333537E+020.0000000000E+00+
*       -3.300000000E+02               0
GRID*                489               03.3603333537E+020.0000000000E+00+
*       -3.200000000E+02               0
GRID*                490               03.3603333537E+020.0000000000E+00+
*       -3.100000000E+02               0
GRID*                491               03.3603333537E+020.0000000000E+00+
*       -3.000000000E+02               0
GRID*                492               03.3603333537E+020.0000000000E+00+
*       -2.900000000E+02               0
GRID*                493               03.3603333537E+020.0000000000E+00+
*       -2.800000000E+02               0
GRID*                494               03.3603333537E+020.0000000000E+00+
*       -2.700000000E+02               0
GRID*                495               03.3603333537E+020.0000000000E+00+
*       -2.600000000E+02               0
GRID*                496               03.3603333537E+020.0000000000E+00+
*       -2.500000000E+02               0
GRID*                497               03.3603333537E+020.0000000000E+00+
*       -2.400000000E+02               0
GRID*                498               03.3603333537E+020.0000000000E+00+
*       -2.300000000E+02               0
GRID*                499               03.3603333537E+020.0000000000E+00+
*       -2.200000000E+02               0
GRID*                500               03.3603333537E+020.0000000000E+00+
*       -2.100000000E+02               0
GRID*                501               03.3603333537E+020.0000000000E+00+
*       -2.000000000E+02               0
GRID*                502               03.3603333537E+020.0000000000E+00+
*       -1.900000000E+02               0
GRID*                503               03.3603333537E+020.0000000000E+00+
*       -1.800000000E+02               0
GRID*                504               03.3603333537E+020.0000000000E+00+
*       -1.700000000E+02               0
GRID*                505               03.3603333537E+020.0000000000E+00+
*       -1.600000000E+02               0
GRID*                506               03.3603333537E+020.0000000000E+00+
*       -1.500000000E+02               0
GRID*                507               03.3603333537E+020.0000000000E+00+
*       -1.400000000E+02               0
GRID*                508               03.3603333537E+020.0000000000E+00+
*       -1.300000000E+02               0
GRID*                509               03.3603333537E+020.0000000000E+00+
*       -1.200000000E+02               0
GRID*                510               03.3603333537E+020.0000000000E+00+
*       -1.100000000E+02               0
GRID*                511               03.3603333537E+020.0000000000E+00+
*       -1.000000000E+02               0
GRID*                512               03.3603333537E+020.0000000000E+00+
*       -9.000000000E+01               0
GRID*                513               03.3603333537E+020.0000000000E+00+
*       -8.000000000E+01               0
GRID*                514               03.3603333537E+020.0000000000E+00+
*       -7.000000000E+01               0
GRID*                515               03.3603333537E+020.0000000000E+00+
*       -6.000000000E+01               0
GRID*                516               03.3603333537E+020.0000000000E+00+
*       -5.000000000E+01               0
GRID*                517               03.3603333537E+020.0000000000E+00+
*       -4.000000000E+01               0
GRID*                518               03.3603333537E+020.0000000000E+00+
*       -3.000000000E+01               0
GRID*                519               03.3603333537E+020.0000000000E+00+
*       -2.000000000E+01               0
GRID*                520               03.3603333537E+020.0000000000E+00+
*       -1.000000000E+01               0
GRID*                521               03.4324000244E+020.0000000000E+00+
*       -1.040000000E+03               0
GRID*                522               03.4324000244E+020.0000000000E+00+
*       -1.030000000E+03               0
GRID*                523               03.4324000244E+020.0000000000E+00+
*       -1.020000000E+03               0
GRID*                524               03.4324000244E+020.0000000000E+00+
*       -1.010000000E+03               0
GRID*                525               03.4324000244E+020.0000000000E+00+
*       -1.000000000E+03               0
GRID*                526               03.4324000244E+020.0000000000E+00+
*       -9.900000000E+02               0
GRID*                527               03.4324000244E+020.0000000000E+00+
*       -9.800000000E+02               0
GRID*                528               03.4324000244E+020.0000000000E+00+
*       -9.700000000E+02               0
GRID*                529               03.4324000244E+020.0000000000E+00+
*       -9.600000000E+02               0
GRID*                530               03.4324000244E+020.0000000000E+00+
*       -9.500000000E+02               0
GRID*                531               03.4324000244E+020.0000000000E+00+
*       -9.400000000E+02               0
GRID*                532               03.4324000244E+020.0000000000E+00+
*       -9.300000000E+02               0
GRID*                533               03.4324000244E+020.0000000000E+00+
*       -9.200000000E+02               0
GRID*                534               03.4324000244E+020.0000000000E+00+
*       -9.100000000E+02               0
GRID*                535               03.4324000244E+020.0000000000E+00+
*       -9.000000000E+02               0
GRID*                536               03.4324000244E+020.0000000000E+00+
*       -8.900000000E+02               0
GRID*                537               03.4324000244E+020.0000000000E+00+
*       -8.800000000E+02               0
GRID*                538               03.4324000244E+020.0000000000E+00+
*       -8.700000000E+02               0
GRID*                539               03.4324000244E+020.0000000000E+00+
*       -8.600000000E+02               0
GRID*                540               03.4324000244E+020.0000000000E+00+
*       -8.500000000E+02               0
GRID*                541               03.4324000244E+020.0000000000E+00+
*       -8.400000000E+02               0
GRID*                542               03.4324000244E+020.0000000000E+00+
*       -8.300000000E+02               0
GRID*                543               03.4324000244E+020.0000000000E+00+
*       -8.200000000E+02               0
GRID*                544               03.4324000244E+020.0000000000E+00+
*       -8.100000000E+02               0
GRID*                545               03.4324000244E+020.0000000000E+00+
*       -8.000000000E+02               0
GRID*                546               03.4324000244E+020.0000000000E+00+
*       -7.900000000E+02               0
GRID*                547               03.4324000244E+020.0000000000E+00+
*       -7.800000000E+02               0
GRID*                548               03.4324000244E+020.0000000000E+00+
*       -7.700000000E+02               0
GRID*                549               03.4324000244E+020.0000000000E+00+
*       -7.600000000E+02               0
GRID*                550               03.4324000244E+020.0000000000E+00+
*       -7.500000000E+02               0
GRID*                551               03.4324000244E+020.0000000000E+00+
*       -7.400000000E+02               0
GRID*                552               03.4324000244E+020.0000000000E+00+
*       -7.300000000E+02               0
GRID*                553               03.4324000244E+020.0000000000E+00+
*       -7.200000000E+02               0
GRID*                554               03.4324000244E+020.0000000000E+00+
*       -7.100000000E+02               0
GRID*                555               03.4324000244E+020.0000000000E+00+
*       -7.000000000E+02               0
GRID*                556               03.4324000244E+020.0000000000E+00+
*       -6.900000000E+02               0
GRID*                557               03.4324000244E+020.0000000000E+00+
*       -6.800000000E+02               0
GRID*                558               03.4324000244E+020.0000000000E+00+
*       -6.700000000E+02               0
GRID*                559               03.4324000244E+020.0000000000E+00+
*       -6.600000000E+02               0
GRID*                560               03.4324000244E+020.0000000000E+00+
*       -6.500000000E+02               0
GRID*                561               03.4324000244E+020.0000000000E+00+
*       -6.400000000E+02               0
GRID*                562               03.4324000244E+020.0000000000E+00+
*       -6.300000000E+02               0
GRID*                563               03.4324000244E+020.0000000000E+00+
*       -6.200000000E+02               0
GRID*                564               03.4324000244E+020.0000000000E+00+
*       -6.100000000E+02               0
GRID*                565               03.4324000244E+020.0000000000E+00+
*       -6.000000000E+02               0
GRID*                566               03.4324000244E+020.0000000000E+00+
*       -5.900000000E+02               0
GRID*                567               03.4324000244E+020.0000000000E+00+
*       -5.800000000E+02               0
GRID*                568               03.4324000244E+020.0000000000E+00+
*       -5.700000000E+02               0
GRID*                569               03.4324000244E+020.0000000000E+00+
*       -5.600000000E+02               0
GRID*                570               03.4324000244E+020.0000000000E+00+
*       -5.500000000E+02               0
GRID*                571               03.4324000244E+020.0000000000E+00+
*       -5.400000000E+02               0
GRID*                572               03.4324000244E+020.0000000000E+00+
*       -5.300000000E+02               0
GRID*                573               03.4324000244E+020.0000000000E+00+
*       -5.200000000E+02               0
GRID*                574               03.4324000244E+020.0000000000E+00+
*       -5.100000000E+02               0
GRID*                575               03.4324000244E+020.0000000000E+00+
*       -5.000000000E+02               0
GRID*                576               03.4324000244E+020.0000000000E+00+
*       -4.900000000E+02               0
GRID*                577               03.4324000244E+020.0000000000E+00+
*       -4.800000000E+02               0
GRID*                578               03.4324000244E+020.0000000000E+00+
*       -4.700000000E+02               0
GRID*                579               03.4324000244E+020.0000000000E+00+
*       -4.600000000E+02               0
GRID*                580               03.4324000244E+020.0000000000E+00+
*       -4.500000000E+02               0
GRID*                581               03.4324000244E+020.0000000000E+00+
*       -4.400000000E+02               0
GRID*                582               03.4324000244E+020.0000000000E+00+
*       -4.300000000E+02               0
GRID*                583               03.4324000244E+020.0000000000E+00+
*       -4.200000000E+02               0
GRID*                584               03.4324000244E+020.0000000000E+00+
*       -4.100000000E+02               0
GRID*                585               03.4324000244E+020.0000000000E+00+
*       -4.000000000E+02               0
GRID*                586               03.4324000244E+020.0000000000E+00+
*       -3.900000000E+02               0
GRID*                587               03.4324000244E+020.0000000000E+00+
*       -3.800000000E+02               0
GRID*                588               03.4324000244E+020.0000000000E+00+
*       -3.700000000E+02               0
GRID*                589               03.4324000244E+020.0000000000E+00+
*       -3.600000000E+02               0
GRID*                590               03.4324000244E+020.0000000000E+00+
*       -3.500000000E+02               0
GRID*                591               03.4324000244E+020.0000000000E+00+
*       -3.400000000E+02               0
GRID*                592               03.4324000244E+020.0000000000E+00+
*       -3.300000000E+02               0
GRID*                593               03.4324000244E+020.0000000000E+00+
*       -3.200000000E+02               0
GRID*                594               03.4324000244E+020.0000000000E+00+
*       -3.100000000E+02               0
GRID*                595               03.4324000244E+020.0000000000E+00+
*       -3.000000000E+02               0
GRID*                596               03.4324000244E+020.0000000000E+00+
*       -2.900000000E+02               0
GRID*                597               03.4324000244E+020.0000000000E+00+
*       -2.800000000E+02               0
GRID*                598               03.4324000244E+020.0000000000E+00+
*       -2.700000000E+02               0
GRID*                599               03.4324000244E+020.0000000000E+00+
*       -2.600000000E+02               0
GRID*                600               03.4324000244E+020.0000000000E+00+
*       -2.500000000E+02               0
GRID*                601               03.4324000244E+020.0000000000E+00+
*       -2.400000000E+02               0
GRID*                602               03.4324000244E+020.0000000000E+00+
*       -2.300000000E+02               0
GRID*                603               03.4324000244E+020.0000000000E+00+
*       -2.200000000E+02               0
GRID*                604               03.4324000244E+020.0000000000E+00+
*       -2.100000000E+02               0
GRID*                605               03.4324000244E+020.0000000000E+00+
*       -2.000000000E+02               0
GRID*                606               03.4324000244E+020.0000000000E+00+
*       -1.900000000E+02               0
GRID*                607               03.4324000244E+020.0000000000E+00+
*       -1.800000000E+02               0
GRID*                608               03.4324000244E+020.0000000000E+00+
*       -1.700000000E+02               0
GRID*                609               03.4324000244E+020.0000000000E+00+
*       -1.600000000E+02               0
GRID*                610               03.4324000244E+020.0000000000E+00+
*       -1.500000000E+02               0
GRID*                611               03.4324000244E+020.0000000000E+00+
*       -1.400000000E+02               0
GRID*                612               03.4324000244E+020.0000000000E+00+
*       -1.300000000E+02               0
GRID*                613               03.4324000244E+020.0000000000E+00+
*       -1.200000000E+02               0
GRID*                614               03.4324000244E+020.0000000000E+00+
*       -1.100000000E+02               0
GRID*                615               03.4324000244E+020.0000000000E+00+
*       -1.000000000E+02               0
GRID*                616               03.4324000244E+020.0000000000E+00+
*       -9.000000000E+01               0
GRID*                617               03.4324000244E+020.0000000000E+00+
*       -8.000000000E+01               0
GRID*                618               03.4324000244E+020.0000000000E+00+
*       -7.000000000E+01               0
GRID*                619               03.4324000244E+020.0000000000E+00+
*       -6.000000000E+01               0
GRID*                620               03.4324000244E+020.0000000000E+00+
*       -5.000000000E+01               0
GRID*                621               03.4324000244E+020.0000000000E+00+
*       -4.000000000E+01               0
GRID*                622               03.4324000244E+020.0000000000E+00+
*       -3.000000000E+01               0
GRID*                623               03.4324000244E+020.0000000000E+00+
*       -2.000000000E+01               0
GRID*                624               03.4324000244E+020.0000000000E+00+
*       -1.000000000E+01               0
GRID*                625               03.5044666951E+020.0000000000E+00+
*       -1.040000000E+03               0
GRID*                626               03.5044666951E+020.0000000000E+00+
*       -1.030000000E+03               0
GRID*                627               03.5044666951E+020.0000000000E+00+
*       -1.020000000E+03               0
GRID*                628               03.5044666951E+020.0000000000E+00+
*       -1.010000000E+03               0
GRID*                629               03.5044666951E+020.0000000000E+00+
*       -1.000000000E+03               0
GRID*                630               03.5044666951E+020.0000000000E+00+
*       -9.900000000E+02               0
GRID*                631               03.5044666951E+020.0000000000E+00+
*       -9.800000000E+02               0
GRID*                632               03.5044666951E+020.0000000000E+00+
*       -9.700000000E+02               0
GRID*                633               03.5044666951E+020.0000000000E+00+
*       -9.600000000E+02               0
GRID*                634               03.5044666951E+020.0000000000E+00+
*       -9.500000000E+02               0
GRID*                635               03.5044666951E+020.0000000000E+00+
*       -9.400000000E+02               0
GRID*                636               03.5044666951E+020.0000000000E+00+
*       -9.300000000E+02               0
GRID*                637               03.5044666951E+020.0000000000E+00+
*       -9.200000000E+02               0
GRID*                638               03.5044666951E+020.0000000000E+00+
*       -9.100000000E+02               0
GRID*                639               03.5044666951E+020.0000000000E+00+
*       -9.000000000E+02               0
GRID*                640               03.5044666951E+020.0000000000E+00+
*       -8.900000000E+02               0
GRID*                641               03.5044666951E+020.0000000000E+00+
*       -8.800000000E+02               0
GRID*                642               03.5044666951E+020.0000000000E+00+
*       -8.700000000E+02               0
GRID*                643               03.5044666951E+020.0000000000E+00+
*       -8.600000000E+02               0
GRID*                644               03.5044666951E+020.0000000000E+00+
*       -8.500000000E+02               0
GRID*                645               03.5044666951E+020.0000000000E+00+
*       -8.400000000E+02               0
GRID*                646               03.5044666951E+020.0000000000E+00+
*       -8.300000000E+02               0
GRID*                647               03.5044666951E+020.0000000000E+00+
*       -8.200000000E+02               0
GRID*                648               03.5044666951E+020.0000000000E+00+
*       -8.100000000E+02               0
GRID*                649               03.5044666951E+020.0000000000E+00+
*       -8.000000000E+02               0
GRID*                650               03.5044666951E+020.0000000000E+00+
*       -7.900000000E+02               0
GRID*                651               03.5044666951E+020.0000000000E+00+
*       -7.800000000E+02               0
GRID*                652               03.5044666951E+020.0000000000E+00+
*       -7.700000000E+02               0
GRID*                653               03.5044666951E+020.0000000000E+00+
*       -7.600000000E+02               0
GRID*                654               03.5044666951E+020.0000000000E+00+
*       -7.500000000E+02               0
GRID*                655               03.5044666951E+020.0000000000E+00+
*       -7.400000000E+02               0
GRID*                656               03.5044666951E+020.0000000000E+00+
*       -7.300000000E+02               0
GRID*                657               03.5044666951E+020.0000000000E+00+
*       -7.200000000E+02               0
GRID*                658               03.5044666951E+020.0000000000E+00+
*       -7.100000000E+02               0
GRID*                659               03.5044666951E+020.0000000000E+00+
*       -7.000000000E+02               0
GRID*                660               03.5044666951E+020.0000000000E+00+
*       -6.900000000E+02               0
GRID*                661               03.5044666951E+020.0000000000E+00+
*       -6.800000000E+02               0
GRID*                662               03.5044666951E+020.0000000000E+00+
*       -6.700000000E+02               0
GRID*                663               03.5044666951E+020.0000000000E+00+
*       -6.600000000E+02               0
GRID*                664               03.5044666951E+020.0000000000E+00+
*       -6.500000000E+02               0
GRID*                665               03.5044666951E+020.0000000000E+00+
*       -6.400000000E+02               0
GRID*                666               03.5044666951E+020.0000000000E+00+
*       -6.300000000E+02               0
GRID*                667               03.5044666951E+020.0000000000E+00+
*       -6.200000000E+02               0
GRID*                668               03.5044666951E+020.0000000000E+00+
*       -6.100000000E+02               0
GRID*                669               03.5044666951E+020.0000000000E+00+
*       -6.000000000E+02               0
GRID*                670               03.5044666951E+020.0000000000E+00+
*       -5.900000000E+02               0
GRID*                671               03.5044666951E+020.0000000000E+00+
*       -5.800000000E+02               0
GRID*                672               03.5044666951E+020.0000000000E+00+
*       -5.700000000E+02               0
GRID*                673               03.5044666951E+020.0000000000E+00+
*       -5.600000000E+02               0
GRID*                674               03.5044666951E+020.0000000000E+00+
*       -5.500000000E+02               0
GRID*                675               03.5044666951E+020.0000000000E+00+
*       -5.400000000E+02               0
GRID*                676               03.5044666951E+020.0000000000E+00+
*       -5.300000000E+02               0
GRID*                677               03.5044666951E+020.0000000000E+00+
*       -5.200000000E+02               0
GRID*                678               03.5044666951E+020.0000000000E+00+
*       -5.100000000E+02               0
GRID*                679               03.5044666951E+020.0000000000E+00+
*       -5.000000000E+02               0
GRID*                680               03.5044666951E+020.0000000000E+00+
*       -4.900000000E+02               0
GRID*                681               03.5044666951E+020.0000000000E+00+
*       -4.800000000E+02               0
GRID*                682               03.5044666951E+020.0000000000E+00+
*       -4.700000000E+02               0
GRID*                683               03.5044666951E+020.0000000000E+00+
*       -4.600000000E+02               0
GRID*                684               03.5044666951E+020.0000000000E+00+
*       -4.500000000E+02               0
GRID*                685               03.5044666951E+020.0000000000E+00+
*       -4.400000000E+02               0
GRID*                686               03.5044666951E+020.0000000000E+00+
*       -4.300000000E+02               0
GRID*                687               03.5044666951E+020.0000000000E+00+
*       -4.200000000E+02               0
GRID*                688               03.5044666951E+020.0000000000E+00+
*       -4.100000000E+02               0
GRID*                689               03.5044666951E+020.0000000000E+00+
*       -4.000000000E+02               0
GRID*                690               03.5044666951E+020.0000000000E+00+
*       -3.900000000E+02               0
GRID*                691               03.5044666951E+020.0000000000E+00+
*       -3.800000000E+02               0
GRID*                692               03.5044666951E+020.0000000000E+00+
*       -3.700000000E+02               0
GRID*                693               03.5044666951E+020.0000000000E+00+
*       -3.600000000E+02               0
GRID*                694               03.5044666951E+020.0000000000E+00+
*       -3.500000000E+02               0
GRID*                695               03.5044666951E+020.0000000000E+00+
*       -3.400000000E+02               0
GRID*                696               03.5044666951E+020.0000000000E+00+
*       -3.300000000E+02               0
GRID*                697               03.5044666951E+020.0000000000E+00+
*       -3.200000000E+02               0
GRID*                698               03.5044666951E+020.0000000000E+00+
*       -3.100000000E+02               0
GRID*                699               03.5044666951E+020.0000000000E+00+
*       -3.000000000E+02               0
GRID*                700               03.5044666951E+020.0000000000E+00+
*       -2.900000000E+02               0
GRID*                701               03.5044666951E+020.0000000000E+00+
*       -2.800000000E+02               0
GRID*                702               03.5044666951E+020.0000000000E+00+
*       -2.700000000E+02               0
GRID*                703               03.5044666951E+020.0000000000E+00+
*       -2.600000000E+02               0
GRID*                704               03.5044666951E+020.0000000000E+00+
*       -2.500000000E+02               0
GRID*                705               03.5044666951E+020.0000000000E+00+
*       -2.400000000E+02               0
GRID*                706               03.5044666951E+020.0000000000E+00+
*       -2.300000000E+02               0
GRID*                707               03.5044666951E+020.0000000000E+00+
*       -2.200000000E+02               0
GRID*                708               03.5044666951E+020.0000000000E+00+
*       -2.100000000E+02               0
GRID*                709               03.5044666951E+020.0000000000E+00+
*       -2.000000000E+02               0
GRID*                710               03.5044666951E+020.0000000000E+00+
*       -1.900000000E+02               0
GRID*                711               03.5044666951E+020.0000000000E+00+
*       -1.800000000E+02               0
GRID*                712               03.5044666951E+020.0000000000E+00+
*       -1.700000000E+02               0
GRID*                713               03.5044666951E+020.0000000000E+00+
*       -1.600000000E+02               0
GRID*                714               03.5044666951E+020.0000000000E+00+
*       -1.500000000E+02               0
GRID*                715               03.5044666951E+020.0000000000E+00+
*       -1.400000000E+02               0
GRID*                716               03.5044666951E+020.0000000000E+00+
*       -1.300000000E+02               0
GRID*                717               03.5044666951E+020.0000000000E+00+
*       -1.200000000E+02               0
GRID*                718               03.5044666951E+020.0000000000E+00+
*       -1.100000000E+02               0
GRID*                719               03.5044666951E+020.0000000000E+00+
*       -1.000000000E+02               0
GRID*                720               03.5044666951E+020.0000000000E+00+
*       -9.000000000E+01               0
GRID*                721               03.5044666951E+020.0000000000E+00+
*       -8.000000000E+01               0
GRID*                722               03.5044666951E+020.0000000000E+00+
*       -7.000000000E+01               0
GRID*                723               03.5044666951E+020.0000000000E+00+
*       -6.000000000E+01               0
GRID*                724               03.5044666951E+020.0000000000E+00+
*       -5.000000000E+01               0
GRID*                725               03.5044666951E+020.0000000000E+00+
*       -4.000000000E+01               0
GRID*                726               03.5044666951E+020.0000000000E+00+
*       -3.000000000E+01               0
GRID*                727               03.5044666951E+020.0000000000E+00+
*       -2.000000000E+01               0
GRID*                728               03.5044666951E+020.0000000000E+00+
*       -1.000000000E+01               0
GRID*                729               03.5765333659E+020.0000000000E+00+
*       -1.040000000E+03               0
GRID*                730               03.5765333659E+020.0000000000E+00+
*       -1.030000000E+03               0
GRID*                731               03.5765333659E+020.0000000000E+00+
*       -1.020000000E+03               0
GRID*                732               03.5765333659E+020.0000000000E+00+
*       -1.010000000E+03               0
GRID*                733               03.5765333659E+020.0000000000E+00+
*       -1.000000000E+03               0
GRID*                734               03.5765333659E+020.0000000000E+00+
*       -9.900000000E+02               0
GRID*                735               03.5765333659E+020.0000000000E+00+
*       -9.800000000E+02               0
GRID*                736               03.5765333659E+020.0000000000E+00+
*       -9.700000000E+02               0
GRID*                737               03.5765333659E+020.0000000000E+00+
*       -9.600000000E+02               0
GRID*                738               03.5765333659E+020.0000000000E+00+
*       -9.500000000E+02               0
GRID*                739               03.5765333659E+020.0000000000E+00+
*       -9.400000000E+02               0
GRID*                740               03.5765333659E+020.0000000000E+00+
*       -9.300000000E+02               0
GRID*                741               03.5765333659E+020.0000000000E+00+
*       -9.200000000E+02               0
GRID*                742               03.5765333659E+020.0000000000E+00+
*       -9.100000000E+02               0
GRID*                743               03.5765333659E+020.0000000000E+00+
*       -9.000000000E+02               0
GRID*                744               03.5765333659E+020.0000000000E+00+
*       -8.900000000E+02               0
GRID*                745               03.5765333659E+020.0000000000E+00+
*       -8.800000000E+02               0
GRID*                746               03.5765333659E+020.0000000000E+00+
*       -8.700000000E+02               0
GRID*                747               03.5765333659E+020.0000000000E+00+
*       -8.600000000E+02               0
GRID*                748               03.5765333659E+020.0000000000E+00+
*       -8.500000000E+02               0
GRID*                749               03.5765333659E+020.0000000000E+00+
*       -8.400000000E+02               0
GRID*                750               03.5765333659E+020.0000000000E+00+
*       -8.300000000E+02               0
GRID*                751               03.5765333659E+020.0000000000E+00+
*       -8.200000000E+02               0
GRID*                752               03.5765333659E+020.0000000000E+00+
*       -8.100000000E+02               0
GRID*                753               03.5765333659E+020.0000000000E+00+
*       -8.000000000E+02               0
GRID*                754               03.5765333659E+020.0000000000E+00+
*       -7.900000000E+02               0
GRID*                755               03.5765333659E+020.0000000000E+00+
*       -7.800000000E+02               0
GRID*                756               03.5765333659E+020.0000000000E+00+
*       -7.700000000E+02               0
GRID*                757               03.5765333659E+020.0000000000E+00+
*       -7.600000000E+02               0
GRID*                758               03.5765333659E+020.0000000000E+00+
*       -7.500000000E+02               0
GRID*                759               03.5765333659E+020.0000000000E+00+
*       -7.400000000E+02               0
GRID*                760               03.5765333659E+020.0000000000E+00+
*       -7.300000000E+02               0
GRID*                761               03.5765333659E+020.0000000000E+00+
*       -7.200000000E+02               0
GRID*                762               03.5765333659E+020.0000000000E+00+
*       -7.100000000E+02               0
GRID*                763               03.5765333659E+020.0000000000E+00+
*       -7.000000000E+02               0
GRID*                764               03.5765333659E+020.0000000000E+00+
*       -6.900000000E+02               0
GRID*                765               03.5765333659E+020.0000000000E+00+
*       -6.800000000E+02               0
GRID*                766               03.5765333659E+020.0000000000E+00+
*       -6.700000000E+02               0
GRID*                767               03.5765333659E+020.0000000000E+00+
*       -6.600000000E+02               0
GRID*                768               03.5765333659E+020.0000000000E+00+
*       -6.500000000E+02               0
GRID*                769               03.5765333659E+020.0000000000E+00+
*       -6.400000000E+02               0
GRID*                770               03.5765333659E+020.0000000000E+00+
*       -6.300000000E+02               0
GRID*                771               03.5765333659E+020.0000000000E+00+
*       -6.200000000E+02               0
GRID*                772               03.5765333659E+020.0000000000E+00+
*       -6.100000000E+02               0
GRID*                773               03.5765333659E+020.0000000000E+00+
*       -6.000000000E+02               0
GRID*                774               03.5765333659E+020.0000000000E+00+
*       -5.900000000E+02               0
GRID*                775               03.5765333659E+020.0000000000E+00+
*       -5.800000000E+02               0
GRID*                776               03.5765333659E+020.0000000000E+00+
*       -5.700000000E+02               0
GRID*                777               03.5765333659E+020.0000000000E+00+
*       -5.600000000E+02               0
GRID*                778               03.5765333659E+020.0000000000E+00+
*       -5.500000000E+02               0
GRID*                779               03.5765333659E+020.0000000000E+00+
*       -5.400000000E+02               0
GRID*                780               03.5765333659E+020.0000000000E+00+
*       -5.300000000E+02               0
GRID*                781               03.5765333659E+020.0000000000E+00+
*       -5.200000000E+02               0
GRID*                782               03.5765333659E+020.0000000000E+00+
*       -5.100000000E+02               0
GRID*                783               03.5765333659E+020.0000000000E+00+
*       -5.000000000E+02               0
GRID*                784               03.5765333659E+020.0000000000E+00+
*       -4.900000000E+02               0
GRID*                785               03.5765333659E+020.0000000000E+00+
*       -4.800000000E+02               0
GRID*                786               03.5765333659E+020.0000000000E+00+
*       -4.700000000E+02               0
GRID*                787               03.5765333659E+020.0000000000E+00+
*       -4.600000000E+02               0
GRID*                788               03.5765333659E+020.0000000000E+00+
*       -4.500000000E+02               0
GRID*                789               03.5765333659E+020.0000000000E+00+
*       -4.400000000E+02               0
GRID*                790               03.5765333659E+020.0000000000E+00+
*       -4.300000000E+02               0
GRID*                791               03.5765333659E+020.0000000000E+00+
*       -4.200000000E+02               0
GRID*                792               03.5765333659E+020.0000000000E+00+
*       -4.100000000E+02               0
GRID*                793               03.5765333659E+020.0000000000E+00+
*       -4.000000000E+02               0
GRID*                794               03.5765333659E+020.0000000000E+00+
*       -3.900000000E+02               0
GRID*                795               03.5765333659E+020.0000000000E+00+
*       -3.800000000E+02               0
GRID*                796               03.5765333659E+020.0000000000E+00+
*       -3.700000000E+02               0
GRID*                797               03.5765333659E+020.0000000000E+00+
*       -3.600000000E+02               0
GRID*                798               03.5765333659E+020.0000000000E+00+
*       -3.500000000E+02               0
GRID*                799               03.5765333659E+020.0000000000E+00+
*       -3.400000000E+02               0
GRID*                800               03.5765333659E+020.0000000000E+00+
*       -3.300000000E+02               0
GRID*                801               03.5765333659E+020.0000000000E+00+
*       -3.200000000E+02               0
GRID*                802               03.5765333659E+020.0000000000E+00+
*       -3.100000000E+02               0
GRID*                803               03.5765333659E+020.0000000000E+00+
*       -3.000000000E+02               0
GRID*                804               03.5765333659E+020.0000000000E+00+
*       -2.900000000E+02               0
GRID*                805               03.5765333659E+020.0000000000E+00+
*       -2.800000000E+02               0
GRID*                806               03.5765333659E+020.0000000000E+00+
*       -2.700000000E+02               0
GRID*                807               03.5765333659E+020.0000000000E+00+
*       -2.600000000E+02               0
GRID*                808               03.5765333659E+020.0000000000E+00+
*       -2.500000000E+02               0
GRID*                809               03.5765333659E+020.0000000000E+00+
*       -2.400000000E+02               0
GRID*                810               03.5765333659E+020.0000000000E+00+
*       -2.300000000E+02               0
GRID*                811               03.5765333659E+020.0000000000E+00+
*       -2.200000000E+02               0
GRID*                812               03.5765333659E+020.0000000000E+00+
*       -2.100000000E+02               0
GRID*                813               03.5765333659E+020.0000000000E+00+
*       -2.000000000E+02               0
GRID*                814               03.5765333659E+020.0000000000E+00+
*       -1.900000000E+02               0
GRID*                815               03.5765333659E+020.0000000000E+00+
*       -1.800000000E+02               0
GRID*                816               03.5765333659E+020.0000000000E+00+
*       -1.700000000E+02               0
GRID*                817               03.5765333659E+020.0000000000E+00+
*       -1.600000000E+02               0
GRID*                818               03.5765333659E+020.0000000000E+00+
*       -1.500000000E+02               0
GRID*                819               03.5765333659E+020.0000000000E+00+
*       -1.400000000E+02               0
GRID*                820               03.5765333659E+020.0000000000E+00+
*       -1.300000000E+02               0
GRID*                821               03.5765333659E+020.0000000000E+00+
*       -1.200000000E+02               0
GRID*                822               03.5765333659E+020.0000000000E+00+
*       -1.100000000E+02               0
GRID*                823               03.5765333659E+020.0000000000E+00+
*       -1.000000000E+02               0
GRID*                824               03.5765333659E+020.0000000000E+00+
*       -9.000000000E+01               0
GRID*                825               03.5765333659E+020.0000000000E+00+
*       -8.000000000E+01               0
GRID*                826               03.5765333659E+020.0000000000E+00+
*       -7.000000000E+01               0
GRID*                827               03.5765333659E+020.0000000000E+00+
*       -6.000000000E+01               0
GRID*                828               03.5765333659E+020.0000000000E+00+
*       -5.000000000E+01               0
GRID*                829               03.5765333659E+020.0000000000E+00+
*       -4.000000000E+01               0
GRID*                830               03.5765333659E+020.0000000000E+00+
*       -3.000000000E+01               0
GRID*                831               03.5765333659E+020.0000000000E+00+
*       -2.000000000E+01               0
GRID*                832               03.5765333659E+020.0000000000E+00+
*       -1.000000000E+01               0
GRID*                833               03.6486000366E+020.0000000000E+00+
*       -1.040000000E+03               0
GRID*                834               03.6486000366E+020.0000000000E+00+
*       -1.030000000E+03               0
GRID*                835               03.6486000366E+020.0000000000E+00+
*       -1.020000000E+03               0
GRID*                836               03.6486000366E+020.0000000000E+00+
*       -1.010000000E+03               0
GRID*                837               03.6486000366E+020.0000000000E+00+
*       -1.000000000E+03               0
GRID*                838               03.6486000366E+020.0000000000E+00+
*       -9.900000000E+02               0
GRID*                839               03.6486000366E+020.0000000000E+00+
*       -9.800000000E+02               0
GRID*                840               03.6486000366E+020.0000000000E+00+
*       -9.700000000E+02               0
GRID*                841               03.6486000366E+020.0000000000E+00+
*       -9.600000000E+02               0
GRID*                842               03.6486000366E+020.0000000000E+00+
*       -9.500000000E+02               0
GRID*                843               03.6486000366E+020.0000000000E+00+
*       -9.400000000E+02               0
GRID*                844               03.6486000366E+020.0000000000E+00+
*       -9.300000000E+02               0
GRID*                845               03.6486000366E+020.0000000000E+00+
*       -9.200000000E+02               0
GRID*                846               03.6486000366E+020.0000000000E+00+
*       -9.100000000E+02               0
GRID*                847               03.6486000366E+020.0000000000E+00+
*       -9.000000000E+02               0
GRID*                848               03.6486000366E+020.0000000000E+00+
*       -8.900000000E+02               0
GRID*                849               03.6486000366E+020.0000000000E+00+
*       -8.800000000E+02               0
GRID*                850               03.6486000366E+020.0000000000E+00+
*       -8.700000000E+02               0
GRID*                851               03.6486000366E+020.0000000000E+00+
*       -8.600000000E+02               0
GRID*                852               03.6486000366E+020.0000000000E+00+
*       -8.500000000E+02               0
GRID*                853               03.6486000366E+020.0000000000E+00+
*       -8.400000000E+02               0
GRID*                854               03.6486000366E+020.0000000000E+00+
*       -8.300000000E+02               0
GRID*                855               03.6486000366E+020.0000000000E+00+
*       -8.200000000E+02               0
GRID*                856               03.6486000366E+020.0000000000E+00+
*       -8.100000000E+02               0
GRID*                857               03.6486000366E+020.0000000000E+00+
*       -8.000000000E+02               0
GRID*                858               03.6486000366E+020.0000000000E+00+
*       -7.900000000E+02               0
GRID*                859               03.6486000366E+020.0000000000E+00+
*       -7.800000000E+02               0
GRID*                860               03.6486000366E+020.0000000000E+00+
*       -7.700000000E+02               0
GRID*                861               03.6486000366E+020.0000000000E+00+
*       -7.600000000E+02               0
GRID*                862               03.6486000366E+020.0000000000E+00+
*       -7.500000000E+02               0
GRID*                863               03.6486000366E+020.0000000000E+00+
*       -7.400000000E+02               0
GRID*                864               03.6486000366E+020.0000000000E+00+
*       -7.300000000E+02               0
GRID*                865               03.6486000366E+020.0000000000E+00+
*       -7.200000000E+02               0
GRID*                866               03.6486000366E+020.0000000000E+00+
*       -7.100000000E+02               0
GRID*                867               03.6486000366E+020.0000000000E+00+
*       -7.000000000E+02               0
GRID*                868               03.6486000366E+020.0000000000E+00+
*       -6.900000000E+02               0
GRID*                869               03.6486000366E+020.0000000000E+00+
*       -6.800000000E+02               0
GRID*                870               03.6486000366E+020.0000000000E+00+
*       -6.700000000E+02               0
GRID*                871               03.6486000366E+020.0000000000E+00+
*       -6.600000000E+02               0
GRID*                872               03.6486000366E+020.0000000000E+00+
*       -6.500000000E+02               0
GRID*                873               03.6486000366E+020.0000000000E+00+
*       -6.400000000E+02               0
GRID*                874               03.6486000366E+020.0000000000E+00+
*       -6.300000000E+02               0
GRID*                875               03.6486000366E+020.0000000000E+00+
*       -6.200000000E+02               0
GRID*                876               03.6486000366E+020.0000000000E+00+
*       -6.100000000E+02               0
GRID*                877               03.6486000366E+020.0000000000E+00+
*       -6.000000000E+02               0
GRID*                878               03.6486000366E+020.0000000000E+00+
*       -5.900000000E+02               0
GRID*                879               03.6486000366E+020.0000000000E+00+
*       -5.800000000E+02               0
GRID*                880               03.6486000366E+020.0000000000E+00+
*       -5.700000000E+02               0
GRID*                881               03.6486000366E+020.0000000000E+00+
*       -5.600000000E+02               0
GRID*                882               03.6486000366E+020.0000000000E+00+
*       -5.500000000E+02               0
GRID*                883               03.6486000366E+020.0000000000E+00+
*       -5.400000000E+02               0
GRID*                884               03.6486000366E+020.0000000000E+00+
*       -5.300000000E+02               0
GRID*                885               03.6486000366E+020.0000000000E+00+
*       -5.200000000E+02               0
GRID*                886               03.6486000366E+020.0000000000E+00+
*       -5.100000000E+02               0
GRID*                887               03.6486000366E+020.0000000000E+00+
*       -5.000000000E+02               0
GRID*                888               03.6486000366E+020.0000000000E+00+
*       -4.900000000E+02               0
GRID*                889               03.6486000366E+020.0000000000E+00+
*       -4.800000000E+02               0
GRID*                890               03.6486000366E+020.0000000000E+00+
*       -4.700000000E+02               0
GRID*                891               03.6486000366E+020.0000000000E+00+
*       -4.600000000E+02               0
GRID*                892               03.6486000366E+020.0000000000E+00+
*       -4.500000000E+02               0
GRID*                893               03.6486000366E+020.0000000000E+00+
*       -4.400000000E+02               0
GRID*                894               03.6486000366E+020.0000000000E+00+
*       -4.300000000E+02               0
GRID*                895               03.6486000366E+020.0000000000E+00+
*       -4.200000000E+02               0
GRID*                896               03.6486000366E+020.0000000000E+00+
*       -4.100000000E+02               0
GRID*                897               03.6486000366E+020.0000000000E+00+
*       -4.000000000E+02               0
GRID*                898               03.6486000366E+020.0000000000E+00+
*       -3.900000000E+02               0
GRID*                899               03.6486000366E+020.0000000000E+00+
*       -3.800000000E+02               0
GRID*                900               03.6486000366E+020.0000000000E+00+
*       -3.700000000E+02               0
GRID*                901               03.6486000366E+020.0000000000E+00+
*       -3.600000000E+02               0
GRID*                902               03.6486000366E+020.0000000000E+00+
*       -3.500000000E+02               0
GRID*                903               03.6486000366E+020.0000000000E+00+
*       -3.400000000E+02               0
GRID*                904               03.6486000366E+020.0000000000E+00+
*       -3.300000000E+02               0
GRID*                905               03.6486000366E+020.0000000000E+00+
*       -3.200000000E+02               0
GRID*                906               03.6486000366E+020.0000000000E+00+
*       -3.100000000E+02               0
GRID*                907               03.6486000366E+020.0000000000E+00+
*       -3.000000000E+02               0
GRID*                908               03.6486000366E+020.0000000000E+00+
*       -2.900000000E+02               0
GRID*                909               03.6486000366E+020.0000000000E+00+
*       -2.800000000E+02               0
GRID*                910               03.6486000366E+020.0000000000E+00+
*       -2.700000000E+02               0
GRID*                911               03.6486000366E+020.0000000000E+00+
*       -2.600000000E+02               0
GRID*                912               03.6486000366E+020.0000000000E+00+
*       -2.500000000E+02               0
GRID*                913               03.6486000366E+020.0000000000E+00+
*       -2.400000000E+02               0
GRID*                914               03.6486000366E+020.0000000000E+00+
*       -2.300000000E+02               0
GRID*                915               03.6486000366E+020.0000000000E+00+
*       -2.200000000E+02               0
GRID*                916               03.6486000366E+020.0000000000E+00+
*       -2.100000000E+02               0
GRID*                917               03.6486000366E+020.0000000000E+00+
*       -2.000000000E+02               0
GRID*                918               03.6486000366E+020.0000000000E+00+
*       -1.900000000E+02               0
GRID*                919               03.6486000366E+020.0000000000E+00+
*       -1.800000000E+02               0
GRID*                920               03.6486000366E+020.0000000000E+00+
*       -1.700000000E+02               0
GRID*                921               03.6486000366E+020.0000000000E+00+
*       -1.600000000E+02               0
GRID*                922               03.6486000366E+020.0000000000E+00+
*       -1.500000000E+02               0
GRID*                923               03.6486000366E+020.0000000000E+00+
*       -1.400000000E+02               0
GRID*                924               03.6486000366E+020.0000000000E+00+
*       -1.300000000E+02               0
GRID*                925               03.6486000366E+020.0000000000E+00+
*       -1.200000000E+02               0
GRID*                926               03.6486000366E+020.0000000000E+00+
*       -1.100000000E+02               0
GRID*                927               03.6486000366E+020.0000000000E+00+
*       -1.000000000E+02               0
GRID*                928               03.6486000366E+020.0000000000E+00+
*       -9.000000000E+01               0
GRID*                929               03.6486000366E+020.0000000000E+00+
*       -8.000000000E+01               0
GRID*                930               03.6486000366E+020.0000000000E+00+
*       -7.000000000E+01               0
GRID*                931               03.6486000366E+020.0000000000E+00+
*       -6.000000000E+01               0
GRID*                932               03.6486000366E+020.0000000000E+00+
*       -5.000000000E+01               0
GRID*                933               03.6486000366E+020.0000000000E+00+
*       -4.000000000E+01               0
GRID*                934               03.6486000366E+020.0000000000E+00+
*       -3.000000000E+01               0
GRID*                935               03.6486000366E+020.0000000000E+00+
*       -2.000000000E+01               0
GRID*                936               03.6486000366E+020.0000000000E+00+
*       -1.000000000E+01               0
GRID*                937               03.7206667074E+020.0000000000E+00+
*       -1.040000000E+03               0
GRID*                938               03.7206667074E+020.0000000000E+00+
*       -1.030000000E+03               0
GRID*                939               03.7206667074E+020.0000000000E+00+
*       -1.020000000E+03               0
GRID*                940               03.7206667074E+020.0000000000E+00+
*       -1.010000000E+03               0
GRID*                941               03.7206667074E+020.0000000000E+00+
*       -1.000000000E+03               0
GRID*                942               03.7206667074E+020.0000000000E+00+
*       -9.900000000E+02               0
GRID*                943               03.7206667074E+020.0000000000E+00+
*       -9.800000000E+02               0
GRID*                944               03.7206667074E+020.0000000000E+00+
*       -9.700000000E+02               0
GRID*                945               03.7206667074E+020.0000000000E+00+
*       -9.600000000E+02               0
GRID*                946               03.7206667074E+020.0000000000E+00+
*       -9.500000000E+02               0
GRID*                947               03.7206667074E+020.0000000000E+00+
*       -9.400000000E+02               0
GRID*                948               03.7206667074E+020.0000000000E+00+
*       -9.300000000E+02               0
GRID*                949               03.7206667074E+020.0000000000E+00+
*       -9.200000000E+02               0
GRID*                950               03.7206667074E+020.0000000000E+00+
*       -9.100000000E+02               0
GRID*                951               03.7206667074E+020.0000000000E+00+
*       -9.000000000E+02               0
GRID*                952               03.7206667074E+020.0000000000E+00+
*       -8.900000000E+02               0
GRID*                953               03.7206667074E+020.0000000000E+00+
*       -8.800000000E+02               0
GRID*                954               03.7206667074E+020.0000000000E+00+
*       -8.700000000E+02               0
GRID*                955               03.7206667074E+020.0000000000E+00+
*       -8.600000000E+02               0
GRID*                956               03.7206667074E+020.0000000000E+00+
*       -8.500000000E+02               0
GRID*                957               03.7206667074E+020.0000000000E+00+
*       -8.400000000E+02               0
GRID*                958               03.7206667074E+020.0000000000E+00+
*       -8.300000000E+02               0
GRID*                959               03.7206667074E+020.0000000000E+00+
*       -8.200000000E+02               0
GRID*                960               03.7206667074E+020.0000000000E+00+
*       -8.100000000E+02               0
GRID*                961               03.7206667074E+020.0000000000E+00+
*       -8.000000000E+02               0
GRID*                962               03.7206667074E+020.0000000000E+00+
*       -7.900000000E+02               0
GRID*                963               03.7206667074E+020.0000000000E+00+
*       -7.800000000E+02               0
GRID*                964               03.7206667074E+020.0000000000E+00+
*       -7.700000000E+02               0
GRID*                965               03.7206667074E+020.0000000000E+00+
*       -7.600000000E+02               0
GRID*                966               03.7206667074E+020.0000000000E+00+
*       -7.500000000E+02               0
GRID*                967               03.7206667074E+020.0000000000E+00+
*       -7.400000000E+02               0
GRID*                968               03.7206667074E+020.0000000000E+00+
*       -7.300000000E+02               0
GRID*                969               03.7206667074E+020.0000000000E+00+
*       -7.200000000E+02               0
GRID*                970               03.7206667074E+020.0000000000E+00+
*       -7.100000000E+02               0
GRID*                971               03.7206667074E+020.0000000000E+00+
*       -7.000000000E+02               0
GRID*                972               03.7206667074E+020.0000000000E+00+
*       -6.900000000E+02               0
GRID*                973               03.7206667074E+020.0000000000E+00+
*       -6.800000000E+02               0
GRID*                974               03.7206667074E+020.0000000000E+00+
*       -6.700000000E+02               0
GRID*                975               03.7206667074E+020.0000000000E+00+
*       -6.600000000E+02               0
GRID*                976               03.7206667074E+020.0000000000E+00+
*       -6.500000000E+02               0
GRID*                977               03.7206667074E+020.0000000000E+00+
*       -6.400000000E+02               0
GRID*                978               03.7206667074E+020.0000000000E+00+
*       -6.300000000E+02               0
GRID*                979               03.7206667074E+020.0000000000E+00+
*       -6.200000000E+02               0
GRID*                980               03.7206667074E+020.0000000000E+00+
*       -6.100000000E+02               0
GRID*                981               03.7206667074E+020.0000000000E+00+
*       -6.000000000E+02               0
GRID*                982               03.7206667074E+020.0000000000E+00+
*       -5.900000000E+02               0
GRID*                983               03.7206667074E+020.0000000000E+00+
*       -5.800000000E+02               0
GRID*                984               03.7206667074E+020.0000000000E+00+
*       -5.700000000E+02               0
GRID*                985               03.7206667074E+020.0000000000E+00+
*       -5.600000000E+02               0
GRID*                986               03.7206667074E+020.0000000000E+00+
*       -5.500000000E+02               0
GRID*                987               03.7206667074E+020.0000000000E+00+
*       -5.400000000E+02               0
GRID*                988               03.7206667074E+020.0000000000E+00+
*       -5.300000000E+02               0
GRID*                989               03.7206667074E+020.0000000000E+00+
*       -5.200000000E+02               0
GRID*                990               03.7206667074E+020.0000000000E+00+
*       -5.100000000E+02               0
GRID*                991               03.7206667074E+020.0000000000E+00+
*       -5.000000000E+02               0
GRID*                992               03.7206667074E+020.0000000000E+00+
*       -4.900000000E+02               0
GRID*                993               03.7206667074E+020.0000000000E+00+
*       -4.800000000E+02               0
GRID*                994               03.7206667074E+020.0000000000E+00+
*       -4.700000000E+02               0
GRID*                995               03.7206667074E+020.0000000000E+00+
*       -4.600000000E+02               0
GRID*                996               03.7206667074E+020.0000000000E+00+
*       -4.500000000E+02               0
GRID*                997               03.7206667074E+020.0000000000E+00+
*       -4.400000000E+02               0
GRID*                998               03.7206667074E+020.0000000000E+00+
*       -4.300000000E+02               0
GRID*                999               03.7206667074E+020.0000000000E+00+
*       -4.200000000E+02               0
GRID*               1000               03.7206667074E+020.0000000000E+00+
*       -4.100000000E+02               0
GRID*               1001               03.7206667074E+020.0000000000E+00+
*       -4.000000000E+02               0
GRID*               1002               03.7206667074E+020.0000000000E+00+
*       -3.900000000E+02               0
GRID*               1003               03.7206667074E+020.0000000000E+00+
*       -3.800000000E+02               0
GRID*               1004               03.7206667074E+020.0000000000E+00+
*       -3.700000000E+02               0
GRID*               1005               03.7206667074E+020.0000000000E+00+
*       -3.600000000E+02               0
GRID*               1006               03.7206667074E+020.0000000000E+00+
*       -3.500000000E+02               0
GRID*               1007               03.7206667074E+020.0000000000E+00+
*       -3.400000000E+02               0
GRID*               1008               03.7206667074E+020.0000000000E+00+
*       -3.300000000E+02               0
GRID*               1009               03.7206667074E+020.0000000000E+00+
*       -3.200000000E+02               0
GRID*               1010               03.7206667074E+020.0000000000E+00+
*       -3.100000000E+02               0
GRID*               1011               03.7206667074E+020.0000000000E+00+
*       -3.000000000E+02               0
GRID*               1012               03.7206667074E+020.0000000000E+00+
*       -2.900000000E+02               0
GRID*               1013               03.7206667074E+020.0000000000E+00+
*       -2.800000000E+02               0
GRID*               1014               03.7206667074E+020.0000000000E+00+
*       -2.700000000E+02               0
GRID*               1015               03.7206667074E+020.0000000000E+00+
*       -2.600000000E+02               0
GRID*               1016               03.7206667074E+020.0000000000E+00+
*       -2.500000000E+02               0
GRID*               1017               03.7206667074E+020.0000000000E+00+
*       -2.400000000E+02               0
GRID*               1018               03.7206667074E+020.0000000000E+00+
*       -2.300000000E+02               0
GRID*               1019               03.7206667074E+020.0000000000E+00+
*       -2.200000000E+02               0
GRID*               1020               03.7206667074E+020.0000000000E+00+
*       -2.100000000E+02               0
GRID*               1021               03.7206667074E+020.0000000000E+00+
*       -2.000000000E+02               0
GRID*               1022               03.7206667074E+020.0000000000E+00+
*       -1.900000000E+02               0
GRID*               1023               03.7206667074E+020.0000000000E+00+
*       -1.800000000E+02               0
GRID*               1024               03.7206667074E+020.0000000000E+00+
*       -1.700000000E+02               0
GRID*               1025               03.7206667074E+020.0000000000E+00+
*       -1.600000000E+02               0
GRID*               1026               03.7206667074E+020.0000000000E+00+
*       -1.500000000E+02               0
GRID*               1027               03.7206667074E+020.0000000000E+00+
*       -1.400000000E+02               0
GRID*               1028               03.7206667074E+020.0000000000E+00+
*       -1.300000000E+02               0
GRID*               1029               03.7206667074E+020.0000000000E+00+
*       -1.200000000E+02               0
GRID*               1030               03.7206667074E+020.0000000000E+00+
*       -1.100000000E+02               0
GRID*               1031               03.7206667074E+020.0000000000E+00+
*       -1.000000000E+02               0
GRID*               1032               03.7206667074E+020.0000000000E+00+
*       -9.000000000E+01               0
GRID*               1033               03.7206667074E+020.0000000000E+00+
*       -8.000000000E+01               0
GRID*               1034               03.7206667074E+020.0000000000E+00+
*       -7.000000000E+01               0
GRID*               1035               03.7206667074E+020.0000000000E+00+
*       -6.000000000E+01               0
GRID*               1036               03.7206667074E+020.0000000000E+00+
*       -5.000000000E+01               0
GRID*               1037               03.7206667074E+020.0000000000E+00+
*       -4.000000000E+01               0
GRID*               1038               03.7206667074E+020.0000000000E+00+
*       -3.000000000E+01               0
GRID*               1039               03.7206667074E+020.0000000000E+00+
*       -2.000000000E+01               0
GRID*               1040               03.7206667074E+020.0000000000E+00+
*       -1.000000000E+01               0
GRID*               1041               03.7927333781E+020.0000000000E+00+
*       -1.040000000E+03               0
GRID*               1042               03.7927333781E+020.0000000000E+00+
*       -1.030000000E+03               0
GRID*               1043               03.7927333781E+020.0000000000E+00+
*       -1.020000000E+03               0
GRID*               1044               03.7927333781E+020.0000000000E+00+
*       -1.010000000E+03               0
GRID*               1045               03.7927333781E+020.0000000000E+00+
*       -1.000000000E+03               0
GRID*               1046               03.7927333781E+020.0000000000E+00+
*       -9.900000000E+02               0
GRID*               1047               03.7927333781E+020.0000000000E+00+
*       -9.800000000E+02               0
GRID*               1048               03.7927333781E+020.0000000000E+00+
*       -9.700000000E+02               0
GRID*               1049               03.7927333781E+020.0000000000E+00+
*       -9.600000000E+02               0
GRID*               1050               03.7927333781E+020.0000000000E+00+
*       -9.500000000E+02               0
GRID*               1051               03.7927333781E+020.0000000000E+00+
*       -9.400000000E+02               0
GRID*               1052               03.7927333781E+020.0000000000E+00+
*       -9.300000000E+02               0
GRID*               1053               03.7927333781E+020.0000000000E+00+
*       -9.200000000E+02               0
GRID*               1054               03.7927333781E+020.0000000000E+00+
*       -9.100000000E+02               0
GRID*               1055               03.7927333781E+020.0000000000E+00+
*       -9.000000000E+02               0
GRID*               1056               03.7927333781E+020.0000000000E+00+
*       -8.900000000E+02               0
GRID*               1057               03.7927333781E+020.0000000000E+00+
*       -8.800000000E+02               0
GRID*               1058               03.7927333781E+020.0000000000E+00+
*       -8.700000000E+02               0
GRID*               1059               03.7927333781E+020.0000000000E+00+
*       -8.600000000E+02               0
GRID*               1060               03.7927333781E+020.0000000000E+00+
*       -8.500000000E+02               0
GRID*               1061               03.7927333781E+020.0000000000E+00+
*       -8.400000000E+02               0
GRID*               1062               03.7927333781E+020.0000000000E+00+
*       -8.300000000E+02               0
GRID*               1063               03.7927333781E+020.0000000000E+00+
*       -8.200000000E+02               0
GRID*               1064               03.7927333781E+020.0000000000E+00+
*       -8.100000000E+02               0
GRID*               1065               03.7927333781E+020.0000000000E+00+
*       -8.000000000E+02               0
GRID*               1066               03.7927333781E+020.0000000000E+00+
*       -7.900000000E+02               0
GRID*               1067               03.7927333781E+020.0000000000E+00+
*       -7.800000000E+02               0
GRID*               1068               03.7927333781E+020.0000000000E+00+
*       -7.700000000E+02               0
GRID*               1069               03.7927333781E+020.0000000000E+00+
*       -7.600000000E+02               0
GRID*               1070               03.7927333781E+020.0000000000E+00+
*       -7.500000000E+02               0
GRID*               1071               03.7927333781E+020.0000000000E+00+
*       -7.400000000E+02               0
GRID*               1072               03.7927333781E+020.0000000000E+00+
*       -7.300000000E+02               0
GRID*               1073               03.7927333781E+020.0000000000E+00+
*       -7.200000000E+02               0
GRID*               1074               03.7927333781E+020.0000000000E+00+
*       -7.100000000E+02               0
GRID*               1075               03.7927333781E+020.0000000000E+00+
*       -7.000000000E+02               0
GRID*               1076               03.7927333781E+020.0000000000E+00+
*       -6.900000000E+02               0
GRID*               1077               03.7927333781E+020.0000000000E+00+
*       -6.800000000E+02               0
GRID*               1078               03.7927333781E+020.0000000000E+00+
*       -6.700000000E+02               0
GRID*               1079               03.7927333781E+020.0000000000E+00+
*       -6.600000000E+02               0
GRID*               1080               03.7927333781E+020.0000000000E+00+
*       -6.500000000E+02               0
GRID*               1081               03.7927333781E+020.0000000000E+00+
*       -6.400000000E+02               0
GRID*               1082               03.7927333781E+020.0000000000E+00+
*       -6.300000000E+02               0
GRID*               1083               03.7927333781E+020.0000000000E+00+
*       -6.200000000E+02               0
GRID*               1084               03.7927333781E+020.0000000000E+00+
*       -6.100000000E+02               0
GRID*               1085               03.7927333781E+020.0000000000E+00+
*       -6.000000000E+02               0
GRID*               1086               03.7927333781E+020.0000000000E+00+
*       -5.900000000E+02               0
GRID*               1087               03.7927333781E+020.0000000000E+00+
*       -5.800000000E+02               0
GRID*               1088               03.7927333781E+020.0000000000E+00+
*       -5.700000000E+02               0
GRID*               1089               03.7927333781E+020.0000000000E+00+
*       -5.600000000E+02               0
GRID*               1090               03.7927333781E+020.0000000000E+00+
*       -5.500000000E+02               0
GRID*               1091               03.7927333781E+020.0000000000E+00+
*       -5.400000000E+02               0
GRID*               1092               03.7927333781E+020.0000000000E+00+
*       -5.300000000E+02               0
GRID*               1093               03.7927333781E+020.0000000000E+00+
*       -5.200000000E+02               0
GRID*               1094               03.7927333781E+020.0000000000E+00+
*       -5.100000000E+02               0
GRID*               1095               03.7927333781E+020.0000000000E+00+
*       -5.000000000E+02               0
GRID*               1096               03.7927333781E+020.0000000000E+00+
*       -4.900000000E+02               0
GRID*               1097               03.7927333781E+020.0000000000E+00+
*       -4.800000000E+02               0
GRID*               1098               03.7927333781E+020.0000000000E+00+
*       -4.700000000E+02               0
GRID*               1099               03.7927333781E+020.0000000000E+00+
*       -4.600000000E+02               0
GRID*               1100               03.7927333781E+020.0000000000E+00+
*       -4.500000000E+02               0
GRID*               1101               03.7927333781E+020.0000000000E+00+
*       -4.400000000E+02               0
GRID*               1102               03.7927333781E+020.0000000000E+00+
*       -4.300000000E+02               0
GRID*               1103               03.7927333781E+020.0000000000E+00+
*       -4.200000000E+02               0
GRID*               1104               03.7927333781E+020.0000000000E+00+
*       -4.100000000E+02               0
GRID*               1105               03.7927333781E+020.0000000000E+00+
*       -4.000000000E+02               0
GRID*               1106               03.7927333781E+020.0000000000E+00+
*       -3.900000000E+02               0
GRID*               1107               03.7927333781E+020.0000000000E+00+
*       -3.800000000E+02               0
GRID*               1108               03.7927333781E+020.0000000000E+00+
*       -3.700000000E+02               0
GRID*               1109               03.7927333781E+020.0000000000E+00+
*       -3.600000000E+02               0
GRID*               1110               03.7927333781E+020.0000000000E+00+
*       -3.500000000E+02               0
GRID*               1111               03.7927333781E+020.0000000000E+00+
*       -3.400000000E+02               0
GRID*               1112               03.7927333781E+020.0000000000E+00+
*       -3.300000000E+02               0
GRID*               1113               03.7927333781E+020.0000000000E+00+
*       -3.200000000E+02               0
GRID*               1114               03.7927333781E+020.0000000000E+00+
*       -3.100000000E+02               0
GRID*               1115               03.7927333781E+020.0000000000E+00+
*       -3.000000000E+02               0
GRID*               1116               03.7927333781E+020.0000000000E+00+
*       -2.900000000E+02               0
GRID*               1117               03.7927333781E+020.0000000000E+00+
*       -2.800000000E+02               0
GRID*               1118               03.7927333781E+020.0000000000E+00+
*       -2.700000000E+02               0
GRID*               1119               03.7927333781E+020.0000000000E+00+
*       -2.600000000E+02               0
GRID*               1120               03.7927333781E+020.0000000000E+00+
*       -2.500000000E+02               0
GRID*               1121               03.7927333781E+020.0000000000E+00+
*       -2.400000000E+02               0
GRID*               1122               03.7927333781E+020.0000000000E+00+
*       -2.300000000E+02               0
GRID*               1123               03.7927333781E+020.0000000000E+00+
*       -2.200000000E+02               0
GRID*               1124               03.7927333781E+020.0000000000E+00+
*       -2.100000000E+02               0
GRID*               1125               03.7927333781E+020.0000000000E+00+
*       -2.000000000E+02               0
GRID*               1126               03.7927333781E+020.0000000000E+00+
*       -1.900000000E+02               0
GRID*               1127               03.7927333781E+020.0000000000E+00+
*       -1.800000000E+02               0
GRID*               1128               03.7927333781E+020.0000000000E+00+
*       -1.700000000E+02               0
GRID*               1129               03.7927333781E+020.0000000000E+00+
*       -1.600000000E+02               0
GRID*               1130               03.7927333781E+020.0000000000E+00+
*       -1.500000000E+02               0
GRID*               1131               03.7927333781E+020.0000000000E+00+
*       -1.400000000E+02               0
GRID*               1132               03.7927333781E+020.0000000000E+00+
*       -1.300000000E+02               0
GRID*               1133               03.7927333781E+020.0000000000E+00+
*       -1.200000000E+02               0
GRID*               1134               03.7927333781E+020.0000000000E+00+
*       -1.100000000E+02               0
GRID*               1135               03.7927333781E+020.0000000000E+00+
*       -1.000000000E+02               0
GRID*               1136               03.7927333781E+020.0000000000E+00+
*       -9.000000000E+01               0
GRID*               1137               03.7927333781E+020.0000000000E+00+
*       -8.000000000E+01               0
GRID*               1138               03.7927333781E+020.0000000000E+00+
*       -7.000000000E+01               0
GRID*               1139               03.7927333781E+020.0000000000E+00+
*       -6.000000000E+01               0
GRID*               1140               03.7927333781E+020.0000000000E+00+
*       -5.000000000E+01               0
GRID*               1141               03.7927333781E+020.0000000000E+00+
*       -4.000000000E+01               0
GRID*               1142               03.7927333781E+020.0000000000E+00+
*       -3.000000000E+01               0
GRID*               1143               03.7927333781E+020.0000000000E+00+
*       -2.000000000E+01               0
GRID*               1144               03.7927333781E+020.0000000000E+00+
*       -1.000000000E+01               0
GRID*               1145               03.8648000488E+020.0000000000E+00+
*       -1.040000000E+03               0
GRID*               1146               03.8648000488E+020.0000000000E+00+
*       -1.030000000E+03               0
GRID*               1147               03.8648000488E+020.0000000000E+00+
*       -1.020000000E+03               0
GRID*               1148               03.8648000488E+020.0000000000E+00+
*       -1.010000000E+03               0
GRID*               1149               03.8648000488E+020.0000000000E+00+
*       -1.000000000E+03               0
GRID*               1150               03.8648000488E+020.0000000000E+00+
*       -9.900000000E+02               0
GRID*               1151               03.8648000488E+020.0000000000E+00+
*       -9.800000000E+02               0
GRID*               1152               03.8648000488E+020.0000000000E+00+
*       -9.700000000E+02               0
GRID*               1153               03.8648000488E+020.0000000000E+00+
*       -9.600000000E+02               0
GRID*               1154               03.8648000488E+020.0000000000E+00+
*       -9.500000000E+02               0
GRID*               1155               03.8648000488E+020.0000000000E+00+
*       -9.400000000E+02               0
GRID*               1156               03.8648000488E+020.0000000000E+00+
*       -9.300000000E+02               0
GRID*               1157               03.8648000488E+020.0000000000E+00+
*       -9.200000000E+02               0
GRID*               1158               03.8648000488E+020.0000000000E+00+
*       -9.100000000E+02               0
GRID*               1159               03.8648000488E+020.0000000000E+00+
*       -9.000000000E+02               0
GRID*               1160               03.8648000488E+020.0000000000E+00+
*       -8.900000000E+02               0
GRID*               1161               03.8648000488E+020.0000000000E+00+
*       -8.800000000E+02               0
GRID*               1162               03.8648000488E+020.0000000000E+00+
*       -8.700000000E+02               0
GRID*               1163               03.8648000488E+020.0000000000E+00+
*       -8.600000000E+02               0
GRID*               1164               03.8648000488E+020.0000000000E+00+
*       -8.500000000E+02               0
GRID*               1165               03.8648000488E+020.0000000000E+00+
*       -8.400000000E+02               0
GRID*               1166               03.8648000488E+020.0000000000E+00+
*       -8.300000000E+02               0
GRID*               1167               03.8648000488E+020.0000000000E+00+
*       -8.200000000E+02               0
GRID*               1168               03.8648000488E+020.0000000000E+00+
*       -8.100000000E+02               0
GRID*               1169               03.8648000488E+020.0000000000E+00+
*       -8.000000000E+02               0
GRID*               1170               03.8648000488E+020.0000000000E+00+
*       -7.900000000E+02               0
GRID*               1171               03.8648000488E+020.0000000000E+00+
*       -7.800000000E+02               0
GRID*               1172               03.8648000488E+020.0000000000E+00+
*       -7.700000000E+02               0
GRID*               1173               03.8648000488E+020.0000000000E+00+
*       -7.600000000E+02               0
GRID*               1174               03.8648000488E+020.0000000000E+00+
*       -7.500000000E+02               0
GRID*               1175               03.8648000488E+020.0000000000E+00+
*       -7.400000000E+02               0
GRID*               1176               03.8648000488E+020.0000000000E+00+
*       -7.300000000E+02               0
GRID*               1177               03.8648000488E+020.0000000000E+00+
*       -7.200000000E+02               0
GRID*               1178               03.8648000488E+020.0000000000E+00+
*       -7.100000000E+02               0
GRID*               1179               03.8648000488E+020.0000000000E+00+
*       -7.000000000E+02               0
GRID*               1180               03.8648000488E+020.0000000000E+00+
*       -6.900000000E+02               0
GRID*               1181               03.8648000488E+020.0000000000E+00+
*       -6.800000000E+02               0
GRID*               1182               03.8648000488E+020.0000000000E+00+
*       -6.700000000E+02               0
GRID*               1183               03.8648000488E+020.0000000000E+00+
*       -6.600000000E+02               0
GRID*               1184               03.8648000488E+020.0000000000E+00+
*       -6.500000000E+02               0
GRID*               1185               03.8648000488E+020.0000000000E+00+
*       -6.400000000E+02               0
GRID*               1186               03.8648000488E+020.0000000000E+00+
*       -6.300000000E+02               0
GRID*               1187               03.8648000488E+020.0000000000E+00+
*       -6.200000000E+02               0
GRID*               1188               03.8648000488E+020.0000000000E+00+
*       -6.100000000E+02               0
GRID*               1189               03.8648000488E+020.0000000000E+00+
*       -6.000000000E+02               0
GRID*               1190               03.8648000488E+020.0000000000E+00+
*       -5.900000000E+02               0
GRID*               1191               03.8648000488E+020.0000000000E+00+
*       -5.800000000E+02               0
GRID*               1192               03.8648000488E+020.0000000000E+00+
*       -5.700000000E+02               0
GRID*               1193               03.8648000488E+020.0000000000E+00+
*       -5.600000000E+02               0
GRID*               1194               03.8648000488E+020.0000000000E+00+
*       -5.500000000E+02               0
GRID*               1195               03.8648000488E+020.0000000000E+00+
*       -5.400000000E+02               0
GRID*               1196               03.8648000488E+020.0000000000E+00+
*       -5.300000000E+02               0
GRID*               1197               03.8648000488E+020.0000000000E+00+
*       -5.200000000E+02               0
GRID*               1198               03.8648000488E+020.0000000000E+00+
*       -5.100000000E+02               0
GRID*               1199               03.8648000488E+020.0000000000E+00+
*       -5.000000000E+02               0
GRID*               1200               03.8648000488E+020.0000000000E+00+
*       -4.900000000E+02               0
GRID*               1201               03.8648000488E+020.0000000000E+00+
*       -4.800000000E+02               0
GRID*               1202               03.8648000488E+020.0000000000E+00+
*       -4.700000000E+02               0
GRID*               1203               03.8648000488E+020.0000000000E+00+
*       -4.600000000E+02               0
GRID*               1204               03.8648000488E+020.0000000000E+00+
*       -4.500000000E+02               0
GRID*               1205               03.8648000488E+020.0000000000E+00+
*       -4.400000000E+02               0
GRID*               1206               03.8648000488E+020.0000000000E+00+
*       -4.300000000E+02               0
GRID*               1207               03.8648000488E+020.0000000000E+00+
*       -4.200000000E+02               0
GRID*               1208               03.8648000488E+020.0000000000E+00+
*       -4.100000000E+02               0
GRID*               1209               03.8648000488E+020.0000000000E+00+
*       -4.000000000E+02               0
GRID*               1210               03.8648000488E+020.0000000000E+00+
*       -3.900000000E+02               0
GRID*               1211               03.8648000488E+020.0000000000E+00+
*       -3.800000000E+02               0
GRID*               1212               03.8648000488E+020.0000000000E+00+
*       -3.700000000E+02               0
GRID*               1213               03.8648000488E+020.0000000000E+00+
*       -3.600000000E+02               0
GRID*               1214               03.8648000488E+020.0000000000E+00+
*       -3.500000000E+02               0
GRID*               1215               03.8648000488E+020.0000000000E+00+
*       -3.400000000E+02               0
GRID*               1216               03.8648000488E+020.0000000000E+00+
*       -3.300000000E+02               0
GRID*               1217               03.8648000488E+020.0000000000E+00+
*       -3.200000000E+02               0
GRID*               1218               03.8648000488E+020.0000000000E+00+
*       -3.100000000E+02               0
GRID*               1219               03.8648000488E+020.0000000000E+00+
*       -3.000000000E+02               0
GRID*               1220               03.8648000488E+020.0000000000E+00+
*       -2.900000000E+02               0
GRID*               1221               03.8648000488E+020.0000000000E+00+
*       -2.800000000E+02               0
GRID*               1222               03.8648000488E+020.0000000000E+00+
*       -2.700000000E+02               0
GRID*               1223               03.8648000488E+020.0000000000E+00+
*       -2.600000000E+02               0
GRID*               1224               03.8648000488E+020.0000000000E+00+
*       -2.500000000E+02               0
GRID*               1225               03.8648000488E+020.0000000000E+00+
*       -2.400000000E+02               0
GRID*               1226               03.8648000488E+020.0000000000E+00+
*       -2.300000000E+02               0
GRID*               1227               03.8648000488E+020.0000000000E+00+
*       -2.200000000E+02               0
GRID*               1228               03.8648000488E+020.0000000000E+00+
*       -2.100000000E+02               0
GRID*               1229               03.8648000488E+020.0000000000E+00+
*       -2.000000000E+02               0
GRID*               1230               03.8648000488E+020.0000000000E+00+
*       -1.900000000E+02               0
GRID*               1231               03.8648000488E+020.0000000000E+00+
*       -1.800000000E+02               0
GRID*               1232               03.8648000488E+020.0000000000E+00+
*       -1.700000000E+02               0
GRID*               1233               03.8648000488E+020.0000000000E+00+
*       -1.600000000E+02               0
GRID*               1234               03.8648000488E+020.0000000000E+00+
*       -1.500000000E+02               0
GRID*               1235               03.8648000488E+020.0000000000E+00+
*       -1.400000000E+02               0
GRID*               1236               03.8648000488E+020.0000000000E+00+
*       -1.300000000E+02               0
GRID*               1237               03.8648000488E+020.0000000000E+00+
*       -1.200000000E+02               0
GRID*               1238               03.8648000488E+020.0000000000E+00+
*       -1.100000000E+02               0
GRID*               1239               03.8648000488E+020.0000000000E+00+
*       -1.000000000E+02               0
GRID*               1240               03.8648000488E+020.0000000000E+00+
*       -9.000000000E+01               0
GRID*               1241               03.8648000488E+020.0000000000E+00+
*       -8.000000000E+01               0
GRID*               1242               03.8648000488E+020.0000000000E+00+
*       -7.000000000E+01               0
GRID*               1243               03.8648000488E+020.0000000000E+00+
*       -6.000000000E+01               0
GRID*               1244               03.8648000488E+020.0000000000E+00+
*       -5.000000000E+01               0
GRID*               1245               03.8648000488E+020.0000000000E+00+
*       -4.000000000E+01               0
GRID*               1246               03.8648000488E+020.0000000000E+00+
*       -3.000000000E+01               0
GRID*               1247               03.8648000488E+020.0000000000E+00+
*       -2.000000000E+01               0
GRID*               1248               03.8648000488E+020.0000000000E+00+
*       -1.000000000E+01               0
GRID*               1249               03.9368667196E+020.0000000000E+00+
*       -1.040000000E+03               0
GRID*               1250               03.9368667196E+020.0000000000E+00+
*       -1.030000000E+03               0
GRID*               1251               03.9368667196E+020.0000000000E+00+
*       -1.020000000E+03               0
GRID*               1252               03.9368667196E+020.0000000000E+00+
*       -1.010000000E+03               0
GRID*               1253               03.9368667196E+020.0000000000E+00+
*       -1.000000000E+03               0
GRID*               1254               03.9368667196E+020.0000000000E+00+
*       -9.900000000E+02               0
GRID*               1255               03.9368667196E+020.0000000000E+00+
*       -9.800000000E+02               0
GRID*               1256               03.9368667196E+020.0000000000E+00+
*       -9.700000000E+02               0
GRID*               1257               03.9368667196E+020.0000000000E+00+
*       -9.600000000E+02               0
GRID*               1258               03.9368667196E+020.0000000000E+00+
*       -9.500000000E+02               0
GRID*               1259               03.9368667196E+020.0000000000E+00+
*       -9.400000000E+02               0
GRID*               1260               03.9368667196E+020.0000000000E+00+
*       -9.300000000E+02               0
GRID*               1261               03.9368667196E+020.0000000000E+00+
*       -9.200000000E+02               0
GRID*               1262               03.9368667196E+020.0000000000E+00+
*       -9.100000000E+02               0
GRID*               1263               03.9368667196E+020.0000000000E+00+
*       -9.000000000E+02               0
GRID*               1264               03.9368667196E+020.0000000000E+00+
*       -8.900000000E+02               0
GRID*               1265               03.9368667196E+020.0000000000E+00+
*       -8.800000000E+02               0
GRID*               1266               03.9368667196E+020.0000000000E+00+
*       -8.700000000E+02               0
GRID*               1267               03.9368667196E+020.0000000000E+00+
*       -8.600000000E+02               0
GRID*               1268               03.9368667196E+020.0000000000E+00+
*       -8.500000000E+02               0
GRID*               1269               03.9368667196E+020.0000000000E+00+
*       -8.400000000E+02               0
GRID*               1270               03.9368667196E+020.0000000000E+00+
*       -8.300000000E+02               0
GRID*               1271               03.9368667196E+020.0000000000E+00+
*       -8.200000000E+02               0
GRID*               1272               03.9368667196E+020.0000000000E+00+
*       -8.100000000E+02               0
GRID*               1273               03.9368667196E+020.0000000000E+00+
*       -8.000000000E+02               0
GRID*               1274               03.9368667196E+020.0000000000E+00+
*       -7.900000000E+02               0
GRID*               1275               03.9368667196E+020.0000000000E+00+
*       -7.800000000E+02               0
GRID*               1276               03.9368667196E+020.0000000000E+00+
*       -7.700000000E+02               0
GRID*               1277               03.9368667196E+020.0000000000E+00+
*       -7.600000000E+02               0
GRID*               1278               03.9368667196E+020.0000000000E+00+
*       -7.500000000E+02               0
GRID*               1279               03.9368667196E+020.0000000000E+00+
*       -7.400000000E+02               0
GRID*               1280               03.9368667196E+020.0000000000E+00+
*       -7.300000000E+02               0
GRID*               1281               03.9368667196E+020.0000000000E+00+
*       -7.200000000E+02               0
GRID*               1282               03.9368667196E+020.0000000000E+00+
*       -7.100000000E+02               0
GRID*               1283               03.9368667196E+020.0000000000E+00+
*       -7.000000000E+02               0
GRID*               1284               03.9368667196E+020.0000000000E+00+
*       -6.900000000E+02               0
GRID*               1285               03.9368667196E+020.0000000000E+00+
*       -6.800000000E+02               0
GRID*               1286               03.9368667196E+020.0000000000E+00+
*       -6.700000000E+02               0
GRID*               1287               03.9368667196E+020.0000000000E+00+
*       -6.600000000E+02               0
GRID*               1288               03.9368667196E+020.0000000000E+00+
*       -6.500000000E+02               0
GRID*               1289               03.9368667196E+020.0000000000E+00+
*       -6.400000000E+02               0
GRID*               1290               03.9368667196E+020.0000000000E+00+
*       -6.300000000E+02               0
GRID*               1291               03.9368667196E+020.0000000000E+00+
*       -6.200000000E+02               0
GRID*               1292               03.9368667196E+020.0000000000E+00+
*       -6.100000000E+02               0
GRID*               1293               03.9368667196E+020.0000000000E+00+
*       -6.000000000E+02               0
GRID*               1294               03.9368667196E+020.0000000000E+00+
*       -5.900000000E+02               0
GRID*               1295               03.9368667196E+020.0000000000E+00+
*       -5.800000000E+02               0
GRID*               1296               03.9368667196E+020.0000000000E+00+
*       -5.700000000E+02               0
GRID*               1297               03.9368667196E+020.0000000000E+00+
*       -5.600000000E+02               0
GRID*               1298               03.9368667196E+020.0000000000E+00+
*       -5.500000000E+02               0
GRID*               1299               03.9368667196E+020.0000000000E+00+
*       -5.400000000E+02               0
GRID*               1300               03.9368667196E+020.0000000000E+00+
*       -5.300000000E+02               0
GRID*               1301               03.9368667196E+020.0000000000E+00+
*       -5.200000000E+02               0
GRID*               1302               03.9368667196E+020.0000000000E+00+
*       -5.100000000E+02               0
GRID*               1303               03.9368667196E+020.0000000000E+00+
*       -5.000000000E+02               0
GRID*               1304               03.9368667196E+020.0000000000E+00+
*       -4.900000000E+02               0
GRID*               1305               03.9368667196E+020.0000000000E+00+
*       -4.800000000E+02               0
GRID*               1306               03.9368667196E+020.0000000000E+00+
*       -4.700000000E+02               0
GRID*               1307               03.9368667196E+020.0000000000E+00+
*       -4.600000000E+02               0
GRID*               1308               03.9368667196E+020.0000000000E+00+
*       -4.500000000E+02               0
GRID*               1309               03.9368667196E+020.0000000000E+00+
*       -4.400000000E+02               0
GRID*               1310               03.9368667196E+020.0000000000E+00+
*       -4.300000000E+02               0
GRID*               1311               03.9368667196E+020.0000000000E+00+
*       -4.200000000E+02               0
GRID*               1312               03.9368667196E+020.0000000000E+00+
*       -4.100000000E+02               0
GRID*               1313               03.9368667196E+020.0000000000E+00+
*       -4.000000000E+02               0
GRID*               1314               03.9368667196E+020.0000000000E+00+
*       -3.900000000E+02               0
GRID*               1315               03.9368667196E+020.0000000000E+00+
*       -3.800000000E+02               0
GRID*               1316               03.9368667196E+020.0000000000E+00+
*       -3.700000000E+02               0
GRID*               1317               03.9368667196E+020.0000000000E+00+
*       -3.600000000E+02               0
GRID*               1318               03.9368667196E+020.0000000000E+00+
*       -3.500000000E+02               0
GRID*               1319               03.9368667196E+020.0000000000E+00+
*       -3.400000000E+02               0
GRID*               1320               03.9368667196E+020.0000000000E+00+
*       -3.300000000E+02               0
GRID*               1321               03.9368667196E+020.0000000000E+00+
*       -3.200000000E+02               0
GRID*               1322               03.9368667196E+020.0000000000E+00+
*       -3.100000000E+02               0
GRID*               1323               03.9368667196E+020.0000000000E+00+
*       -3.000000000E+02               0
GRID*               1324               03.9368667196E+020.0000000000E+00+
*       -2.900000000E+02               0
GRID*               1325               03.9368667196E+020.0000000000E+00+
*       -2.800000000E+02               0
GRID*               1326               03.9368667196E+020.0000000000E+00+
*       -2.700000000E+02               0
GRID*               1327               03.9368667196E+020.0000000000E+00+
*       -2.600000000E+02               0
GRID*               1328               03.9368667196E+020.0000000000E+00+
*       -2.500000000E+02               0
GRID*               1329               03.9368667196E+020.0000000000E+00+
*       -2.400000000E+02               0
GRID*               1330               03.9368667196E+020.0000000000E+00+
*       -2.300000000E+02               0
GRID*               1331               03.9368667196E+020.0000000000E+00+
*       -2.200000000E+02               0
GRID*               1332               03.9368667196E+020.0000000000E+00+
*       -2.100000000E+02               0
GRID*               1333               03.9368667196E+020.0000000000E+00+
*       -2.000000000E+02               0
GRID*               1334               03.9368667196E+020.0000000000E+00+
*       -1.900000000E+02               0
GRID*               1335               03.9368667196E+020.0000000000E+00+
*       -1.800000000E+02               0
GRID*               1336               03.9368667196E+020.0000000000E+00+
*       -1.700000000E+02               0
GRID*               1337               03.9368667196E+020.0000000000E+00+
*       -1.600000000E+02               0
GRID*               1338               03.9368667196E+020.0000000000E+00+
*       -1.500000000E+02               0
GRID*               1339               03.9368667196E+020.0000000000E+00+
*       -1.400000000E+02               0
GRID*               1340               03.9368667196E+020.0000000000E+00+
*       -1.300000000E+02               0
GRID*               1341               03.9368667196E+020.0000000000E+00+
*       -1.200000000E+02               0
GRID*               1342               03.9368667196E+020.0000000000E+00+
*       -1.100000000E+02               0
GRID*               1343               03.9368667196E+020.0000000000E+00+
*       -1.000000000E+02               0
GRID*               1344               03.9368667196E+020.0000000000E+00+
*       -9.000000000E+01               0
GRID*               1345               03.9368667196E+020.0000000000E+00+
*       -8.000000000E+01               0
GRID*               1346               03.9368667196E+020.0000000000E+00+
*       -7.000000000E+01               0
GRID*               1347               03.9368667196E+020.0000000000E+00+
*       -6.000000000E+01               0
GRID*               1348               03.9368667196E+020.0000000000E+00+
*       -5.000000000E+01               0
GRID*               1349               03.9368667196E+020.0000000000E+00+
*       -4.000000000E+01               0
GRID*               1350               03.9368667196E+020.0000000000E+00+
*       -3.000000000E+01               0
GRID*               1351               03.9368667196E+020.0000000000E+00+
*       -2.000000000E+01               0
GRID*               1352               03.9368667196E+020.0000000000E+00+
*       -1.000000000E+01               0
GRID*               1353               04.0089333903E+020.0000000000E+00+
*       -1.040000000E+03               0
GRID*               1354               04.0089333903E+020.0000000000E+00+
*       -1.030000000E+03               0
GRID*               1355               04.0089333903E+020.0000000000E+00+
*       -1.020000000E+03               0
GRID*               1356               04.0089333903E+020.0000000000E+00+
*       -1.010000000E+03               0
GRID*               1357               04.0089333903E+020.0000000000E+00+
*       -1.000000000E+03               0
GRID*               1358               04.0089333903E+020.0000000000E+00+
*       -9.900000000E+02               0
GRID*               1359               04.0089333903E+020.0000000000E+00+
*       -9.800000000E+02               0
GRID*               1360               04.0089333903E+020.0000000000E+00+
*       -9.700000000E+02               0
GRID*               1361               04.0089333903E+020.0000000000E+00+
*       -9.600000000E+02               0
GRID*               1362               04.0089333903E+020.0000000000E+00+
*       -9.500000000E+02               0
GRID*               1363               04.0089333903E+020.0000000000E+00+
*       -9.400000000E+02               0
GRID*               1364               04.0089333903E+020.0000000000E+00+
*       -9.300000000E+02               0
GRID*               1365               04.0089333903E+020.0000000000E+00+
*       -9.200000000E+02               0
GRID*               1366               04.0089333903E+020.0000000000E+00+
*       -9.100000000E+02               0
GRID*               1367               04.0089333903E+020.0000000000E+00+
*       -9.000000000E+02               0
GRID*               1368               04.0089333903E+020.0000000000E+00+
*       -8.900000000E+02               0
GRID*               1369               04.0089333903E+020.0000000000E+00+
*       -8.800000000E+02               0
GRID*               1370               04.0089333903E+020.0000000000E+00+
*       -8.700000000E+02               0
GRID*               1371               04.0089333903E+020.0000000000E+00+
*       -8.600000000E+02               0
GRID*               1372               04.0089333903E+020.0000000000E+00+
*       -8.500000000E+02               0
GRID*               1373               04.0089333903E+020.0000000000E+00+
*       -8.400000000E+02               0
GRID*               1374               04.0089333903E+020.0000000000E+00+
*       -8.300000000E+02               0
GRID*               1375               04.0089333903E+020.0000000000E+00+
*       -8.200000000E+02               0
GRID*               1376               04.0089333903E+020.0000000000E+00+
*       -8.100000000E+02               0
GRID*               1377               04.0089333903E+020.0000000000E+00+
*       -8.000000000E+02               0
GRID*               1378               04.0089333903E+020.0000000000E+00+
*       -7.900000000E+02               0
GRID*               1379               04.0089333903E+020.0000000000E+00+
*       -7.800000000E+02               0
GRID*               1380               04.0089333903E+020.0000000000E+00+
*       -7.700000000E+02               0
GRID*               1381               04.0089333903E+020.0000000000E+00+
*       -7.600000000E+02               0
GRID*               1382               04.0089333903E+020.0000000000E+00+
*       -7.500000000E+02               0
GRID*               1383               04.0089333903E+020.0000000000E+00+
*       -7.400000000E+02               0
GRID*               1384               04.0089333903E+020.0000000000E+00+
*       -7.300000000E+02               0
GRID*               1385               04.0089333903E+020.0000000000E+00+
*       -7.200000000E+02               0
GRID*               1386               04.0089333903E+020.0000000000E+00+
*       -7.100000000E+02               0
GRID*               1387               04.0089333903E+020.0000000000E+00+
*       -7.000000000E+02               0
GRID*               1388               04.0089333903E+020.0000000000E+00+
*       -6.900000000E+02               0
GRID*               1389               04.0089333903E+020.0000000000E+00+
*       -6.800000000E+02               0
GRID*               1390               04.0089333903E+020.0000000000E+00+
*       -6.700000000E+02               0
GRID*               1391               04.0089333903E+020.0000000000E+00+
*       -6.600000000E+02               0
GRID*               1392               04.0089333903E+020.0000000000E+00+
*       -6.500000000E+02               0
GRID*               1393               04.0089333903E+020.0000000000E+00+
*       -6.400000000E+02               0
GRID*               1394               04.0089333903E+020.0000000000E+00+
*       -6.300000000E+02               0
GRID*               1395               04.0089333903E+020.0000000000E+00+
*       -6.200000000E+02               0
GRID*               1396               04.0089333903E+020.0000000000E+00+
*       -6.100000000E+02               0
GRID*               1397               04.0089333903E+020.0000000000E+00+
*       -6.000000000E+02               0
GRID*               1398               04.0089333903E+020.0000000000E+00+
*       -5.900000000E+02               0
GRID*               1399               04.0089333903E+020.0000000000E+00+
*       -5.800000000E+02               0
GRID*               1400               04.0089333903E+020.0000000000E+00+
*       -5.700000000E+02               0
GRID*               1401               04.0089333903E+020.0000000000E+00+
*       -5.600000000E+02               0
GRID*               1402               04.0089333903E+020.0000000000E+00+
*       -5.500000000E+02               0
GRID*               1403               04.0089333903E+020.0000000000E+00+
*       -5.400000000E+02               0
GRID*               1404               04.0089333903E+020.0000000000E+00+
*       -5.300000000E+02               0
GRID*               1405               04.0089333903E+020.0000000000E+00+
*       -5.200000000E+02               0
GRID*               1406               04.0089333903E+020.0000000000E+00+
*       -5.100000000E+02               0
GRID*               1407               04.0089333903E+020.0000000000E+00+
*       -5.000000000E+02               0
GRID*               1408               04.0089333903E+020.0000000000E+00+
*       -4.900000000E+02               0
GRID*               1409               04.0089333903E+020.0000000000E+00+
*       -4.800000000E+02               0
GRID*               1410               04.0089333903E+020.0000000000E+00+
*       -4.700000000E+02               0
GRID*               1411               04.0089333903E+020.0000000000E+00+
*       -4.600000000E+02               0
GRID*               1412               04.0089333903E+020.0000000000E+00+
*       -4.500000000E+02               0
GRID*               1413               04.0089333903E+020.0000000000E+00+
*       -4.400000000E+02               0
GRID*               1414               04.0089333903E+020.0000000000E+00+
*       -4.300000000E+02               0
GRID*               1415               04.0089333903E+020.0000000000E+00+
*       -4.200000000E+02               0
GRID*               1416               04.0089333903E+020.0000000000E+00+
*       -4.100000000E+02               0
GRID*               1417               04.0089333903E+020.0000000000E+00+
*       -4.000000000E+02               0
GRID*               1418               04.0089333903E+020.0000000000E+00+
*       -3.900000000E+02               0
GRID*               1419               04.0089333903E+020.0000000000E+00+
*       -3.800000000E+02               0
GRID*               1420               04.0089333903E+020.0000000000E+00+
*       -3.700000000E+02               0
GRID*               1421               04.0089333903E+020.0000000000E+00+
*       -3.600000000E+02               0
GRID*               1422               04.0089333903E+020.0000000000E+00+
*       -3.500000000E+02               0
GRID*               1423               04.0089333903E+020.0000000000E+00+
*       -3.400000000E+02               0
GRID*               1424               04.0089333903E+020.0000000000E+00+
*       -3.300000000E+02               0
GRID*               1425               04.0089333903E+020.0000000000E+00+
*       -3.200000000E+02               0
GRID*               1426               04.0089333903E+020.0000000000E+00+
*       -3.100000000E+02               0
GRID*               1427               04.0089333903E+020.0000000000E+00+
*       -3.000000000E+02               0
GRID*               1428               04.0089333903E+020.0000000000E+00+
*       -2.900000000E+02               0
GRID*               1429               04.0089333903E+020.0000000000E+00+
*       -2.800000000E+02               0
GRID*               1430               04.0089333903E+020.0000000000E+00+
*       -2.700000000E+02               0
GRID*               1431               04.0089333903E+020.0000000000E+00+
*       -2.600000000E+02               0
GRID*               1432               04.0089333903E+020.0000000000E+00+
*       -2.500000000E+02               0
GRID*               1433               04.0089333903E+020.0000000000E+00+
*       -2.400000000E+02               0
GRID*               1434               04.0089333903E+020.0000000000E+00+
*       -2.300000000E+02               0
GRID*               1435               04.0089333903E+020.0000000000E+00+
*       -2.200000000E+02               0
GRID*               1436               04.0089333903E+020.0000000000E+00+
*       -2.100000000E+02               0
GRID*               1437               04.0089333903E+020.0000000000E+00+
*       -2.000000000E+02               0
GRID*               1438               04.0089333903E+020.0000000000E+00+
*       -1.900000000E+02               0
GRID*               1439               04.0089333903E+020.0000000000E+00+
*       -1.800000000E+02               0
GRID*               1440               04.0089333903E+020.0000000000E+00+
*       -1.700000000E+02               0
GRID*               1441               04.0089333903E+020.0000000000E+00+
*       -1.600000000E+02               0
GRID*               1442               04.0089333903E+020.0000000000E+00+
*       -1.500000000E+02               0
GRID*               1443               04.0089333903E+020.0000000000E+00+
*       -1.400000000E+02               0
GRID*               1444               04.0089333903E+020.0000000000E+00+
*       -1.300000000E+02               0
GRID*               1445               04.0089333903E+020.0000000000E+00+
*       -1.200000000E+02               0
GRID*               1446               04.0089333903E+020.0000000000E+00+
*       -1.100000000E+02               0
GRID*               1447               04.0089333903E+020.0000000000E+00+
*       -1.000000000E+02               0
GRID*               1448               04.0089333903E+020.0000000000E+00+
*       -9.000000000E+01               0
GRID*               1449               04.0089333903E+020.0000000000E+00+
*       -8.000000000E+01               0
GRID*               1450               04.0089333903E+020.0000000000E+00+
*       -7.000000000E+01               0
GRID*               1451               04.0089333903E+020.0000000000E+00+
*       -6.000000000E+01               0
GRID*               1452               04.0089333903E+020.0000000000E+00+
*       -5.000000000E+01               0
GRID*               1453               04.0089333903E+020.0000000000E+00+
*       -4.000000000E+01               0
GRID*               1454               04.0089333903E+020.0000000000E+00+
*       -3.000000000E+01               0
GRID*               1455               04.0089333903E+020.0000000000E+00+
*       -2.000000000E+01               0
GRID*               1456               04.0089333903E+020.0000000000E+00+
*       -1.000000000E+01               0
GRID*               1457               04.0080495090E+020.0000000000E+00+
*       8.3943407356E+00               0
GRID*               1458               03.9359985488E+020.0000000000E+00+
*       8.2434155998E+00               0
GRID*               1459               03.8639475887E+020.0000000000E+00+
*       8.0924904640E+00               0
GRID*               1460               03.7918966286E+020.0000000000E+00+
*       7.9415653282E+00               0
GRID*               1461               03.7198456685E+020.0000000000E+00+
*       7.7906401923E+00               0
GRID*               1462               03.6477947083E+020.0000000000E+00+
*       7.6397150565E+00               0
GRID*               1463               03.5757437482E+020.0000000000E+00+
*       7.4887899207E+00               0
GRID*               1464               03.5036927881E+020.0000000000E+00+
*       7.3378647849E+00               0
GRID*               1465               03.4316418280E+020.0000000000E+00+
*       7.1869396491E+00               0
GRID*               1466               03.3595908678E+020.0000000000E+00+
*       7.0360145133E+00               0
GRID*               1467               03.2875399077E+020.0000000000E+00+
*       6.8850893774E+00               0
GRID*               1468               03.2154889476E+020.0000000000E+00+
*       6.7341642416E+00               0
GRID*               1469               03.1434379875E+020.0000000000E+00+
*       6.5832391058E+00               0
GRID*               1470               03.0713870273E+020.0000000000E+00+
*       6.4323139700E+00               0
GRID*               1471               04.0054140499E+020.0000000000E+00+
*       1.6785005103E+01               0
GRID*               1472               03.9334104390E+020.0000000000E+00+
*       1.6483221116E+01               0
GRID*               1473               03.8614068281E+020.0000000000E+00+
*       1.6181437130E+01               0
GRID*               1474               03.7894032172E+020.0000000000E+00+
*       1.5879653144E+01               0
GRID*               1475               03.7173996064E+020.0000000000E+00+
*       1.5577869158E+01               0
GRID*               1476               03.6453959955E+020.0000000000E+00+
*       1.5276085171E+01               0
GRID*               1477               03.5733923846E+020.0000000000E+00+
*       1.4974301185E+01               0
GRID*               1478               03.5013887737E+020.0000000000E+00+
*       1.4672517199E+01               0
GRID*               1479               03.4293851628E+020.0000000000E+00+
*       1.4370733213E+01               0
GRID*               1480               03.3573815520E+020.0000000000E+00+
*       1.4068949227E+01               0
GRID*               1481               03.2853779411E+020.0000000000E+00+
*       1.3767165240E+01               0
GRID*               1482               03.2133743302E+020.0000000000E+00+
*       1.3465381254E+01               0
GRID*               1483               03.1413707193E+020.0000000000E+00+
*       1.3163597268E+01               0
GRID*               1484               03.0693671085E+020.0000000000E+00+
*       1.2861813282E+01               0
GRID*               1485               04.0010242503E+020.0000000000E+00+
*       2.5168309640E+01               0
GRID*               1486               03.9290996541E+020.0000000000E+00+
*       2.4715799298E+01               0
GRID*               1487               03.8571750579E+020.0000000000E+00+
*       2.4263288957E+01               0
GRID*               1488               03.7852504617E+020.0000000000E+00+
*       2.3810778615E+01               0
GRID*               1489               03.7133258654E+020.0000000000E+00+
*       2.3358268274E+01               0
GRID*               1490               03.6414012692E+020.0000000000E+00+
*       2.2905757932E+01               0
GRID*               1491               03.5694766730E+020.0000000000E+00+
*       2.2453247591E+01               0
GRID*               1492               03.4975520768E+020.0000000000E+00+
*       2.2000737249E+01               0
GRID*               1493               03.4256274806E+020.0000000000E+00+
*       2.1548226908E+01               0
GRID*               1494               03.3537028844E+020.0000000000E+00+
*       2.1095716566E+01               0
GRID*               1495               03.2817782882E+020.0000000000E+00+
*       2.0643206225E+01               0
GRID*               1496               03.2098536920E+020.0000000000E+00+
*       2.0190695883E+01               0
GRID*               1497               03.1379290958E+020.0000000000E+00+
*       1.9738185542E+01               0
GRID*               1498               03.0660044996E+020.0000000000E+00+
*       1.9285675200E+01               0
GRID*               1499               03.9948778586E+020.0000000000E+00+
*       3.3540573811E+01               0
GRID*               1500               03.9230639328E+020.0000000000E+00+
*       3.2937535610E+01               0
GRID*               1501               03.8512500069E+020.0000000000E+00+
*       3.2334497409E+01               0
GRID*               1502               03.7794360811E+020.0000000000E+00+
*       3.1731459208E+01               0
GRID*               1503               03.7076221553E+020.0000000000E+00+
*       3.1128421008E+01               0
GRID*               1504               03.6358082294E+020.0000000000E+00+
*       3.0525382807E+01               0
GRID*               1505               03.5639943036E+020.0000000000E+00+
*       2.9922344606E+01               0
GRID*               1506               03.4921803778E+020.0000000000E+00+
*       2.9319306405E+01               0
GRID*               1507               03.4203664519E+020.0000000000E+00+
*       2.8716268205E+01               0
GRID*               1508               03.3485525261E+020.0000000000E+00+
*       2.8113230004E+01               0
GRID*               1509               03.2767386002E+020.0000000000E+00+
*       2.7510191803E+01               0
GRID*               1510               03.2049246744E+020.0000000000E+00+
*       2.6907153602E+01               0
GRID*               1511               03.1331107486E+020.0000000000E+00+
*       2.6304115402E+01               0
GRID*               1512               03.0612968227E+020.0000000000E+00+
*       2.5701077201E+01               0
GRID*               1513               03.9869786430E+020.0000000000E+00+
*       4.1898129717E+01               0
GRID*               1514               03.9153067677E+020.0000000000E+00+
*       4.1144828007E+01               0
GRID*               1515               03.8436348924E+020.0000000000E+00+
*       4.0391526297E+01               0
GRID*               1516               03.7719630171E+020.0000000000E+00+
*       3.9638224587E+01               0
GRID*               1517               03.7002911418E+020.0000000000E+00+
*       3.8884922877E+01               0
GRID*               1518               03.6286192665E+020.0000000000E+00+
*       3.8131621168E+01               0
GRID*               1519               03.5569473912E+020.0000000000E+00+
*       3.7378319458E+01               0
GRID*               1520               03.4852755160E+020.0000000000E+00+
*       3.6625017748E+01               0
GRID*               1521               03.4136036407E+020.0000000000E+00+
*       3.5871716038E+01               0
GRID*               1522               03.3419317654E+020.0000000000E+00+
*       3.5118414328E+01               0
GRID*               1523               03.2702598901E+020.0000000000E+00+
*       3.4365112618E+01               0
GRID*               1524               03.1985880148E+020.0000000000E+00+
*       3.3611810908E+01               0
GRID*               1525               03.1269161395E+020.0000000000E+00+
*       3.2858509198E+01               0
GRID*               1526               03.0552442642E+020.0000000000E+00+
*       3.2105207488E+01               0
GRID*               1527               03.9773314290E+020.0000000000E+00+
*       5.0237316552E+01               0
GRID*               1528               03.9058330121E+020.0000000000E+00+
*       4.9334081543E+01               0
GRID*               1529               03.8343345952E+020.0000000000E+00+
*       4.8430846534E+01               0
GRID*               1530               03.7628361783E+020.0000000000E+00+
*       4.7527611525E+01               0
GRID*               1531               03.6913377614E+020.0000000000E+00+
*       4.6624376515E+01               0
GRID*               1532               03.6198393445E+020.0000000000E+00+
*       4.5721141506E+01               0
GRID*               1533               03.5483409276E+020.0000000000E+00+
*       4.4817906497E+01               0
GRID*               1534               03.4768425106E+020.0000000000E+00+
*       4.3914671488E+01               0
GRID*               1535               03.4053440937E+020.0000000000E+00+
*       4.3011436479E+01               0
GRID*               1536               03.3338456768E+020.0000000000E+00+
*       4.2108201469E+01               0
GRID*               1537               03.2623472599E+020.0000000000E+00+
*       4.1204966460E+01               0
GRID*               1538               03.1908488430E+020.0000000000E+00+
*       4.0301731451E+01               0
GRID*               1539               03.1193504261E+020.0000000000E+00+
*       3.9398496442E+01               0
GRID*               1540               03.0478520092E+020.0000000000E+00+
*       3.8495261433E+01               0
GRID*               1541               03.9659403805E+020.0000000000E+00+
*       5.8554477007E+01               0
GRID*               1542               03.8946467945E+020.0000000000E+00+
*       5.7501705046E+01               0
GRID*               1543               03.8233532086E+020.0000000000E+00+
*       5.6448933084E+01               0
GRID*               1544               03.7520596226E+020.0000000000E+00+
*       5.5396161123E+01               0
GRID*               1545               03.6807660366E+020.0000000000E+00+
*       5.4343389162E+01               0
GRID*               1546               03.6094724507E+020.0000000000E+00+
*       5.3290617200E+01               0
GRID*               1547               03.5381788647E+020.0000000000E+00+
*       5.2237845239E+01               0
GRID*               1548               03.4668852788E+020.0000000000E+00+
*       5.1185073278E+01               0
GRID*               1549               03.3955916928E+020.0000000000E+00+
*       5.0132301316E+01               0
GRID*               1550               03.3242981068E+020.0000000000E+00+
*       4.9079529355E+01               0
GRID*               1551               03.2530045209E+020.0000000000E+00+
*       4.8026757394E+01               0
GRID*               1552               03.1817109349E+020.0000000000E+00+
*       4.6973985432E+01               0
GRID*               1553               03.1104173489E+020.0000000000E+00+
*       4.5921213471E+01               0
GRID*               1554               03.0391237630E+020.0000000000E+00+
*       4.4868441510E+01               0
GRID*               1555               03.9528099229E+020.0000000000E+00+
*       6.6845956197E+01               0
GRID*               1556               03.8817524818E+020.0000000000E+00+
*       6.5644109680E+01               0
GRID*               1557               03.8106950407E+020.0000000000E+00+
*       6.4442263163E+01               0
GRID*               1558               03.7396375996E+020.0000000000E+00+
*       6.3240416646E+01               0
GRID*               1559               03.6685801585E+020.0000000000E+00+
*       6.2038570129E+01               0
GRID*               1560               03.5975227174E+020.0000000000E+00+
*       6.0836723612E+01               0
GRID*               1561               03.5264652763E+020.0000000000E+00+
*       5.9634877095E+01               0
GRID*               1562               03.4554078352E+020.0000000000E+00+
*       5.8433030578E+01               0
GRID*               1563               03.3843503942E+020.0000000000E+00+
*       5.7231184061E+01               0
GRID*               1564               03.3132929531E+020.0000000000E+00+
*       5.6029337544E+01               0
GRID*               1565               03.2422355120E+020.0000000000E+00+
*       5.4827491028E+01               0
GRID*               1566               03.1711780709E+020.0000000000E+00+
*       5.3625644511E+01               0
GRID*               1567               03.1001206298E+020.0000000000E+00+
*       5.2423797994E+01               0
GRID*               1568               03.0290631887E+020.0000000000E+00+
*       5.1221951477E+01               0
GRID*               1569               03.9379461682E+020.0000000000E+00+
*       7.5108123583E+01               0
GRID*               1570               03.8671560156E+020.0000000000E+00+
*       7.3757729294E+01               0
GRID*               1571               03.7963658631E+020.0000000000E+00+
*       7.2407335004E+01               0
GRID*               1572               03.7255757105E+020.0000000000E+00+
*       7.1056940715E+01               0
GRID*               1573               03.6547855579E+020.0000000000E+00+
*       6.9706546425E+01               0
GRID*               1574               03.5839954053E+020.0000000000E+00+
*       6.8356152135E+01               0
GRID*               1575               03.5132052527E+020.0000000000E+00+
*       6.7005757846E+01               0
GRID*               1576               03.4424151002E+020.0000000000E+00+
*       6.5655363556E+01               0
GRID*               1577               03.3716249476E+020.0000000000E+00+
*       6.4304969267E+01               0
GRID*               1578               03.3008347950E+020.0000000000E+00+
*       6.2954574977E+01               0
GRID*               1579               03.2300446424E+020.0000000000E+00+
*       6.1604180687E+01               0
GRID*               1580               03.1592544899E+020.0000000000E+00+
*       6.0253786398E+01               0
GRID*               1581               03.0884643373E+020.0000000000E+00+
*       5.8903392108E+01               0
GRID*               1582               03.0176741847E+020.0000000000E+00+
*       5.7552997819E+01               0
GRID*               1583               03.9213559713E+020.0000000000E+00+
*       8.3337362647E+01               0
GRID*               1584               03.8508641242E+020.0000000000E+00+
*       8.1839012263E+01               0
GRID*               1585               03.7803722771E+020.0000000000E+00+
*       8.0340661879E+01               0
GRID*               1586               03.7098804300E+020.0000000000E+00+
*       7.8842311495E+01               0
GRID*               1587               03.6393885829E+020.0000000000E+00+
*       7.7343961111E+01               0
GRID*               1588               03.5688967358E+020.0000000000E+00+
*       7.5845610726E+01               0
GRID*               1589               03.4984048887E+020.0000000000E+00+
*       7.4347260342E+01               0
GRID*               1590               03.4279130416E+020.0000000000E+00+
*       7.2848909958E+01               0
GRID*               1591               03.3574211945E+020.0000000000E+00+
*       7.1350559574E+01               0
GRID*               1592               03.2869293474E+020.0000000000E+00+
*       6.9852209190E+01               0
GRID*               1593               03.2164375003E+020.0000000000E+00+
*       6.8353858806E+01               0
GRID*               1594               03.1459456532E+020.0000000000E+00+
*       6.6855508422E+01               0
GRID*               1595               03.0754538061E+020.0000000000E+00+
*       6.5357158037E+01               0
GRID*               1596               03.0049619590E+020.0000000000E+00+
*       6.3858807653E+01               0
GRID*               1597               03.9030462555E+020.0000000000E+00+
*       9.1530058243E+01               0
GRID*               1598               03.8328836587E+020.0000000000E+00+
*       8.9884409528E+01               0
GRID*               1599               03.7627210620E+020.0000000000E+00+
*       8.8238760812E+01               0
GRID*               1600               03.6925584652E+020.0000000000E+00+
*       8.6593112097E+01               0
GRID*               1601               03.6223958684E+020.0000000000E+00+
*       8.4947463382E+01               0
GRID*               1602               03.5522332717E+020.0000000000E+00+
*       8.3301814666E+01               0
GRID*               1603               03.4820706749E+020.0000000000E+00+
*       8.1656165951E+01               0
GRID*               1604               03.4119080781E+020.0000000000E+00+
*       8.0010517236E+01               0
GRID*               1605               03.3417454814E+020.0000000000E+00+
*       7.8364868520E+01               0
GRID*               1606               03.2715828846E+020.0000000000E+00+
*       7.6719219805E+01               0
GRID*               1607               03.2014202878E+020.0000000000E+00+
*       7.5073571089E+01               0
GRID*               1608               03.1312576911E+020.0000000000E+00+
*       7.3427922374E+01               0
GRID*               1609               03.0610950943E+020.0000000000E+00+
*       7.1782273659E+01               0
GRID*               1610               02.9909324975E+020.0000000000E+00+
*       7.0136624943E+01               0
GRID*               1611               03.8830248162E+020.0000000000E+00+
*       9.9682612409E+01               0
GRID*               1612               03.8132222811E+020.0000000000E+00+
*       9.7890388020E+01               0
GRID*               1613               03.7434197460E+020.0000000000E+00+
*       9.6098163632E+01               0
GRID*               1614               03.6736172109E+020.0000000000E+00+
*       9.4305939243E+01               0
GRID*               1615               03.6038146758E+020.0000000000E+00+
*       9.2513714854E+01               0
GRID*               1616               03.5340121407E+020.0000000000E+00+
*       9.0721490465E+01               0
GRID*               1617               03.4642096056E+020.0000000000E+00+
*       8.8929266076E+01               0
GRID*               1618               03.3944070705E+020.0000000000E+00+
*       8.7137041687E+01               0
GRID*               1619               03.3246045355E+020.0000000000E+00+
*       8.5344817299E+01               0
GRID*               1620               03.2548020004E+020.0000000000E+00+
*       8.3552592910E+01               0
GRID*               1621               03.1849994653E+020.0000000000E+00+
*       8.1760368521E+01               0
GRID*               1622               03.1151969302E+020.0000000000E+00+
*       7.9968144132E+01               0
GRID*               1623               03.0453943951E+020.0000000000E+00+
*       7.8175919743E+01               0
GRID*               1624               02.9755918600E+020.0000000000E+00+
*       7.6383695355E+01               0
GRID*               1625               03.8613009163E+020.0000000000E+00+
*       1.0779146228E+02               0
GRID*               1626               03.7918890194E+020.0000000000E+00+
*       1.0585344730E+02               0
GRID*               1627               03.7224771226E+020.0000000000E+00+
*       1.0391543232E+02               0
GRID*               1628               03.6530652258E+020.0000000000E+00+
*       1.0197741735E+02               0
GRID*               1629               03.5836533290E+020.0000000000E+00+
*       1.0003940237E+02               0
GRID*               1630               03.5142414322E+020.0000000000E+00+
*       9.8101387391E+01               0
GRID*               1631               03.4448295354E+020.0000000000E+00+
*       9.6163372413E+01               0
GRID*               1632               03.3754176386E+020.0000000000E+00+
*       9.4225357436E+01               0
GRID*               1633               03.3060057417E+020.0000000000E+00+
*       9.2287342458E+01               0
GRID*               1634               03.2365938449E+020.0000000000E+00+
*       9.0349327480E+01               0
GRID*               1635               03.1671819481E+020.0000000000E+00+
*       8.8411312503E+01               0
GRID*               1636               03.0977700513E+020.0000000000E+00+
*       8.6473297525E+01               0
GRID*               1637               03.0283581545E+020.0000000000E+00+
*       8.4535282548E+01               0
GRID*               1638               02.9589462577E+020.0000000000E+00+
*       8.2597267570E+01               0
GRID*               1639               03.8378840350E+020.0000000000E+00+
*       1.1585305101E+02               0
GRID*               1640               03.7688931850E+020.0000000000E+00+
*       1.1377009445E+02               0
GRID*               1641               03.6999023350E+020.0000000000E+00+
*       1.1168713788E+02               0
GRID*               1642               03.6309114851E+020.0000000000E+00+
*       1.0960418131E+02               0
GRID*               1643               03.5619206351E+020.0000000000E+00+
*       1.0752122475E+02               0
GRID*               1644               03.4929297851E+020.0000000000E+00+
*       1.0543826818E+02               0
GRID*               1645               03.4239389352E+020.0000000000E+00+
*       1.0335531162E+02               0
GRID*               1646               03.3549480852E+020.0000000000E+00+
*       1.0127235505E+02               0
GRID*               1647               03.2859572352E+020.0000000000E+00+
*       9.9189398483E+01               0
GRID*               1648               03.2169663852E+020.0000000000E+00+
*       9.7106441917E+01               0
GRID*               1649               03.1479755353E+020.0000000000E+00+
*       9.5023485352E+01               0
GRID*               1650               03.0789846853E+020.0000000000E+00+
*       9.2940528786E+01               0
GRID*               1651               03.0099938353E+020.0000000000E+00+
*       9.0857572220E+01               0
GRID*               1652               02.9410029853E+020.0000000000E+00+
*       8.8774615654E+01               0
GRID*               1653               03.8127838876E+020.0000000000E+00+
*       1.2386382765E+02               0
GRID*               1654               03.7442443898E+020.0000000000E+00+
*       1.2163684447E+02               0
GRID*               1655               03.6757048921E+020.0000000000E+00+
*       1.1940986129E+02               0
GRID*               1656               03.6071653943E+020.0000000000E+00+
*       1.1718287810E+02               0
GRID*               1657               03.5386258965E+020.0000000000E+00+
*       1.1495589492E+02               0
GRID*               1658               03.4700863988E+020.0000000000E+00+
*       1.1272891174E+02               0
GRID*               1659               03.4015469010E+020.0000000000E+00+
*       1.1050192855E+02               0
GRID*               1660               03.3330074033E+020.0000000000E+00+
*       1.0827494537E+02               0
GRID*               1661               03.2644679055E+020.0000000000E+00+
*       1.0604796219E+02               0
GRID*               1662               03.1959284077E+020.0000000000E+00+
*       1.0382097901E+02               0
GRID*               1663               03.1273889100E+020.0000000000E+00+
*       1.0159399582E+02               0
GRID*               1664               03.0588494122E+020.0000000000E+00+
*       9.9367012641E+01               0
GRID*               1665               02.9903099145E+020.0000000000E+00+
*       9.7140029459E+01               0
GRID*               1666               02.9217704167E+020.0000000000E+00+
*       9.4913046276E+01               0
GRID*               1667               03.7860117447E+020.0000000000E+00+
*       1.3182028692E+02               0
GRID*               1668               03.7179536938E+020.0000000000E+00+
*       1.2945025495E+02               0
GRID*               1669               03.6498956428E+020.0000000000E+00+
*       1.2708022298E+02               0
GRID*               1670               03.5818375919E+020.0000000000E+00+
*       1.2471019101E+02               0
GRID*               1671               03.5137795410E+020.0000000000E+00+
*       1.2234015905E+02               0
GRID*               1672               03.4457214900E+020.0000000000E+00+
*       1.1997012708E+02               0
GRID*               1673               03.3776634391E+020.0000000000E+00+
*       1.1760009511E+02               0
GRID*               1674               03.3096053881E+020.0000000000E+00+
*       1.1523006314E+02               0
GRID*               1675               03.2415473372E+020.0000000000E+00+
*       1.1286003117E+02               0
GRID*               1676               03.1734892862E+020.0000000000E+00+
*       1.1048999920E+02               0
GRID*               1677               03.1054312353E+020.0000000000E+00+
*       1.0811996723E+02               0
GRID*               1678               03.0373731844E+020.0000000000E+00+
*       1.0574993526E+02               0
GRID*               1679               02.9693151334E+020.0000000000E+00+
*       1.0337990330E+02               0
GRID*               1680               02.9012570825E+020.0000000000E+00+
*       1.0100987133E+02               0
GRID*               1681               03.7575797523E+020.0000000000E+00+
*       1.3971895403E+02               0
GRID*               1682               03.6900329704E+020.0000000000E+00+
*       1.3720691180E+02               0
GRID*               1683               03.6224861886E+020.0000000000E+00+
*       1.3469486957E+02               0
GRID*               1684               03.5549394068E+020.0000000000E+00+
*       1.3218282735E+02               0
GRID*               1685               03.4873926250E+020.0000000000E+00+
*       1.2967078512E+02               0
GRID*               1686               03.4198458431E+020.0000000000E+00+
*       1.2715874289E+02               0
GRID*               1687               03.3522990613E+020.0000000000E+00+
*       1.2464670067E+02               0
GRID*               1688               03.2847522795E+020.0000000000E+00+
*       1.2213465844E+02               0
GRID*               1689               03.2172054977E+020.0000000000E+00+
*       1.1962261621E+02               0
GRID*               1690               03.1496587159E+020.0000000000E+00+
*       1.1711057399E+02               0
GRID*               1691               03.0821119340E+020.0000000000E+00+
*       1.1459853176E+02               0
GRID*               1692               03.0145651522E+020.0000000000E+00+
*       1.1208648953E+02               0
GRID*               1693               02.9470183704E+020.0000000000E+00+
*       1.0957444730E+02               0
GRID*               1694               02.8794715886E+020.0000000000E+00+
*       1.0706240508E+02               0
GRID*               1695               03.7275001211E+020.0000000000E+00+
*       1.4755635645E+02               0
GRID*               1696               03.6604942118E+020.0000000000E+00+
*       1.4490340490E+02               0
GRID*               1697               03.5934883025E+020.0000000000E+00+
*       1.4225045335E+02               0
GRID*               1698               03.5264823933E+020.0000000000E+00+
*       1.3959750180E+02               0
GRID*               1699               03.4594764840E+020.0000000000E+00+
*       1.3694455025E+02               0
GRID*               1700               03.3924705747E+020.0000000000E+00+
*       1.3429159870E+02               0
GRID*               1701               03.3254646655E+020.0000000000E+00+
*       1.3163864715E+02               0
GRID*               1702               03.2584587562E+020.0000000000E+00+
*       1.2898569560E+02               0
GRID*               1703               03.1914528469E+020.0000000000E+00+
*       1.2633274406E+02               0
GRID*               1704               03.1244469377E+020.0000000000E+00+
*       1.2367979251E+02               0
GRID*               1705               03.0574410284E+020.0000000000E+00+
*       1.2102684096E+02               0
GRID*               1706               02.9904351191E+020.0000000000E+00+
*       1.1837388941E+02               0
GRID*               1707               02.9234292099E+020.0000000000E+00+
*       1.1572093786E+02               0
GRID*               1708               02.8564233006E+020.0000000000E+00+
*       1.1306798631E+02               0
GRID*               1709               03.6957857230E+020.0000000000E+00+
*       1.5532904508E+02               0
GRID*               1710               03.6293501131E+020.0000000000E+00+
*       1.5253634932E+02               0
GRID*               1711               03.5629145031E+020.0000000000E+00+
*       1.4974365355E+02               0
GRID*               1712               03.4964788932E+020.0000000000E+00+
*       1.4695095779E+02               0
GRID*               1713               03.4300432832E+020.0000000000E+00+
*       1.4415826203E+02               0
GRID*               1714               03.3636076733E+020.0000000000E+00+
*       1.4136556627E+02               0
GRID*               1715               03.2971720633E+020.0000000000E+00+
*       1.3857287051E+02               0
GRID*               1716               03.2307364534E+020.0000000000E+00+
*       1.3578017475E+02               0
GRID*               1717               03.1643008434E+020.0000000000E+00+
*       1.3298747899E+02               0
GRID*               1718               03.0978652335E+020.0000000000E+00+
*       1.3019478323E+02               0
GRID*               1719               03.0314296235E+020.0000000000E+00+
*       1.2740208747E+02               0
GRID*               1720               02.9649940136E+020.0000000000E+00+
*       1.2460939170E+02               0
GRID*               1721               02.8985584036E+020.0000000000E+00+
*       1.2181669594E+02               0
GRID*               1722               02.8321227937E+020.0000000000E+00+
*       1.1902400018E+02               0
GRID*               1723               03.6624509584E+020.0000000000E+00+
*       1.6303363196E+02               0
GRID*               1724               03.5966147963E+020.0000000000E+00+
*       1.6010241726E+02               0
GRID*               1725               03.5307786342E+020.0000000000E+00+
*       1.5717120256E+02               0
GRID*               1726               03.4649424721E+020.0000000000E+00+
*       1.5423998786E+02               0
GRID*               1727               03.3991063100E+020.0000000000E+00+
*       1.5130877316E+02               0
GRID*               1728               03.3332701480E+020.0000000000E+00+
*       1.4837755846E+02               0
GRID*               1729               03.2674339859E+020.0000000000E+00+
*       1.4544634377E+02               0
GRID*               1730               03.2015978238E+020.0000000000E+00+
*       1.4251512907E+02               0
GRID*               1731               03.1357616617E+020.0000000000E+00+
*       1.3958391437E+02               0
GRID*               1732               03.0699254996E+020.0000000000E+00+
*       1.3665269967E+02               0
GRID*               1733               03.0040893375E+020.0000000000E+00+
*       1.3372148497E+02               0
GRID*               1734               02.9382531755E+020.0000000000E+00+
*       1.3079027027E+02               0
GRID*               1735               02.8724170134E+020.0000000000E+00+
*       1.2785905557E+02               0
GRID*               1736               02.8065808513E+020.0000000000E+00+
*       1.2492784087E+02               0
GRID*               1737               03.6275104752E+020.0000000000E+00+
*       1.7066674034E+02               0
GRID*               1738               03.5623026137E+020.0000000000E+00+
*       1.6759829134E+02               0
GRID*               1739               03.4970947523E+020.0000000000E+00+
*       1.6452984234E+02               0
GRID*               1740               03.4318868909E+020.0000000000E+00+
*       1.6146139335E+02               0
GRID*               1741               03.3666790295E+020.0000000000E+00+
*       1.5839294435E+02               0
GRID*               1742               03.3014711681E+020.0000000000E+00+
*       1.5532449535E+02               0
GRID*               1743               03.2362633067E+020.0000000000E+00+
*       1.5225604636E+02               0
GRID*               1744               03.1710554453E+020.0000000000E+00+
*       1.4918759736E+02               0
GRID*               1745               03.1058475839E+020.0000000000E+00+
*       1.4611914836E+02               0
GRID*               1746               03.0406397225E+020.0000000000E+00+
*       1.4305069936E+02               0
GRID*               1747               02.9754318610E+020.0000000000E+00+
*       1.3998225037E+02               0
GRID*               1748               02.9102239996E+020.0000000000E+00+
*       1.3691380137E+02               0
GRID*               1749               02.8450161382E+020.0000000000E+00+
*       1.3384535237E+02               0
GRID*               1750               02.7798082768E+020.0000000000E+00+
*       1.3077690338E+02               0
GRID*               1751               03.5909790428E+020.0000000000E+00+
*       1.7822499810E+02               0
GRID*               1752               03.5264280739E+020.0000000000E+00+
*       1.7502066021E+02               0
GRID*               1753               03.4618771050E+020.0000000000E+00+
*       1.7181632232E+02               0
GRID*               1754               03.3973261360E+020.0000000000E+00+
*       1.6861198443E+02               0
GRID*               1755               03.3327751671E+020.0000000000E+00+
*       1.6540764653E+02               0
GRID*               1756               03.2682241982E+020.0000000000E+00+
*       1.6220330864E+02               0
GRID*               1757               03.2036732293E+020.0000000000E+00+
*       1.5899897075E+02               0
GRID*               1758               03.1391222604E+020.0000000000E+00+
*       1.5579463286E+02               0
GRID*               1759               03.0745712915E+020.0000000000E+00+
*       1.5259029497E+02               0
GRID*               1760               03.0100203226E+020.0000000000E+00+
*       1.4938595708E+02               0
GRID*               1761               02.9454693536E+020.0000000000E+00+
*       1.4618161919E+02               0
GRID*               1762               02.8809183847E+020.0000000000E+00+
*       1.4297728130E+02               0
GRID*               1763               02.8163674158E+020.0000000000E+00+
*       1.3977294341E+02               0
GRID*               1764               02.7518164469E+020.0000000000E+00+
*       1.3656860552E+02               0
GRID*               1765               03.5528728065E+020.0000000000E+00+
*       1.8570509619E+02               0
GRID*               1766               03.4890070638E+020.0000000000E+00+
*       1.8236627591E+02               0
GRID*               1767               03.4251413211E+020.0000000000E+00+
*       1.7902745564E+02               0
GRID*               1768               03.3612755785E+020.0000000000E+00+
*       1.7568863537E+02               0
GRID*               1769               03.2974098358E+020.0000000000E+00+
*       1.7234981509E+02               0
GRID*               1770               03.2335440931E+020.0000000000E+00+
*       1.6901099482E+02               0
GRID*               1771               03.1696783505E+020.0000000000E+00+
*       1.6567217454E+02               0
GRID*               1772               03.1058126078E+020.0000000000E+00+
*       1.6233335427E+02               0
GRID*               1773               03.0419468652E+020.0000000000E+00+
*       1.5899453400E+02               0
GRID*               1774               02.9780811225E+020.0000000000E+00+
*       1.5565571372E+02               0
GRID*               1775               02.9142153798E+020.0000000000E+00+
*       1.5231689345E+02               0
GRID*               1776               02.8503496372E+020.0000000000E+00+
*       1.4897807317E+02               0
GRID*               1777               02.7864838945E+020.0000000000E+00+
*       1.4563925290E+02               0
GRID*               1778               02.7226181519E+020.0000000000E+00+
*       1.4230043263E+02               0
GRID*               1779               03.5132089482E+020.0000000000E+00+
*       1.9310377904E+02               0
GRID*               1780               03.4500564478E+020.0000000000E+00+
*       1.8963194101E+02               0
GRID*               1781               03.3869039473E+020.0000000000E+00+
*       1.8616010298E+02               0
GRID*               1782               03.3237514468E+020.0000000000E+00+
*       1.8268826495E+02               0
GRID*               1783               03.2605989464E+020.0000000000E+00+
*       1.7921642693E+02               0
GRID*               1784               03.1974464459E+020.0000000000E+00+
*       1.7574458890E+02               0
GRID*               1785               03.1342939455E+020.0000000000E+00+
*       1.7227275087E+02               0
GRID*               1786               03.0711414450E+020.0000000000E+00+
*       1.6880091284E+02               0
GRID*               1787               03.0079889445E+020.0000000000E+00+
*       1.6532907481E+02               0
GRID*               1788               02.9448364441E+020.0000000000E+00+
*       1.6185723678E+02               0
GRID*               1789               02.8816839436E+020.0000000000E+00+
*       1.5838539875E+02               0
GRID*               1790               02.8185314431E+020.0000000000E+00+
*       1.5491356072E+02               0
GRID*               1791               02.7553789427E+020.0000000000E+00+
*       1.5144172269E+02               0
GRID*               1792               02.6922264422E+020.0000000000E+00+
*       1.4796988466E+02               0
GRID*               1793               03.4720046786E+020.0000000000E+00+
*       2.0041779296E+02               0
GRID*               1794               03.4095931165E+020.0000000000E+00+
*       1.9681445979E+02               0
GRID*               1795               03.3471815543E+020.0000000000E+00+
*       1.9321112662E+02               0
GRID*               1796               03.2847699922E+020.0000000000E+00+
*       1.8960779344E+02               0
GRID*               1797               03.2223584300E+020.0000000000E+00+
*       1.8600446027E+02               0
GRID*               1798               03.1599468678E+020.0000000000E+00+
*       1.8240112710E+02               0
GRID*               1799               03.0975353057E+020.0000000000E+00+
*       1.7879779393E+02               0
GRID*               1800               03.0351237435E+020.0000000000E+00+
*       1.7519446076E+02               0
GRID*               1801               02.9727121813E+020.0000000000E+00+
*       1.7159112758E+02               0
GRID*               1802               02.9103006192E+020.0000000000E+00+
*       1.6798779441E+02               0
GRID*               1803               02.8478890570E+020.0000000000E+00+
*       1.6438446124E+02               0
GRID*               1804               02.7854774949E+020.0000000000E+00+
*       1.6078112807E+02               0
GRID*               1805               02.7230659327E+020.0000000000E+00+
*       1.5717779489E+02               0
GRID*               1806               02.6606543705E+020.0000000000E+00+
*       1.5357446172E+02               0
GRID*               1807               03.4292776086E+020.0000000000E+00+
*       2.0764390480E+02               0
GRID*               1808               03.3676343573E+020.0000000000E+00+
*       2.0391065683E+02               0
GRID*               1809               03.3059911059E+020.0000000000E+00+
*       2.0017740886E+02               0
GRID*               1810               03.2443478546E+020.0000000000E+00+
*       1.9644416090E+02               0
GRID*               1811               03.1827046032E+020.0000000000E+00+
*       1.9271091293E+02               0
GRID*               1812               03.1210613519E+020.0000000000E+00+
*       1.8897766496E+02               0
GRID*               1813               03.0594181005E+020.0000000000E+00+
*       1.8524441700E+02               0
GRID*               1814               02.9977748492E+020.0000000000E+00+
*       1.8151116903E+02               0
GRID*               1815               02.9361315978E+020.0000000000E+00+
*       1.7777792106E+02               0
GRID*               1816               02.8744883464E+020.0000000000E+00+
*       1.7404467309E+02               0
GRID*               1817               02.8128450951E+020.0000000000E+00+
*       1.7031142513E+02               0
GRID*               1818               02.7512018437E+020.0000000000E+00+
*       1.6657817716E+02               0
GRID*               1819               02.6895585924E+020.0000000000E+00+
*       1.6284492919E+02               0
GRID*               1820               02.6279153410E+020.0000000000E+00+
*       1.5911168122E+02               0
GRID*               1821               03.3850469253E+020.0000000000E+00+
*       2.1477897247E+02               0
GRID*               1822               03.3241990189E+020.0000000000E+00+
*       2.1091744694E+02               0
GRID*               1823               03.2633511125E+020.0000000000E+00+
*       2.0705592141E+02               0
GRID*               1824               03.2025032060E+020.0000000000E+00+
*       2.0319439588E+02               0
GRID*               1825               03.1416552996E+020.0000000000E+00+
*       1.9933287035E+02               0
GRID*               1826               03.0808073931E+020.0000000000E+00+
*       1.9547134482E+02               0
GRID*               1827               03.0199594867E+020.0000000000E+00+
*       1.9160981929E+02               0
GRID*               1828               02.9591115803E+020.0000000000E+00+
*       1.8774829376E+02               0
GRID*               1829               02.8982636738E+020.0000000000E+00+
*       1.8388676823E+02               0
GRID*               1830               02.8374157674E+020.0000000000E+00+
*       1.8002524270E+02               0
GRID*               1831               02.7765678609E+020.0000000000E+00+
*       1.7616371717E+02               0
GRID*               1832               02.7157199545E+020.0000000000E+00+
*       1.7230219164E+02               0
GRID*               1833               02.6548720481E+020.0000000000E+00+
*       1.6844066611E+02               0
GRID*               1834               02.5940241416E+020.0000000000E+00+
*       1.6457914058E+02               0
GRID*               1835               03.3393322039E+020.0000000000E+00+
*       2.2181987883E+02               0
GRID*               1836               03.2793063344E+020.0000000000E+00+
*       2.1783176968E+02               0
GRID*               1837               03.2192804649E+020.0000000000E+00+
*       2.1384366052E+02               0
GRID*               1838               03.1592545955E+020.0000000000E+00+
*       2.0985555137E+02               0
GRID*               1839               03.0992287260E+020.0000000000E+00+
*       2.0586744222E+02               0
GRID*               1840               03.0392028565E+020.0000000000E+00+
*       2.0187933306E+02               0
GRID*               1841               02.9791769871E+020.0000000000E+00+
*       1.9789122391E+02               0
GRID*               1842               02.9191511176E+020.0000000000E+00+
*       1.9390311475E+02               0
GRID*               1843               02.8591252481E+020.0000000000E+00+
*       1.8991500560E+02               0
GRID*               1844               02.7990993787E+020.0000000000E+00+
*       1.8592689644E+02               0
GRID*               1845               02.7390735092E+020.0000000000E+00+
*       1.8193878729E+02               0
GRID*               1846               02.6790476397E+020.0000000000E+00+
*       1.7795067814E+02               0
GRID*               1847               02.6190217703E+020.0000000000E+00+
*       1.7396256898E+02               0
GRID*               1848               02.5589959008E+020.0000000000E+00+
*       1.6997445983E+02               0
GRID*               1849               03.2921530513E+020.0000000000E+00+
*       2.2876350844E+02               0
GRID*               1850               03.2329755666E+020.0000000000E+00+
*       2.2465056618E+02               0
GRID*               1851               03.1737980818E+020.0000000000E+00+
*       2.2053762392E+02               0
GRID*               1852               03.1146205970E+020.0000000000E+00+
*       2.1642468166E+02               0
GRID*               1853               03.0554431123E+020.0000000000E+00+
*       2.1231173941E+02               0
GRID*               1854               02.9962656275E+020.0000000000E+00+
*       2.0819879715E+02               0
GRID*               1855               02.9370881427E+020.0000000000E+00+
*       2.0408585489E+02               0
GRID*               1856               02.8779106580E+020.0000000000E+00+
*       1.9997291264E+02               0
GRID*               1857               02.8187331732E+020.0000000000E+00+
*       1.9585997038E+02               0
GRID*               1858               02.7595556884E+020.0000000000E+00+
*       1.9174702812E+02               0
GRID*               1859               02.7003782037E+020.0000000000E+00+
*       1.8763408586E+02               0
GRID*               1860               02.6412007189E+020.0000000000E+00+
*       1.8352114361E+02               0
GRID*               1861               02.5820232341E+020.0000000000E+00+
*       1.7940820135E+02               0
GRID*               1862               02.5228457494E+020.0000000000E+00+
*       1.7529525909E+02               0
GRID*               1863               03.2435300577E+020.0000000000E+00+
*       2.3560680908E+02               0
GRID*               1864               03.1852269054E+020.0000000000E+00+
*       2.3137083716E+02               0
GRID*               1865               03.1269237531E+020.0000000000E+00+
*       2.2713486525E+02               0
GRID*               1866               03.0686206009E+020.0000000000E+00+
*       2.2289889333E+02               0
GRID*               1867               03.0103174486E+020.0000000000E+00+
*       2.1866292142E+02               0
GRID*               1868               02.9520142964E+020.0000000000E+00+
*       2.1442694950E+02               0
GRID*               1869               02.8937111441E+020.0000000000E+00+
*       2.1019097758E+02               0
GRID*               1870               02.8354079918E+020.0000000000E+00+
*       2.0595500567E+02               0
GRID*               1871               02.7771048396E+020.0000000000E+00+
*       2.0171903375E+02               0
GRID*               1872               02.7188016873E+020.0000000000E+00+
*       1.9748306183E+02               0
GRID*               1873               02.6604985351E+020.0000000000E+00+
*       1.9324708992E+02               0
GRID*               1874               02.6021953828E+020.0000000000E+00+
*       1.8901111800E+02               0
GRID*               1875               02.5438922305E+020.0000000000E+00+
*       1.8477514608E+02               0
GRID*               1876               02.4855890783E+020.0000000000E+00+
*       1.8053917417E+02               0
GRID*               1877               03.1934850140E+020.0000000000E+00+
*       2.4234681358E+02               0
GRID*               1878               03.1360817477E+020.0000000000E+00+
*       2.3798966854E+02               0
GRID*               1879               03.0786784814E+020.0000000000E+00+
*       2.3363252351E+02               0
GRID*               1880               03.0212752151E+020.0000000000E+00+
*       2.2927537848E+02               0
GRID*               1881               02.9638719488E+020.0000000000E+00+
*       2.2491823345E+02               0
GRID*               1882               02.9064686825E+020.0000000000E+00+
*       2.2056108841E+02               0
GRID*               1883               02.8490654162E+020.0000000000E+00+
*       2.1620394338E+02               0
GRID*               1884               02.7916621499E+020.0000000000E+00+
*       2.1184679835E+02               0
GRID*               1885               02.7342588836E+020.0000000000E+00+
*       2.0748965331E+02               0
GRID*               1886               02.6768556173E+020.0000000000E+00+
*       2.0313250828E+02               0
GRID*               1887               02.6194523510E+020.0000000000E+00+
*       1.9877536325E+02               0
GRID*               1888               02.5620490847E+020.0000000000E+00+
*       1.9441821821E+02               0
GRID*               1889               02.5046458183E+020.0000000000E+00+
*       1.9006107318E+02               0
GRID*               1890               02.4472425520E+020.0000000000E+00+
*       1.8570392815E+02               0
GRID*               1891               03.1420398057E+020.0000000000E+00+
*       2.4898056240E+02               0
GRID*               1892               03.0855616129E+020.0000000000E+00+
*       2.4450415610E+02               0
GRID*               1893               03.0290834200E+020.0000000000E+00+
*       2.4002774981E+02               0
GRID*               1894               02.9726052272E+020.0000000000E+00+
*       2.3555134352E+02               0
GRID*               1895               02.9161270343E+020.0000000000E+00+
*       2.3107493722E+02               0
GRID*               1896               02.8596488414E+020.0000000000E+00+
*       2.2659853093E+02               0
GRID*               1897               02.8031706486E+020.0000000000E+00+
*       2.2212212463E+02               0
GRID*               1898               02.7466924557E+020.0000000000E+00+
*       2.1764571834E+02               0
GRID*               1899               02.6902142629E+020.0000000000E+00+
*       2.1316931204E+02               0
GRID*               1900               02.6337360700E+020.0000000000E+00+
*       2.0869290575E+02               0
GRID*               1901               02.5772578772E+020.0000000000E+00+
*       2.0421649946E+02               0
GRID*               1902               02.5207796843E+020.0000000000E+00+
*       1.9974009316E+02               0
GRID*               1903               02.4643014915E+020.0000000000E+00+
*       1.9526368687E+02               0
GRID*               1904               02.4078232986E+020.0000000000E+00+
*       1.9078728057E+02               0
GRID*               1905               03.0892165410E+020.0000000000E+00+
*       2.5550511175E+02               0
GRID*               1906               03.0336882273E+020.0000000000E+00+
*       2.5091141025E+02               0
GRID*               1907               02.9781599136E+020.0000000000E+00+
*       2.4631770875E+02               0
GRID*               1908               02.9226315998E+020.0000000000E+00+
*       2.4172400725E+02               0
GRID*               1909               02.8671032861E+020.0000000000E+00+
*       2.3713030575E+02               0
GRID*               1910               02.8115749724E+020.0000000000E+00+
*       2.3253660425E+02               0
GRID*               1911               02.7560466587E+020.0000000000E+00+
*       2.2794290275E+02               0
GRID*               1912               02.7005183450E+020.0000000000E+00+
*       2.2334920126E+02               0
GRID*               1913               02.6449900312E+020.0000000000E+00+
*       2.1875549976E+02               0
GRID*               1914               02.5894617175E+020.0000000000E+00+
*       2.1416179826E+02               0
GRID*               1915               02.5339334038E+020.0000000000E+00+
*       2.0956809676E+02               0
GRID*               1916               02.4784050901E+020.0000000000E+00+
*       2.0497439526E+02               0
GRID*               1917               02.4228767764E+020.0000000000E+00+
*       2.0038069376E+02               0
GRID*               1918               02.3673484626E+020.0000000000E+00+
*       1.9578699226E+02               0
GRID*               1919               03.0350386627E+020.0000000000E+00+
*       2.6191762279E+02               0
GRID*               1920               02.9804845637E+020.0000000000E+00+
*       2.5720863932E+02               0
GRID*               1921               02.9259304647E+020.0000000000E+00+
*       2.5249965585E+02               0
GRID*               1922               02.8713763657E+020.0000000000E+00+
*       2.4779067239E+02               0
GRID*               1923               02.8168222667E+020.0000000000E+00+
*       2.4308168892E+02               0
GRID*               1924               02.7622681677E+020.0000000000E+00+
*       2.3837270545E+02               0
GRID*               1925               02.7077140687E+020.0000000000E+00+
*       2.3366372199E+02               0
GRID*               1926               02.6531599697E+020.0000000000E+00+
*       2.2895473852E+02               0
GRID*               1927               02.5986058706E+020.0000000000E+00+
*       2.2424575506E+02               0
GRID*               1928               02.5440517716E+020.0000000000E+00+
*       2.1953677159E+02               0
GRID*               1929               02.4894976726E+020.0000000000E+00+
*       2.1482778812E+02               0
GRID*               1930               02.4349435736E+020.0000000000E+00+
*       2.1011880466E+02               0
GRID*               1931               02.3803894746E+020.0000000000E+00+
*       2.0540982119E+02               0
GRID*               1932               02.3258353756E+020.0000000000E+00+
*       2.0070083772E+02               0
GRID*               1933               02.9795301750E+020.0000000000E+00+
*       2.6821530487E+02               0
GRID*               1934               02.9259741927E+020.0000000000E+00+
*       2.6339310259E+02               0
GRID*               1935               02.8724182104E+020.0000000000E+00+
*       2.5857090031E+02               0
GRID*               1936               02.8188622281E+020.0000000000E+00+
*       2.5374869802E+02               0
GRID*               1937               02.7653062458E+020.0000000000E+00+
*       2.4892649574E+02               0
GRID*               1938               02.7117502635E+020.0000000000E+00+
*       2.4410429345E+02               0
GRID*               1939               02.6581942812E+020.0000000000E+00+
*       2.3928209117E+02               0
GRID*               1940               02.6046382989E+020.0000000000E+00+
*       2.3445988888E+02               0
GRID*               1941               02.5510823166E+020.0000000000E+00+
*       2.2963768660E+02               0
GRID*               1942               02.4975263343E+020.0000000000E+00+
*       2.2481548431E+02               0
GRID*               1943               02.4439703520E+020.0000000000E+00+
*       2.1999328203E+02               0
GRID*               1944               02.3904143696E+020.0000000000E+00+
*       2.1517107975E+02               0
GRID*               1945               02.3368583873E+020.0000000000E+00+
*       2.1034887746E+02               0
GRID*               1946               02.2833024050E+020.0000000000E+00+
*       2.0552667518E+02               0
GRID*               1947               02.9227151348E+020.0000000000E+00+
*       2.7439537200E+02               0
GRID*               1948               02.8701807809E+020.0000000000E+00+
*       2.6946206791E+02               0
GRID*               1949               02.8176464269E+020.0000000000E+00+
*       2.6452876382E+02               0
GRID*               1950               02.7651120729E+020.0000000000E+00+
*       2.5959545973E+02               0
GRID*               1951               02.7125777190E+020.0000000000E+00+
*       2.5466215564E+02               0
GRID*               1952               02.6600433650E+020.0000000000E+00+
*       2.4972885155E+02               0
GRID*               1953               02.6075090110E+020.0000000000E+00+
*       2.4479554746E+02               0
GRID*               1954               02.5549746571E+020.0000000000E+00+
*       2.3986224336E+02               0
GRID*               1955               02.5024403031E+020.0000000000E+00+
*       2.3492893927E+02               0
GRID*               1956               02.4499059491E+020.0000000000E+00+
*       2.2999563518E+02               0
GRID*               1957               02.3973715952E+020.0000000000E+00+
*       2.2506233109E+02               0
GRID*               1958               02.3448372412E+020.0000000000E+00+
*       2.2012902700E+02               0
GRID*               1959               02.2923028873E+020.0000000000E+00+
*       2.1519572291E+02               0
GRID*               1960               02.2397685333E+020.0000000000E+00+
*       2.1026241882E+02               0
GRID*               1961               02.8646182647E+020.0000000000E+00+
*       2.8045509592E+02               0
GRID*               1962               02.8131286135E+020.0000000000E+00+
*       2.7541285686E+02               0
GRID*               1963               02.7616389623E+020.0000000000E+00+
*       2.7037061779E+02               0
GRID*               1964               02.7101493111E+020.0000000000E+00+
*       2.6532837872E+02               0
GRID*               1965               02.6586596598E+020.0000000000E+00+
*       2.6028613966E+02               0
GRID*               1966               02.6071700086E+020.0000000000E+00+
*       2.5524390059E+02               0
GRID*               1967               02.5556803574E+020.0000000000E+00+
*       2.5020166152E+02               0
GRID*               1968               02.5041907062E+020.0000000000E+00+
*       2.4515942246E+02               0
GRID*               1969               02.4527010550E+020.0000000000E+00+
*       2.4011718339E+02               0
GRID*               1970               02.4012114038E+020.0000000000E+00+
*       2.3507494432E+02               0
GRID*               1971               02.3497217526E+020.0000000000E+00+
*       2.3003270526E+02               0
GRID*               1972               02.2982321014E+020.0000000000E+00+
*       2.2499046619E+02               0
GRID*               1973               02.2467424502E+020.0000000000E+00+
*       2.1994822712E+02               0
GRID*               1974               02.1952527989E+020.0000000000E+00+
*       2.1490598806E+02               0
GRID*               1975               02.8052654303E+020.0000000000E+00+
*       2.8639185722E+02               0
GRID*               1976               02.7548430403E+020.0000000000E+00+
*       2.8124289227E+02               0
GRID*               1977               02.7044206502E+020.0000000000E+00+
*       2.7609392733E+02               0
GRID*               1978               02.6539982602E+020.0000000000E+00+
*       2.7094496239E+02               0
GRID*               1979               02.6035758702E+020.0000000000E+00+
*       2.6579599745E+02               0
GRID*               1980               02.5531534801E+020.0000000000E+00+
*       2.6064703250E+02               0
GRID*               1981               02.5027310901E+020.0000000000E+00+
*       2.5549806756E+02               0
GRID*               1982               02.4523087001E+020.0000000000E+00+
*       2.5034910262E+02               0
GRID*               1983               02.4018863100E+020.0000000000E+00+
*       2.4520013767E+02               0
GRID*               1984               02.3514639200E+020.0000000000E+00+
*       2.4005117273E+02               0
GRID*               1985               02.3010415300E+020.0000000000E+00+
*       2.3490220779E+02               0
GRID*               1986               02.2506191399E+020.0000000000E+00+
*       2.2975324285E+02               0
GRID*               1987               02.2001967499E+020.0000000000E+00+
*       2.2460427790E+02               0
GRID*               1988               02.1497743599E+020.0000000000E+00+
*       2.1945531296E+02               0
GRID*               1989               02.7446826656E+020.0000000000E+00+
*       2.9220305368E+02               0
GRID*               1990               02.6953496271E+020.0000000000E+00+
*       2.8694961865E+02               0
GRID*               1991               02.6460165887E+020.0000000000E+00+
*       2.8169618362E+02               0
GRID*               1992               02.5966835502E+020.0000000000E+00+
*       2.7644274859E+02               0
GRID*               1993               02.5473505117E+020.0000000000E+00+
*       2.7118931355E+02               0
GRID*               1994               02.4980174732E+020.0000000000E+00+
*       2.6593587852E+02               0
GRID*               1995               02.4486844348E+020.0000000000E+00+
*       2.6068244349E+02               0
GRID*               1996               02.3993513963E+020.0000000000E+00+
*       2.5542900845E+02               0
GRID*               1997               02.3500183578E+020.0000000000E+00+
*       2.5017557342E+02               0
GRID*               1998               02.3006853194E+020.0000000000E+00+
*       2.4492213839E+02               0
GRID*               1999               02.2513522809E+020.0000000000E+00+
*       2.3966870336E+02               0
GRID*               2000               02.2020192424E+020.0000000000E+00+
*       2.3441526832E+02               0
GRID*               2001               02.1526862039E+020.0000000000E+00+
*       2.2916183329E+02               0
GRID*               2002               02.1033531655E+020.0000000000E+00+
*       2.2390839826E+02               0
GRID*               2003               02.6828961739E+020.0000000000E+00+
*       2.9788609977E+02               0
GRID*               2004               02.6346741535E+020.0000000000E+00+
*       2.9253050190E+02               0
GRID*               2005               02.5864521332E+020.0000000000E+00+
*       2.8717490403E+02               0
GRID*               2006               02.5382301128E+020.0000000000E+00+
*       2.8181930616E+02               0
GRID*               2007               02.4900080924E+020.0000000000E+00+
*       2.7646370829E+02               0
GRID*               2008               02.4417860720E+020.0000000000E+00+
*       2.7110811042E+02               0
GRID*               2009               02.3935640517E+020.0000000000E+00+
*       2.6575251256E+02               0
GRID*               2010               02.3453420313E+020.0000000000E+00+
*       2.6039691469E+02               0
GRID*               2011               02.2971200109E+020.0000000000E+00+
*       2.5504131682E+02               0
GRID*               2012               02.2488979906E+020.0000000000E+00+
*       2.4968571895E+02               0
GRID*               2013               02.2006759702E+020.0000000000E+00+
*       2.4433012108E+02               0
GRID*               2014               02.1524539498E+020.0000000000E+00+
*       2.3897452322E+02               0
GRID*               2015               02.1042319294E+020.0000000000E+00+
*       2.3361892535E+02               0
GRID*               2016               02.0560099091E+020.0000000000E+00+
*       2.2826332748E+02               0
GRID*               2017               02.6199332249E+020.0000000000E+00+
*       3.0343852204E+02               0
GRID*               2018               02.5728433913E+020.0000000000E+00+
*       2.9798311233E+02               0
GRID*               2019               02.5257535577E+020.0000000000E+00+
*       2.9252770263E+02               0
GRID*               2020               02.4786637241E+020.0000000000E+00+
*       2.8707229292E+02               0
GRID*               2021               02.4315738905E+020.0000000000E+00+
*       2.8161688321E+02               0
GRID*               2022               02.3844840569E+020.0000000000E+00+
*       2.7616147351E+02               0
GRID*               2023               02.3373942233E+020.0000000000E+00+
*       2.7070606380E+02               0
GRID*               2024               02.2903043897E+020.0000000000E+00+
*       2.6525065410E+02               0
GRID*               2025               02.2432145561E+020.0000000000E+00+
*       2.5979524439E+02               0
GRID*               2026               02.1961247225E+020.0000000000E+00+
*       2.5433983469E+02               0
GRID*               2027               02.1490348889E+020.0000000000E+00+
*       2.4888442498E+02               0
GRID*               2028               02.1019450553E+020.0000000000E+00+
*       2.4342901527E+02               0
GRID*               2029               02.0548552217E+020.0000000000E+00+
*       2.3797360557E+02               0
GRID*               2030               02.0077653882E+020.0000000000E+00+
*       2.3251819586E+02               0
GRID*               2031               02.5558216553E+020.0000000000E+00+
*       3.0885791210E+02               0
GRID*               2032               02.5098846397E+020.0000000000E+00+
*       3.0330508072E+02               0
GRID*               2033               02.4639476240E+020.0000000000E+00+
*       2.9775224934E+02               0
GRID*               2034               02.4180106084E+020.0000000000E+00+
*       2.9219941796E+02               0
GRID*               2035               02.3720735927E+020.0000000000E+00+
*       2.8664658659E+02               0
GRID*               2036               02.3261365771E+020.0000000000E+00+
*       2.8109375521E+02               0
GRID*               2037               02.2801995614E+020.0000000000E+00+
*       2.7554092383E+02               0
GRID*               2038               02.2342625458E+020.0000000000E+00+
*       2.6998809245E+02               0
GRID*               2039               02.1883255301E+020.0000000000E+00+
*       2.6443526107E+02               0
GRID*               2040               02.1423885145E+020.0000000000E+00+
*       2.5888242970E+02               0
GRID*               2041               02.0964514988E+020.0000000000E+00+
*       2.5332959832E+02               0
GRID*               2042               02.0505144832E+020.0000000000E+00+
*       2.4777676694E+02               0
GRID*               2043               02.0045774675E+020.0000000000E+00+
*       2.4222393556E+02               0
GRID*               2044               01.9586404519E+020.0000000000E+00+
*       2.3667110419E+02               0
GRID*               2045               02.4905893482E+020.0000000000E+00+
*       3.1414186682E+02               0
GRID*               2046               02.4458252838E+020.0000000000E+00+
*       3.0849404744E+02               0
GRID*               2047               02.4010612195E+020.0000000000E+00+
*       3.0284622806E+02               0
GRID*               2048               02.3562971551E+020.0000000000E+00+
*       2.9719840868E+02               0
GRID*               2049               02.3115330907E+020.0000000000E+00+
*       2.9155058930E+02               0
GRID*               2050               02.2667690263E+020.0000000000E+00+
*       2.8590276992E+02               0
GRID*               2051               02.2220049620E+020.0000000000E+00+
*       2.8025495053E+02               0
GRID*               2052               02.1772408976E+020.0000000000E+00+
*       2.7460713115E+02               0
GRID*               2053               02.1324768332E+020.0000000000E+00+
*       2.6895931177E+02               0
GRID*               2054               02.0877127688E+020.0000000000E+00+
*       2.6331149239E+02               0
GRID*               2055               02.0429487044E+020.0000000000E+00+
*       2.5766367301E+02               0
GRID*               2056               01.9981846401E+020.0000000000E+00+
*       2.5201585363E+02               0
GRID*               2057               01.9534205757E+020.0000000000E+00+
*       2.4636803425E+02               0
GRID*               2058               01.9086565113E+020.0000000000E+00+
*       2.4072021487E+02               0
GRID*               2059               02.4242646775E+020.0000000000E+00+
*       3.1928803989E+02               0
GRID*               2060               02.3806932266E+020.0000000000E+00+
*       3.1354771329E+02               0
GRID*               2061               02.3371217757E+020.0000000000E+00+
*       3.0780738668E+02               0
GRID*               2062               02.2935503248E+020.0000000000E+00+
*       3.0206706008E+02               0
GRID*               2063               02.2499788739E+020.0000000000E+00+
*       2.9632673347E+02               0
GRID*               2064               02.2064074230E+020.0000000000E+00+
*       2.9058640686E+02               0
GRID*               2065               02.1628359721E+020.0000000000E+00+
*       2.8484608026E+02               0
GRID*               2066               02.1192645212E+020.0000000000E+00+
*       2.7910575365E+02               0
GRID*               2067               02.0756930703E+020.0000000000E+00+
*       2.7336542705E+02               0
GRID*               2068               02.0321216195E+020.0000000000E+00+
*       2.6762510044E+02               0
GRID*               2069               01.9885501686E+020.0000000000E+00+
*       2.6188477384E+02               0
GRID*               2070               01.9449787177E+020.0000000000E+00+
*       2.5614444723E+02               0
GRID*               2071               01.9014072668E+020.0000000000E+00+
*       2.5040412063E+02               0
GRID*               2072               01.8578358159E+020.0000000000E+00+
*       2.4466379402E+02               0
GRID*               2073               02.3568770902E+020.0000000000E+00+
*       3.2429422157E+02               0
GRID*               2074               02.3145173720E+020.0000000000E+00+
*       3.1846390658E+02               0
GRID*               2075               02.2721576538E+020.0000000000E+00+
*       3.1263359158E+02               0
GRID*               2076               02.2297979356E+020.0000000000E+00+
*       3.0680327659E+02               0
GRID*               2077               02.1874382174E+020.0000000000E+00+
*       3.0097296159E+02               0
GRID*               2078               02.1450784992E+020.0000000000E+00+
*       2.9514264660E+02               0
GRID*               2079               02.1027187810E+020.0000000000E+00+
*       2.8931233160E+02               0
GRID*               2080               02.0603590628E+020.0000000000E+00+
*       2.8348201661E+02               0
GRID*               2081               02.0179993446E+020.0000000000E+00+
*       2.7765170161E+02               0
GRID*               2082               01.9756396264E+020.0000000000E+00+
*       2.7182138662E+02               0
GRID*               2083               01.9332799082E+020.0000000000E+00+
*       2.6599107162E+02               0
GRID*               2084               01.8909201900E+020.0000000000E+00+
*       2.6016075663E+02               0
GRID*               2085               01.8485604718E+020.0000000000E+00+
*       2.5433044163E+02               0
GRID*               2086               01.8062007536E+020.0000000000E+00+
*       2.4850012664E+02               0
GRID*               2087               02.2884561948E+020.0000000000E+00+
*       3.2915822513E+02               0
GRID*               2088               02.2473267740E+020.0000000000E+00+
*       3.2324047700E+02               0
GRID*               2089               02.2061973533E+020.0000000000E+00+
*       3.1732272887E+02               0
GRID*               2090               02.1650679326E+020.0000000000E+00+
*       3.1140498073E+02               0
GRID*               2091               02.1239385118E+020.0000000000E+00+
*       3.0548723260E+02               0
GRID*               2092               02.0828090911E+020.0000000000E+00+
*       2.9956948447E+02               0
GRID*               2093               02.0416796704E+020.0000000000E+00+
*       2.9365173634E+02               0
GRID*               2094               02.0005502496E+020.0000000000E+00+
*       2.8773398821E+02               0
GRID*               2095               01.9594208289E+020.0000000000E+00+
*       2.8181624008E+02               0
GRID*               2096               01.9182914082E+020.0000000000E+00+
*       2.7589849195E+02               0
GRID*               2097               01.8771619874E+020.0000000000E+00+
*       2.6998074381E+02               0
GRID*               2098               01.8360325667E+020.0000000000E+00+
*       2.6406299568E+02               0
GRID*               2099               01.7949031460E+020.0000000000E+00+
*       2.5814524755E+02               0
GRID*               2100               01.7537737253E+020.0000000000E+00+
*       2.5222749942E+02               0
GRID*               2101               02.2190316750E+020.0000000000E+00+
*       3.3387787320E+02               0
GRID*               2102               02.1791505841E+020.0000000000E+00+
*       3.2787528640E+02               0
GRID*               2103               02.1392694932E+020.0000000000E+00+
*       3.2187269960E+02               0
GRID*               2104               02.0993884022E+020.0000000000E+00+
*       3.1587011281E+02               0
GRID*               2105               02.0595073113E+020.0000000000E+00+
*       3.0986752601E+02               0
GRID*               2106               02.0196262204E+020.0000000000E+00+
*       3.0386493921E+02               0
GRID*               2107               01.9797451294E+020.0000000000E+00+
*       2.9786235242E+02               0
GRID*               2108               01.9398640385E+020.0000000000E+00+
*       2.9185976562E+02               0
GRID*               2109               01.8999829476E+020.0000000000E+00+
*       2.8585717882E+02               0
GRID*               2110               01.8601018566E+020.0000000000E+00+
*       2.7985459202E+02               0
GRID*               2111               01.8202207657E+020.0000000000E+00+
*       2.7385200523E+02               0
GRID*               2112               01.7803396748E+020.0000000000E+00+
*       2.6784941843E+02               0
GRID*               2113               01.7404585838E+020.0000000000E+00+
*       2.6184683163E+02               0
GRID*               2114               01.7005774929E+020.0000000000E+00+
*       2.5584424484E+02               0
GRID*               2115               02.1486340455E+020.0000000000E+00+
*       3.3845110607E+02               0
GRID*               2116               02.1100187878E+020.0000000000E+00+
*       3.3236631509E+02               0
GRID*               2117               02.0714035301E+020.0000000000E+00+
*       3.2628152411E+02               0
GRID*               2118               02.0327882724E+020.0000000000E+00+
*       3.2019673313E+02               0
GRID*               2119               01.9941730147E+020.0000000000E+00+
*       3.1411194215E+02               0
GRID*               2120               01.9555577569E+020.0000000000E+00+
*       3.0802715117E+02               0
GRID*               2121               01.9169424992E+020.0000000000E+00+
*       3.0194236019E+02               0
GRID*               2122               01.8783272415E+020.0000000000E+00+
*       2.9585756921E+02               0
GRID*               2123               01.8397119838E+020.0000000000E+00+
*       2.8977277824E+02               0
GRID*               2124               01.8010967260E+020.0000000000E+00+
*       2.8368798726E+02               0
GRID*               2125               01.7624814683E+020.0000000000E+00+
*       2.7760319628E+02               0
GRID*               2126               01.7238662106E+020.0000000000E+00+
*       2.7151840530E+02               0
GRID*               2127               01.6852509529E+020.0000000000E+00+
*       2.6543361432E+02               0
GRID*               2128               01.6466356951E+020.0000000000E+00+
*       2.5934882334E+02               0
GRID*               2129               02.0772944365E+020.0000000000E+00+
*       3.4287595922E+02               0
GRID*               2130               02.0399619513E+020.0000000000E+00+
*       3.3671163325E+02               0
GRID*               2131               02.0026294662E+020.0000000000E+00+
*       3.3054730729E+02               0
GRID*               2132               01.9652969810E+020.0000000000E+00+
*       3.2438298132E+02               0
GRID*               2133               01.9279644958E+020.0000000000E+00+
*       3.1821865536E+02               0
GRID*               2134               01.8906320106E+020.0000000000E+00+
*       3.1205432939E+02               0
GRID*               2135               01.8532995254E+020.0000000000E+00+
*       3.0589000342E+02               0
GRID*               2136               01.8159670402E+020.0000000000E+00+
*       2.9972567746E+02               0
GRID*               2137               01.7786345550E+020.0000000000E+00+
*       2.9356135149E+02               0
GRID*               2138               01.7413020699E+020.0000000000E+00+
*       2.8739702552E+02               0
GRID*               2139               01.7039695847E+020.0000000000E+00+
*       2.8123269956E+02               0
GRID*               2140               01.6666370995E+020.0000000000E+00+
*       2.7506837359E+02               0
GRID*               2141               01.6293046143E+020.0000000000E+00+
*       2.6890404762E+02               0
GRID*               2142               01.5919721291E+020.0000000000E+00+
*       2.6273972166E+02               0
GRID*               2143               02.0050439946E+020.0000000000E+00+
*       3.4715047119E+02               0
GRID*               2144               01.9690106560E+020.0000000000E+00+
*       3.4090931393E+02               0
GRID*               2145               01.9329773174E+020.0000000000E+00+
*       3.3466815666E+02               0
GRID*               2146               01.8969439788E+020.0000000000E+00+
*       3.2842699939E+02               0
GRID*               2147               01.8609106403E+020.0000000000E+00+
*       3.2218584213E+02               0
GRID*               2148               01.8248773017E+020.0000000000E+00+
*       3.1594468486E+02               0
GRID*               2149               01.7888439631E+020.0000000000E+00+
*       3.0970352759E+02               0
GRID*               2150               01.7528106245E+020.0000000000E+00+
*       3.0346237032E+02               0
GRID*               2151               01.7167772859E+020.0000000000E+00+
*       2.9722121306E+02               0
GRID*               2152               01.6807439474E+020.0000000000E+00+
*       2.9098005579E+02               0
GRID*               2153               01.6447106088E+020.0000000000E+00+
*       2.8473889852E+02               0
GRID*               2154               01.6086772702E+020.0000000000E+00+
*       2.7849774125E+02               0
GRID*               2155               01.5726439316E+020.0000000000E+00+
*       2.7225658399E+02               0
GRID*               2156               01.5366105930E+020.0000000000E+00+
*       2.6601542672E+02               0
GRID*               2157               01.9319141250E+020.0000000000E+00+
*       3.5127272042E+02               0
GRID*               2158               01.8971957393E+020.0000000000E+00+
*       3.4495746959E+02               0
GRID*               2159               01.8624773536E+020.0000000000E+00+
*       3.3864221876E+02               0
GRID*               2160               01.8277589679E+020.0000000000E+00+
*       3.3232696794E+02               0
GRID*               2161               01.7930405822E+020.0000000000E+00+
*       3.2601171711E+02               0
GRID*               2162               01.7583221965E+020.0000000000E+00+
*       3.1969646628E+02               0
GRID*               2163               01.7236038108E+020.0000000000E+00+
*       3.1338121545E+02               0
GRID*               2164               01.6888854251E+020.0000000000E+00+
*       3.0706596462E+02               0
GRID*               2165               01.6541670394E+020.0000000000E+00+
*       3.0075071379E+02               0
GRID*               2166               01.6194486537E+020.0000000000E+00+
*       2.9443546296E+02               0
GRID*               2167               01.5847302680E+020.0000000000E+00+
*       2.8812021214E+02               0
GRID*               2168               01.5500118823E+020.0000000000E+00+
*       2.8180496131E+02               0
GRID*               2169               01.5152934966E+020.0000000000E+00+
*       2.7548971048E+02               0
GRID*               2170               01.4805751109E+020.0000000000E+00+
*       2.6917445965E+02               0
GRID*               2171               01.8579371680E+020.0000000000E+00+
*       3.5524094703E+02               0
GRID*               2172               01.8245489628E+020.0000000000E+00+
*       3.4885437254E+02               0
GRID*               2173               01.7911607577E+020.0000000000E+00+
*       3.4246779806E+02               0
GRID*               2174               01.7577725526E+020.0000000000E+00+
*       3.3608122358E+02               0
GRID*               2175               01.7243843475E+020.0000000000E+00+
*       3.2969464910E+02               0
GRID*               2176               01.6909961423E+020.0000000000E+00+
*       3.2330807462E+02               0
GRID*               2177               01.6576079372E+020.0000000000E+00+
*       3.1692150014E+02               0
GRID*               2178               01.6242197321E+020.0000000000E+00+
*       3.1053492566E+02               0
GRID*               2179               01.5908315270E+020.0000000000E+00+
*       3.0414835118E+02               0
GRID*               2180               01.5574433218E+020.0000000000E+00+
*       2.9776177670E+02               0
GRID*               2181               01.5240551167E+020.0000000000E+00+
*       2.9137520222E+02               0
GRID*               2182               01.4906669116E+020.0000000000E+00+
*       2.8498862774E+02               0
GRID*               2183               01.4572787065E+020.0000000000E+00+
*       2.7860205326E+02               0
GRID*               2184               01.4238905013E+020.0000000000E+00+
*       2.7221547878E+02               0
GRID*               2185               01.7831456720E+020.0000000000E+00+
*       3.5905343209E+02               0
GRID*               2186               01.7511022936E+020.0000000000E+00+
*       3.5259833554E+02               0
GRID*               2187               01.7190589153E+020.0000000000E+00+
*       3.4614323899E+02               0
GRID*               2188               01.6870155369E+020.0000000000E+00+
*       3.3968814244E+02               0
GRID*               2189               01.6549721586E+020.0000000000E+00+
*       3.3323304589E+02               0
GRID*               2190               01.6229287802E+020.0000000000E+00+
*       3.2677794934E+02               0
GRID*               2191               01.5908854018E+020.0000000000E+00+
*       3.2032285278E+02               0
GRID*               2192               01.5588420235E+020.0000000000E+00+
*       3.1386775623E+02               0
GRID*               2193               01.5267986451E+020.0000000000E+00+
*       3.0741265968E+02               0
GRID*               2194               01.4947552668E+020.0000000000E+00+
*       3.0095756313E+02               0
GRID*               2195               01.4627118884E+020.0000000000E+00+
*       2.9450246658E+02               0
GRID*               2196               01.4306685101E+020.0000000000E+00+
*       2.8804737003E+02               0
GRID*               2197               01.3986251317E+020.0000000000E+00+
*       2.8159227348E+02               0
GRID*               2198               01.3665817534E+020.0000000000E+00+
*       2.7513717693E+02               0
GRID*               2199               01.7075722035E+020.0000000000E+00+
*       3.6270845951E+02               0
GRID*               2200               01.6768877153E+020.0000000000E+00+
*       3.5618767394E+02               0
GRID*               2201               01.6462032271E+020.0000000000E+00+
*       3.4966688837E+02               0
GRID*               2202               01.6155187390E+020.0000000000E+00+
*       3.4314610280E+02               0
GRID*               2203               01.5848342508E+020.0000000000E+00+
*       3.3662531724E+02               0
GRID*               2204               01.5541497626E+020.0000000000E+00+
*       3.3010453167E+02               0
GRID*               2205               01.5234652745E+020.0000000000E+00+
*       3.2358374610E+02               0
GRID*               2206               01.4927807863E+020.0000000000E+00+
*       3.1706296053E+02               0
GRID*               2207               01.4620962981E+020.0000000000E+00+
*       3.1054217496E+02               0
GRID*               2208               01.4314118099E+020.0000000000E+00+
*       3.0402138939E+02               0
GRID*               2209               01.4007273218E+020.0000000000E+00+
*       2.9750060383E+02               0
GRID*               2210               01.3700428336E+020.0000000000E+00+
*       2.9097981826E+02               0
GRID*               2211               01.3393583454E+020.0000000000E+00+
*       2.8445903269E+02               0
GRID*               2212               01.3086738573E+020.0000000000E+00+
*       2.7793824712E+02               0
GRID*               2213               01.6312498489E+020.0000000000E+00+
*       3.6620441441E+02               0
GRID*               2214               01.6019377030E+020.0000000000E+00+
*       3.5962079860E+02               0
GRID*               2215               01.5726255571E+020.0000000000E+00+
*       3.5303718280E+02               0
GRID*               2216               01.5433134112E+020.0000000000E+00+
*       3.4645356699E+02               0
GRID*               2217               01.5140012654E+020.0000000000E+00+
*       3.3986995118E+02               0
GRID*               2218               01.4846891195E+020.0000000000E+00+
*       3.3328633537E+02               0
GRID*               2219               01.4553769736E+020.0000000000E+00+
*       3.2670271956E+02               0
GRID*               2220               01.4260648277E+020.0000000000E+00+
*       3.2011910375E+02               0
GRID*               2221               01.3967526818E+020.0000000000E+00+
*       3.1353548795E+02               0
GRID*               2222               01.3674405359E+020.0000000000E+00+
*       3.0695187214E+02               0
GRID*               2223               01.3381283901E+020.0000000000E+00+
*       3.0036825633E+02               0
GRID*               2224               01.3088162442E+020.0000000000E+00+
*       2.9378464052E+02               0
GRID*               2225               01.2795040983E+020.0000000000E+00+
*       2.8720102471E+02               0
GRID*               2226               01.2501919524E+020.0000000000E+00+
*       2.8061740891E+02               0
GRID*               2227               01.5542123120E+020.0000000000E+00+
*       3.6953981595E+02               0
GRID*               2228               01.5262853542E+020.0000000000E+00+
*       3.6289625505E+02               0
GRID*               2229               01.4983583964E+020.0000000000E+00+
*       3.5625269416E+02               0
GRID*               2230               01.4704314386E+020.0000000000E+00+
*       3.4960913326E+02               0
GRID*               2231               01.4425044808E+020.0000000000E+00+
*       3.4296557237E+02               0
GRID*               2232               01.4145775230E+020.0000000000E+00+
*       3.3632201147E+02               0
GRID*               2233               01.3866505652E+020.0000000000E+00+
*       3.2967845058E+02               0
GRID*               2234               01.3587236074E+020.0000000000E+00+
*       3.2303488968E+02               0
GRID*               2235               01.3307966496E+020.0000000000E+00+
*       3.1639132879E+02               0
GRID*               2236               01.3028696918E+020.0000000000E+00+
*       3.0974776789E+02               0
GRID*               2237               01.2749427340E+020.0000000000E+00+
*       3.0310420699E+02               0
GRID*               2238               01.2470157762E+020.0000000000E+00+
*       2.9646064610E+02               0
GRID*               2239               01.2190888184E+020.0000000000E+00+
*       2.8981708520E+02               0
GRID*               2240               01.1911618606E+020.0000000000E+00+
*       2.8317352431E+02               0
GRID*               2241               01.4764933422E+020.0000000000E+00+
*       3.7271319508E+02               0
GRID*               2242               01.4499638258E+020.0000000000E+00+
*       3.6601260408E+02               0
GRID*               2243               01.4234343094E+020.0000000000E+00+
*       3.5931201309E+02               0
GRID*               2244               01.3969047929E+020.0000000000E+00+
*       3.5261142209E+02               0
GRID*               2245               01.3703752765E+020.0000000000E+00+
*       3.4591083110E+02               0
GRID*               2246               01.3438457601E+020.0000000000E+00+
*       3.3921024010E+02               0
GRID*               2247               01.3173162437E+020.0000000000E+00+
*       3.3250964911E+02               0
GRID*               2248               01.2907867273E+020.0000000000E+00+
*       3.2580905811E+02               0
GRID*               2249               01.2642572109E+020.0000000000E+00+
*       3.1910846712E+02               0
GRID*               2250               01.2377276945E+020.0000000000E+00+
*       3.1240787612E+02               0
GRID*               2251               01.2111981780E+020.0000000000E+00+
*       3.0570728513E+02               0
GRID*               2252               01.1846686616E+020.0000000000E+00+
*       2.9900669413E+02               0
GRID*               2253               01.1581391452E+020.0000000000E+00+
*       2.9230610313E+02               0
GRID*               2254               01.1316096288E+020.0000000000E+00+
*       2.8560551214E+02               0
GRID*               2255               01.3981268027E+020.0000000000E+00+
*       3.7572310729E+02               0
GRID*               2256               01.3730063803E+020.0000000000E+00+
*       3.6896842928E+02               0
GRID*               2257               01.3478859580E+020.0000000000E+00+
*       3.6221375127E+02               0
GRID*               2258               01.3227655356E+020.0000000000E+00+
*       3.5545907326E+02               0
GRID*               2259               01.2976451133E+020.0000000000E+00+
*       3.4870439524E+02               0
GRID*               2260               01.2725246909E+020.0000000000E+00+
*       3.4194971723E+02               0
GRID*               2261               01.2474042686E+020.0000000000E+00+
*       3.3519503922E+02               0
GRID*               2262               01.2222838462E+020.0000000000E+00+
*       3.2844036121E+02               0
GRID*               2263               01.1971634239E+020.0000000000E+00+
*       3.2168568320E+02               0
GRID*               2264               01.1720430015E+020.0000000000E+00+
*       3.1493100519E+02               0
GRID*               2265               01.1469225792E+020.0000000000E+00+
*       3.0817632718E+02               0
GRID*               2266               01.1218021568E+020.0000000000E+00+
*       3.0142164917E+02               0
GRID*               2267               01.0966817345E+020.0000000000E+00+
*       2.9466697116E+02               0
GRID*               2268               01.0715613121E+020.0000000000E+00+
*       2.8791229315E+02               0
GRID*               2269               01.3191471897E+020.0000000000E+00+
*       3.7856826622E+02               0
GRID*               2270               01.2954468717E+020.0000000000E+00+
*       3.7176246179E+02               0
GRID*               2271               01.2717465537E+020.0000000000E+00+
*       3.6495665736E+02               0
GRID*               2272               01.2480462356E+020.0000000000E+00+
*       3.5815085293E+02               0
GRID*               2273               01.2243459176E+020.0000000000E+00+
*       3.5134504850E+02               0
GRID*               2274               01.2006455996E+020.0000000000E+00+
*       3.4453924407E+02               0
GRID*               2275               01.1769452816E+020.0000000000E+00+
*       3.3773343964E+02               0
GRID*               2276               01.1532449636E+020.0000000000E+00+
*       3.3092763521E+02               0
GRID*               2277               01.1295446456E+020.0000000000E+00+
*       3.2412183078E+02               0
GRID*               2278               01.1058443276E+020.0000000000E+00+
*       3.1731602634E+02               0
GRID*               2279               01.0821440096E+020.0000000000E+00+
*       3.1051022191E+02               0
GRID*               2280               01.0584436916E+020.0000000000E+00+
*       3.0370441748E+02               0
GRID*               2281               01.0347433736E+020.0000000000E+00+
*       2.9689861305E+02               0
GRID*               2282               01.0110430556E+020.0000000000E+00+
*       2.9009280862E+02               0
GRID*               2283               01.2395892463E+020.0000000000E+00+
*       3.8124745603E+02               0
GRID*               2284               01.2173194171E+020.0000000000E+00+
*       3.7439350715E+02               0
GRID*               2285               01.1950495879E+020.0000000000E+00+
*       3.6753955827E+02               0
GRID*               2286               01.1727797586E+020.0000000000E+00+
*       3.6068560939E+02               0
GRID*               2287               01.1505099294E+020.0000000000E+00+
*       3.5383166050E+02               0
GRID*               2288               01.1282401002E+020.0000000000E+00+
*       3.4697771162E+02               0
GRID*               2289               01.1059702710E+020.0000000000E+00+
*       3.4012376274E+02               0
GRID*               2290               01.0837004418E+020.0000000000E+00+
*       3.3326981386E+02               0
GRID*               2291               01.0614306126E+020.0000000000E+00+
*       3.2641586498E+02               0
GRID*               2292               01.0391607834E+020.0000000000E+00+
*       3.1956191610E+02               0
GRID*               2293               01.0168909542E+020.0000000000E+00+
*       3.1270796722E+02               0
GRID*               2294               09.9462112503E+010.0000000000E+00+
*       3.0585401834E+02               0
GRID*               2295               09.7235129583E+010.0000000000E+00+
*       2.9900006945E+02               0
GRID*               2296               09.5008146662E+010.0000000000E+00+
*       2.9214612057E+02               0
GRID*               2297               01.1594877386E+020.0000000000E+00+
*       3.8375946768E+02               0
GRID*               2298               01.1386581746E+020.0000000000E+00+
*       3.7686038324E+02               0
GRID*               2299               01.1178286107E+020.0000000000E+00+
*       3.6996129881E+02               0
GRID*               2300               01.0969990468E+020.0000000000E+00+
*       3.6306221438E+02               0
GRID*               2301               01.0761694828E+020.0000000000E+00+
*       3.5616312995E+02               0
GRID*               2302               01.0553399189E+020.0000000000E+00+
*       3.4926404552E+02               0
GRID*               2303               01.0345103549E+020.0000000000E+00+
*       3.4236496108E+02               0
GRID*               2304               01.0136807910E+020.0000000000E+00+
*       3.3546587665E+02               0
GRID*               2305               09.9285122702E+010.0000000000E+00+
*       3.2856679222E+02               0
GRID*               2306               09.7202166307E+010.0000000000E+00+
*       3.2166770779E+02               0
GRID*               2307               09.5119209912E+010.0000000000E+00+
*       3.1476862336E+02               0
GRID*               2308               09.3036253518E+010.0000000000E+00+
*       3.0786953892E+02               0
GRID*               2309               09.0953297123E+010.0000000000E+00+
*       3.0097045449E+02               0
GRID*               2310               08.8870340728E+010.0000000000E+00+
*       2.9407137006E+02               0
GRID*               2311               01.0788777209E+020.0000000000E+00+
*       3.8610317620E+02               0
GRID*               2312               01.0594975703E+020.0000000000E+00+
*       3.7916198616E+02               0
GRID*               2313               01.0401174197E+020.0000000000E+00+
*       3.7222079612E+02               0
GRID*               2314               01.0207372691E+020.0000000000E+00+
*       3.6527960607E+02               0
GRID*               2315               01.0013571185E+020.0000000000E+00+
*       3.5833841603E+02               0
GRID*               2316               09.8197696785E+010.0000000000E+00+
*       3.5139722598E+02               0
GRID*               2317               09.6259681723E+010.0000000000E+00+
*       3.4445603594E+02               0
GRID*               2318               09.4321666661E+010.0000000000E+00+
*       3.3751484590E+02               0
GRID*               2319               09.2383651599E+010.0000000000E+00+
*       3.3057365585E+02               0
GRID*               2320               09.0445636537E+010.0000000000E+00+
*       3.2363246581E+02               0
GRID*               2321               08.8507621476E+010.0000000000E+00+
*       3.1669127577E+02               0
GRID*               2322               08.6569606414E+010.0000000000E+00+
*       3.0975008572E+02               0
GRID*               2323               08.4631591352E+010.0000000000E+00+
*       3.0280889568E+02               0
GRID*               2324               08.2693576290E+010.0000000000E+00+
*       2.9586770563E+02               0
GRID*               2325               09.9779468149E+010.0000000000E+00+
*       3.8827760293E+02               0
GRID*               2326               09.7987243437E+010.0000000000E+00+
*       3.8129734816E+02               0
GRID*               2327               09.6195018724E+010.0000000000E+00+
*       3.7431709339E+02               0
GRID*               2328               09.4402794012E+010.0000000000E+00+
*       3.6733683863E+02               0
GRID*               2329               09.2610569299E+010.0000000000E+00+
*       3.6035658386E+02               0
GRID*               2330               09.0818344587E+010.0000000000E+00+
*       3.5337632909E+02               0
GRID*               2331               08.9026119874E+010.0000000000E+00+
*       3.4639607432E+02               0
GRID*               2332               08.7233895162E+010.0000000000E+00+
*       3.3941581956E+02               0
GRID*               2333               08.5441670449E+010.0000000000E+00+
*       3.3243556479E+02               0
GRID*               2334               08.3649445737E+010.0000000000E+00+
*       3.2545531002E+02               0
GRID*               2335               08.1857221024E+010.0000000000E+00+
*       3.1847505526E+02               0
GRID*               2336               08.0064996312E+010.0000000000E+00+
*       3.1149480049E+02               0
GRID*               2337               07.8272771599E+010.0000000000E+00+
*       3.0451454572E+02               0
GRID*               2338               07.6480546887E+010.0000000000E+00+
*       2.9753429095E+02               0
GRID*               2339               09.1627416512E+010.0000000000E+00+
*       3.9028179127E+02               0
GRID*               2340               08.9981767391E+010.0000000000E+00+
*       3.8326553008E+02               0
GRID*               2341               08.8336118270E+010.0000000000E+00+
*       3.7624926888E+02               0
GRID*               2342               08.6690469148E+010.0000000000E+00+
*       3.6923300769E+02               0
GRID*               2343               08.5044820027E+010.0000000000E+00+
*       3.6221674650E+02               0
GRID*               2344               08.3399170906E+010.0000000000E+00+
*       3.5520048530E+02               0
GRID*               2345               08.1753521784E+010.0000000000E+00+
*       3.4818422411E+02               0
GRID*               2346               08.0107872663E+010.0000000000E+00+
*       3.4116796292E+02               0
GRID*               2347               07.8462223542E+010.0000000000E+00+
*       3.3415170172E+02               0
GRID*               2348               07.6816574420E+010.0000000000E+00+
*       3.2713544053E+02               0
GRID*               2349               07.5170925299E+010.0000000000E+00+
*       3.2011917934E+02               0
GRID*               2350               07.3525276178E+010.0000000000E+00+
*       3.1310291815E+02               0
GRID*               2351               07.1879627057E+010.0000000000E+00+
*       3.0608665695E+02               0
GRID*               2352               07.0233977935E+010.0000000000E+00+
*       2.9907039576E+02               0
GRID*               2353               08.3435178209E+010.0000000000E+00+
*       3.9211480738E+02               0
GRID*               2354               08.1936827554E+010.0000000000E+00+
*       3.8506562177E+02               0
GRID*               2355               08.0438476899E+010.0000000000E+00+
*       3.7801643616E+02               0
GRID*               2356               07.8940126245E+010.0000000000E+00+
*       3.7096725056E+02               0
GRID*               2357               07.7441775590E+010.0000000000E+00+
*       3.6391806495E+02               0
GRID*               2358               07.5943424936E+010.0000000000E+00+
*       3.5686887934E+02               0
GRID*               2359               07.4445074281E+010.0000000000E+00+
*       3.4981969373E+02               0
GRID*               2360               07.2946723627E+010.0000000000E+00+
*       3.4277050812E+02               0
GRID*               2361               07.1448372972E+010.0000000000E+00+
*       3.3572132251E+02               0
GRID*               2362               06.9950022317E+010.0000000000E+00+
*       3.2867213690E+02               0
GRID*               2363               06.8451671663E+010.0000000000E+00+
*       3.2162295129E+02               0
GRID*               2364               06.6953321008E+010.0000000000E+00+
*       3.1457376568E+02               0
GRID*               2365               06.5454970354E+010.0000000000E+00+
*       3.0752458007E+02               0
GRID*               2366               06.3956619699E+010.0000000000E+00+
*       3.0047539447E+02               0
GRID*               2367               07.5206352029E+010.0000000000E+00+
*       3.9377587331E+02               0
GRID*               2368               07.3855957690E+010.0000000000E+00+
*       3.8669685821E+02               0
GRID*               2369               07.2505563351E+010.0000000000E+00+
*       3.7961784311E+02               0
GRID*               2370               07.1155169012E+010.0000000000E+00+
*       3.7253882800E+02               0
GRID*               2371               06.9804774673E+010.0000000000E+00+
*       3.6545981290E+02               0
GRID*               2372               06.8454380334E+010.0000000000E+00+
*       3.5838079780E+02               0
GRID*               2373               06.7103985995E+010.0000000000E+00+
*       3.5130178270E+02               0
GRID*               2374               06.5753591656E+010.0000000000E+00+
*       3.4422276760E+02               0
GRID*               2375               06.4403197317E+010.0000000000E+00+
*       3.3714375250E+02               0
GRID*               2376               06.3052802978E+010.0000000000E+00+
*       3.3006473739E+02               0
GRID*               2377               06.1702408639E+010.0000000000E+00+
*       3.2298572229E+02               0
GRID*               2378               06.0352014300E+010.0000000000E+00+
*       3.1590670719E+02               0
GRID*               2379               05.9001619961E+010.0000000000E+00+
*       3.0882769209E+02               0
GRID*               2380               05.7651225622E+010.0000000000E+00+
*       3.0174867699E+02               0
GRID*               2381               06.6944554125E+010.0000000000E+00+
*       3.9526430164E+02               0
GRID*               2382               06.5742707724E+010.0000000000E+00+
*       3.8815855852E+02               0
GRID*               2383               06.4540861323E+010.0000000000E+00+
*       3.8105281539E+02               0
GRID*               2384               06.3339014922E+010.0000000000E+00+
*       3.7394707227E+02               0
GRID*               2385               06.2137168520E+010.0000000000E+00+
*       3.6684132914E+02               0
GRID*               2386               06.0935322119E+010.0000000000E+00+
*       3.5973558602E+02               0
GRID*               2387               05.9733475718E+010.0000000000E+00+
*       3.5262984289E+02               0
GRID*               2388               05.8531629317E+010.0000000000E+00+
*       3.4552409977E+02               0
GRID*               2389               05.7329782916E+010.0000000000E+00+
*       3.3841835664E+02               0
GRID*               2390               05.6127936514E+010.0000000000E+00+
*       3.3131261352E+02               0
GRID*               2391               05.4926090113E+010.0000000000E+00+
*       3.2420687039E+02               0
GRID*               2392               05.3724243712E+010.0000000000E+00+
*       3.1710112727E+02               0
GRID*               2393               05.2522397311E+010.0000000000E+00+
*       3.0999538414E+02               0
GRID*               2394               05.1320550910E+010.0000000000E+00+
*       3.0288964102E+02               0
GRID*               2395               05.8653402034E+010.0000000000E+00+
*       3.9657941202E+02               0
GRID*               2396               05.7600630235E+010.0000000000E+00+
*       3.8945005461E+02               0
GRID*               2397               05.6547858435E+010.0000000000E+00+
*       3.8232069720E+02               0
GRID*               2398               05.5495086635E+010.0000000000E+00+
*       3.7519133980E+02               0
GRID*               2399               05.4442314835E+010.0000000000E+00+
*       3.6806198239E+02               0
GRID*               2400               05.3389543036E+010.0000000000E+00+
*       3.6093262498E+02               0
GRID*               2401               05.2336771236E+010.0000000000E+00+
*       3.5380326757E+02               0
GRID*               2402               05.1283999436E+010.0000000000E+00+
*       3.4667391016E+02               0
GRID*               2403               05.0231227637E+010.0000000000E+00+
*       3.3954455275E+02               0
GRID*               2404               04.9178455837E+010.0000000000E+00+
*       3.3241519535E+02               0
GRID*               2405               04.8125684037E+010.0000000000E+00+
*       3.2528583794E+02               0
GRID*               2406               04.7072912237E+010.0000000000E+00+
*       3.1815648053E+02               0
GRID*               2407               04.6020140438E+010.0000000000E+00+
*       3.1102712312E+02               0
GRID*               2408               04.4967368638E+010.0000000000E+00+
*       3.0389776571E+02               0
GRID*               2409               05.0336526349E+010.0000000000E+00+
*       3.9772059499E+02               0
GRID*               2410               04.9433291448E+010.0000000000E+00+
*       3.9057075401E+02               0
GRID*               2411               04.8530056547E+010.0000000000E+00+
*       3.8342091303E+02               0
GRID*               2412               04.7626821645E+010.0000000000E+00+
*       3.7627107205E+02               0
GRID*               2413               04.6723586744E+010.0000000000E+00+
*       3.6912123107E+02               0
GRID*               2414               04.5820351842E+010.0000000000E+00+
*       3.6197139009E+02               0
GRID*               2415               04.4917116941E+010.0000000000E+00+
*       3.5482154911E+02               0
GRID*               2416               04.4013882040E+010.0000000000E+00+
*       3.4767170813E+02               0
GRID*               2417               04.3110647138E+010.0000000000E+00+
*       3.4052186715E+02               0
GRID*               2418               04.2207412237E+010.0000000000E+00+
*       3.3337202617E+02               0
GRID*               2419               04.1304177335E+010.0000000000E+00+
*       3.2622218519E+02               0
GRID*               2420               04.0400942434E+010.0000000000E+00+
*       3.1907234421E+02               0
GRID*               2421               03.9497707533E+010.0000000000E+00+
*       3.1192250323E+02               0
GRID*               2422               03.8594472631E+010.0000000000E+00+
*       3.0477266225E+02               0
GRID*               2423               04.1997581133E+010.0000000000E+00+
*       3.9868740295E+02               0
GRID*               2424               04.1244279446E+010.0000000000E+00+
*       3.9152021538E+02               0
GRID*               2425               04.0490977758E+010.0000000000E+00+
*       3.8435302780E+02               0
GRID*               2426               03.9737676071E+010.0000000000E+00+
*       3.7718584022E+02               0
GRID*               2427               03.8984374383E+010.0000000000E+00+
*       3.7001865265E+02               0
GRID*               2428               03.8231072695E+010.0000000000E+00+
*       3.6285146507E+02               0
GRID*               2429               03.7477771008E+010.0000000000E+00+
*       3.5568427750E+02               0
GRID*               2430               03.6724469320E+010.0000000000E+00+
*       3.4851708992E+02               0
GRID*               2431               03.5971167632E+010.0000000000E+00+
*       3.4134990234E+02               0
GRID*               2432               03.5217865945E+010.0000000000E+00+
*       3.3418271477E+02               0
GRID*               2433               03.4464564257E+010.0000000000E+00+
*       3.2701552719E+02               0
GRID*               2434               03.3711262569E+010.0000000000E+00+
*       3.1984833962E+02               0
GRID*               2435               03.2957960882E+010.0000000000E+00+
*       3.1268115204E+02               0
GRID*               2436               03.2204659194E+010.0000000000E+00+
*       3.0551396446E+02               0
GRID*               2437               03.3640223058E+010.0000000000E+00+
*       3.9947941377E+02               0
GRID*               2438               03.3037184817E+010.0000000000E+00+
*       3.9229802055E+02               0
GRID*               2439               03.2434146576E+010.0000000000E+00+
*       3.8511662733E+02               0
GRID*               2440               03.1831108335E+010.0000000000E+00+
*       3.7793523411E+02               0
GRID*               2441               03.1228070094E+010.0000000000E+00+
*       3.7075384089E+02               0
GRID*               2442               03.0625031853E+010.0000000000E+00+
*       3.6357244767E+02               0
GRID*               2443               03.0021993612E+010.0000000000E+00+
*       3.5639105445E+02               0
GRID*               2444               02.9418955372E+010.0000000000E+00+
*       3.4920966123E+02               0
GRID*               2445               02.8815917131E+010.0000000000E+00+
*       3.4202826801E+02               0
GRID*               2446               02.8212878890E+010.0000000000E+00+
*       3.3484687478E+02               0
GRID*               2447               02.7609840649E+010.0000000000E+00+
*       3.2766548156E+02               0
GRID*               2448               02.7006802408E+010.0000000000E+00+
*       3.2048408834E+02               0
GRID*               2449               02.6403764167E+010.0000000000E+00+
*       3.1330269512E+02               0
GRID*               2450               02.5800725926E+010.0000000000E+00+
*       3.0612130190E+02               0
GRID*               2451               02.5268112371E+010.0000000000E+00+
*       4.0009614015E+02               0
GRID*               2452               02.4815601978E+010.0000000000E+00+
*       3.9290367973E+02               0
GRID*               2453               02.4363091585E+010.0000000000E+00+
*       3.8571121931E+02               0
GRID*               2454               02.3910581192E+010.0000000000E+00+
*       3.7851875888E+02               0
GRID*               2455               02.3458070799E+010.0000000000E+00+
*       3.7132629846E+02               0
GRID*               2456               02.3005560406E+010.0000000000E+00+
*       3.6413383804E+02               0
GRID*               2457               02.2553050012E+010.0000000000E+00+
*       3.5694137761E+02               0
GRID*               2458               02.2100539619E+010.0000000000E+00+
*       3.4974891719E+02               0
GRID*               2459               02.1648029226E+010.0000000000E+00+
*       3.4255645677E+02               0
GRID*               2460               02.1195518833E+010.0000000000E+00+
*       3.3536399634E+02               0
GRID*               2461               02.0743008440E+010.0000000000E+00+
*       3.2817153592E+02               0
GRID*               2462               02.0290498047E+010.0000000000E+00+
*       3.2097907550E+02               0
GRID*               2463               01.9837987654E+010.0000000000E+00+
*       3.1378661507E+02               0
GRID*               2464               01.9385477261E+010.0000000000E+00+
*       3.0659415465E+02               0
GRID*               2465               01.6884917280E+010.0000000000E+00+
*       4.0053720648E+02               0
GRID*               2466               01.6583133253E+010.0000000000E+00+
*       3.9333684466E+02               0
GRID*               2467               01.6281349226E+010.0000000000E+00+
*       3.8613648284E+02               0
GRID*               2468               01.5979565199E+010.0000000000E+00+
*       3.7893612101E+02               0
GRID*               2469               01.5677781172E+010.0000000000E+00+
*       3.7173575919E+02               0
GRID*               2470               01.5375997145E+010.0000000000E+00+
*       3.6453539737E+02               0
GRID*               2471               01.5074213118E+010.0000000000E+00+
*       3.5733503555E+02               0
GRID*               2472               01.4772429091E+010.0000000000E+00+
*       3.5013467373E+02               0
GRID*               2473               01.4470645064E+010.0000000000E+00+
*       3.4293431190E+02               0
GRID*               2474               01.4168861037E+010.0000000000E+00+
*       3.3573395008E+02               0
GRID*               2475               01.3867077010E+010.0000000000E+00+
*       3.2853358826E+02               0
GRID*               2476               01.3565292983E+010.0000000000E+00+
*       3.2133322644E+02               0
GRID*               2477               01.3263508956E+010.0000000000E+00+
*       3.1413286462E+02               0
GRID*               2478               01.2961724929E+010.0000000000E+00+
*       3.0693250279E+02               0
GRID*               2479               08.4943186011E+000.0000000000E+00+
*       4.0080283747E+02               0
GRID*               2480               08.3433934442E+000.0000000000E+00+
*       3.9359774100E+02               0
GRID*               2481               08.1924682874E+000.0000000000E+00+
*       3.8639264452E+02               0
GRID*               2482               08.0415431305E+000.0000000000E+00+
*       3.7918754804E+02               0
GRID*               2483               07.8906179736E+000.0000000000E+00+
*       3.7198245156E+02               0
GRID*               2484               07.7396928167E+000.0000000000E+00+
*       3.6477735508E+02               0
GRID*               2485               07.5887676599E+000.0000000000E+00+
*       3.5757225860E+02               0
GRID*               2486               07.4378425030E+000.0000000000E+00+
*       3.5036716212E+02               0
GRID*               2487               07.2869173461E+000.0000000000E+00+
*       3.4316206564E+02               0
GRID*               2488               07.1359921892E+000.0000000000E+00+
*       3.3595696916E+02               0
GRID*               2489               06.9850670323E+000.0000000000E+00+
*       3.2875187269E+02               0
GRID*               2490               06.8341418755E+000.0000000000E+00+
*       3.2154677621E+02               0
GRID*               2491               06.6832167186E+000.0000000000E+00+
*       3.1434167973E+02               0
GRID*               2492               06.5322915617E+000.0000000000E+00+
*       3.0713658325E+02               0
GRID*               2493               04.0089333903E+020.0000000000E+00+
*       -1.058660553E+03               0
GRID*               2494               04.0089333903E+020.0000000000E+00+
*       -1.067321105E+03               0
GRID*               2495               04.0088969034E+020.0000000000E+00+
*       -1.075854176E+03               0
GRID*               2496               04.0087886766E+020.0000000000E+00+
*       -1.084387115E+03               0
GRID*               2497               04.0086085957E+020.0000000000E+00+
*       -1.092919790E+03               0
GRID*               2498               04.0083565464E+020.0000000000E+00+
*       -1.101452071E+03               0
GRID*               2499               04.0080324218E+020.0000000000E+00+
*       -1.109983825E+03               0
GRID*               2500               04.0076363768E+020.0000000000E+00+
*       -1.118514921E+03               0
GRID*               2501               04.0071686440E+020.0000000000E+00+
*       -1.127045228E+03               0
GRID*               2502               04.0066293954E+020.0000000000E+00+
*       -1.135574616E+03               0
GRID*               2503               04.0060188029E+020.0000000000E+00+
*       -1.144102953E+03               0
GRID*               2504               04.0053370402E+020.0000000000E+00+
*       -1.152630111E+03               0
GRID*               2505               04.0045843317E+020.0000000000E+00+
*       -1.161155957E+03               0
GRID*               2506               04.0037609590E+020.0000000000E+00+
*       -1.169680365E+03               0
GRID*               2507               04.0028672071E+020.0000000000E+00+
*       -1.178203205E+03               0
GRID*               2508               04.0019033606E+020.0000000000E+00+
*       -1.186724349E+03               0
GRID*               2509               04.0008697099E+020.0000000000E+00+
*       -1.195243667E+03               0
GRID*               2510               03.9997666098E+020.0000000000E+00+
*       -1.203761034E+03               0
GRID*               2511               03.9985944564E+020.0000000000E+00+
*       -1.212276323E+03               0
GRID*               2512               03.9961639804E+020.0000000000E+00+
*       -1.220786188E+03               0
GRID*               2513               03.9913090437E+020.0000000000E+00+
*       -1.229286849E+03               0
GRID*               2514               03.9840240869E+020.0000000000E+00+
*       -1.237771290E+03               0
GRID*               2515               03.9743105984E+020.0000000000E+00+
*       -1.246232526E+03               0
GRID*               2516               03.9621800626E+020.0000000000E+00+
*       -1.254663594E+03               0
GRID*               2517               03.9476419468E+020.0000000000E+00+
*       -1.263057548E+03               0
GRID*               2518               03.9307067347E+020.0000000000E+00+
*       -1.271407455E+03               0
GRID*               2519               03.9113888743E+020.0000000000E+00+
*       -1.279706450E+03               0
GRID*               2520               03.8897038339E+020.0000000000E+00+
*       -1.287947696E+03               0
GRID*               2521               03.8656680767E+020.0000000000E+00+
*       -1.296124376E+03               0
GRID*               2522               03.8393019797E+020.0000000000E+00+
*       -1.304229778E+03               0
GRID*               2523               03.8106268946E+020.0000000000E+00+
*       -1.312257223E+03               0
GRID*               2524               03.7796651444E+020.0000000000E+00+
*       -1.320200060E+03               0
GRID*               2525               03.7464428286E+020.0000000000E+00+
*       -1.328051779E+03               0
GRID*               2526               03.7109869771E+020.0000000000E+00+
*       -1.335805910E+03               0
GRID*               2527               03.6733255639E+020.0000000000E+00+
*       -1.343456020E+03               0
GRID*               2528               03.6334902018E+020.0000000000E+00+
*       -1.350995845E+03               0
GRID*               2529               03.5915134254E+020.0000000000E+00+
*       -1.358419172E+03               0
GRID*               2530               03.5474287110E+020.0000000000E+00+
*       -1.365719836E+03               0
GRID*               2531               03.5012730021E+020.0000000000E+00+
*       -1.372891873E+03               0
GRID*               2532               03.4530840740E+020.0000000000E+00+
*       -1.379929372E+03               0
GRID*               2533               03.4029005173E+020.0000000000E+00+
*       -1.386826472E+03               0
GRID*               2534               03.3507642654E+020.0000000000E+00+
*       -1.393577548E+03               0
GRID*               2535               03.2967182309E+020.0000000000E+00+
*       -1.400177051E+03               0
GRID*               2536               03.2408040257E+020.0000000000E+00+
*       -1.406619284E+03               0
GRID*               2537               03.1830704936E+020.0000000000E+00+
*       -1.412899237E+03               0
GRID*               2538               03.1235841268E+020.0000000000E+00+
*       -1.419016088E+03               0
GRID*               2539               03.0627302314E+020.0000000000E+00+
*       -1.425101497E+03               0
GRID*               2540               03.0018763360E+020.0000000000E+00+
*       -1.431186905E+03               0
GRID*               2541               02.9410224406E+020.0000000000E+00+
*       -1.437272313E+03               0
GRID*               2542               02.8821016217E+020.0000000000E+00+
*       -1.443018256E+03               0
GRID*               2543               02.8217724151E+020.0000000000E+00+
*       -1.448615749E+03               0
GRID*               2544               02.7600697270E+020.0000000000E+00+
*       -1.454060658E+03               0
GRID*               2545               02.6970304270E+020.0000000000E+00+
*       -1.459349059E+03               0
GRID*               2546               02.6326983138E+020.0000000000E+00+
*       -1.464477754E+03               0
GRID*               2547               02.5671161710E+020.0000000000E+00+
*       -1.469443460E+03               0
GRID*               2548               02.5003266903E+020.0000000000E+00+
*       -1.474242888E+03               0
GRID*               2549               02.4323739042E+020.0000000000E+00+
*       -1.478872931E+03               0
GRID*               2550               02.3633030606E+020.0000000000E+00+
*       -1.483330661E+03               0
GRID*               2551               02.2931594579E+020.0000000000E+00+
*       -1.487613160E+03               0
GRID*               2552               02.2219891676E+020.0000000000E+00+
*       -1.491717631E+03               0
GRID*               2553               02.1498396839E+020.0000000000E+00+
*       -1.495641526E+03               0
GRID*               2554               02.0767586541E+020.0000000000E+00+
*       -1.499382329E+03               0
GRID*               2555               02.0027940703E+020.0000000000E+00+
*       -1.502937588E+03               0
GRID*               2556               01.9279952160E+020.0000000000E+00+
*       -1.506305122E+03               0
GRID*               2557               01.8524116775E+020.0000000000E+00+
*       -1.509482824E+03               0
GRID*               2558               01.7760931776E+020.0000000000E+00+
*       -1.512468615E+03               0
GRID*               2559               01.6990904610E+020.0000000000E+00+
*       -1.515260680E+03               0
GRID*               2560               01.6214036532E+020.0000000000E+00+
*       -1.517851937E+03               0
GRID*               2561               01.5430354690E+020.0000000000E+00+
*       -1.520235387E+03               0
GRID*               2562               01.4640412455E+020.0000000000E+00+
*       -1.522409142E+03               0
GRID*               2563               01.3844773386E+020.0000000000E+00+
*       -1.524371577E+03               0
GRID*               2564               01.3044008180E+020.0000000000E+00+
*       -1.526121152E+03               0
GRID*               2565               01.2238689211E+020.0000000000E+00+
*       -1.527656455E+03               0
GRID*               2566               01.1429394444E+020.0000000000E+00+
*       -1.528976363E+03               0
GRID*               2567               01.0616704409E+020.0000000000E+00+
*       -1.530079820E+03               0
GRID*               2568               09.8012012888E+010.0000000000E+00+
*       -1.530965848E+03               0
GRID*               2569               08.9834708804E+010.0000000000E+00+
*       -1.531633789E+03               0
GRID*               2570               08.1641011911E+010.0000000000E+00+
*       -1.532083100E+03               0
GRID*               2571               07.3436808680E+010.0000000000E+00+
*       -1.532313284E+03               0
GRID*               2572               06.5227997656E+010.0000000000E+00+
*       -1.532324123E+03               0
GRID*               2573               05.7020489005E+010.0000000000E+00+
*       -1.532115569E+03               0
GRID*               2574               04.8820195912E+010.0000000000E+00+
*       -1.531687593E+03               0
GRID*               2575               04.0633025201E+010.0000000000E+00+
*       -1.531040414E+03               0
GRID*               2576               03.2464871285E+010.0000000000E+00+
*       -1.530174522E+03               0
GRID*               2577               02.4321635130E+010.0000000000E+00+
*       -1.529090407E+03               0
GRID*               2578               01.6209262953E+010.0000000000E+00+
*       -1.527788404E+03               0
GRID*               2579               08.1334903079E+000.0000000000E+00+
*       -1.526269926E+03               0
GRID*               2580               03.9368667196E+020.0000000000E+00+
*       -1.058601604E+03               0
GRID*               2581               03.9368667196E+020.0000000000E+00+
*       -1.067203207E+03               0
GRID*               2582               03.9367937458E+020.0000000000E+00+
*       -1.075549846E+03               0
GRID*               2583               03.9365772922E+020.0000000000E+00+
*       -1.083896222E+03               0
GRID*               2584               03.9362171304E+020.0000000000E+00+
*       -1.092242072E+03               0
GRID*               2585               03.9357130318E+020.0000000000E+00+
*       -1.100587132E+03               0
GRID*               2586               03.9350647825E+020.0000000000E+00+
*       -1.108931137E+03               0
GRID*               2587               03.9342726926E+020.0000000000E+00+
*       -1.117273828E+03               0
GRID*               2588               03.9333372270E+020.0000000000E+00+
*       -1.125614940E+03               0
GRID*               2589               03.9322587298E+020.0000000000E+00+
*       -1.133954214E+03               0
GRID*               2590               03.9310375448E+020.0000000000E+00+
*       -1.142291388E+03               0
GRID*               2591               03.9296740193E+020.0000000000E+00+
*       -1.150626201E+03               0
GRID*               2592               03.9281686023E+020.0000000000E+00+
*       -1.158958393E+03               0
GRID*               2593               03.9265218570E+020.0000000000E+00+
*       -1.167287707E+03               0
GRID*               2594               03.9247343531E+020.0000000000E+00+
*       -1.175613885E+03               0
GRID*               2595               03.9228066601E+020.0000000000E+00+
*       -1.183936670E+03               0
GRID*               2596               03.9207393587E+020.0000000000E+00+
*       -1.192255805E+03               0
GRID*               2597               03.9185331586E+020.0000000000E+00+
*       -1.200571037E+03               0
GRID*               2598               03.9161888518E+020.0000000000E+00+
*       -1.208882114E+03               0
GRID*               2599               03.9126025418E+020.0000000000E+00+
*       -1.217185793E+03               0
GRID*               2600               03.9066918111E+020.0000000000E+00+
*       -1.225478431E+03               0
GRID*               2601               03.8984519364E+020.0000000000E+00+
*       -1.233753379E+03               0
GRID*               2602               03.8878848138E+020.0000000000E+00+
*       -1.242004018E+03               0
GRID*               2603               03.8750016466E+020.0000000000E+00+
*       -1.250223753E+03               0
GRID*               2604               03.8598117648E+020.0000000000E+00+
*       -1.258406003E+03               0
GRID*               2605               03.8423254428E+020.0000000000E+00+
*       -1.266544199E+03               0
GRID*               2606               03.8225566624E+020.0000000000E+00+
*       -1.274631840E+03               0
GRID*               2607               03.8005204271E+020.0000000000E+00+
*       -1.282662449E+03               0
GRID*               2608               03.7762326760E+020.0000000000E+00+
*       -1.290629571E+03               0
GRID*               2609               03.7497129827E+020.0000000000E+00+
*       -1.298526849E+03               0
GRID*               2610               03.7209818265E+020.0000000000E+00+
*       -1.306347955E+03               0
GRID*               2611               03.6900606277E+020.0000000000E+00+
*       -1.314086591E+03               0
GRID*               2612               03.6569743757E+020.0000000000E+00+
*       -1.321736593E+03               0
GRID*               2613               03.6217489287E+020.0000000000E+00+
*       -1.329291833E+03               0
GRID*               2614               03.5844110219E+020.0000000000E+00+
*       -1.336746218E+03               0
GRID*               2615               03.5449907721E+020.0000000000E+00+
*       -1.344093814E+03               0
GRID*               2616               03.5035192040E+020.0000000000E+00+
*       -1.351328735E+03               0
GRID*               2617               03.4600282599E+020.0000000000E+00+
*       -1.358445146E+03               0
GRID*               2618               03.4145531032E+020.0000000000E+00+
*       -1.365437396E+03               0
GRID*               2619               03.3671296702E+020.0000000000E+00+
*       -1.372299884E+03               0
GRID*               2620               03.3177946106E+020.0000000000E+00+
*       -1.379027052E+03               0
GRID*               2621               03.2665877379E+020.0000000000E+00+
*       -1.385613563E+03               0
GRID*               2622               03.2135499785E+020.0000000000E+00+
*       -1.392054177E+03               0
GRID*               2623               03.1587210577E+020.0000000000E+00+
*       -1.398343509E+03               0
GRID*               2624               03.1021474155E+020.0000000000E+00+
*       -1.404476817E+03               0
GRID*               2625               03.0439053141E+020.0000000000E+00+
*       -1.410457226E+03               0
GRID*               2626               02.9843933648E+020.0000000000E+00+
*       -1.416408438E+03               0
GRID*               2627               02.9248814155E+020.0000000000E+00+
*       -1.422359649E+03               0
GRID*               2628               02.8653694661E+020.0000000000E+00+
*       -1.428310861E+03               0
GRID*               2629               02.8076525164E+020.0000000000E+00+
*       -1.433946855E+03               0
GRID*               2630               02.7486277781E+020.0000000000E+00+
*       -1.439445004E+03               0
GRID*               2631               02.6883276642E+020.0000000000E+00+
*       -1.444801466E+03               0
GRID*               2632               02.6267864106E+020.0000000000E+00+
*       -1.450012600E+03               0
GRID*               2633               02.5640446876E+020.0000000000E+00+
*       -1.455075435E+03               0
GRID*               2634               02.5001422228E+020.0000000000E+00+
*       -1.459986923E+03               0
GRID*               2635               02.4351186585E+020.0000000000E+00+
*       -1.464744011E+03               0
GRID*               2636               02.3690148821E+020.0000000000E+00+
*       -1.469343812E+03               0
GRID*               2637               02.3018729095E+020.0000000000E+00+
*       -1.473783609E+03               0
GRID*               2638               02.2337348034E+020.0000000000E+00+
*       -1.478060690E+03               0
GRID*               2639               02.1646433445E+020.0000000000E+00+
*       -1.482172460E+03               0
GRID*               2640               02.0946426346E+020.0000000000E+00+
*       -1.486116553E+03               0
GRID*               2641               02.0237769176E+020.0000000000E+00+
*       -1.489890631E+03               0
GRID*               2642               01.9520907576E+020.0000000000E+00+
*       -1.493492419E+03               0
GRID*               2643               01.8796299179E+020.0000000000E+00+
*       -1.496919891E+03               0
GRID*               2644               01.8064404429E+020.0000000000E+00+
*       -1.500171089E+03               0
GRID*               2645               01.7325685036E+020.0000000000E+00+
*       -1.503244085E+03               0
GRID*               2646               01.6580612203E+020.0000000000E+00+
*       -1.506137193E+03               0
GRID*               2647               01.5828639868E+020.0000000000E+00+
*       -1.508838048E+03               0
GRID*               2648               01.5069273355E+020.0000000000E+00+
*       -1.511334440E+03               0
GRID*               2649               01.4303063486E+020.0000000000E+00+
*       -1.513624154E+03               0
GRID*               2650               01.3530575646E+020.0000000000E+00+
*       -1.515705276E+03               0
GRID*               2651               01.2752389289E+020.0000000000E+00+
*       -1.517576051E+03               0
GRID*               2652               01.1969083721E+020.0000000000E+00+
*       -1.519234827E+03               0
GRID*               2653               01.1181244081E+020.0000000000E+00+
*       -1.520680228E+03               0
GRID*               2654               01.0389460226E+020.0000000000E+00+
*       -1.521910981E+03               0
GRID*               2655               09.5943240782E+010.0000000000E+00+
*       -1.522925895E+03               0
GRID*               2656               08.7964314354E+010.0000000000E+00+
*       -1.523724080E+03               0
GRID*               2657               07.9963820518E+010.0000000000E+00+
*       -1.524304799E+03               0
GRID*               2658               07.1947767063E+010.0000000000E+00+
*       -1.524667363E+03               0
GRID*               2659               06.3922177195E+010.0000000000E+00+
*       -1.524811356E+03               0
GRID*               2660               05.5893099129E+010.0000000000E+00+
*       -1.524736557E+03               0
GRID*               2661               04.7866586753E+010.0000000000E+00+
*       -1.524442775E+03               0
GRID*               2662               03.9848691358E+010.0000000000E+00+
*       -1.523930057E+03               0
GRID*               2663               03.1845462840E+010.0000000000E+00+
*       -1.523198749E+03               0
GRID*               2664               02.3862958927E+010.0000000000E+00+
*       -1.522249206E+03               0
GRID*               2665               01.5907281371E+010.0000000000E+00+
*       -1.521081618E+03               0
GRID*               2666               07.9843400955E+000.0000000000E+00+
*       -1.519697280E+03               0
GRID*               2667               03.8648000488E+020.0000000000E+00+
*       -1.058542655E+03               0
GRID*               2668               03.8648000488E+020.0000000000E+00+
*       -1.067085309E+03               0
GRID*               2669               03.8646905881E+020.0000000000E+00+
*       -1.075245517E+03               0
GRID*               2670               03.8643659078E+020.0000000000E+00+
*       -1.083405330E+03               0
GRID*               2671               03.8638256650E+020.0000000000E+00+
*       -1.091564354E+03               0
GRID*               2672               03.8630695172E+020.0000000000E+00+
*       -1.099722192E+03               0
GRID*               2673               03.8620971433E+020.0000000000E+00+
*       -1.107878450E+03               0
GRID*               2674               03.8609090083E+020.0000000000E+00+
*       -1.116032735E+03               0
GRID*               2675               03.8595058101E+020.0000000000E+00+
*       -1.124184653E+03               0
GRID*               2676               03.8578880642E+020.0000000000E+00+
*       -1.132333813E+03               0
GRID*               2677               03.8560562867E+020.0000000000E+00+
*       -1.140479823E+03               0
GRID*               2678               03.8540109985E+020.0000000000E+00+
*       -1.148622291E+03               0
GRID*               2679               03.8517528729E+020.0000000000E+00+
*       -1.156760828E+03               0
GRID*               2680               03.8492827550E+020.0000000000E+00+
*       -1.164895048E+03               0
GRID*               2681               03.8466014992E+020.0000000000E+00+
*       -1.173024564E+03               0
GRID*               2682               03.8437099596E+020.0000000000E+00+
*       -1.181148991E+03               0
GRID*               2683               03.8406090076E+020.0000000000E+00+
*       -1.189267944E+03               0
GRID*               2684               03.8372997074E+020.0000000000E+00+
*       -1.197381041E+03               0
GRID*               2685               03.8337832472E+020.0000000000E+00+
*       -1.205487905E+03               0
GRID*               2686               03.8290411032E+020.0000000000E+00+
*       -1.213585399E+03               0
GRID*               2687               03.8220745785E+020.0000000000E+00+
*       -1.221670013E+03               0
GRID*               2688               03.8128797858E+020.0000000000E+00+
*       -1.229735467E+03               0
GRID*               2689               03.8014590292E+020.0000000000E+00+
*       -1.237775509E+03               0
GRID*               2690               03.7878232305E+020.0000000000E+00+
*       -1.245783911E+03               0
GRID*               2691               03.7719815829E+020.0000000000E+00+
*       -1.253754457E+03               0
GRID*               2692               03.7539441508E+020.0000000000E+00+
*       -1.261680944E+03               0
GRID*               2693               03.7337244505E+020.0000000000E+00+
*       -1.269557230E+03               0
GRID*               2694               03.7113370203E+020.0000000000E+00+
*       -1.277377202E+03               0
GRID*               2695               03.6867972753E+020.0000000000E+00+
*       -1.285134766E+03               0
GRID*               2696               03.6601239858E+020.0000000000E+00+
*       -1.292823920E+03               0
GRID*               2697               03.6313367583E+020.0000000000E+00+
*       -1.300438688E+03               0
GRID*               2698               03.6004561111E+020.0000000000E+00+
*       -1.307973123E+03               0
GRID*               2699               03.5675059227E+020.0000000000E+00+
*       -1.315421407E+03               0
GRID*               2700               03.5325108803E+020.0000000000E+00+
*       -1.322777755E+03               0
GRID*               2701               03.4954964798E+020.0000000000E+00+
*       -1.330036415E+03               0
GRID*               2702               03.4564913425E+020.0000000000E+00+
*       -1.337191782E+03               0
GRID*               2703               03.4155249825E+020.0000000000E+00+
*       -1.344238299E+03               0
GRID*               2704               03.3726278087E+020.0000000000E+00+
*       -1.351170456E+03               0
GRID*               2705               03.3278332044E+020.0000000000E+00+
*       -1.357982919E+03               0
GRID*               2706               03.2811752664E+020.0000000000E+00+
*       -1.364670397E+03               0
GRID*               2707               03.2326887039E+020.0000000000E+00+
*       -1.371227631E+03               0
GRID*               2708               03.1824112103E+020.0000000000E+00+
*       -1.377649579E+03               0
GRID*               2709               03.1303817262E+020.0000000000E+00+
*       -1.383931302E+03               0
GRID*               2710               03.0766380896E+020.0000000000E+00+
*       -1.390067733E+03               0
GRID*               2711               03.0212243374E+020.0000000000E+00+
*       -1.396054396E+03               0
GRID*               2712               02.9642265015E+020.0000000000E+00+
*       -1.401898363E+03               0
GRID*               2713               02.9060564982E+020.0000000000E+00+
*       -1.407715379E+03               0
GRID*               2714               02.8478864950E+020.0000000000E+00+
*       -1.413532394E+03               0
GRID*               2715               02.7897164917E+020.0000000000E+00+
*       -1.419349410E+03               0
GRID*               2716               02.7332034111E+020.0000000000E+00+
*       -1.424875455E+03               0
GRID*               2717               02.6754831412E+020.0000000000E+00+
*       -1.430274258E+03               0
GRID*               2718               02.6165856013E+020.0000000000E+00+
*       -1.435542274E+03               0
GRID*               2719               02.5565423941E+020.0000000000E+00+
*       -1.440676140E+03               0
GRID*               2720               02.4953910613E+020.0000000000E+00+
*       -1.445673116E+03               0
GRID*               2721               02.4331682746E+020.0000000000E+00+
*       -1.450530386E+03               0
GRID*               2722               02.3699106267E+020.0000000000E+00+
*       -1.455245133E+03               0
GRID*               2723               02.3056558601E+020.0000000000E+00+
*       -1.459814693E+03               0
GRID*               2724               02.2404427584E+020.0000000000E+00+
*       -1.464236556E+03               0
GRID*               2725               02.1743101488E+020.0000000000E+00+
*       -1.468508221E+03               0
GRID*               2726               02.1072975214E+020.0000000000E+00+
*       -1.472627290E+03               0
GRID*               2727               02.0394455853E+020.0000000000E+00+
*       -1.476591579E+03               0
GRID*               2728               01.9707951811E+020.0000000000E+00+
*       -1.480398934E+03               0
GRID*               2729               01.9013874449E+020.0000000000E+00+
*       -1.484047250E+03               0
GRID*               2730               01.8312646198E+020.0000000000E+00+
*       -1.487534659E+03               0
GRID*               2731               01.7604692082E+020.0000000000E+00+
*       -1.490859355E+03               0
GRID*               2732               01.6890438296E+020.0000000000E+00+
*       -1.494019556E+03               0
GRID*               2733               01.6170319797E+020.0000000000E+00+
*       -1.497013706E+03               0
GRID*               2734               01.5443243205E+020.0000000000E+00+
*       -1.499824159E+03               0
GRID*               2735               01.4708192020E+020.0000000000E+00+
*       -1.502433492E+03               0
GRID*               2736               01.3965714516E+020.0000000000E+00+
*       -1.504839165E+03               0
GRID*               2737               01.3216377906E+020.0000000000E+00+
*       -1.507038976E+03               0
GRID*               2738               01.2460770398E+020.0000000000E+00+
*       -1.509030950E+03               0
GRID*               2739               01.1699478232E+020.0000000000E+00+
*       -1.510813198E+03               0
GRID*               2740               01.0933093718E+020.0000000000E+00+
*       -1.512384093E+03               0
GRID*               2741               01.0162216044E+020.0000000000E+00+
*       -1.513742143E+03               0
GRID*               2742               09.3874468677E+010.0000000000E+00+
*       -1.514885941E+03               0
GRID*               2743               08.6093919904E+010.0000000000E+00+
*       -1.515814371E+03               0
GRID*               2744               07.8286629126E+010.0000000000E+00+
*       -1.516526498E+03               0
GRID*               2745               07.0458725446E+010.0000000000E+00+
*       -1.517021442E+03               0
GRID*               2746               06.2616356734E+010.0000000000E+00+
*       -1.517298589E+03               0
GRID*               2747               05.4765709252E+010.0000000000E+00+
*       -1.517357545E+03               0
GRID*               2748               04.6912977594E+010.0000000000E+00+
*       -1.517197956E+03               0
GRID*               2749               03.9064357514E+010.0000000000E+00+
*       -1.516819700E+03               0
GRID*               2750               03.1226054395E+010.0000000000E+00+
*       -1.516222976E+03               0
GRID*               2751               02.3404282724E+010.0000000000E+00+
*       -1.515408006E+03               0
GRID*               2752               01.5605299788E+010.0000000000E+00+
*       -1.514374831E+03               0
GRID*               2753               07.8351898831E+000.0000000000E+00+
*       -1.513124634E+03               0
GRID*               2754               03.7927333781E+020.0000000000E+00+
*       -1.058483706E+03               0
GRID*               2755               03.7927333781E+020.0000000000E+00+
*       -1.066967411E+03               0
GRID*               2756               03.7925874305E+020.0000000000E+00+
*       -1.074941187E+03               0
GRID*               2757               03.7921545233E+020.0000000000E+00+
*       -1.082914438E+03               0
GRID*               2758               03.7914341997E+020.0000000000E+00+
*       -1.090886636E+03               0
GRID*               2759               03.7904260026E+020.0000000000E+00+
*       -1.098857253E+03               0
GRID*               2760               03.7891295040E+020.0000000000E+00+
*       -1.106825763E+03               0
GRID*               2761               03.7875453241E+020.0000000000E+00+
*       -1.114791642E+03               0
GRID*               2762               03.7856743931E+020.0000000000E+00+
*       -1.122754365E+03               0
GRID*               2763               03.7835173986E+020.0000000000E+00+
*       -1.130713412E+03               0
GRID*               2764               03.7810750286E+020.0000000000E+00+
*       -1.138668258E+03               0
GRID*               2765               03.7783479776E+020.0000000000E+00+
*       -1.146618382E+03               0
GRID*               2766               03.7753371435E+020.0000000000E+00+
*       -1.154563264E+03               0
GRID*               2767               03.7720436530E+020.0000000000E+00+
*       -1.162502389E+03               0
GRID*               2768               03.7684686452E+020.0000000000E+00+
*       -1.170435244E+03               0
GRID*               2769               03.7646132592E+020.0000000000E+00+
*       -1.178361313E+03               0
GRID*               2770               03.7604786564E+020.0000000000E+00+
*       -1.186280082E+03               0
GRID*               2771               03.7560662563E+020.0000000000E+00+
*       -1.194191044E+03               0
GRID*               2772               03.7513776426E+020.0000000000E+00+
*       -1.202093696E+03               0
GRID*               2773               03.7454796645E+020.0000000000E+00+
*       -1.209985004E+03               0
GRID*               2774               03.7374573458E+020.0000000000E+00+
*       -1.217861596E+03               0
GRID*               2775               03.7273076353E+020.0000000000E+00+
*       -1.225717556E+03               0
GRID*               2776               03.7150332446E+020.0000000000E+00+
*       -1.233547001E+03               0
GRID*               2777               03.7006448145E+020.0000000000E+00+
*       -1.241344069E+03               0
GRID*               2778               03.6841514009E+020.0000000000E+00+
*       -1.249102911E+03               0
GRID*               2779               03.6655628588E+020.0000000000E+00+
*       -1.256817688E+03               0
GRID*               2780               03.6448922386E+020.0000000000E+00+
*       -1.264482619E+03               0
GRID*               2781               03.6221536135E+020.0000000000E+00+
*       -1.272091954E+03               0
GRID*               2782               03.5973618747E+020.0000000000E+00+
*       -1.279639961E+03               0
GRID*               2783               03.5705349888E+020.0000000000E+00+
*       -1.287120991E+03               0
GRID*               2784               03.5416916902E+020.0000000000E+00+
*       -1.294529420E+03               0
GRID*               2785               03.5108515944E+020.0000000000E+00+
*       -1.301859655E+03               0
GRID*               2786               03.4780374698E+020.0000000000E+00+
*       -1.309106221E+03               0
GRID*               2787               03.4432728319E+020.0000000000E+00+
*       -1.316263677E+03               0
GRID*               2788               03.4065819378E+020.0000000000E+00+
*       -1.323326613E+03               0
GRID*               2789               03.3679919128E+020.0000000000E+00+
*       -1.330289751E+03               0
GRID*               2790               03.3275307611E+020.0000000000E+00+
*       -1.337147862E+03               0
GRID*               2791               03.2852273575E+020.0000000000E+00+
*       -1.343895766E+03               0
GRID*               2792               03.2411133056E+020.0000000000E+00+
*       -1.350528442E+03               0
GRID*               2793               03.1952208625E+020.0000000000E+00+
*       -1.357040909E+03               0
GRID*               2794               03.1475827971E+020.0000000000E+00+
*       -1.363428211E+03               0
GRID*               2795               03.0982346828E+020.0000000000E+00+
*       -1.369685595E+03               0
GRID*               2796               03.0472134738E+020.0000000000E+00+
*       -1.375808427E+03               0
GRID*               2797               02.9945551215E+020.0000000000E+00+
*       -1.381791958E+03               0
GRID*               2798               02.9403012593E+020.0000000000E+00+
*       -1.387631976E+03               0
GRID*               2799               02.8845476888E+020.0000000000E+00+
*       -1.393339500E+03               0
GRID*               2800               02.8277196316E+020.0000000000E+00+
*       -1.399022320E+03               0
GRID*               2801               02.7708915744E+020.0000000000E+00+
*       -1.404705139E+03               0
GRID*               2802               02.7140635173E+020.0000000000E+00+
*       -1.410387958E+03               0
GRID*               2803               02.6587543059E+020.0000000000E+00+
*       -1.415804054E+03               0
GRID*               2804               02.6023385042E+020.0000000000E+00+
*       -1.421103512E+03               0
GRID*               2805               02.5448435385E+020.0000000000E+00+
*       -1.426283082E+03               0
GRID*               2806               02.4862983777E+020.0000000000E+00+
*       -1.431339681E+03               0
GRID*               2807               02.4267374351E+020.0000000000E+00+
*       -1.436270797E+03               0
GRID*               2808               02.3661943264E+020.0000000000E+00+
*       -1.441073850E+03               0
GRID*               2809               02.3047025950E+020.0000000000E+00+
*       -1.445746256E+03               0
GRID*               2810               02.2422968380E+020.0000000000E+00+
*       -1.450285574E+03               0
GRID*               2811               02.1790126073E+020.0000000000E+00+
*       -1.454689503E+03               0
GRID*               2812               02.1148854943E+020.0000000000E+00+
*       -1.458955751E+03               0
GRID*               2813               02.0499516983E+020.0000000000E+00+
*       -1.463082119E+03               0
GRID*               2814               01.9842485360E+020.0000000000E+00+
*       -1.467066606E+03               0
GRID*               2815               01.9178134446E+020.0000000000E+00+
*       -1.470907236E+03               0
GRID*               2816               01.8506841323E+020.0000000000E+00+
*       -1.474602081E+03               0
GRID*               2817               01.7828993217E+020.0000000000E+00+
*       -1.478149428E+03               0
GRID*               2818               01.7144979735E+020.0000000000E+00+
*       -1.481547620E+03               0
GRID*               2819               01.6455191556E+020.0000000000E+00+
*       -1.484795026E+03               0
GRID*               2820               01.5760027390E+020.0000000000E+00+
*       -1.487890219E+03               0
GRID*               2821               01.5057846541E+020.0000000000E+00+
*       -1.490810269E+03               0
GRID*               2822               01.4347110685E+020.0000000000E+00+
*       -1.493532544E+03               0
GRID*               2823               01.3628365546E+020.0000000000E+00+
*       -1.496054177E+03               0
GRID*               2824               01.2902180165E+020.0000000000E+00+
*       -1.498372675E+03               0
GRID*               2825               01.2169151507E+020.0000000000E+00+
*       -1.500485849E+03               0
GRID*               2826               01.1429872742E+020.0000000000E+00+
*       -1.502391569E+03               0
GRID*               2827               01.0684943356E+020.0000000000E+00+
*       -1.504087958E+03               0
GRID*               2828               09.9349718619E+010.0000000000E+00+
*       -1.505573305E+03               0
GRID*               2829               09.1805696571E+010.0000000000E+00+
*       -1.506845988E+03               0
GRID*               2830               08.4223525455E+010.0000000000E+00+
*       -1.507904663E+03               0
GRID*               2831               07.6609437734E+010.0000000000E+00+
*       -1.508748197E+03               0
GRID*               2832               06.8969683829E+010.0000000000E+00+
*       -1.509375522E+03               0
GRID*               2833               06.1310536273E+010.0000000000E+00+
*       -1.509785822E+03               0
GRID*               2834               05.3638319376E+010.0000000000E+00+
*       -1.509978533E+03               0
GRID*               2835               04.5959368435E+010.0000000000E+00+
*       -1.509953137E+03               0
GRID*               2836               03.8280023671E+010.0000000000E+00+
*       -1.509709343E+03               0
GRID*               2837               03.0606645950E+010.0000000000E+00+
*       -1.509247203E+03               0
GRID*               2838               02.2945606521E+010.0000000000E+00+
*       -1.508566805E+03               0
GRID*               2839               01.5303318205E+010.0000000000E+00+
*       -1.507668044E+03               0
GRID*               2840               07.6860396707E+000.0000000000E+00+
*       -1.506551988E+03               0
GRID*               2841               03.7206667074E+020.0000000000E+00+
*       -1.058424757E+03               0
GRID*               2842               03.7206667074E+020.0000000000E+00+
*       -1.066849513E+03               0
GRID*               2843               03.7204842729E+020.0000000000E+00+
*       -1.074636858E+03               0
GRID*               2844               03.7199431389E+020.0000000000E+00+
*       -1.082423546E+03               0
GRID*               2845               03.7190427344E+020.0000000000E+00+
*       -1.090208917E+03               0
GRID*               2846               03.7177824881E+020.0000000000E+00+
*       -1.097992314E+03               0
GRID*               2847               03.7161618648E+020.0000000000E+00+
*       -1.105773076E+03               0
GRID*               2848               03.7141816399E+020.0000000000E+00+
*       -1.113550549E+03               0
GRID*               2849               03.7118429761E+020.0000000000E+00+
*       -1.121324078E+03               0
GRID*               2850               03.7091467330E+020.0000000000E+00+
*       -1.129093010E+03               0
GRID*               2851               03.7060937705E+020.0000000000E+00+
*       -1.136856693E+03               0
GRID*               2852               03.7026849568E+020.0000000000E+00+
*       -1.144614472E+03               0
GRID*               2853               03.6989214141E+020.0000000000E+00+
*       -1.152365699E+03               0
GRID*               2854               03.6948045510E+020.0000000000E+00+
*       -1.160109731E+03               0
GRID*               2855               03.6903357912E+020.0000000000E+00+
*       -1.167845923E+03               0
GRID*               2856               03.6855165587E+020.0000000000E+00+
*       -1.175573634E+03               0
GRID*               2857               03.6803483053E+020.0000000000E+00+
*       -1.183292220E+03               0
GRID*               2858               03.6748328051E+020.0000000000E+00+
*       -1.191001047E+03               0
GRID*               2859               03.6689720380E+020.0000000000E+00+
*       -1.198699487E+03               0
GRID*               2860               03.6619182259E+020.0000000000E+00+
*       -1.206384610E+03               0
GRID*               2861               03.6528401132E+020.0000000000E+00+
*       -1.214053178E+03               0
GRID*               2862               03.6417354847E+020.0000000000E+00+
*       -1.221699645E+03               0
GRID*               2863               03.6286074599E+020.0000000000E+00+
*       -1.229318493E+03               0
GRID*               2864               03.6134663984E+020.0000000000E+00+
*       -1.236904227E+03               0
GRID*               2865               03.5963212189E+020.0000000000E+00+
*       -1.244451365E+03               0
GRID*               2866               03.5771815668E+020.0000000000E+00+
*       -1.251954433E+03               0
GRID*               2867               03.5560600268E+020.0000000000E+00+
*       -1.259408009E+03               0
GRID*               2868               03.5329702067E+020.0000000000E+00+
*       -1.266806707E+03               0
GRID*               2869               03.5079264740E+020.0000000000E+00+
*       -1.274145156E+03               0
GRID*               2870               03.4809459918E+020.0000000000E+00+
*       -1.281418062E+03               0
GRID*               2871               03.4520466220E+020.0000000000E+00+
*       -1.288620153E+03               0
GRID*               2872               03.4212470778E+020.0000000000E+00+
*       -1.295746186E+03               0
GRID*               2873               03.3885690169E+020.0000000000E+00+
*       -1.302791035E+03               0
GRID*               2874               03.3540347836E+020.0000000000E+00+
*       -1.309749600E+03               0
GRID*               2875               03.3176673958E+020.0000000000E+00+
*       -1.316616811E+03               0
GRID*               2876               03.2794924832E+020.0000000000E+00+
*       -1.323387719E+03               0
GRID*               2877               03.2395365396E+020.0000000000E+00+
*       -1.330057425E+03               0
GRID*               2878               03.1978269063E+020.0000000000E+00+
*       -1.336621076E+03               0
GRID*               2879               03.1543934068E+020.0000000000E+00+
*       -1.343073965E+03               0
GRID*               2880               03.1092664587E+020.0000000000E+00+
*       -1.349411421E+03               0
GRID*               2881               03.0624768904E+020.0000000000E+00+
*       -1.355628790E+03               0
GRID*               2882               03.0140581552E+020.0000000000E+00+
*       -1.361721610E+03               0
GRID*               2883               02.9640452214E+020.0000000000E+00+
*       -1.367685553E+03               0
GRID*               2884               02.9124721534E+020.0000000000E+00+
*       -1.373516183E+03               0
GRID*               2885               02.8593781811E+020.0000000000E+00+
*       -1.379209556E+03               0
GRID*               2886               02.8048688761E+020.0000000000E+00+
*       -1.384780638E+03               0
GRID*               2887               02.7493827650E+020.0000000000E+00+
*       -1.390329261E+03               0
GRID*               2888               02.6938966539E+020.0000000000E+00+
*       -1.395877883E+03               0
GRID*               2889               02.6384105428E+020.0000000000E+00+
*       -1.401426506E+03               0
GRID*               2890               02.5843052006E+020.0000000000E+00+
*       -1.406732654E+03               0
GRID*               2891               02.5291938672E+020.0000000000E+00+
*       -1.411932766E+03               0
GRID*               2892               02.4731014756E+020.0000000000E+00+
*       -1.417023889E+03               0
GRID*               2893               02.4160543612E+020.0000000000E+00+
*       -1.422003221E+03               0
GRID*               2894               02.3580838088E+020.0000000000E+00+
*       -1.426868478E+03               0
GRID*               2895               02.2992203782E+020.0000000000E+00+
*       -1.431617313E+03               0
GRID*               2896               02.2394945632E+020.0000000000E+00+
*       -1.436247379E+03               0
GRID*               2897               02.1789378159E+020.0000000000E+00+
*       -1.440756455E+03               0
GRID*               2898               02.1175824561E+020.0000000000E+00+
*       -1.445142451E+03               0
GRID*               2899               02.0554608398E+020.0000000000E+00+
*       -1.449403281E+03               0
GRID*               2900               01.9926058751E+020.0000000000E+00+
*       -1.453536949E+03               0
GRID*               2901               01.9290514867E+020.0000000000E+00+
*       -1.457541633E+03               0
GRID*               2902               01.8648317082E+020.0000000000E+00+
*       -1.461415538E+03               0
GRID*               2903               01.7999808196E+020.0000000000E+00+
*       -1.465156912E+03               0
GRID*               2904               01.7345340236E+020.0000000000E+00+
*       -1.468764196E+03               0
GRID*               2905               01.6685267388E+020.0000000000E+00+
*       -1.472235886E+03               0
GRID*               2906               01.6019944816E+020.0000000000E+00+
*       -1.475570497E+03               0
GRID*               2907               01.5349734983E+020.0000000000E+00+
*       -1.478766732E+03               0
GRID*               2908               01.4672449878E+020.0000000000E+00+
*       -1.481796380E+03               0
GRID*               2909               01.3986029350E+020.0000000000E+00+
*       -1.484631597E+03               0
GRID*               2910               01.3291016577E+020.0000000000E+00+
*       -1.487269189E+03               0
GRID*               2911               01.2587982425E+020.0000000000E+00+
*       -1.489706374E+03               0
GRID*               2912               01.1877532616E+020.0000000000E+00+
*       -1.491940747E+03               0
GRID*               2913               01.1160267252E+020.0000000000E+00+
*       -1.493969940E+03               0
GRID*               2914               01.0436792993E+020.0000000000E+00+
*       -1.495791823E+03               0
GRID*               2915               09.7077276796E+010.0000000000E+00+
*       -1.497404467E+03               0
GRID*               2916               08.9736924466E+010.0000000000E+00+
*       -1.498806035E+03               0
GRID*               2917               08.2353131005E+010.0000000000E+00+
*       -1.499994954E+03               0
GRID*               2918               07.4932246342E+010.0000000000E+00+
*       -1.500969896E+03               0
GRID*               2919               06.7480642212E+010.0000000000E+00+
*       -1.501729601E+03               0
GRID*               2920               06.0004715812E+010.0000000000E+00+
*       -1.502273055E+03               0
GRID*               2921               05.2510929500E+010.0000000000E+00+
*       -1.502599521E+03               0
GRID*               2922               04.5005759276E+010.0000000000E+00+
*       -1.502708318E+03               0
GRID*               2923               03.7495689828E+010.0000000000E+00+
*       -1.502598986E+03               0
GRID*               2924               02.9987237504E+010.0000000000E+00+
*       -1.502271431E+03               0
GRID*               2925               02.2486930318E+010.0000000000E+00+
*       -1.501725605E+03               0
GRID*               2926               01.5001336623E+010.0000000000E+00+
*       -1.500961257E+03               0
GRID*               2927               07.5368894583E+000.0000000000E+00+
*       -1.499979342E+03               0
GRID*               2928               03.6486000366E+020.0000000000E+00+
*       -1.058365807E+03               0
GRID*               2929               03.6486000366E+020.0000000000E+00+
*       -1.066731615E+03               0
GRID*               2930               03.6483811152E+020.0000000000E+00+
*       -1.074332528E+03               0
GRID*               2931               03.6477317545E+020.0000000000E+00+
*       -1.081932654E+03               0
GRID*               2932               03.6466512690E+020.0000000000E+00+
*       -1.089531199E+03               0
GRID*               2933               03.6451389735E+020.0000000000E+00+
*       -1.097127374E+03               0
GRID*               2934               03.6431942255E+020.0000000000E+00+
*       -1.104720389E+03               0
GRID*               2935               03.6408179556E+020.0000000000E+00+
*       -1.112309456E+03               0
GRID*               2936               03.6380115591E+020.0000000000E+00+
*       -1.119893791E+03               0
GRID*               2937               03.6347760674E+020.0000000000E+00+
*       -1.127472609E+03               0
GRID*               2938               03.6311125123E+020.0000000000E+00+
*       -1.135045127E+03               0
GRID*               2939               03.6270219359E+020.0000000000E+00+
*       -1.142610562E+03               0
GRID*               2940               03.6225056848E+020.0000000000E+00+
*       -1.150168135E+03               0
GRID*               2941               03.6175654490E+020.0000000000E+00+
*       -1.157717072E+03               0
GRID*               2942               03.6122029373E+020.0000000000E+00+
*       -1.165256603E+03               0
GRID*               2943               03.6064198582E+020.0000000000E+00+
*       -1.172785955E+03               0
GRID*               2944               03.6002179541E+020.0000000000E+00+
*       -1.180304359E+03               0
GRID*               2945               03.5935993539E+020.0000000000E+00+
*       -1.187811051E+03               0
GRID*               2946               03.5865664333E+020.0000000000E+00+
*       -1.195305278E+03               0
GRID*               2947               03.5783567873E+020.0000000000E+00+
*       -1.202784215E+03               0
GRID*               2948               03.5682228806E+020.0000000000E+00+
*       -1.210244760E+03               0
GRID*               2949               03.5561633342E+020.0000000000E+00+
*       -1.217681733E+03               0
GRID*               2950               03.5421816753E+020.0000000000E+00+
*       -1.225089984E+03               0
GRID*               2951               03.5262879823E+020.0000000000E+00+
*       -1.232464386E+03               0
GRID*               2952               03.5084910370E+020.0000000000E+00+
*       -1.239799820E+03               0
GRID*               2953               03.4888002748E+020.0000000000E+00+
*       -1.247091177E+03               0
GRID*               2954               03.4672278149E+020.0000000000E+00+
*       -1.254333399E+03               0
GRID*               2955               03.4437867999E+020.0000000000E+00+
*       -1.261521460E+03               0
GRID*               2956               03.4184910733E+020.0000000000E+00+
*       -1.268650352E+03               0
GRID*               2957               03.3913569949E+020.0000000000E+00+
*       -1.275715134E+03               0
GRID*               2958               03.3624015538E+020.0000000000E+00+
*       -1.282710886E+03               0
GRID*               2959               03.3316425611E+020.0000000000E+00+
*       -1.289632718E+03               0
GRID*               2960               03.2991005640E+020.0000000000E+00+
*       -1.296475848E+03               0
GRID*               2961               03.2647967352E+020.0000000000E+00+
*       -1.303235522E+03               0
GRID*               2962               03.2287528538E+020.0000000000E+00+
*       -1.309907009E+03               0
GRID*               2963               03.1909930535E+020.0000000000E+00+
*       -1.316485688E+03               0
GRID*               2964               03.1515423181E+020.0000000000E+00+
*       -1.322966988E+03               0
GRID*               2965               03.1104264551E+020.0000000000E+00+
*       -1.329346386E+03               0
GRID*               2966               03.0676735080E+020.0000000000E+00+
*       -1.335619487E+03               0
GRID*               2967               03.0233120549E+020.0000000000E+00+
*       -1.341781933E+03               0
GRID*               2968               02.9773709837E+020.0000000000E+00+
*       -1.347829369E+03               0
GRID*               2969               02.9298816277E+020.0000000000E+00+
*       -1.353757626E+03               0
GRID*               2970               02.8808769691E+020.0000000000E+00+
*       -1.359562678E+03               0
GRID*               2971               02.8303891854E+020.0000000000E+00+
*       -1.365240407E+03               0
GRID*               2972               02.7784551030E+020.0000000000E+00+
*       -1.370787135E+03               0
GRID*               2973               02.7251900635E+020.0000000000E+00+
*       -1.376221775E+03               0
GRID*               2974               02.6710458984E+020.0000000000E+00+
*       -1.381636202E+03               0
GRID*               2975               02.6169017334E+020.0000000000E+00+
*       -1.387050628E+03               0
GRID*               2976               02.5627575684E+020.0000000000E+00+
*       -1.392465055E+03               0
GRID*               2977               02.5098560953E+020.0000000000E+00+
*       -1.397661253E+03               0
GRID*               2978               02.4560492303E+020.0000000000E+00+
*       -1.402762021E+03               0
GRID*               2979               02.4013594128E+020.0000000000E+00+
*       -1.407764697E+03               0
GRID*               2980               02.3458103448E+020.0000000000E+00+
*       -1.412666762E+03               0
GRID*               2981               02.2894301826E+020.0000000000E+00+
*       -1.417466159E+03               0
GRID*               2982               02.2322464299E+020.0000000000E+00+
*       -1.422160776E+03               0
GRID*               2983               02.1742865315E+020.0000000000E+00+
*       -1.426748502E+03               0
GRID*               2984               02.1155787938E+020.0000000000E+00+
*       -1.431227336E+03               0
GRID*               2985               02.0561523050E+020.0000000000E+00+
*       -1.435595398E+03               0
GRID*               2986               01.9960361852E+020.0000000000E+00+
*       -1.439850812E+03               0
GRID*               2987               01.9352600520E+020.0000000000E+00+
*       -1.443991778E+03               0
GRID*               2988               01.8738544374E+020.0000000000E+00+
*       -1.448016660E+03               0
GRID*               2989               01.8118499717E+020.0000000000E+00+
*       -1.451923841E+03               0
GRID*               2990               01.7492775069E+020.0000000000E+00+
*       -1.455711743E+03               0
GRID*               2991               01.6861687255E+020.0000000000E+00+
*       -1.459378965E+03               0
GRID*               2992               01.6225555042E+020.0000000000E+00+
*       -1.462924152E+03               0
GRID*               2993               01.5584698076E+020.0000000000E+00+
*       -1.466345967E+03               0
GRID*               2994               01.4939442576E+020.0000000000E+00+
*       -1.469643244E+03               0
GRID*               2995               01.4287053214E+020.0000000000E+00+
*       -1.472782490E+03               0
GRID*               2996               01.3624948016E+020.0000000000E+00+
*       -1.475730649E+03               0
GRID*               2997               01.2953667607E+020.0000000000E+00+
*       -1.478484201E+03               0
GRID*               2998               01.2273784685E+020.0000000000E+00+
*       -1.481040073E+03               0
GRID*               2999               01.1585913725E+020.0000000000E+00+
*       -1.483395646E+03               0
GRID*               3000               01.0890661762E+020.0000000000E+00+
*       -1.485548311E+03               0
GRID*               3001               01.0188642630E+020.0000000000E+00+
*       -1.487495688E+03               0
GRID*               3002               09.4804834974E+010.0000000000E+00+
*       -1.489235628E+03               0
GRID*               3003               08.7668152360E+010.0000000000E+00+
*       -1.490766081E+03               0
GRID*               3004               08.0482736555E+010.0000000000E+00+
*       -1.492085246E+03               0
GRID*               3005               07.3255054950E+010.0000000000E+00+
*       -1.493191595E+03               0
GRID*               3006               06.5991600594E+010.0000000000E+00+
*       -1.494083681E+03               0
GRID*               3007               05.8698895351E+010.0000000000E+00+
*       -1.494760288E+03               0
GRID*               3008               05.1383539623E+010.0000000000E+00+
*       -1.495220509E+03               0
GRID*               3009               04.4052150117E+010.0000000000E+00+
*       -1.495463500E+03               0
GRID*               3010               03.6711355984E+010.0000000000E+00+
*       -1.495488629E+03               0
GRID*               3011               02.9367829059E+010.0000000000E+00+
*       -1.495295658E+03               0
GRID*               3012               02.2028254115E+010.0000000000E+00+
*       -1.494884404E+03               0
GRID*               3013               01.4699355040E+010.0000000000E+00+
*       -1.494254471E+03               0
GRID*               3014               07.3877392460E+000.0000000000E+00+
*       -1.493406697E+03               0
GRID*               3015               03.5765333659E+020.0000000000E+00+
*       -1.058306858E+03               0
GRID*               3016               03.5765333659E+020.0000000000E+00+
*       -1.066613717E+03               0
GRID*               3017               03.5762779576E+020.0000000000E+00+
*       -1.074028199E+03               0
GRID*               3018               03.5755203701E+020.0000000000E+00+
*       -1.081441761E+03               0
GRID*               3019               03.5742598037E+020.0000000000E+00+
*       -1.088853481E+03               0
GRID*               3020               03.5724954589E+020.0000000000E+00+
*       -1.096262435E+03               0
GRID*               3021               03.5702265863E+020.0000000000E+00+
*       -1.103667701E+03               0
GRID*               3022               03.5674542714E+020.0000000000E+00+
*       -1.111068363E+03               0
GRID*               3023               03.5641801421E+020.0000000000E+00+
*       -1.118463503E+03               0
GRID*               3024               03.5604054018E+020.0000000000E+00+
*       -1.125852207E+03               0
GRID*               3025               03.5561312542E+020.0000000000E+00+
*       -1.133233562E+03               0
GRID*               3026               03.5513589151E+020.0000000000E+00+
*       -1.140606653E+03               0
GRID*               3027               03.5460899554E+020.0000000000E+00+
*       -1.147970570E+03               0
GRID*               3028               03.5403263470E+020.0000000000E+00+
*       -1.155324413E+03               0
GRID*               3029               03.5340700833E+020.0000000000E+00+
*       -1.162667282E+03               0
GRID*               3030               03.5273231578E+020.0000000000E+00+
*       -1.169998277E+03               0
GRID*               3031               03.5200876030E+020.0000000000E+00+
*       -1.177316497E+03               0
GRID*               3032               03.5123659027E+020.0000000000E+00+
*       -1.184621054E+03               0
GRID*               3033               03.5041608287E+020.0000000000E+00+
*       -1.191911068E+03               0
GRID*               3034               03.4947953487E+020.0000000000E+00+
*       -1.199183820E+03               0
GRID*               3035               03.4836056480E+020.0000000000E+00+
*       -1.206436343E+03               0
GRID*               3036               03.4705911836E+020.0000000000E+00+
*       -1.213663822E+03               0
GRID*               3037               03.4557558907E+020.0000000000E+00+
*       -1.220861476E+03               0
GRID*               3038               03.4391095663E+020.0000000000E+00+
*       -1.228024544E+03               0
GRID*               3039               03.4206608550E+020.0000000000E+00+
*       -1.235148274E+03               0
GRID*               3040               03.4004189829E+020.0000000000E+00+
*       -1.242227922E+03               0
GRID*               3041               03.3783956030E+020.0000000000E+00+
*       -1.249258789E+03               0
GRID*               3042               03.3546033931E+020.0000000000E+00+
*       -1.256236213E+03               0
GRID*               3043               03.3290556726E+020.0000000000E+00+
*       -1.263155547E+03               0
GRID*               3044               03.3017679979E+020.0000000000E+00+
*       -1.270012205E+03               0
GRID*               3045               03.2727564857E+020.0000000000E+00+
*       -1.276801618E+03               0
GRID*               3046               03.2420380445E+020.0000000000E+00+
*       -1.283519250E+03               0
GRID*               3047               03.2096321111E+020.0000000000E+00+
*       -1.290160662E+03               0
GRID*               3048               03.1755586868E+020.0000000000E+00+
*       -1.296721444E+03               0
GRID*               3049               03.1398383118E+020.0000000000E+00+
*       -1.303197206E+03               0
GRID*               3050               03.1024936239E+020.0000000000E+00+
*       -1.309583656E+03               0
GRID*               3051               03.0635480967E+020.0000000000E+00+
*       -1.315876551E+03               0
GRID*               3052               03.0230260039E+020.0000000000E+00+
*       -1.322071696E+03               0
GRID*               3053               02.9809536091E+020.0000000000E+00+
*       -1.328165010E+03               0
GRID*               3054               02.9373576511E+020.0000000000E+00+
*       -1.334152445E+03               0
GRID*               3055               02.8922650769E+020.0000000000E+00+
*       -1.340029949E+03               0
GRID*               3056               02.8457051001E+020.0000000000E+00+
*       -1.345793641E+03               0
GRID*               3057               02.7977087167E+020.0000000000E+00+
*       -1.351439804E+03               0
GRID*               3058               02.7483062173E+020.0000000000E+00+
*       -1.356964632E+03               0
GRID*               3059               02.6975320249E+020.0000000000E+00+
*       -1.362364715E+03               0
GRID*               3060               02.6455112508E+020.0000000000E+00+
*       -1.367662912E+03               0
GRID*               3061               02.5927090318E+020.0000000000E+00+
*       -1.372943143E+03               0
GRID*               3062               02.5399068129E+020.0000000000E+00+
*       -1.378223373E+03               0
GRID*               3063               02.4871045939E+020.0000000000E+00+
*       -1.383503603E+03               0
GRID*               3064               02.4354069901E+020.0000000000E+00+
*       -1.388589853E+03               0
GRID*               3065               02.3829045933E+020.0000000000E+00+
*       -1.393591275E+03               0
GRID*               3066               02.3296173499E+020.0000000000E+00+
*       -1.398505505E+03               0
GRID*               3067               02.2755663283E+020.0000000000E+00+
*       -1.403330303E+03               0
GRID*               3068               02.2207765564E+020.0000000000E+00+
*       -1.408063840E+03               0
GRID*               3069               02.1652724817E+020.0000000000E+00+
*       -1.412704240E+03               0
GRID*               3070               02.1090784997E+020.0000000000E+00+
*       -1.417249624E+03               0
GRID*               3071               02.0522197718E+020.0000000000E+00+
*       -1.421698217E+03               0
GRID*               3072               01.9947221539E+020.0000000000E+00+
*       -1.426048346E+03               0
GRID*               3073               01.9366115307E+020.0000000000E+00+
*       -1.430298342E+03               0
GRID*               3074               01.8779142289E+020.0000000000E+00+
*       -1.434446608E+03               0
GRID*               3075               01.8186573881E+020.0000000000E+00+
*       -1.438491687E+03               0
GRID*               3076               01.7588682352E+020.0000000000E+00+
*       -1.442432143E+03               0
GRID*               3077               01.6985741942E+020.0000000000E+00+
*       -1.446266574E+03               0
GRID*               3078               01.6378034274E+020.0000000000E+00+
*       -1.449993733E+03               0
GRID*               3079               01.5765842695E+020.0000000000E+00+
*       -1.453612417E+03               0
GRID*               3080               01.5149451336E+020.0000000000E+00+
*       -1.457121437E+03               0
GRID*               3081               01.4529150169E+020.0000000000E+00+
*       -1.460519757E+03               0
GRID*               3082               01.3901656551E+020.0000000000E+00+
*       -1.463768601E+03               0
GRID*               3083               01.3263866681E+020.0000000000E+00+
*       -1.466829702E+03               0
GRID*               3084               01.2616318638E+020.0000000000E+00+
*       -1.469699212E+03               0
GRID*               3085               01.1959586945E+020.0000000000E+00+
*       -1.472373773E+03               0
GRID*               3086               01.1294294833E+020.0000000000E+00+
*       -1.474850545E+03               0
GRID*               3087               01.0621056272E+020.0000000000E+00+
*       -1.477126682E+03               0
GRID*               3088               09.9404922678E+010.0000000000E+00+
*       -1.479199553E+03               0
GRID*               3089               09.2532393152E+010.0000000000E+00+
*       -1.481066790E+03               0
GRID*               3090               08.5599380255E+010.0000000000E+00+
*       -1.482726128E+03               0
GRID*               3091               07.8612342105E+010.0000000000E+00+
*       -1.484175537E+03               0
GRID*               3092               07.1577863557E+010.0000000000E+00+
*       -1.485413293E+03               0
GRID*               3093               06.4502558977E+010.0000000000E+00+
*       -1.486437760E+03               0
GRID*               3094               05.7393074890E+010.0000000000E+00+
*       -1.487247521E+03               0
GRID*               3095               05.0256149747E+010.0000000000E+00+
*       -1.487841497E+03               0
GRID*               3096               04.3098540958E+010.0000000000E+00+
*       -1.488218681E+03               0
GRID*               3097               03.5927022141E+010.0000000000E+00+
*       -1.488378272E+03               0
GRID*               3098               02.8748420614E+010.0000000000E+00+
*       -1.488319885E+03               0
GRID*               3099               02.1569577912E+010.0000000000E+00+
*       -1.488043203E+03               0
GRID*               3100               01.4397373458E+010.0000000000E+00+
*       -1.487547684E+03               0
GRID*               3101               07.2385890336E+000.0000000000E+00+
*       -1.486834051E+03               0
GRID*               3102               03.5044666951E+020.0000000000E+00+
*       -1.058247909E+03               0
GRID*               3103               03.5044666951E+020.0000000000E+00+
*       -1.066495819E+03               0
GRID*               3104               03.5041748000E+020.0000000000E+00+
*       -1.073723870E+03               0
GRID*               3105               03.5033089856E+020.0000000000E+00+
*       -1.080950869E+03               0
GRID*               3106               03.5018683384E+020.0000000000E+00+
*       -1.088175763E+03               0
GRID*               3107               03.4998519443E+020.0000000000E+00+
*       -1.095397496E+03               0
GRID*               3108               03.4972589470E+020.0000000000E+00+
*       -1.102615014E+03               0
GRID*               3109               03.4940905872E+020.0000000000E+00+
*       -1.109827270E+03               0
GRID*               3110               03.4903487251E+020.0000000000E+00+
*       -1.117033216E+03               0
GRID*               3111               03.4860347362E+020.0000000000E+00+
*       -1.124231806E+03               0
GRID*               3112               03.4811499961E+020.0000000000E+00+
*       -1.131421997E+03               0
GRID*               3113               03.4756958942E+020.0000000000E+00+
*       -1.138602743E+03               0
GRID*               3114               03.4696742260E+020.0000000000E+00+
*       -1.145773006E+03               0
GRID*               3115               03.4630872450E+020.0000000000E+00+
*       -1.152931755E+03               0
GRID*               3116               03.4559372294E+020.0000000000E+00+
*       -1.160077962E+03               0
GRID*               3117               03.4482264573E+020.0000000000E+00+
*       -1.167210598E+03               0
GRID*               3118               03.4399572519E+020.0000000000E+00+
*       -1.174328635E+03               0
GRID*               3119               03.4311324515E+020.0000000000E+00+
*       -1.181431057E+03               0
GRID*               3120               03.4217552241E+020.0000000000E+00+
*       -1.188516859E+03               0
GRID*               3121               03.4112339101E+020.0000000000E+00+
*       -1.195583426E+03               0
GRID*               3122               03.3989884154E+020.0000000000E+00+
*       -1.202627925E+03               0
GRID*               3123               03.3850190331E+020.0000000000E+00+
*       -1.209645910E+03               0
GRID*               3124               03.3693301061E+020.0000000000E+00+
*       -1.216632967E+03               0
GRID*               3125               03.3519311502E+020.0000000000E+00+
*       -1.223584702E+03               0
GRID*               3126               03.3328306731E+020.0000000000E+00+
*       -1.230496728E+03               0
GRID*               3127               03.3120376909E+020.0000000000E+00+
*       -1.237364666E+03               0
GRID*               3128               03.2895633912E+020.0000000000E+00+
*       -1.244184179E+03               0
GRID*               3129               03.2654199863E+020.0000000000E+00+
*       -1.250950966E+03               0
GRID*               3130               03.2396202720E+020.0000000000E+00+
*       -1.257660742E+03               0
GRID*               3131               03.2121790009E+020.0000000000E+00+
*       -1.264309276E+03               0
GRID*               3132               03.1831114175E+020.0000000000E+00+
*       -1.270892351E+03               0
GRID*               3133               03.1524335278E+020.0000000000E+00+
*       -1.277405781E+03               0
GRID*               3134               03.1201636582E+020.0000000000E+00+
*       -1.283845476E+03               0
GRID*               3135               03.0863206384E+020.0000000000E+00+
*       -1.290207366E+03               0
GRID*               3136               03.0509237698E+020.0000000000E+00+
*       -1.296487404E+03               0
GRID*               3137               03.0139941942E+020.0000000000E+00+
*       -1.302681625E+03               0
GRID*               3138               02.9755538752E+020.0000000000E+00+
*       -1.308786115E+03               0
GRID*               3139               02.9356255528E+020.0000000000E+00+
*       -1.314797006E+03               0
GRID*               3140               02.8942337103E+020.0000000000E+00+
*       -1.320710533E+03               0
GRID*               3141               02.8514032472E+020.0000000000E+00+
*       -1.326522957E+03               0
GRID*               3142               02.8071591702E+020.0000000000E+00+
*       -1.332230528E+03               0
GRID*               3143               02.7615285725E+020.0000000000E+00+
*       -1.337829657E+03               0
GRID*               3144               02.7145404643E+020.0000000000E+00+
*       -1.343316929E+03               0
GRID*               3145               02.6662232492E+020.0000000000E+00+
*       -1.348688856E+03               0
GRID*               3146               02.6166089468E+020.0000000000E+00+
*       -1.353942294E+03               0
GRID*               3147               02.5658324382E+020.0000000000E+00+
*       -1.359104050E+03               0
GRID*               3148               02.5143721653E+020.0000000000E+00+
*       -1.364250084E+03               0
GRID*               3149               02.4629118924E+020.0000000000E+00+
*       -1.369396117E+03               0
GRID*               3150               02.4114516195E+020.0000000000E+00+
*       -1.374542151E+03               0
GRID*               3151               02.3609578848E+020.0000000000E+00+
*       -1.379518452E+03               0
GRID*               3152               02.3097599563E+020.0000000000E+00+
*       -1.384420529E+03               0
GRID*               3153               02.2578752871E+020.0000000000E+00+
*       -1.389246313E+03               0
GRID*               3154               02.2053223119E+020.0000000000E+00+
*       -1.393993843E+03               0
GRID*               3155               02.1521229301E+020.0000000000E+00+
*       -1.398661520E+03               0
GRID*               3156               02.0982985335E+020.0000000000E+00+
*       -1.403247703E+03               0
GRID*               3157               02.0438704679E+020.0000000000E+00+
*       -1.407750747E+03               0
GRID*               3158               01.9888607497E+020.0000000000E+00+
*       -1.412169098E+03               0
GRID*               3159               01.9332920027E+020.0000000000E+00+
*       -1.416501293E+03               0
GRID*               3160               01.8771868762E+020.0000000000E+00+
*       -1.420745872E+03               0
GRID*               3161               01.8205684058E+020.0000000000E+00+
*       -1.424901437E+03               0
GRID*               3162               01.7634603388E+020.0000000000E+00+
*       -1.428966714E+03               0
GRID*               3163               01.7058864987E+020.0000000000E+00+
*       -1.432940446E+03               0
GRID*               3164               01.6478708816E+020.0000000000E+00+
*       -1.436821405E+03               0
GRID*               3165               01.5894381293E+020.0000000000E+00+
*       -1.440608502E+03               0
GRID*               3166               01.5306130348E+020.0000000000E+00+
*       -1.444300683E+03               0
GRID*               3167               01.4714204596E+020.0000000000E+00+
*       -1.447896908E+03               0
GRID*               3168               01.4118857762E+020.0000000000E+00+
*       -1.451396270E+03               0
GRID*               3169               01.3516259887E+020.0000000000E+00+
*       -1.454754712E+03               0
GRID*               3170               01.2902785346E+020.0000000000E+00+
*       -1.457928754E+03               0
GRID*               3171               01.2278969668E+020.0000000000E+00+
*       -1.460914224E+03               0
GRID*               3172               01.1645389205E+020.0000000000E+00+
*       -1.463707472E+03               0
GRID*               3173               01.1002675942E+020.0000000000E+00+
*       -1.466305444E+03               0
GRID*               3174               01.0351450782E+020.0000000000E+00+
*       -1.468705053E+03               0
GRID*               3175               09.6923419051E+010.0000000000E+00+
*       -1.470903418E+03               0
GRID*               3176               09.0259951330E+010.0000000000E+00+
*       -1.472897952E+03               0
GRID*               3177               08.3530608149E+010.0000000000E+00+
*       -1.474686174E+03               0
GRID*               3178               07.6741947655E+010.0000000000E+00+
*       -1.476265829E+03               0
GRID*               3179               06.9900672165E+010.0000000000E+00+
*       -1.477634992E+03               0
GRID*               3180               06.3013517360E+010.0000000000E+00+
*       -1.478791839E+03               0
GRID*               3181               05.6087254429E+010.0000000000E+00+
*       -1.479734754E+03               0
GRID*               3182               04.9128759871E+010.0000000000E+00+
*       -1.480462485E+03               0
GRID*               3183               04.2144931799E+010.0000000000E+00+
*       -1.480973862E+03               0
GRID*               3184               03.5142688298E+010.0000000000E+00+
*       -1.481267915E+03               0
GRID*               3185               02.8129012169E+010.0000000000E+00+
*       -1.481344113E+03               0
GRID*               3186               02.1110901709E+010.0000000000E+00+
*       -1.481202003E+03               0
GRID*               3187               01.4095391875E+010.0000000000E+00+
*       -1.480840897E+03               0
GRID*               3188               07.0894388212E+000.0000000000E+00+
*       -1.480261405E+03               0
GRID*               3189               03.4324000244E+020.0000000000E+00+
*       -1.058188960E+03               0
GRID*               3190               03.4324000244E+020.0000000000E+00+
*       -1.066377921E+03               0
GRID*               3191               03.4320716423E+020.0000000000E+00+
*       -1.073419540E+03               0
GRID*               3192               03.4310976012E+020.0000000000E+00+
*       -1.080459977E+03               0
GRID*               3193               03.4294768730E+020.0000000000E+00+
*       -1.087498045E+03               0
GRID*               3194               03.4272084297E+020.0000000000E+00+
*       -1.094532556E+03               0
GRID*               3195               03.4242913078E+020.0000000000E+00+
*       -1.101562327E+03               0
GRID*               3196               03.4207269029E+020.0000000000E+00+
*       -1.108586177E+03               0
GRID*               3197               03.4165173081E+020.0000000000E+00+
*       -1.115602928E+03               0
GRID*               3198               03.4116640706E+020.0000000000E+00+
*       -1.122611405E+03               0
GRID*               3199               03.4061687380E+020.0000000000E+00+
*       -1.129610432E+03               0
GRID*               3200               03.4000328734E+020.0000000000E+00+
*       -1.136598833E+03               0
GRID*               3201               03.3932584966E+020.0000000000E+00+
*       -1.143575441E+03               0
GRID*               3202               03.3858481430E+020.0000000000E+00+
*       -1.150539096E+03               0
GRID*               3203               03.3778043754E+020.0000000000E+00+
*       -1.157488642E+03               0
GRID*               3204               03.3691297568E+020.0000000000E+00+
*       -1.164422919E+03               0
GRID*               3205               03.3598269007E+020.0000000000E+00+
*       -1.171340773E+03               0
GRID*               3206               03.3498990003E+020.0000000000E+00+
*       -1.178241061E+03               0
GRID*               3207               03.3393496195E+020.0000000000E+00+
*       -1.185122650E+03               0
GRID*               3208               03.3276724715E+020.0000000000E+00+
*       -1.191983031E+03               0
GRID*               3209               03.3143711827E+020.0000000000E+00+
*       -1.198819508E+03               0
GRID*               3210               03.2994468826E+020.0000000000E+00+
*       -1.205627999E+03               0
GRID*               3211               03.2829043214E+020.0000000000E+00+
*       -1.212404459E+03               0
GRID*               3212               03.2647527341E+020.0000000000E+00+
*       -1.219144860E+03               0
GRID*               3213               03.2450004911E+020.0000000000E+00+
*       -1.225845182E+03               0
GRID*               3214               03.2236563989E+020.0000000000E+00+
*       -1.232501411E+03               0
GRID*               3215               03.2007311793E+020.0000000000E+00+
*       -1.239109569E+03               0
GRID*               3216               03.1762365795E+020.0000000000E+00+
*       -1.245665718E+03               0
GRID*               3217               03.1501848713E+020.0000000000E+00+
*       -1.252165937E+03               0
GRID*               3218               03.1225900039E+020.0000000000E+00+
*       -1.258606347E+03               0
GRID*               3219               03.0934663494E+020.0000000000E+00+
*       -1.264983084E+03               0
GRID*               3220               03.0628290112E+020.0000000000E+00+
*       -1.271292313E+03               0
GRID*               3221               03.0306952053E+020.0000000000E+00+
*       -1.277530290E+03               0
GRID*               3222               02.9970825900E+020.0000000000E+00+
*       -1.283693289E+03               0
GRID*               3223               02.9620092277E+020.0000000000E+00+
*       -1.289777602E+03               0
GRID*               3224               02.9254947646E+020.0000000000E+00+
*       -1.295779593E+03               0
GRID*               3225               02.8875596537E+020.0000000000E+00+
*       -1.301695678E+03               0
GRID*               3226               02.8482251016E+020.0000000000E+00+
*       -1.307522316E+03               0
GRID*               3227               02.8075138115E+020.0000000000E+00+
*       -1.313256056E+03               0
GRID*               3228               02.7654488434E+020.0000000000E+00+
*       -1.318893469E+03               0
GRID*               3229               02.7220532634E+020.0000000000E+00+
*       -1.324431107E+03               0
GRID*               3230               02.6773520450E+020.0000000000E+00+
*       -1.329865673E+03               0
GRID*               3231               02.6313722119E+020.0000000000E+00+
*       -1.335194055E+03               0
GRID*               3232               02.5841402811E+020.0000000000E+00+
*       -1.340413081E+03               0
GRID*               3233               02.5356858686E+020.0000000000E+00+
*       -1.345519874E+03               0
GRID*               3234               02.4861536255E+020.0000000000E+00+
*       -1.350545187E+03               0
GRID*               3235               02.4360352987E+020.0000000000E+00+
*       -1.355557025E+03               0
GRID*               3236               02.3859169718E+020.0000000000E+00+
*       -1.360568862E+03               0
GRID*               3237               02.3357986450E+020.0000000000E+00+
*       -1.365580700E+03               0
GRID*               3238               02.2865087795E+020.0000000000E+00+
*       -1.370447052E+03               0
GRID*               3239               02.2366153194E+020.0000000000E+00+
*       -1.375249783E+03               0
GRID*               3240               02.1861332243E+020.0000000000E+00+
*       -1.379987121E+03               0
GRID*               3241               02.1350782955E+020.0000000000E+00+
*       -1.384657384E+03               0
GRID*               3242               02.0834693039E+020.0000000000E+00+
*       -1.389259201E+03               0
GRID*               3243               02.0313245853E+020.0000000000E+00+
*       -1.393791166E+03               0
GRID*               3244               01.9786624362E+020.0000000000E+00+
*       -1.398251870E+03               0
GRID*               3245               01.9255017276E+020.0000000000E+00+
*       -1.402639979E+03               0
GRID*               3246               01.8718618516E+020.0000000000E+00+
*       -1.406954240E+03               0
GRID*               3247               01.8177622216E+020.0000000000E+00+
*       -1.411193403E+03               0
GRID*               3248               01.7632225827E+020.0000000000E+00+
*       -1.415356267E+03               0
GRID*               3249               01.7082632895E+020.0000000000E+00+
*       -1.419441741E+03               0
GRID*               3250               01.6529047622E+020.0000000000E+00+
*       -1.423448748E+03               0
GRID*               3251               01.5971675689E+020.0000000000E+00+
*       -1.427376236E+03               0
GRID*               3252               01.5410728311E+020.0000000000E+00+
*       -1.431223271E+03               0
GRID*               3253               01.4846418001E+020.0000000000E+00+
*       -1.434988948E+03               0
GRID*               3254               01.4278957856E+020.0000000000E+00+
*       -1.438672378E+03               0
GRID*               3255               01.3708565355E+020.0000000000E+00+
*       -1.442272783E+03               0
GRID*               3256               01.3130863224E+020.0000000000E+00+
*       -1.445740822E+03               0
GRID*               3257               01.2541704011E+020.0000000000E+00+
*       -1.449027807E+03               0
GRID*               3258               01.1941620698E+020.0000000000E+00+
*       -1.452129236E+03               0
GRID*               3259               01.1331191465E+020.0000000000E+00+
*       -1.455041171E+03               0
GRID*               3260               01.0711057051E+020.0000000000E+00+
*       -1.457760343E+03               0
GRID*               3261               01.0081845292E+020.0000000000E+00+
*       -1.460283424E+03               0
GRID*               3262               09.4441915425E+010.0000000000E+00+
*       -1.462607283E+03               0
GRID*               3263               08.7987509508E+010.0000000000E+00+
*       -1.464729114E+03               0
GRID*               3264               08.1461836044E+010.0000000000E+00+
*       -1.466646221E+03               0
GRID*               3265               07.4871553205E+010.0000000000E+00+
*       -1.468356120E+03               0
GRID*               3266               06.8223480773E+010.0000000000E+00+
*       -1.469856691E+03               0
GRID*               3267               06.1524475743E+010.0000000000E+00+
*       -1.471145919E+03               0
GRID*               3268               05.4781433968E+010.0000000000E+00+
*       -1.472221987E+03               0
GRID*               3269               04.8001369994E+010.0000000000E+00+
*       -1.473083473E+03               0
GRID*               3270               04.1191322641E+010.0000000000E+00+
*       -1.473729043E+03               0
GRID*               3271               03.4358354454E+010.0000000000E+00+
*       -1.474157557E+03               0
GRID*               3272               02.7509603723E+010.0000000000E+00+
*       -1.474368340E+03               0
GRID*               3273               02.0652225506E+010.0000000000E+00+
*       -1.474360802E+03               0
GRID*               3274               01.3793410292E+010.0000000000E+00+
*       -1.474134110E+03               0
GRID*               3275               06.9402886088E+000.0000000000E+00+
*       -1.473688759E+03               0
GRID*               3276               03.3603333537E+020.0000000000E+00+
*       -1.058130011E+03               0
GRID*               3277               03.3603333537E+020.0000000000E+00+
*       -1.066260023E+03               0
GRID*               3278               03.3599684847E+020.0000000000E+00+
*       -1.073115211E+03               0
GRID*               3279               03.3588862168E+020.0000000000E+00+
*       -1.079969085E+03               0
GRID*               3280               03.3570854077E+020.0000000000E+00+
*       -1.086820326E+03               0
GRID*               3281               03.3545649151E+020.0000000000E+00+
*       -1.093667617E+03               0
GRID*               3282               03.3513236685E+020.0000000000E+00+
*       -1.100509640E+03               0
GRID*               3283               03.3473632187E+020.0000000000E+00+
*       -1.107345084E+03               0
GRID*               3284               03.3426858911E+020.0000000000E+00+
*       -1.114172641E+03               0
GRID*               3285               03.3372934050E+020.0000000000E+00+
*       -1.120991003E+03               0
GRID*               3286               03.3311874799E+020.0000000000E+00+
*       -1.127798866E+03               0
GRID*               3287               03.3243698526E+020.0000000000E+00+
*       -1.134594924E+03               0
GRID*               3288               03.3168427672E+020.0000000000E+00+
*       -1.141377876E+03               0
GRID*               3289               03.3086090410E+020.0000000000E+00+
*       -1.148146438E+03               0
GRID*               3290               03.2996715215E+020.0000000000E+00+
*       -1.154899321E+03               0
GRID*               3291               03.2900330564E+020.0000000000E+00+
*       -1.161635241E+03               0
GRID*               3292               03.2796965496E+020.0000000000E+00+
*       -1.168352912E+03               0
GRID*               3293               03.2686655491E+020.0000000000E+00+
*       -1.175051064E+03               0
GRID*               3294               03.2569440149E+020.0000000000E+00+
*       -1.181728441E+03               0
GRID*               3295               03.2441110329E+020.0000000000E+00+
*       -1.188382637E+03               0
GRID*               3296               03.2297539501E+020.0000000000E+00+
*       -1.195011090E+03               0
GRID*               3297               03.2138747320E+020.0000000000E+00+
*       -1.201610088E+03               0
GRID*               3298               03.1964785368E+020.0000000000E+00+
*       -1.208175951E+03               0
GRID*               3299               03.1775743181E+020.0000000000E+00+
*       -1.214705018E+03               0
GRID*               3300               03.1571703092E+020.0000000000E+00+
*       -1.221193637E+03               0
GRID*               3301               03.1352751069E+020.0000000000E+00+
*       -1.227638155E+03               0
GRID*               3302               03.1118989674E+020.0000000000E+00+
*       -1.234034959E+03               0
GRID*               3303               03.0870531727E+020.0000000000E+00+
*       -1.240380471E+03               0
GRID*               3304               03.0607494706E+020.0000000000E+00+
*       -1.246671132E+03               0
GRID*               3305               03.0330010070E+020.0000000000E+00+
*       -1.252903418E+03               0
GRID*               3306               03.0038212812E+020.0000000000E+00+
*       -1.259073816E+03               0
GRID*               3307               02.9732244945E+020.0000000000E+00+
*       -1.265178845E+03               0
GRID*               3308               02.9412267524E+020.0000000000E+00+
*       -1.271215104E+03               0
GRID*               3309               02.9078445416E+020.0000000000E+00+
*       -1.277179211E+03               0
GRID*               3310               02.8730946857E+020.0000000000E+00+
*       -1.283067799E+03               0
GRID*               3311               02.8369953349E+020.0000000000E+00+
*       -1.288877562E+03               0
GRID*               3312               02.7995654323E+020.0000000000E+00+
*       -1.294605241E+03               0
GRID*               3313               02.7608246504E+020.0000000000E+00+
*       -1.300247626E+03               0
GRID*               3314               02.7207939127E+020.0000000000E+00+
*       -1.305801579E+03               0
GRID*               3315               02.6794944396E+020.0000000000E+00+
*       -1.311263981E+03               0
GRID*               3316               02.6369473567E+020.0000000000E+00+
*       -1.316631687E+03               0
GRID*               3317               02.5931755174E+020.0000000000E+00+
*       -1.321901688E+03               0
GRID*               3318               02.5482039596E+020.0000000000E+00+
*       -1.327071180E+03               0
GRID*               3319               02.5020573131E+020.0000000000E+00+
*       -1.332137305E+03               0
GRID*               3320               02.4547627905E+020.0000000000E+00+
*       -1.337097454E+03               0
GRID*               3321               02.4064748128E+020.0000000000E+00+
*       -1.341986324E+03               0
GRID*               3322               02.3576984321E+020.0000000000E+00+
*       -1.346863966E+03               0
GRID*               3323               02.3089220513E+020.0000000000E+00+
*       -1.351741607E+03               0
GRID*               3324               02.2601456706E+020.0000000000E+00+
*       -1.356619248E+03               0
GRID*               3325               02.2120596743E+020.0000000000E+00+
*       -1.361375651E+03               0
GRID*               3326               02.1634706824E+020.0000000000E+00+
*       -1.366079037E+03               0
GRID*               3327               02.1143911614E+020.0000000000E+00+
*       -1.370727929E+03               0
GRID*               3328               02.0648342790E+020.0000000000E+00+
*       -1.375320924E+03               0
GRID*               3329               02.0148156776E+020.0000000000E+00+
*       -1.379856882E+03               0
GRID*               3330               01.9643506371E+020.0000000000E+00+
*       -1.384334630E+03               0
GRID*               3331               01.9134544044E+020.0000000000E+00+
*       -1.388752992E+03               0
GRID*               3332               01.8621427056E+020.0000000000E+00+
*       -1.393110860E+03               0
GRID*               3333               01.8104317005E+020.0000000000E+00+
*       -1.397407188E+03               0
GRID*               3334               01.7583375671E+020.0000000000E+00+
*       -1.401640933E+03               0
GRID*               3335               01.7058767596E+020.0000000000E+00+
*       -1.405811096E+03               0
GRID*               3336               01.6530662402E+020.0000000000E+00+
*       -1.409916768E+03               0
GRID*               3337               01.5999230257E+020.0000000000E+00+
*       -1.413957051E+03               0
GRID*               3338               01.5464642562E+020.0000000000E+00+
*       -1.417931067E+03               0
GRID*               3339               01.4927075330E+020.0000000000E+00+
*       -1.421838039E+03               0
GRID*               3340               01.4386705655E+020.0000000000E+00+
*       -1.425677214E+03               0
GRID*               3341               01.3843711117E+020.0000000000E+00+
*       -1.429447849E+03               0
GRID*               3342               01.3298272948E+020.0000000000E+00+
*       -1.433149296E+03               0
GRID*               3343               01.2745466560E+020.0000000000E+00+
*       -1.436726933E+03               0
GRID*               3344               01.2180622676E+020.0000000000E+00+
*       -1.440126859E+03               0
GRID*               3345               01.1604271729E+020.0000000000E+00+
*       -1.443344248E+03               0
GRID*               3346               01.1016993724E+020.0000000000E+00+
*       -1.446374870E+03               0
GRID*               3347               01.0419438160E+020.0000000000E+00+
*       -1.449215241E+03               0
GRID*               3348               09.8122398025E+010.0000000000E+00+
*       -1.451861795E+03               0
GRID*               3349               09.1960411798E+010.0000000000E+00+
*       -1.454311148E+03               0
GRID*               3350               08.5715067686E+010.0000000000E+00+
*       -1.456560275E+03               0
GRID*               3351               07.9393063939E+010.0000000000E+00+
*       -1.458606268E+03               0
GRID*               3352               07.3001158755E+010.0000000000E+00+
*       -1.460446411E+03               0
GRID*               3353               06.6546289381E+010.0000000000E+00+
*       -1.462078390E+03               0
GRID*               3354               06.0035434125E+010.0000000000E+00+
*       -1.463499998E+03               0
GRID*               3355               05.3475613507E+010.0000000000E+00+
*       -1.464709219E+03               0
GRID*               3356               04.6873980118E+010.0000000000E+00+
*       -1.465704461E+03               0
GRID*               3357               04.0237713482E+010.0000000000E+00+
*       -1.466484224E+03               0
GRID*               3358               03.3574020611E+010.0000000000E+00+
*       -1.467047200E+03               0
GRID*               3359               02.6890195278E+010.0000000000E+00+
*       -1.467392567E+03               0
GRID*               3360               02.0193549303E+010.0000000000E+00+
*       -1.467519602E+03               0
GRID*               3361               01.3491428710E+010.0000000000E+00+
*       -1.467427324E+03               0
GRID*               3362               06.7911383964E+000.0000000000E+00+
*       -1.467116113E+03               0
GRID*               3363               03.2882666829E+020.0000000000E+00+
*       -1.058071062E+03               0
GRID*               3364               03.2882666829E+020.0000000000E+00+
*       -1.066142125E+03               0
GRID*               3365               03.2878653271E+020.0000000000E+00+
*       -1.072810881E+03               0
GRID*               3366               03.2866748324E+020.0000000000E+00+
*       -1.079478192E+03               0
GRID*               3367               03.2846939423E+020.0000000000E+00+
*       -1.086142608E+03               0
GRID*               3368               03.2819214005E+020.0000000000E+00+
*       -1.092802678E+03               0
GRID*               3369               03.2783560293E+020.0000000000E+00+
*       -1.099456953E+03               0
GRID*               3370               03.2739995345E+020.0000000000E+00+
*       -1.106103991E+03               0
GRID*               3371               03.2688544741E+020.0000000000E+00+
*       -1.112742353E+03               0
GRID*               3372               03.2629227394E+020.0000000000E+00+
*       -1.119370602E+03               0
GRID*               3373               03.2562062218E+020.0000000000E+00+
*       -1.125987301E+03               0
GRID*               3374               03.2487068317E+020.0000000000E+00+
*       -1.132591014E+03               0
GRID*               3375               03.2404270379E+020.0000000000E+00+
*       -1.139180312E+03               0
GRID*               3376               03.2313699390E+020.0000000000E+00+
*       -1.145753779E+03               0
GRID*               3377               03.2215386675E+020.0000000000E+00+
*       -1.152310001E+03               0
GRID*               3378               03.2109363559E+020.0000000000E+00+
*       -1.158847562E+03               0
GRID*               3379               03.1995661984E+020.0000000000E+00+
*       -1.165365050E+03               0
GRID*               3380               03.1874320979E+020.0000000000E+00+
*       -1.171861067E+03               0
GRID*               3381               03.1745384103E+020.0000000000E+00+
*       -1.178334232E+03               0
GRID*               3382               03.1605495943E+020.0000000000E+00+
*       -1.184782242E+03               0
GRID*               3383               03.1451367175E+020.0000000000E+00+
*       -1.191202672E+03               0
GRID*               3384               03.1283025815E+020.0000000000E+00+
*       -1.197592176E+03               0
GRID*               3385               03.1100527522E+020.0000000000E+00+
*       -1.203947442E+03               0
GRID*               3386               03.0903959020E+020.0000000000E+00+
*       -1.210265177E+03               0
GRID*               3387               03.0693401272E+020.0000000000E+00+
*       -1.216542091E+03               0
GRID*               3388               03.0468938149E+020.0000000000E+00+
*       -1.222774900E+03               0
GRID*               3389               03.0230667555E+020.0000000000E+00+
*       -1.228960348E+03               0
GRID*               3390               02.9978697659E+020.0000000000E+00+
*       -1.235095224E+03               0
GRID*               3391               02.9713140700E+020.0000000000E+00+
*       -1.241176327E+03               0
GRID*               3392               02.9434120100E+020.0000000000E+00+
*       -1.247200489E+03               0
GRID*               3393               02.9141762131E+020.0000000000E+00+
*       -1.253164549E+03               0
GRID*               3394               02.8836199779E+020.0000000000E+00+
*       -1.259065376E+03               0
GRID*               3395               02.8517582995E+020.0000000000E+00+
*       -1.264899917E+03               0
GRID*               3396               02.8186064932E+020.0000000000E+00+
*       -1.270665133E+03               0
GRID*               3397               02.7841801437E+020.0000000000E+00+
*       -1.276357997E+03               0
GRID*               3398               02.7484959053E+020.0000000000E+00+
*       -1.281975531E+03               0
GRID*               3399               02.7115712108E+020.0000000000E+00+
*       -1.287514804E+03               0
GRID*               3400               02.6734241992E+020.0000000000E+00+
*       -1.292972936E+03               0
GRID*               3401               02.6340740138E+020.0000000000E+00+
*       -1.298347102E+03               0
GRID*               3402               02.5935400358E+020.0000000000E+00+
*       -1.303634493E+03               0
GRID*               3403               02.5518414500E+020.0000000000E+00+
*       -1.308832266E+03               0
GRID*               3404               02.5089989899E+020.0000000000E+00+
*       -1.313937704E+03               0
GRID*               3405               02.4650357072E+020.0000000000E+00+
*       -1.318948306E+03               0
GRID*               3406               02.4199743450E+020.0000000000E+00+
*       -1.323861530E+03               0
GRID*               3407               02.3738397124E+020.0000000000E+00+
*       -1.328675033E+03               0
GRID*               3408               02.3267960002E+020.0000000000E+00+
*       -1.333427462E+03               0
GRID*               3409               02.2793615655E+020.0000000000E+00+
*       -1.338170907E+03               0
GRID*               3410               02.2319271308E+020.0000000000E+00+
*       -1.342914351E+03               0
GRID*               3411               02.1844926961E+020.0000000000E+00+
*       -1.347657796E+03               0
GRID*               3412               02.1376105690E+020.0000000000E+00+
*       -1.352304251E+03               0
GRID*               3413               02.0903260454E+020.0000000000E+00+
*       -1.356908292E+03               0
GRID*               3414               02.0426490986E+020.0000000000E+00+
*       -1.361468737E+03               0
GRID*               3415               01.9945902626E+020.0000000000E+00+
*       -1.365984465E+03               0
GRID*               3416               01.9461620514E+020.0000000000E+00+
*       -1.370454563E+03               0
GRID*               3417               01.8973766889E+020.0000000000E+00+
*       -1.374878093E+03               0
GRID*               3418               01.8482463727E+020.0000000000E+00+
*       -1.379254115E+03               0
GRID*               3419               01.7987836835E+020.0000000000E+00+
*       -1.383581741E+03               0
GRID*               3420               01.7490015493E+020.0000000000E+00+
*       -1.387860135E+03               0
GRID*               3421               01.6989129126E+020.0000000000E+00+
*       -1.392088463E+03               0
GRID*               3422               01.6485309365E+020.0000000000E+00+
*       -1.396265926E+03               0
GRID*               3423               01.5978691909E+020.0000000000E+00+
*       -1.400391795E+03               0
GRID*               3424               01.5469412892E+020.0000000000E+00+
*       -1.404465353E+03               0
GRID*               3425               01.4957609436E+020.0000000000E+00+
*       -1.408485898E+03               0
GRID*               3426               01.4443422349E+020.0000000000E+00+
*       -1.412452808E+03               0
GRID*               3427               01.3926993308E+020.0000000000E+00+
*       -1.416365479E+03               0
GRID*               3428               01.3408464377E+020.0000000000E+00+
*       -1.420223319E+03               0
GRID*               3429               01.2887980541E+020.0000000000E+00+
*       -1.424025809E+03               0
GRID*               3430               01.2360069897E+020.0000000000E+00+
*       -1.427713044E+03               0
GRID*               3431               01.1819541341E+020.0000000000E+00+
*       -1.431225912E+03               0
GRID*               3432               01.1266922759E+020.0000000000E+00+
*       -1.434559259E+03               0
GRID*               3433               01.0702795984E+020.0000000000E+00+
*       -1.437708570E+03               0
GRID*               3434               01.0127819269E+020.0000000000E+00+
*       -1.440670140E+03               0
GRID*               3435               09.5426343126E+010.0000000000E+00+
*       -1.443440166E+03               0
GRID*               3436               08.9478908172E+010.0000000000E+00+
*       -1.446015013E+03               0
GRID*               3437               08.3442625863E+010.0000000000E+00+
*       -1.448391437E+03               0
GRID*               3438               07.7324291833E+010.0000000000E+00+
*       -1.450566314E+03               0
GRID*               3439               07.1130764305E+010.0000000000E+00+
*       -1.452536703E+03               0
GRID*               3440               06.4869097989E+010.0000000000E+00+
*       -1.454300089E+03               0
GRID*               3441               05.8546392508E+010.0000000000E+00+
*       -1.455854077E+03               0
GRID*               3442               05.2169793046E+010.0000000000E+00+
*       -1.457196452E+03               0
GRID*               3443               04.5746590242E+010.0000000000E+00+
*       -1.458325448E+03               0
GRID*               3444               03.9284104323E+010.0000000000E+00+
*       -1.459239406E+03               0
GRID*               3445               03.2789686767E+010.0000000000E+00+
*       -1.459936843E+03               0
GRID*               3446               02.6270786833E+010.0000000000E+00+
*       -1.460416795E+03               0
GRID*               3447               01.9734873100E+010.0000000000E+00+
*       -1.460678401E+03               0
GRID*               3448               01.3189447127E+010.0000000000E+00+
*       -1.460720537E+03               0
GRID*               3449               06.6419881840E+000.0000000000E+00+
*       -1.460543467E+03               0
GRID*               3450               03.2162000122E+020.0000000000E+00+
*       -1.058012113E+03               0
GRID*               3451               03.2162000122E+020.0000000000E+00+
*       -1.066024226E+03               0
GRID*               3452               03.2157621694E+020.0000000000E+00+
*       -1.072506552E+03               0
GRID*               3453               03.2144634479E+020.0000000000E+00+
*       -1.078987300E+03               0
GRID*               3454               03.2123024770E+020.0000000000E+00+
*       -1.085464890E+03               0
GRID*               3455               03.2092778859E+020.0000000000E+00+
*       -1.091937738E+03               0
GRID*               3456               03.2053883900E+020.0000000000E+00+
*       -1.098404265E+03               0
GRID*               3457               03.2006358502E+020.0000000000E+00+
*       -1.104862898E+03               0
GRID*               3458               03.1950230571E+020.0000000000E+00+
*       -1.111312066E+03               0
GRID*               3459               03.1885520738E+020.0000000000E+00+
*       -1.117750201E+03               0
GRID*               3460               03.1812249636E+020.0000000000E+00+
*       -1.124175736E+03               0
GRID*               3461               03.1730438109E+020.0000000000E+00+
*       -1.130587104E+03               0
GRID*               3462               03.1640113085E+020.0000000000E+00+
*       -1.136982747E+03               0
GRID*               3463               03.1541308370E+020.0000000000E+00+
*       -1.143361120E+03               0
GRID*               3464               03.1434058135E+020.0000000000E+00+
*       -1.149720680E+03               0
GRID*               3465               03.1318396555E+020.0000000000E+00+
*       -1.156059884E+03               0
GRID*               3466               03.1194358473E+020.0000000000E+00+
*       -1.162377188E+03               0
GRID*               3467               03.1061986467E+020.0000000000E+00+
*       -1.168671070E+03               0
GRID*               3468               03.0921328056E+020.0000000000E+00+
*       -1.174940023E+03               0
GRID*               3469               03.0769881556E+020.0000000000E+00+
*       -1.181181848E+03               0
GRID*               3470               03.0605194849E+020.0000000000E+00+
*       -1.187394255E+03               0
GRID*               3471               03.0427304309E+020.0000000000E+00+
*       -1.193574265E+03               0
GRID*               3472               03.0236269676E+020.0000000000E+00+
*       -1.199718934E+03               0
GRID*               3473               03.0032174860E+020.0000000000E+00+
*       -1.205825335E+03               0
GRID*               3474               02.9815099453E+020.0000000000E+00+
*       -1.211890545E+03               0
GRID*               3475               02.9585125230E+020.0000000000E+00+
*       -1.217911644E+03               0
GRID*               3476               02.9342345437E+020.0000000000E+00+
*       -1.223885738E+03               0
GRID*               3477               02.9086863591E+020.0000000000E+00+
*       -1.229809977E+03               0
GRID*               3478               02.8818786693E+020.0000000000E+00+
*       -1.235681522E+03               0
GRID*               3479               02.8538230130E+020.0000000000E+00+
*       -1.241497560E+03               0
GRID*               3480               02.8245311449E+020.0000000000E+00+
*       -1.247255282E+03               0
GRID*               3481               02.7940154612E+020.0000000000E+00+
*       -1.252951908E+03               0
GRID*               3482               02.7622898466E+020.0000000000E+00+
*       -1.258584731E+03               0
GRID*               3483               02.7293684448E+020.0000000000E+00+
*       -1.264151056E+03               0
GRID*               3484               02.6952656017E+020.0000000000E+00+
*       -1.269648195E+03               0
GRID*               3485               02.6599964756E+020.0000000000E+00+
*       -1.275073499E+03               0
GRID*               3486               02.6235769894E+020.0000000000E+00+
*       -1.280424368E+03               0
GRID*               3487               02.5860237480E+020.0000000000E+00+
*       -1.285698246E+03               0
GRID*               3488               02.5473541150E+020.0000000000E+00+
*       -1.290892625E+03               0
GRID*               3489               02.5075856320E+020.0000000000E+00+
*       -1.296005005E+03               0
GRID*               3490               02.4667355432E+020.0000000000E+00+
*       -1.301032845E+03               0
GRID*               3491               02.4248224623E+020.0000000000E+00+
*       -1.305973720E+03               0
GRID*               3492               02.3818674548E+020.0000000000E+00+
*       -1.310825431E+03               0
GRID*               3493               02.3378913769E+020.0000000000E+00+
*       -1.315585754E+03               0
GRID*               3494               02.2929166343E+020.0000000000E+00+
*       -1.320252613E+03               0
GRID*               3495               02.2471171875E+020.0000000000E+00+
*       -1.324868599E+03               0
GRID*               3496               02.2010246989E+020.0000000000E+00+
*       -1.329477848E+03               0
GRID*               3497               02.1549322103E+020.0000000000E+00+
*       -1.334087096E+03               0
GRID*               3498               02.1088397217E+020.0000000000E+00+
*       -1.338696345E+03               0
GRID*               3499               02.0631614637E+020.0000000000E+00+
*       -1.343232850E+03               0
GRID*               3500               02.0171814085E+020.0000000000E+00+
*       -1.347737546E+03               0
GRID*               3501               01.9709070357E+020.0000000000E+00+
*       -1.352209544E+03               0
GRID*               3502               01.9243462461E+020.0000000000E+00+
*       -1.356648006E+03               0
GRID*               3503               01.8775084251E+020.0000000000E+00+
*       -1.361052244E+03               0
GRID*               3504               01.8304027406E+020.0000000000E+00+
*       -1.365421556E+03               0
GRID*               3505               01.7830383409E+020.0000000000E+00+
*       -1.369755238E+03               0
GRID*               3506               01.7354246614E+020.0000000000E+00+
*       -1.374052622E+03               0
GRID*               3507               01.6875713982E+020.0000000000E+00+
*       -1.378313083E+03               0
GRID*               3508               01.6394882580E+020.0000000000E+00+
*       -1.382535994E+03               0
GRID*               3509               01.5911851134E+020.0000000000E+00+
*       -1.386720755E+03               0
GRID*               3510               01.5426721416E+020.0000000000E+00+
*       -1.390866822E+03               0
GRID*               3511               01.4939595527E+020.0000000000E+00+
*       -1.394973656E+03               0
GRID*               3512               01.4450576309E+020.0000000000E+00+
*       -1.399040729E+03               0
GRID*               3513               01.3959769368E+020.0000000000E+00+
*       -1.403067576E+03               0
GRID*               3514               01.3467280961E+020.0000000000E+00+
*       -1.407053745E+03               0
GRID*               3515               01.2973217637E+020.0000000000E+00+
*       -1.410998790E+03               0
GRID*               3516               01.2477688134E+020.0000000000E+00+
*       -1.414902322E+03               0
GRID*               3517               01.1974673233E+020.0000000000E+00+
*       -1.418699154E+03               0
GRID*               3518               01.1458460007E+020.0000000000E+00+
*       -1.422324964E+03               0
GRID*               3519               01.0929573790E+020.0000000000E+00+
*       -1.425774271E+03               0
GRID*               3520               01.0388598244E+020.0000000000E+00+
*       -1.429042269E+03               0
GRID*               3521               09.8362003777E+010.0000000000E+00+
*       -1.432125039E+03               0
GRID*               3522               09.2730288227E+010.0000000000E+00+
*       -1.435018537E+03               0
GRID*               3523               08.6997404545E+010.0000000000E+00+
*       -1.437718878E+03               0
GRID*               3524               08.1170184041E+010.0000000000E+00+
*       -1.440222599E+03               0
GRID*               3525               07.5255519728E+010.0000000000E+00+
*       -1.442526361E+03               0
GRID*               3526               06.9260369855E+010.0000000000E+00+
*       -1.444626994E+03               0
GRID*               3527               06.3191906596E+010.0000000000E+00+
*       -1.446521788E+03               0
GRID*               3528               05.7057350891E+010.0000000000E+00+
*       -1.448208157E+03               0
GRID*               3529               05.0863972585E+010.0000000000E+00+
*       -1.449683685E+03               0
GRID*               3530               04.4619200365E+010.0000000000E+00+
*       -1.450946436E+03               0
GRID*               3531               03.8330495164E+010.0000000000E+00+
*       -1.451994587E+03               0
GRID*               3532               03.2005352924E+010.0000000000E+00+
*       -1.452826486E+03               0
GRID*               3533               02.5651378388E+010.0000000000E+00+
*       -1.453441022E+03               0
GRID*               3534               01.9276196897E+010.0000000000E+00+
*       -1.453837201E+03               0
GRID*               3535               01.2887465544E+010.0000000000E+00+
*       -1.454013750E+03               0
GRID*               3536               06.4928379717E+000.0000000000E+00+
*       -1.453970821E+03               0
GRID*               3537               03.1441333415E+020.0000000000E+00+
*       -1.057953164E+03               0
GRID*               3538               03.1441333415E+020.0000000000E+00+
*       -1.065906328E+03               0
GRID*               3539               03.1436590118E+020.0000000000E+00+
*       -1.072202222E+03               0
GRID*               3540               03.1422520635E+020.0000000000E+00+
*       -1.078496408E+03               0
GRID*               3541               03.1399110117E+020.0000000000E+00+
*       -1.084787172E+03               0
GRID*               3542               03.1366343713E+020.0000000000E+00+
*       -1.091072799E+03               0
GRID*               3543               03.1324207508E+020.0000000000E+00+
*       -1.097351578E+03               0
GRID*               3544               03.1272721660E+020.0000000000E+00+
*       -1.103621805E+03               0
GRID*               3545               03.1211916401E+020.0000000000E+00+
*       -1.109881778E+03               0
GRID*               3546               03.1141814082E+020.0000000000E+00+
*       -1.116129799E+03               0
GRID*               3547               03.1062437055E+020.0000000000E+00+
*       -1.122364171E+03               0
GRID*               3548               03.0973807900E+020.0000000000E+00+
*       -1.128583195E+03               0
GRID*               3549               03.0875955791E+020.0000000000E+00+
*       -1.134785183E+03               0
GRID*               3550               03.0768917350E+020.0000000000E+00+
*       -1.140968462E+03               0
GRID*               3551               03.0652729596E+020.0000000000E+00+
*       -1.147131360E+03               0
GRID*               3552               03.0527429550E+020.0000000000E+00+
*       -1.153272205E+03               0
GRID*               3553               03.0393054961E+020.0000000000E+00+
*       -1.159389326E+03               0
GRID*               3554               03.0249651955E+020.0000000000E+00+
*       -1.165481074E+03               0
GRID*               3555               03.0097272010E+020.0000000000E+00+
*       -1.171545814E+03               0
GRID*               3556               02.9934267170E+020.0000000000E+00+
*       -1.177581453E+03               0
GRID*               3557               02.9759022523E+020.0000000000E+00+
*       -1.183585837E+03               0
GRID*               3558               02.9571582804E+020.0000000000E+00+
*       -1.189556353E+03               0
GRID*               3559               02.9372011829E+020.0000000000E+00+
*       -1.195490425E+03               0
GRID*               3560               02.9160390699E+020.0000000000E+00+
*       -1.201385493E+03               0
GRID*               3561               02.8936797633E+020.0000000000E+00+
*       -1.207239000E+03               0
GRID*               3562               02.8701312310E+020.0000000000E+00+
*       -1.213048389E+03               0
GRID*               3563               02.8454023318E+020.0000000000E+00+
*       -1.218811128E+03               0
GRID*               3564               02.8195029523E+020.0000000000E+00+
*       -1.224524729E+03               0
GRID*               3565               02.7924432686E+020.0000000000E+00+
*       -1.230186717E+03               0
GRID*               3566               02.7642340160E+020.0000000000E+00+
*       -1.235794631E+03               0
GRID*               3567               02.7348860768E+020.0000000000E+00+
*       -1.241346014E+03               0
GRID*               3568               02.7044109446E+020.0000000000E+00+
*       -1.246838440E+03               0
GRID*               3569               02.6728213937E+020.0000000000E+00+
*       -1.252269545E+03               0
GRID*               3570               02.6401303964E+020.0000000000E+00+
*       -1.257636978E+03               0
GRID*               3571               02.6063510597E+020.0000000000E+00+
*       -1.262938392E+03               0
GRID*               3572               02.5714970460E+020.0000000000E+00+
*       -1.268171468E+03               0
GRID*               3573               02.5355827679E+020.0000000000E+00+
*       -1.273333931E+03               0
GRID*               3574               02.4986232968E+020.0000000000E+00+
*       -1.278423556E+03               0
GRID*               3575               02.4606342162E+020.0000000000E+00+
*       -1.283438148E+03               0
GRID*               3576               02.4216312281E+020.0000000000E+00+
*       -1.288375517E+03               0
GRID*               3577               02.3816296365E+020.0000000000E+00+
*       -1.293233425E+03               0
GRID*               3578               02.3406459348E+020.0000000000E+00+
*       -1.298009735E+03               0
GRID*               3579               02.2986992025E+020.0000000000E+00+
*       -1.302702556E+03               0
GRID*               3580               02.2558084088E+020.0000000000E+00+
*       -1.307309979E+03               0
GRID*               3581               02.2119935561E+020.0000000000E+00+
*       -1.311830192E+03               0
GRID*               3582               02.1674383748E+020.0000000000E+00+
*       -1.316309736E+03               0
GRID*               3583               02.1226878323E+020.0000000000E+00+
*       -1.320784789E+03               0
GRID*               3584               02.0779372898E+020.0000000000E+00+
*       -1.325259841E+03               0
GRID*               3585               02.0331867472E+020.0000000000E+00+
*       -1.329734893E+03               0
GRID*               3586               01.9887123585E+020.0000000000E+00+
*       -1.334161450E+03               0
GRID*               3587               01.9440367715E+020.0000000000E+00+
*       -1.338566800E+03               0
GRID*               3588               01.8991649729E+020.0000000000E+00+
*       -1.342950352E+03               0
GRID*               3589               01.8541022297E+020.0000000000E+00+
*       -1.347311546E+03               0
GRID*               3590               01.8088547989E+020.0000000000E+00+
*       -1.351649925E+03               0
GRID*               3591               01.7634287924E+020.0000000000E+00+
*       -1.355965020E+03               0
GRID*               3592               01.7178303091E+020.0000000000E+00+
*       -1.360256361E+03               0
GRID*               3593               01.6720656394E+020.0000000000E+00+
*       -1.364523503E+03               0
GRID*               3594               01.6261412471E+020.0000000000E+00+
*       -1.368766030E+03               0
GRID*               3595               01.5800636035E+020.0000000000E+00+
*       -1.372983524E+03               0
GRID*               3596               01.5338392903E+020.0000000000E+00+
*       -1.377175585E+03               0
GRID*               3597               01.4874750923E+020.0000000000E+00+
*       -1.381341849E+03               0
GRID*               3598               01.4409778162E+020.0000000000E+00+
*       -1.385481958E+03               0
GRID*               3599               01.3943543182E+020.0000000000E+00+
*       -1.389595560E+03               0
GRID*               3600               01.3476116387E+020.0000000000E+00+
*       -1.393682345E+03               0
GRID*               3601               01.3007568614E+020.0000000000E+00+
*       -1.397742010E+03               0
GRID*               3602               01.2537970897E+020.0000000000E+00+
*       -1.401774260E+03               0
GRID*               3603               01.2067395727E+020.0000000000E+00+
*       -1.405778835E+03               0
GRID*               3604               01.1589276570E+020.0000000000E+00+
*       -1.409685265E+03               0
GRID*               3605               01.1097378672E+020.0000000000E+00+
*       -1.413424017E+03               0
GRID*               3606               01.0592224820E+020.0000000000E+00+
*       -1.416989283E+03               0
GRID*               3607               01.0074400504E+020.0000000000E+00+
*       -1.420375968E+03               0
GRID*               3608               09.5445814865E+010.0000000000E+00+
*       -1.423579938E+03               0
GRID*               3609               09.0034233329E+010.0000000000E+00+
*       -1.426596908E+03               0
GRID*               3610               08.4515900919E+010.0000000000E+00+
*       -1.429422743E+03               0
GRID*               3611               07.8897742219E+010.0000000000E+00+
*       -1.432053761E+03               0
GRID*               3612               07.3186747622E+010.0000000000E+00+
*       -1.434486408E+03               0
GRID*               3613               06.7389975405E+010.0000000000E+00+
*       -1.436717286E+03               0
GRID*               3614               06.1514715204E+010.0000000000E+00+
*       -1.438743487E+03               0
GRID*               3615               05.5568309274E+010.0000000000E+00+
*       -1.440562236E+03               0
GRID*               3616               04.9558152124E+010.0000000000E+00+
*       -1.442170918E+03               0
GRID*               3617               04.3491810489E+010.0000000000E+00+
*       -1.443567424E+03               0
GRID*               3618               03.7376886005E+010.0000000000E+00+
*       -1.444749768E+03               0
GRID*               3619               03.1221019081E+010.0000000000E+00+
*       -1.445716129E+03               0
GRID*               3620               02.5031969942E+010.0000000000E+00+
*       -1.446465249E+03               0
GRID*               3621               01.8817520694E+010.0000000000E+00+
*       -1.446996000E+03               0
GRID*               3622               01.2585483962E+010.0000000000E+00+
*       -1.447306964E+03               0
GRID*               3623               06.3436877593E+000.0000000000E+00+
*       -1.447398175E+03               0
GRID*               3624               03.0720666707E+020.0000000000E+00+
*       -1.057894215E+03               0
GRID*               3625               03.0720666707E+020.0000000000E+00+
*       -1.065788430E+03               0
GRID*               3626               03.0715558542E+020.0000000000E+00+
*       -1.071897893E+03               0
GRID*               3627               03.0700406791E+020.0000000000E+00+
*       -1.078005516E+03               0
GRID*               3628               03.0675195463E+020.0000000000E+00+
*       -1.084109453E+03               0
GRID*               3629               03.0639908567E+020.0000000000E+00+
*       -1.090207860E+03               0
GRID*               3630               03.0594531115E+020.0000000000E+00+
*       -1.096298891E+03               0
GRID*               3631               03.0539084818E+020.0000000000E+00+
*       -1.102380712E+03               0
GRID*               3632               03.0473602231E+020.0000000000E+00+
*       -1.108451491E+03               0
GRID*               3633               03.0398107426E+020.0000000000E+00+
*       -1.114509398E+03               0
GRID*               3634               03.0312624474E+020.0000000000E+00+
*       -1.120552605E+03               0
GRID*               3635               03.0217177692E+020.0000000000E+00+
*       -1.126579285E+03               0
GRID*               3636               03.0111798497E+020.0000000000E+00+
*       -1.132587618E+03               0
GRID*               3637               02.9996526330E+020.0000000000E+00+
*       -1.138575803E+03               0
GRID*               3638               02.9871401056E+020.0000000000E+00+
*       -1.144542039E+03               0
GRID*               3639               02.9736462545E+020.0000000000E+00+
*       -1.150484526E+03               0
GRID*               3640               02.9591751450E+020.0000000000E+00+
*       -1.156401465E+03               0
GRID*               3641               02.9437317443E+020.0000000000E+00+
*       -1.162291077E+03               0
GRID*               3642               02.9273215964E+020.0000000000E+00+
*       -1.168151605E+03               0
GRID*               3643               02.9098652784E+020.0000000000E+00+
*       -1.173981059E+03               0
GRID*               3644               02.8912850197E+020.0000000000E+00+
*       -1.179777420E+03               0
GRID*               3645               02.8715861298E+020.0000000000E+00+
*       -1.185538442E+03               0
GRID*               3646               02.8507753983E+020.0000000000E+00+
*       -1.191261917E+03               0
GRID*               3647               02.8288606538E+020.0000000000E+00+
*       -1.196945651E+03               0
GRID*               3648               02.8058495814E+020.0000000000E+00+
*       -1.202587454E+03               0
GRID*               3649               02.7817499390E+020.0000000000E+00+
*       -1.208185133E+03               0
GRID*               3650               02.7565701199E+020.0000000000E+00+
*       -1.213736518E+03               0
GRID*               3651               02.7303195455E+020.0000000000E+00+
*       -1.219239482E+03               0
GRID*               3652               02.7030078680E+020.0000000000E+00+
*       -1.224691913E+03               0
GRID*               3653               02.6746450191E+020.0000000000E+00+
*       -1.230091702E+03               0
GRID*               3654               02.6452410086E+020.0000000000E+00+
*       -1.235436747E+03               0
GRID*               3655               02.6148064279E+020.0000000000E+00+
*       -1.240724971E+03               0
GRID*               3656               02.5833529408E+020.0000000000E+00+
*       -1.245954359E+03               0
GRID*               3657               02.5508923480E+020.0000000000E+00+
*       -1.251122900E+03               0
GRID*               3658               02.5174365177E+020.0000000000E+00+
*       -1.256228590E+03               0
GRID*               3659               02.4829976163E+020.0000000000E+00+
*       -1.261269436E+03               0
GRID*               3660               02.4475885464E+020.0000000000E+00+
*       -1.266243494E+03               0
GRID*               3661               02.4112228457E+020.0000000000E+00+
*       -1.271148866E+03               0
GRID*               3662               02.3739143174E+020.0000000000E+00+
*       -1.275983670E+03               0
GRID*               3663               02.3356768243E+020.0000000000E+00+
*       -1.280746029E+03               0
GRID*               3664               02.2965237297E+020.0000000000E+00+
*       -1.285434004E+03               0
GRID*               3665               02.2564694072E+020.0000000000E+00+
*       -1.290045751E+03               0
GRID*               3666               02.2155309501E+020.0000000000E+00+
*       -1.294579682E+03               0
GRID*               3667               02.1737254407E+020.0000000000E+00+
*       -1.299034203E+03               0
GRID*               3668               02.1310704780E+020.0000000000E+00+
*       -1.303407772E+03               0
GRID*               3669               02.0877595622E+020.0000000000E+00+
*       -1.307750874E+03               0
GRID*               3670               02.0443509657E+020.0000000000E+00+
*       -1.312091730E+03               0
GRID*               3671               02.0009423692E+020.0000000000E+00+
*       -1.316432585E+03               0
GRID*               3672               01.9575337728E+020.0000000000E+00+
*       -1.320773441E+03               0
GRID*               3673               01.9142632532E+020.0000000000E+00+
*       -1.325090049E+03               0
GRID*               3674               01.8708921345E+020.0000000000E+00+
*       -1.329396054E+03               0
GRID*               3675               01.8274229100E+020.0000000000E+00+
*       -1.333691160E+03               0
GRID*               3676               01.7838582132E+020.0000000000E+00+
*       -1.337975087E+03               0
GRID*               3677               01.7402011726E+020.0000000000E+00+
*       -1.342247606E+03               0
GRID*               3678               01.6964548442E+020.0000000000E+00+
*       -1.346508483E+03               0
GRID*               3679               01.6526222774E+020.0000000000E+00+
*       -1.350757483E+03               0
GRID*               3680               01.6087066173E+020.0000000000E+00+
*       -1.354994384E+03               0
GRID*               3681               01.5647110960E+020.0000000000E+00+
*       -1.359218978E+03               0
GRID*               3682               01.5206389490E+020.0000000000E+00+
*       -1.363431054E+03               0
GRID*               3683               01.4764934672E+020.0000000000E+00+
*       -1.367630414E+03               0
GRID*               3684               01.4322780430E+020.0000000000E+00+
*       -1.371816876E+03               0
GRID*               3685               01.3879960798E+020.0000000000E+00+
*       -1.375990260E+03               0
GRID*               3686               01.3436510055E+020.0000000000E+00+
*       -1.380150391E+03               0
GRID*               3687               01.2992463406E+020.0000000000E+00+
*       -1.384297113E+03               0
GRID*               3688               01.2547856268E+020.0000000000E+00+
*       -1.388430276E+03               0
GRID*               3689               01.2102724157E+020.0000000000E+00+
*       -1.392549730E+03               0
GRID*               3690               01.1657103320E+020.0000000000E+00+
*       -1.396655347E+03               0
GRID*               3691               01.1203879906E+020.0000000000E+00+
*       -1.400671376E+03               0
GRID*               3692               01.0736297337E+020.0000000000E+00+
*       -1.404523069E+03               0
GRID*               3693               01.0254875851E+020.0000000000E+00+
*       -1.408204295E+03               0
GRID*               3694               09.7602027637E+010.0000000000E+00+
*       -1.411709668E+03               0
GRID*               3695               09.2529625954E+010.0000000000E+00+
*       -1.415034837E+03               0
GRID*               3696               08.7338178430E+010.0000000000E+00+
*       -1.418175279E+03               0
GRID*               3697               08.2034397292E+010.0000000000E+00+
*       -1.421126608E+03               0
GRID*               3698               07.6625300397E+010.0000000000E+00+
*       -1.423884922E+03               0
GRID*               3699               07.1117975517E+010.0000000000E+00+
*       -1.426446454E+03               0
GRID*               3700               06.5519580955E+010.0000000000E+00+
*       -1.428807577E+03               0
GRID*               3701               05.9837523812E+010.0000000000E+00+
*       -1.430965186E+03               0
GRID*               3702               05.4079267657E+010.0000000000E+00+
*       -1.432916316E+03               0
GRID*               3703               04.8252331663E+010.0000000000E+00+
*       -1.434658151E+03               0
GRID*               3704               04.2364420613E+010.0000000000E+00+
*       -1.436188412E+03               0
GRID*               3705               03.6423276846E+010.0000000000E+00+
*       -1.437504949E+03               0
GRID*               3706               03.0436685237E+010.0000000000E+00+
*       -1.438605772E+03               0
GRID*               3707               02.4412561497E+010.0000000000E+00+
*       -1.439489477E+03               0
GRID*               3708               01.8358844491E+010.0000000000E+00+
*       -1.440154799E+03               0
GRID*               3709               01.2283502379E+010.0000000000E+00+
*       -1.440600177E+03               0
GRID*               3710               06.1945375469E+000.0000000000E+00+
*       -1.440825529E+03               0
GRID*               3711               04.7810109795E+020.0000000000E+00+
*       -1.190000000E+03               0
GRID*               3712               04.6931221178E+020.0000000000E+00+
*       -1.190000000E+03               0
GRID*               3713               04.6052332560E+020.0000000000E+00+
*       -1.190000000E+03               0
GRID*               3714               04.5173443943E+020.0000000000E+00+
*       -1.190000000E+03               0
GRID*               3715               04.4294555325E+020.0000000000E+00+
*       -1.190000000E+03               0
GRID*               3716               04.3415666707E+020.0000000000E+00+
*       -1.190000000E+03               0
GRID*               3717               04.2536778090E+020.0000000000E+00+
*       -1.190000000E+03               0
GRID*               3718               04.1657889472E+020.0000000000E+00+
*       -1.190000000E+03               0
GRID*               3719               04.7810109795E+020.0000000000E+00+
*       -1.180000000E+03               0
GRID*               3720               04.6931221178E+020.0000000000E+00+
*       -1.180000000E+03               0
GRID*               3721               04.6052332560E+020.0000000000E+00+
*       -1.180000000E+03               0
GRID*               3722               04.5173443943E+020.0000000000E+00+
*       -1.180000000E+03               0
GRID*               3723               04.4294555325E+020.0000000000E+00+
*       -1.180000000E+03               0
GRID*               3724               04.3415666707E+020.0000000000E+00+
*       -1.180000000E+03               0
GRID*               3725               04.2536778090E+020.0000000000E+00+
*       -1.180000000E+03               0
GRID*               3726               04.1657889472E+020.0000000000E+00+
*       -1.180000000E+03               0
GRID*               3727               04.7810109795E+020.0000000000E+00+
*       -1.170000000E+03               0
GRID*               3728               04.6931221178E+020.0000000000E+00+
*       -1.170000000E+03               0
GRID*               3729               04.6052332560E+020.0000000000E+00+
*       -1.170000000E+03               0
GRID*               3730               04.5173443943E+020.0000000000E+00+
*       -1.170000000E+03               0
GRID*               3731               04.4294555325E+020.0000000000E+00+
*       -1.170000000E+03               0
GRID*               3732               04.3415666707E+020.0000000000E+00+
*       -1.170000000E+03               0
GRID*               3733               04.2536778090E+020.0000000000E+00+
*       -1.170000000E+03               0
GRID*               3734               04.1657889472E+020.0000000000E+00+
*       -1.170000000E+03               0
GRID*               3735               04.7810109795E+020.0000000000E+00+
*       -1.160000000E+03               0
GRID*               3736               04.6931221178E+020.0000000000E+00+
*       -1.160000000E+03               0
GRID*               3737               04.6052332560E+020.0000000000E+00+
*       -1.160000000E+03               0
GRID*               3738               04.5173443943E+020.0000000000E+00+
*       -1.160000000E+03               0
GRID*               3739               04.4294555325E+020.0000000000E+00+
*       -1.160000000E+03               0
GRID*               3740               04.3415666707E+020.0000000000E+00+
*       -1.160000000E+03               0
GRID*               3741               04.2536778090E+020.0000000000E+00+
*       -1.160000000E+03               0
GRID*               3742               04.1657889472E+020.0000000000E+00+
*       -1.160000000E+03               0
GRID*               3743               04.7810109795E+020.0000000000E+00+
*       -1.150000000E+03               0
GRID*               3744               04.6931221178E+020.0000000000E+00+
*       -1.150000000E+03               0
GRID*               3745               04.6052332560E+020.0000000000E+00+
*       -1.150000000E+03               0
GRID*               3746               04.5173443943E+020.0000000000E+00+
*       -1.150000000E+03               0
GRID*               3747               04.4294555325E+020.0000000000E+00+
*       -1.150000000E+03               0
GRID*               3748               04.3415666707E+020.0000000000E+00+
*       -1.150000000E+03               0
GRID*               3749               04.2536778090E+020.0000000000E+00+
*       -1.150000000E+03               0
GRID*               3750               04.1657889472E+020.0000000000E+00+
*       -1.150000000E+03               0
GRID*               3751               04.7810109795E+020.0000000000E+00+
*       -1.140000000E+03               0
GRID*               3752               04.6931221178E+020.0000000000E+00+
*       -1.140000000E+03               0
GRID*               3753               04.6052332560E+020.0000000000E+00+
*       -1.140000000E+03               0
GRID*               3754               04.5173443943E+020.0000000000E+00+
*       -1.140000000E+03               0
GRID*               3755               04.4294555325E+020.0000000000E+00+
*       -1.140000000E+03               0
GRID*               3756               04.3415666707E+020.0000000000E+00+
*       -1.140000000E+03               0
GRID*               3757               04.2536778090E+020.0000000000E+00+
*       -1.140000000E+03               0
GRID*               3758               04.1657889472E+020.0000000000E+00+
*       -1.140000000E+03               0
GRID*               3759               04.7810109795E+020.0000000000E+00+
*       -1.130000000E+03               0
GRID*               3760               04.6931221178E+020.0000000000E+00+
*       -1.130000000E+03               0
GRID*               3761               04.6052332560E+020.0000000000E+00+
*       -1.130000000E+03               0
GRID*               3762               04.5173443943E+020.0000000000E+00+
*       -1.130000000E+03               0
GRID*               3763               04.4294555325E+020.0000000000E+00+
*       -1.130000000E+03               0
GRID*               3764               04.3415666707E+020.0000000000E+00+
*       -1.130000000E+03               0
GRID*               3765               04.2536778090E+020.0000000000E+00+
*       -1.130000000E+03               0
GRID*               3766               04.1657889472E+020.0000000000E+00+
*       -1.130000000E+03               0
GRID*               3767               04.7810109795E+020.0000000000E+00+
*       -1.120000000E+03               0
GRID*               3768               04.6931221178E+020.0000000000E+00+
*       -1.120000000E+03               0
GRID*               3769               04.6052332560E+020.0000000000E+00+
*       -1.120000000E+03               0
GRID*               3770               04.5173443943E+020.0000000000E+00+
*       -1.120000000E+03               0
GRID*               3771               04.4294555325E+020.0000000000E+00+
*       -1.120000000E+03               0
GRID*               3772               04.3415666707E+020.0000000000E+00+
*       -1.120000000E+03               0
GRID*               3773               04.2536778090E+020.0000000000E+00+
*       -1.120000000E+03               0
GRID*               3774               04.1657889472E+020.0000000000E+00+
*       -1.120000000E+03               0
GRID*               3775               04.7810109795E+020.0000000000E+00+
*       -1.110000000E+03               0
GRID*               3776               04.6931221178E+020.0000000000E+00+
*       -1.110000000E+03               0
GRID*               3777               04.6052332560E+020.0000000000E+00+
*       -1.110000000E+03               0
GRID*               3778               04.5173443943E+020.0000000000E+00+
*       -1.110000000E+03               0
GRID*               3779               04.4294555325E+020.0000000000E+00+
*       -1.110000000E+03               0
GRID*               3780               04.3415666707E+020.0000000000E+00+
*       -1.110000000E+03               0
GRID*               3781               04.2536778090E+020.0000000000E+00+
*       -1.110000000E+03               0
GRID*               3782               04.1657889472E+020.0000000000E+00+
*       -1.110000000E+03               0
GRID*               3783               04.7810109795E+020.0000000000E+00+
*       -1.100000000E+03               0
GRID*               3784               04.6931221178E+020.0000000000E+00+
*       -1.100000000E+03               0
GRID*               3785               04.6052332560E+020.0000000000E+00+
*       -1.100000000E+03               0
GRID*               3786               04.5173443943E+020.0000000000E+00+
*       -1.100000000E+03               0
GRID*               3787               04.4294555325E+020.0000000000E+00+
*       -1.100000000E+03               0
GRID*               3788               04.3415666707E+020.0000000000E+00+
*       -1.100000000E+03               0
GRID*               3789               04.2536778090E+020.0000000000E+00+
*       -1.100000000E+03               0
GRID*               3790               04.1657889472E+020.0000000000E+00+
*       -1.100000000E+03               0
GRID*               3791               04.7810109795E+020.0000000000E+00+
*       -1.090000000E+03               0
GRID*               3792               04.6931221178E+020.0000000000E+00+
*       -1.090000000E+03               0
GRID*               3793               04.6052332560E+020.0000000000E+00+
*       -1.090000000E+03               0
GRID*               3794               04.5173443943E+020.0000000000E+00+
*       -1.090000000E+03               0
GRID*               3795               04.4294555325E+020.0000000000E+00+
*       -1.090000000E+03               0
GRID*               3796               04.3415666707E+020.0000000000E+00+
*       -1.090000000E+03               0
GRID*               3797               04.2536778090E+020.0000000000E+00+
*       -1.090000000E+03               0
GRID*               3798               04.1657889472E+020.0000000000E+00+
*       -1.090000000E+03               0
GRID*               3799               04.7810109795E+020.0000000000E+00+
*       -1.080000000E+03               0
GRID*               3800               04.6931221178E+020.0000000000E+00+
*       -1.080000000E+03               0
GRID*               3801               04.6052332560E+020.0000000000E+00+
*       -1.080000000E+03               0
GRID*               3802               04.5173443943E+020.0000000000E+00+
*       -1.080000000E+03               0
GRID*               3803               04.4294555325E+020.0000000000E+00+
*       -1.080000000E+03               0
GRID*               3804               04.3415666707E+020.0000000000E+00+
*       -1.080000000E+03               0
GRID*               3805               04.2536778090E+020.0000000000E+00+
*       -1.080000000E+03               0
GRID*               3806               04.1657889472E+020.0000000000E+00+
*       -1.080000000E+03               0
GRID*               3807               04.7810109795E+020.0000000000E+00+
*       -1.070000000E+03               0
GRID*               3808               04.6931221178E+020.0000000000E+00+
*       -1.070000000E+03               0
GRID*               3809               04.6052332560E+020.0000000000E+00+
*       -1.070000000E+03               0
GRID*               3810               04.5173443943E+020.0000000000E+00+
*       -1.070000000E+03               0
GRID*               3811               04.4294555325E+020.0000000000E+00+
*       -1.070000000E+03               0
GRID*               3812               04.3415666707E+020.0000000000E+00+
*       -1.070000000E+03               0
GRID*               3813               04.2536778090E+020.0000000000E+00+
*       -1.070000000E+03               0
GRID*               3814               04.1657889472E+020.0000000000E+00+
*       -1.070000000E+03               0
GRID*               3815               04.7810109795E+020.0000000000E+00+
*       -1.060000000E+03               0
GRID*               3816               04.6931221178E+020.0000000000E+00+
*       -1.060000000E+03               0
GRID*               3817               04.6052332560E+020.0000000000E+00+
*       -1.060000000E+03               0
GRID*               3818               04.5173443943E+020.0000000000E+00+
*       -1.060000000E+03               0
GRID*               3819               04.4294555325E+020.0000000000E+00+
*       -1.060000000E+03               0
GRID*               3820               04.3415666707E+020.0000000000E+00+
*       -1.060000000E+03               0
GRID*               3821               04.2536778090E+020.0000000000E+00+
*       -1.060000000E+03               0
GRID*               3822               04.1657889472E+020.0000000000E+00+
*       -1.060000000E+03               0
GRID*               3823               04.7810109795E+020.0000000000E+00+
*       -1.050000000E+03               0
GRID*               3824               04.6931221178E+020.0000000000E+00+
*       -1.050000000E+03               0
GRID*               3825               04.6052332560E+020.0000000000E+00+
*       -1.050000000E+03               0
GRID*               3826               04.5173443943E+020.0000000000E+00+
*       -1.050000000E+03               0
GRID*               3827               04.4294555325E+020.0000000000E+00+
*       -1.050000000E+03               0
GRID*               3828               04.3415666707E+020.0000000000E+00+
*       -1.050000000E+03               0
GRID*               3829               04.2536778090E+020.0000000000E+00+
*       -1.050000000E+03               0
GRID*               3830               04.1657889472E+020.0000000000E+00+
*       -1.050000000E+03               0
GRID*               3831               04.7810109795E+020.0000000000E+00+
*       -1.040000000E+03               0
GRID*               3832               04.6931221178E+020.0000000000E+00+
*       -1.040000000E+03               0
GRID*               3833               04.6052332560E+020.0000000000E+00+
*       -1.040000000E+03               0
GRID*               3834               04.5173443943E+020.0000000000E+00+
*       -1.040000000E+03               0
GRID*               3835               04.4294555325E+020.0000000000E+00+
*       -1.040000000E+03               0
GRID*               3836               04.3415666707E+020.0000000000E+00+
*       -1.040000000E+03               0
GRID*               3837               04.2536778090E+020.0000000000E+00+
*       -1.040000000E+03               0
GRID*               3838               04.1657889472E+020.0000000000E+00+
*       -1.040000000E+03               0
GRID*               3839               04.7810109795E+020.0000000000E+00+
*       -1.030000000E+03               0
GRID*               3840               04.6931221178E+020.0000000000E+00+
*       -1.030000000E+03               0
GRID*               3841               04.6052332560E+020.0000000000E+00+
*       -1.030000000E+03               0
GRID*               3842               04.5173443943E+020.0000000000E+00+
*       -1.030000000E+03               0
GRID*               3843               04.4294555325E+020.0000000000E+00+
*       -1.030000000E+03               0
GRID*               3844               04.3415666707E+020.0000000000E+00+
*       -1.030000000E+03               0
GRID*               3845               04.2536778090E+020.0000000000E+00+
*       -1.030000000E+03               0
GRID*               3846               04.1657889472E+020.0000000000E+00+
*       -1.030000000E+03               0
GRID*               3847               04.7810109795E+020.0000000000E+00+
*       -1.020000000E+03               0
GRID*               3848               04.6931221178E+020.0000000000E+00+
*       -1.020000000E+03               0
GRID*               3849               04.6052332560E+020.0000000000E+00+
*       -1.020000000E+03               0
GRID*               3850               04.5173443943E+020.0000000000E+00+
*       -1.020000000E+03               0
GRID*               3851               04.4294555325E+020.0000000000E+00+
*       -1.020000000E+03               0
GRID*               3852               04.3415666707E+020.0000000000E+00+
*       -1.020000000E+03               0
GRID*               3853               04.2536778090E+020.0000000000E+00+
*       -1.020000000E+03               0
GRID*               3854               04.1657889472E+020.0000000000E+00+
*       -1.020000000E+03               0
GRID*               3855               04.7810109795E+020.0000000000E+00+
*       -1.010000000E+03               0
GRID*               3856               04.6931221178E+020.0000000000E+00+
*       -1.010000000E+03               0
GRID*               3857               04.6052332560E+020.0000000000E+00+
*       -1.010000000E+03               0
GRID*               3858               04.5173443943E+020.0000000000E+00+
*       -1.010000000E+03               0
GRID*               3859               04.4294555325E+020.0000000000E+00+
*       -1.010000000E+03               0
GRID*               3860               04.3415666707E+020.0000000000E+00+
*       -1.010000000E+03               0
GRID*               3861               04.2536778090E+020.0000000000E+00+
*       -1.010000000E+03               0
GRID*               3862               04.1657889472E+020.0000000000E+00+
*       -1.010000000E+03               0
GRID*               3863               04.7810109795E+020.0000000000E+00+
*       -1.000000000E+03               0
GRID*               3864               04.6931221178E+020.0000000000E+00+
*       -1.000000000E+03               0
GRID*               3865               04.6052332560E+020.0000000000E+00+
*       -1.000000000E+03               0
GRID*               3866               04.5173443943E+020.0000000000E+00+
*       -1.000000000E+03               0
GRID*               3867               04.4294555325E+020.0000000000E+00+
*       -1.000000000E+03               0
GRID*               3868               04.3415666707E+020.0000000000E+00+
*       -1.000000000E+03               0
GRID*               3869               04.2536778090E+020.0000000000E+00+
*       -1.000000000E+03               0
GRID*               3870               04.1657889472E+020.0000000000E+00+
*       -1.000000000E+03               0
GRID*               3871               04.7810109795E+020.0000000000E+00+
*       -9.900000000E+02               0
GRID*               3872               04.6931221178E+020.0000000000E+00+
*       -9.900000000E+02               0
GRID*               3873               04.6052332560E+020.0000000000E+00+
*       -9.900000000E+02               0
GRID*               3874               04.5173443943E+020.0000000000E+00+
*       -9.900000000E+02               0
GRID*               3875               04.4294555325E+020.0000000000E+00+
*       -9.900000000E+02               0
GRID*               3876               04.3415666707E+020.0000000000E+00+
*       -9.900000000E+02               0
GRID*               3877               04.2536778090E+020.0000000000E+00+
*       -9.900000000E+02               0
GRID*               3878               04.1657889472E+020.0000000000E+00+
*       -9.900000000E+02               0
GRID*               3879               04.7810109795E+020.0000000000E+00+
*       -9.800000000E+02               0
GRID*               3880               04.6931221178E+020.0000000000E+00+
*       -9.800000000E+02               0
GRID*               3881               04.6052332560E+020.0000000000E+00+
*       -9.800000000E+02               0
GRID*               3882               04.5173443943E+020.0000000000E+00+
*       -9.800000000E+02               0
GRID*               3883               04.4294555325E+020.0000000000E+00+
*       -9.800000000E+02               0
GRID*               3884               04.3415666707E+020.0000000000E+00+
*       -9.800000000E+02               0
GRID*               3885               04.2536778090E+020.0000000000E+00+
*       -9.800000000E+02               0
GRID*               3886               04.1657889472E+020.0000000000E+00+
*       -9.800000000E+02               0
GRID*               3887               04.7810109795E+020.0000000000E+00+
*       -9.700000000E+02               0
GRID*               3888               04.6931221178E+020.0000000000E+00+
*       -9.700000000E+02               0
GRID*               3889               04.6052332560E+020.0000000000E+00+
*       -9.700000000E+02               0
GRID*               3890               04.5173443943E+020.0000000000E+00+
*       -9.700000000E+02               0
GRID*               3891               04.4294555325E+020.0000000000E+00+
*       -9.700000000E+02               0
GRID*               3892               04.3415666707E+020.0000000000E+00+
*       -9.700000000E+02               0
GRID*               3893               04.2536778090E+020.0000000000E+00+
*       -9.700000000E+02               0
GRID*               3894               04.1657889472E+020.0000000000E+00+
*       -9.700000000E+02               0
GRID*               3895               04.7810109795E+020.0000000000E+00+
*       -9.600000000E+02               0
GRID*               3896               04.6931221178E+020.0000000000E+00+
*       -9.600000000E+02               0
GRID*               3897               04.6052332560E+020.0000000000E+00+
*       -9.600000000E+02               0
GRID*               3898               04.5173443943E+020.0000000000E+00+
*       -9.600000000E+02               0
GRID*               3899               04.4294555325E+020.0000000000E+00+
*       -9.600000000E+02               0
GRID*               3900               04.3415666707E+020.0000000000E+00+
*       -9.600000000E+02               0
GRID*               3901               04.2536778090E+020.0000000000E+00+
*       -9.600000000E+02               0
GRID*               3902               04.1657889472E+020.0000000000E+00+
*       -9.600000000E+02               0
GRID*               3903               04.7810109795E+020.0000000000E+00+
*       -9.500000000E+02               0
GRID*               3904               04.6931221178E+020.0000000000E+00+
*       -9.500000000E+02               0
GRID*               3905               04.6052332560E+020.0000000000E+00+
*       -9.500000000E+02               0
GRID*               3906               04.5173443943E+020.0000000000E+00+
*       -9.500000000E+02               0
GRID*               3907               04.4294555325E+020.0000000000E+00+
*       -9.500000000E+02               0
GRID*               3908               04.3415666707E+020.0000000000E+00+
*       -9.500000000E+02               0
GRID*               3909               04.2536778090E+020.0000000000E+00+
*       -9.500000000E+02               0
GRID*               3910               04.1657889472E+020.0000000000E+00+
*       -9.500000000E+02               0
GRID*               3911               04.7810109795E+020.0000000000E+00+
*       -9.400000000E+02               0
GRID*               3912               04.6931221178E+020.0000000000E+00+
*       -9.400000000E+02               0
GRID*               3913               04.6052332560E+020.0000000000E+00+
*       -9.400000000E+02               0
GRID*               3914               04.5173443943E+020.0000000000E+00+
*       -9.400000000E+02               0
GRID*               3915               04.4294555325E+020.0000000000E+00+
*       -9.400000000E+02               0
GRID*               3916               04.3415666707E+020.0000000000E+00+
*       -9.400000000E+02               0
GRID*               3917               04.2536778090E+020.0000000000E+00+
*       -9.400000000E+02               0
GRID*               3918               04.1657889472E+020.0000000000E+00+
*       -9.400000000E+02               0
GRID*               3919               04.7810109795E+020.0000000000E+00+
*       -9.300000000E+02               0
GRID*               3920               04.6931221178E+020.0000000000E+00+
*       -9.300000000E+02               0
GRID*               3921               04.6052332560E+020.0000000000E+00+
*       -9.300000000E+02               0
GRID*               3922               04.5173443943E+020.0000000000E+00+
*       -9.300000000E+02               0
GRID*               3923               04.4294555325E+020.0000000000E+00+
*       -9.300000000E+02               0
GRID*               3924               04.3415666707E+020.0000000000E+00+
*       -9.300000000E+02               0
GRID*               3925               04.2536778090E+020.0000000000E+00+
*       -9.300000000E+02               0
GRID*               3926               04.1657889472E+020.0000000000E+00+
*       -9.300000000E+02               0
GRID*               3927               04.7810109795E+020.0000000000E+00+
*       -9.200000000E+02               0
GRID*               3928               04.6931221178E+020.0000000000E+00+
*       -9.200000000E+02               0
GRID*               3929               04.6052332560E+020.0000000000E+00+
*       -9.200000000E+02               0
GRID*               3930               04.5173443943E+020.0000000000E+00+
*       -9.200000000E+02               0
GRID*               3931               04.4294555325E+020.0000000000E+00+
*       -9.200000000E+02               0
GRID*               3932               04.3415666707E+020.0000000000E+00+
*       -9.200000000E+02               0
GRID*               3933               04.2536778090E+020.0000000000E+00+
*       -9.200000000E+02               0
GRID*               3934               04.1657889472E+020.0000000000E+00+
*       -9.200000000E+02               0
GRID*               3935               04.7810109795E+020.0000000000E+00+
*       -9.100000000E+02               0
GRID*               3936               04.6931221178E+020.0000000000E+00+
*       -9.100000000E+02               0
GRID*               3937               04.6052332560E+020.0000000000E+00+
*       -9.100000000E+02               0
GRID*               3938               04.5173443943E+020.0000000000E+00+
*       -9.100000000E+02               0
GRID*               3939               04.4294555325E+020.0000000000E+00+
*       -9.100000000E+02               0
GRID*               3940               04.3415666707E+020.0000000000E+00+
*       -9.100000000E+02               0
GRID*               3941               04.2536778090E+020.0000000000E+00+
*       -9.100000000E+02               0
GRID*               3942               04.1657889472E+020.0000000000E+00+
*       -9.100000000E+02               0
GRID*               3943               04.7810109795E+020.0000000000E+00+
*       -9.000000000E+02               0
GRID*               3944               04.6931221178E+020.0000000000E+00+
*       -9.000000000E+02               0
GRID*               3945               04.6052332560E+020.0000000000E+00+
*       -9.000000000E+02               0
GRID*               3946               04.5173443943E+020.0000000000E+00+
*       -9.000000000E+02               0
GRID*               3947               04.4294555325E+020.0000000000E+00+
*       -9.000000000E+02               0
GRID*               3948               04.3415666707E+020.0000000000E+00+
*       -9.000000000E+02               0
GRID*               3949               04.2536778090E+020.0000000000E+00+
*       -9.000000000E+02               0
GRID*               3950               04.1657889472E+020.0000000000E+00+
*       -9.000000000E+02               0
GRID*               3951               04.7810109795E+020.0000000000E+00+
*       -8.900000000E+02               0
GRID*               3952               04.6931221178E+020.0000000000E+00+
*       -8.900000000E+02               0
GRID*               3953               04.6052332560E+020.0000000000E+00+
*       -8.900000000E+02               0
GRID*               3954               04.5173443943E+020.0000000000E+00+
*       -8.900000000E+02               0
GRID*               3955               04.4294555325E+020.0000000000E+00+
*       -8.900000000E+02               0
GRID*               3956               04.3415666707E+020.0000000000E+00+
*       -8.900000000E+02               0
GRID*               3957               04.2536778090E+020.0000000000E+00+
*       -8.900000000E+02               0
GRID*               3958               04.1657889472E+020.0000000000E+00+
*       -8.900000000E+02               0
GRID*               3959               04.7810109795E+020.0000000000E+00+
*       -8.800000000E+02               0
GRID*               3960               04.6931221178E+020.0000000000E+00+
*       -8.800000000E+02               0
GRID*               3961               04.6052332560E+020.0000000000E+00+
*       -8.800000000E+02               0
GRID*               3962               04.5173443943E+020.0000000000E+00+
*       -8.800000000E+02               0
GRID*               3963               04.4294555325E+020.0000000000E+00+
*       -8.800000000E+02               0
GRID*               3964               04.3415666707E+020.0000000000E+00+
*       -8.800000000E+02               0
GRID*               3965               04.2536778090E+020.0000000000E+00+
*       -8.800000000E+02               0
GRID*               3966               04.1657889472E+020.0000000000E+00+
*       -8.800000000E+02               0
GRID*               3967               04.7810109795E+020.0000000000E+00+
*       -8.700000000E+02               0
GRID*               3968               04.6931221178E+020.0000000000E+00+
*       -8.700000000E+02               0
GRID*               3969               04.6052332560E+020.0000000000E+00+
*       -8.700000000E+02               0
GRID*               3970               04.5173443943E+020.0000000000E+00+
*       -8.700000000E+02               0
GRID*               3971               04.4294555325E+020.0000000000E+00+
*       -8.700000000E+02               0
GRID*               3972               04.3415666707E+020.0000000000E+00+
*       -8.700000000E+02               0
GRID*               3973               04.2536778090E+020.0000000000E+00+
*       -8.700000000E+02               0
GRID*               3974               04.1657889472E+020.0000000000E+00+
*       -8.700000000E+02               0
GRID*               3975               04.7810109795E+020.0000000000E+00+
*       -8.600000000E+02               0
GRID*               3976               04.6931221178E+020.0000000000E+00+
*       -8.600000000E+02               0
GRID*               3977               04.6052332560E+020.0000000000E+00+
*       -8.600000000E+02               0
GRID*               3978               04.5173443943E+020.0000000000E+00+
*       -8.600000000E+02               0
GRID*               3979               04.4294555325E+020.0000000000E+00+
*       -8.600000000E+02               0
GRID*               3980               04.3415666707E+020.0000000000E+00+
*       -8.600000000E+02               0
GRID*               3981               04.2536778090E+020.0000000000E+00+
*       -8.600000000E+02               0
GRID*               3982               04.1657889472E+020.0000000000E+00+
*       -8.600000000E+02               0
GRID*               3983               04.7810109795E+020.0000000000E+00+
*       -8.500000000E+02               0
GRID*               3984               04.6931221178E+020.0000000000E+00+
*       -8.500000000E+02               0
GRID*               3985               04.6052332560E+020.0000000000E+00+
*       -8.500000000E+02               0
GRID*               3986               04.5173443943E+020.0000000000E+00+
*       -8.500000000E+02               0
GRID*               3987               04.4294555325E+020.0000000000E+00+
*       -8.500000000E+02               0
GRID*               3988               04.3415666707E+020.0000000000E+00+
*       -8.500000000E+02               0
GRID*               3989               04.2536778090E+020.0000000000E+00+
*       -8.500000000E+02               0
GRID*               3990               04.1657889472E+020.0000000000E+00+
*       -8.500000000E+02               0
GRID*               3991               04.7810109795E+020.0000000000E+00+
*       -8.400000000E+02               0
GRID*               3992               04.6931221178E+020.0000000000E+00+
*       -8.400000000E+02               0
GRID*               3993               04.6052332560E+020.0000000000E+00+
*       -8.400000000E+02               0
GRID*               3994               04.5173443943E+020.0000000000E+00+
*       -8.400000000E+02               0
GRID*               3995               04.4294555325E+020.0000000000E+00+
*       -8.400000000E+02               0
GRID*               3996               04.3415666707E+020.0000000000E+00+
*       -8.400000000E+02               0
GRID*               3997               04.2536778090E+020.0000000000E+00+
*       -8.400000000E+02               0
GRID*               3998               04.1657889472E+020.0000000000E+00+
*       -8.400000000E+02               0
GRID*               3999               04.7810109795E+020.0000000000E+00+
*       -8.300000000E+02               0
GRID*               4000               04.6931221178E+020.0000000000E+00+
*       -8.300000000E+02               0
GRID*               4001               04.6052332560E+020.0000000000E+00+
*       -8.300000000E+02               0
GRID*               4002               04.5173443943E+020.0000000000E+00+
*       -8.300000000E+02               0
GRID*               4003               04.4294555325E+020.0000000000E+00+
*       -8.300000000E+02               0
GRID*               4004               04.3415666707E+020.0000000000E+00+
*       -8.300000000E+02               0
GRID*               4005               04.2536778090E+020.0000000000E+00+
*       -8.300000000E+02               0
GRID*               4006               04.1657889472E+020.0000000000E+00+
*       -8.300000000E+02               0
GRID*               4007               04.7810109795E+020.0000000000E+00+
*       -8.200000000E+02               0
GRID*               4008               04.6931221178E+020.0000000000E+00+
*       -8.200000000E+02               0
GRID*               4009               04.6052332560E+020.0000000000E+00+
*       -8.200000000E+02               0
GRID*               4010               04.5173443943E+020.0000000000E+00+
*       -8.200000000E+02               0
GRID*               4011               04.4294555325E+020.0000000000E+00+
*       -8.200000000E+02               0
GRID*               4012               04.3415666707E+020.0000000000E+00+
*       -8.200000000E+02               0
GRID*               4013               04.2536778090E+020.0000000000E+00+
*       -8.200000000E+02               0
GRID*               4014               04.1657889472E+020.0000000000E+00+
*       -8.200000000E+02               0
GRID*               4015               04.7810109795E+020.0000000000E+00+
*       -8.100000000E+02               0
GRID*               4016               04.6931221178E+020.0000000000E+00+
*       -8.100000000E+02               0
GRID*               4017               04.6052332560E+020.0000000000E+00+
*       -8.100000000E+02               0
GRID*               4018               04.5173443943E+020.0000000000E+00+
*       -8.100000000E+02               0
GRID*               4019               04.4294555325E+020.0000000000E+00+
*       -8.100000000E+02               0
GRID*               4020               04.3415666707E+020.0000000000E+00+
*       -8.100000000E+02               0
GRID*               4021               04.2536778090E+020.0000000000E+00+
*       -8.100000000E+02               0
GRID*               4022               04.1657889472E+020.0000000000E+00+
*       -8.100000000E+02               0
GRID*               4023               04.7810109795E+020.0000000000E+00+
*       -8.000000000E+02               0
GRID*               4024               04.6931221178E+020.0000000000E+00+
*       -8.000000000E+02               0
GRID*               4025               04.6052332560E+020.0000000000E+00+
*       -8.000000000E+02               0
GRID*               4026               04.5173443943E+020.0000000000E+00+
*       -8.000000000E+02               0
GRID*               4027               04.4294555325E+020.0000000000E+00+
*       -8.000000000E+02               0
GRID*               4028               04.3415666707E+020.0000000000E+00+
*       -8.000000000E+02               0
GRID*               4029               04.2536778090E+020.0000000000E+00+
*       -8.000000000E+02               0
GRID*               4030               04.1657889472E+020.0000000000E+00+
*       -8.000000000E+02               0
GRID*               4031               04.7810109795E+020.0000000000E+00+
*       -7.900000000E+02               0
GRID*               4032               04.6931221178E+020.0000000000E+00+
*       -7.900000000E+02               0
GRID*               4033               04.6052332560E+020.0000000000E+00+
*       -7.900000000E+02               0
GRID*               4034               04.5173443943E+020.0000000000E+00+
*       -7.900000000E+02               0
GRID*               4035               04.4294555325E+020.0000000000E+00+
*       -7.900000000E+02               0
GRID*               4036               04.3415666707E+020.0000000000E+00+
*       -7.900000000E+02               0
GRID*               4037               04.2536778090E+020.0000000000E+00+
*       -7.900000000E+02               0
GRID*               4038               04.1657889472E+020.0000000000E+00+
*       -7.900000000E+02               0
GRID*               4039               04.7810109795E+020.0000000000E+00+
*       -7.800000000E+02               0
GRID*               4040               04.6931221178E+020.0000000000E+00+
*       -7.800000000E+02               0
GRID*               4041               04.6052332560E+020.0000000000E+00+
*       -7.800000000E+02               0
GRID*               4042               04.5173443943E+020.0000000000E+00+
*       -7.800000000E+02               0
GRID*               4043               04.4294555325E+020.0000000000E+00+
*       -7.800000000E+02               0
GRID*               4044               04.3415666707E+020.0000000000E+00+
*       -7.800000000E+02               0
GRID*               4045               04.2536778090E+020.0000000000E+00+
*       -7.800000000E+02               0
GRID*               4046               04.1657889472E+020.0000000000E+00+
*       -7.800000000E+02               0
GRID*               4047               04.7810109795E+020.0000000000E+00+
*       -7.700000000E+02               0
GRID*               4048               04.6931221178E+020.0000000000E+00+
*       -7.700000000E+02               0
GRID*               4049               04.6052332560E+020.0000000000E+00+
*       -7.700000000E+02               0
GRID*               4050               04.5173443943E+020.0000000000E+00+
*       -7.700000000E+02               0
GRID*               4051               04.4294555325E+020.0000000000E+00+
*       -7.700000000E+02               0
GRID*               4052               04.3415666707E+020.0000000000E+00+
*       -7.700000000E+02               0
GRID*               4053               04.2536778090E+020.0000000000E+00+
*       -7.700000000E+02               0
GRID*               4054               04.1657889472E+020.0000000000E+00+
*       -7.700000000E+02               0
GRID*               4055               04.7810109795E+020.0000000000E+00+
*       -7.600000000E+02               0
GRID*               4056               04.6931221178E+020.0000000000E+00+
*       -7.600000000E+02               0
GRID*               4057               04.6052332560E+020.0000000000E+00+
*       -7.600000000E+02               0
GRID*               4058               04.5173443943E+020.0000000000E+00+
*       -7.600000000E+02               0
GRID*               4059               04.4294555325E+020.0000000000E+00+
*       -7.600000000E+02               0
GRID*               4060               04.3415666707E+020.0000000000E+00+
*       -7.600000000E+02               0
GRID*               4061               04.2536778090E+020.0000000000E+00+
*       -7.600000000E+02               0
GRID*               4062               04.1657889472E+020.0000000000E+00+
*       -7.600000000E+02               0
GRID*               4063               04.7810109795E+020.0000000000E+00+
*       -7.500000000E+02               0
GRID*               4064               04.6931221178E+020.0000000000E+00+
*       -7.500000000E+02               0
GRID*               4065               04.6052332560E+020.0000000000E+00+
*       -7.500000000E+02               0
GRID*               4066               04.5173443943E+020.0000000000E+00+
*       -7.500000000E+02               0
GRID*               4067               04.4294555325E+020.0000000000E+00+
*       -7.500000000E+02               0
GRID*               4068               04.3415666707E+020.0000000000E+00+
*       -7.500000000E+02               0
GRID*               4069               04.2536778090E+020.0000000000E+00+
*       -7.500000000E+02               0
GRID*               4070               04.1657889472E+020.0000000000E+00+
*       -7.500000000E+02               0
GRID*               4071               04.7810109795E+020.0000000000E+00+
*       -7.400000000E+02               0
GRID*               4072               04.6931221178E+020.0000000000E+00+
*       -7.400000000E+02               0
GRID*               4073               04.6052332560E+020.0000000000E+00+
*       -7.400000000E+02               0
GRID*               4074               04.5173443943E+020.0000000000E+00+
*       -7.400000000E+02               0
GRID*               4075               04.4294555325E+020.0000000000E+00+
*       -7.400000000E+02               0
GRID*               4076               04.3415666707E+020.0000000000E+00+
*       -7.400000000E+02               0
GRID*               4077               04.2536778090E+020.0000000000E+00+
*       -7.400000000E+02               0
GRID*               4078               04.1657889472E+020.0000000000E+00+
*       -7.400000000E+02               0
GRID*               4079               04.7810109795E+020.0000000000E+00+
*       -7.300000000E+02               0
GRID*               4080               04.6931221178E+020.0000000000E+00+
*       -7.300000000E+02               0
GRID*               4081               04.6052332560E+020.0000000000E+00+
*       -7.300000000E+02               0
GRID*               4082               04.5173443943E+020.0000000000E+00+
*       -7.300000000E+02               0
GRID*               4083               04.4294555325E+020.0000000000E+00+
*       -7.300000000E+02               0
GRID*               4084               04.3415666707E+020.0000000000E+00+
*       -7.300000000E+02               0
GRID*               4085               04.2536778090E+020.0000000000E+00+
*       -7.300000000E+02               0
GRID*               4086               04.1657889472E+020.0000000000E+00+
*       -7.300000000E+02               0
GRID*               4087               04.7810109795E+020.0000000000E+00+
*       -7.200000000E+02               0
GRID*               4088               04.6931221178E+020.0000000000E+00+
*       -7.200000000E+02               0
GRID*               4089               04.6052332560E+020.0000000000E+00+
*       -7.200000000E+02               0
GRID*               4090               04.5173443943E+020.0000000000E+00+
*       -7.200000000E+02               0
GRID*               4091               04.4294555325E+020.0000000000E+00+
*       -7.200000000E+02               0
GRID*               4092               04.3415666707E+020.0000000000E+00+
*       -7.200000000E+02               0
GRID*               4093               04.2536778090E+020.0000000000E+00+
*       -7.200000000E+02               0
GRID*               4094               04.1657889472E+020.0000000000E+00+
*       -7.200000000E+02               0
GRID*               4095               04.7810109795E+020.0000000000E+00+
*       -7.100000000E+02               0
GRID*               4096               04.6931221178E+020.0000000000E+00+
*       -7.100000000E+02               0
GRID*               4097               04.6052332560E+020.0000000000E+00+
*       -7.100000000E+02               0
GRID*               4098               04.5173443943E+020.0000000000E+00+
*       -7.100000000E+02               0
GRID*               4099               04.4294555325E+020.0000000000E+00+
*       -7.100000000E+02               0
GRID*               4100               04.3415666707E+020.0000000000E+00+
*       -7.100000000E+02               0
GRID*               4101               04.2536778090E+020.0000000000E+00+
*       -7.100000000E+02               0
GRID*               4102               04.1657889472E+020.0000000000E+00+
*       -7.100000000E+02               0
GRID*               4103               04.7810109795E+020.0000000000E+00+
*       -7.000000000E+02               0
GRID*               4104               04.6931221178E+020.0000000000E+00+
*       -7.000000000E+02               0
GRID*               4105               04.6052332560E+020.0000000000E+00+
*       -7.000000000E+02               0
GRID*               4106               04.5173443943E+020.0000000000E+00+
*       -7.000000000E+02               0
GRID*               4107               04.4294555325E+020.0000000000E+00+
*       -7.000000000E+02               0
GRID*               4108               04.3415666707E+020.0000000000E+00+
*       -7.000000000E+02               0
GRID*               4109               04.2536778090E+020.0000000000E+00+
*       -7.000000000E+02               0
GRID*               4110               04.1657889472E+020.0000000000E+00+
*       -7.000000000E+02               0
GRID*               4111               04.7810109795E+020.0000000000E+00+
*       -6.900000000E+02               0
GRID*               4112               04.6931221178E+020.0000000000E+00+
*       -6.900000000E+02               0
GRID*               4113               04.6052332560E+020.0000000000E+00+
*       -6.900000000E+02               0
GRID*               4114               04.5173443943E+020.0000000000E+00+
*       -6.900000000E+02               0
GRID*               4115               04.4294555325E+020.0000000000E+00+
*       -6.900000000E+02               0
GRID*               4116               04.3415666707E+020.0000000000E+00+
*       -6.900000000E+02               0
GRID*               4117               04.2536778090E+020.0000000000E+00+
*       -6.900000000E+02               0
GRID*               4118               04.1657889472E+020.0000000000E+00+
*       -6.900000000E+02               0
GRID*               4119               04.7810109795E+020.0000000000E+00+
*       -6.800000000E+02               0
GRID*               4120               04.6931221178E+020.0000000000E+00+
*       -6.800000000E+02               0
GRID*               4121               04.6052332560E+020.0000000000E+00+
*       -6.800000000E+02               0
GRID*               4122               04.5173443943E+020.0000000000E+00+
*       -6.800000000E+02               0
GRID*               4123               04.4294555325E+020.0000000000E+00+
*       -6.800000000E+02               0
GRID*               4124               04.3415666707E+020.0000000000E+00+
*       -6.800000000E+02               0
GRID*               4125               04.2536778090E+020.0000000000E+00+
*       -6.800000000E+02               0
GRID*               4126               04.1657889472E+020.0000000000E+00+
*       -6.800000000E+02               0
GRID*               4127               04.7810109795E+020.0000000000E+00+
*       -6.700000000E+02               0
GRID*               4128               04.6931221178E+020.0000000000E+00+
*       -6.700000000E+02               0
GRID*               4129               04.6052332560E+020.0000000000E+00+
*       -6.700000000E+02               0
GRID*               4130               04.5173443943E+020.0000000000E+00+
*       -6.700000000E+02               0
GRID*               4131               04.4294555325E+020.0000000000E+00+
*       -6.700000000E+02               0
GRID*               4132               04.3415666707E+020.0000000000E+00+
*       -6.700000000E+02               0
GRID*               4133               04.2536778090E+020.0000000000E+00+
*       -6.700000000E+02               0
GRID*               4134               04.1657889472E+020.0000000000E+00+
*       -6.700000000E+02               0
GRID*               4135               04.7810109795E+020.0000000000E+00+
*       -6.600000000E+02               0
GRID*               4136               04.6931221178E+020.0000000000E+00+
*       -6.600000000E+02               0
GRID*               4137               04.6052332560E+020.0000000000E+00+
*       -6.600000000E+02               0
GRID*               4138               04.5173443943E+020.0000000000E+00+
*       -6.600000000E+02               0
GRID*               4139               04.4294555325E+020.0000000000E+00+
*       -6.600000000E+02               0
GRID*               4140               04.3415666707E+020.0000000000E+00+
*       -6.600000000E+02               0
GRID*               4141               04.2536778090E+020.0000000000E+00+
*       -6.600000000E+02               0
GRID*               4142               04.1657889472E+020.0000000000E+00+
*       -6.600000000E+02               0
GRID*               4143               04.7810109795E+020.0000000000E+00+
*       -6.500000000E+02               0
GRID*               4144               04.6931221178E+020.0000000000E+00+
*       -6.500000000E+02               0
GRID*               4145               04.6052332560E+020.0000000000E+00+
*       -6.500000000E+02               0
GRID*               4146               04.5173443943E+020.0000000000E+00+
*       -6.500000000E+02               0
GRID*               4147               04.4294555325E+020.0000000000E+00+
*       -6.500000000E+02               0
GRID*               4148               04.3415666707E+020.0000000000E+00+
*       -6.500000000E+02               0
GRID*               4149               04.2536778090E+020.0000000000E+00+
*       -6.500000000E+02               0
GRID*               4150               04.1657889472E+020.0000000000E+00+
*       -6.500000000E+02               0
GRID*               4151               04.7810109795E+020.0000000000E+00+
*       -6.400000000E+02               0
GRID*               4152               04.6931221178E+020.0000000000E+00+
*       -6.400000000E+02               0
GRID*               4153               04.6052332560E+020.0000000000E+00+
*       -6.400000000E+02               0
GRID*               4154               04.5173443943E+020.0000000000E+00+
*       -6.400000000E+02               0
GRID*               4155               04.4294555325E+020.0000000000E+00+
*       -6.400000000E+02               0
GRID*               4156               04.3415666707E+020.0000000000E+00+
*       -6.400000000E+02               0
GRID*               4157               04.2536778090E+020.0000000000E+00+
*       -6.400000000E+02               0
GRID*               4158               04.1657889472E+020.0000000000E+00+
*       -6.400000000E+02               0
GRID*               4159               04.7810109795E+020.0000000000E+00+
*       -6.300000000E+02               0
GRID*               4160               04.6931221178E+020.0000000000E+00+
*       -6.300000000E+02               0
GRID*               4161               04.6052332560E+020.0000000000E+00+
*       -6.300000000E+02               0
GRID*               4162               04.5173443943E+020.0000000000E+00+
*       -6.300000000E+02               0
GRID*               4163               04.4294555325E+020.0000000000E+00+
*       -6.300000000E+02               0
GRID*               4164               04.3415666707E+020.0000000000E+00+
*       -6.300000000E+02               0
GRID*               4165               04.2536778090E+020.0000000000E+00+
*       -6.300000000E+02               0
GRID*               4166               04.1657889472E+020.0000000000E+00+
*       -6.300000000E+02               0
GRID*               4167               04.7810109795E+020.0000000000E+00+
*       -6.200000000E+02               0
GRID*               4168               04.6931221178E+020.0000000000E+00+
*       -6.200000000E+02               0
GRID*               4169               04.6052332560E+020.0000000000E+00+
*       -6.200000000E+02               0
GRID*               4170               04.5173443943E+020.0000000000E+00+
*       -6.200000000E+02               0
GRID*               4171               04.4294555325E+020.0000000000E+00+
*       -6.200000000E+02               0
GRID*               4172               04.3415666707E+020.0000000000E+00+
*       -6.200000000E+02               0
GRID*               4173               04.2536778090E+020.0000000000E+00+
*       -6.200000000E+02               0
GRID*               4174               04.1657889472E+020.0000000000E+00+
*       -6.200000000E+02               0
GRID*               4175               04.7810109795E+020.0000000000E+00+
*       -6.100000000E+02               0
GRID*               4176               04.6931221178E+020.0000000000E+00+
*       -6.100000000E+02               0
GRID*               4177               04.6052332560E+020.0000000000E+00+
*       -6.100000000E+02               0
GRID*               4178               04.5173443943E+020.0000000000E+00+
*       -6.100000000E+02               0
GRID*               4179               04.4294555325E+020.0000000000E+00+
*       -6.100000000E+02               0
GRID*               4180               04.3415666707E+020.0000000000E+00+
*       -6.100000000E+02               0
GRID*               4181               04.2536778090E+020.0000000000E+00+
*       -6.100000000E+02               0
GRID*               4182               04.1657889472E+020.0000000000E+00+
*       -6.100000000E+02               0
GRID*               4183               04.7810109795E+020.0000000000E+00+
*       -6.000000000E+02               0
GRID*               4184               04.6931221178E+020.0000000000E+00+
*       -6.000000000E+02               0
GRID*               4185               04.6052332560E+020.0000000000E+00+
*       -6.000000000E+02               0
GRID*               4186               04.5173443943E+020.0000000000E+00+
*       -6.000000000E+02               0
GRID*               4187               04.4294555325E+020.0000000000E+00+
*       -6.000000000E+02               0
GRID*               4188               04.3415666707E+020.0000000000E+00+
*       -6.000000000E+02               0
GRID*               4189               04.2536778090E+020.0000000000E+00+
*       -6.000000000E+02               0
GRID*               4190               04.1657889472E+020.0000000000E+00+
*       -6.000000000E+02               0
GRID*               4191               04.7810109795E+020.0000000000E+00+
*       -5.900000000E+02               0
GRID*               4192               04.6931221178E+020.0000000000E+00+
*       -5.900000000E+02               0
GRID*               4193               04.6052332560E+020.0000000000E+00+
*       -5.900000000E+02               0
GRID*               4194               04.5173443943E+020.0000000000E+00+
*       -5.900000000E+02               0
GRID*               4195               04.4294555325E+020.0000000000E+00+
*       -5.900000000E+02               0
GRID*               4196               04.3415666707E+020.0000000000E+00+
*       -5.900000000E+02               0
GRID*               4197               04.2536778090E+020.0000000000E+00+
*       -5.900000000E+02               0
GRID*               4198               04.1657889472E+020.0000000000E+00+
*       -5.900000000E+02               0
GRID*               4199               04.7810109795E+020.0000000000E+00+
*       -5.800000000E+02               0
GRID*               4200               04.6931221178E+020.0000000000E+00+
*       -5.800000000E+02               0
GRID*               4201               04.6052332560E+020.0000000000E+00+
*       -5.800000000E+02               0
GRID*               4202               04.5173443943E+020.0000000000E+00+
*       -5.800000000E+02               0
GRID*               4203               04.4294555325E+020.0000000000E+00+
*       -5.800000000E+02               0
GRID*               4204               04.3415666707E+020.0000000000E+00+
*       -5.800000000E+02               0
GRID*               4205               04.2536778090E+020.0000000000E+00+
*       -5.800000000E+02               0
GRID*               4206               04.1657889472E+020.0000000000E+00+
*       -5.800000000E+02               0
GRID*               4207               04.7810109795E+020.0000000000E+00+
*       -5.700000000E+02               0
GRID*               4208               04.6931221178E+020.0000000000E+00+
*       -5.700000000E+02               0
GRID*               4209               04.6052332560E+020.0000000000E+00+
*       -5.700000000E+02               0
GRID*               4210               04.5173443943E+020.0000000000E+00+
*       -5.700000000E+02               0
GRID*               4211               04.4294555325E+020.0000000000E+00+
*       -5.700000000E+02               0
GRID*               4212               04.3415666707E+020.0000000000E+00+
*       -5.700000000E+02               0
GRID*               4213               04.2536778090E+020.0000000000E+00+
*       -5.700000000E+02               0
GRID*               4214               04.1657889472E+020.0000000000E+00+
*       -5.700000000E+02               0
GRID*               4215               04.7810109795E+020.0000000000E+00+
*       -5.600000000E+02               0
GRID*               4216               04.6931221178E+020.0000000000E+00+
*       -5.600000000E+02               0
GRID*               4217               04.6052332560E+020.0000000000E+00+
*       -5.600000000E+02               0
GRID*               4218               04.5173443943E+020.0000000000E+00+
*       -5.600000000E+02               0
GRID*               4219               04.4294555325E+020.0000000000E+00+
*       -5.600000000E+02               0
GRID*               4220               04.3415666707E+020.0000000000E+00+
*       -5.600000000E+02               0
GRID*               4221               04.2536778090E+020.0000000000E+00+
*       -5.600000000E+02               0
GRID*               4222               04.1657889472E+020.0000000000E+00+
*       -5.600000000E+02               0
GRID*               4223               04.7810109795E+020.0000000000E+00+
*       -5.500000000E+02               0
GRID*               4224               04.6931221178E+020.0000000000E+00+
*       -5.500000000E+02               0
GRID*               4225               04.6052332560E+020.0000000000E+00+
*       -5.500000000E+02               0
GRID*               4226               04.5173443943E+020.0000000000E+00+
*       -5.500000000E+02               0
GRID*               4227               04.4294555325E+020.0000000000E+00+
*       -5.500000000E+02               0
GRID*               4228               04.3415666707E+020.0000000000E+00+
*       -5.500000000E+02               0
GRID*               4229               04.2536778090E+020.0000000000E+00+
*       -5.500000000E+02               0
GRID*               4230               04.1657889472E+020.0000000000E+00+
*       -5.500000000E+02               0
GRID*               4231               04.7810109795E+020.0000000000E+00+
*       -5.400000000E+02               0
GRID*               4232               04.6931221178E+020.0000000000E+00+
*       -5.400000000E+02               0
GRID*               4233               04.6052332560E+020.0000000000E+00+
*       -5.400000000E+02               0
GRID*               4234               04.5173443943E+020.0000000000E+00+
*       -5.400000000E+02               0
GRID*               4235               04.4294555325E+020.0000000000E+00+
*       -5.400000000E+02               0
GRID*               4236               04.3415666707E+020.0000000000E+00+
*       -5.400000000E+02               0
GRID*               4237               04.2536778090E+020.0000000000E+00+
*       -5.400000000E+02               0
GRID*               4238               04.1657889472E+020.0000000000E+00+
*       -5.400000000E+02               0
GRID*               4239               04.7810109795E+020.0000000000E+00+
*       -5.300000000E+02               0
GRID*               4240               04.6931221178E+020.0000000000E+00+
*       -5.300000000E+02               0
GRID*               4241               04.6052332560E+020.0000000000E+00+
*       -5.300000000E+02               0
GRID*               4242               04.5173443943E+020.0000000000E+00+
*       -5.300000000E+02               0
GRID*               4243               04.4294555325E+020.0000000000E+00+
*       -5.300000000E+02               0
GRID*               4244               04.3415666707E+020.0000000000E+00+
*       -5.300000000E+02               0
GRID*               4245               04.2536778090E+020.0000000000E+00+
*       -5.300000000E+02               0
GRID*               4246               04.1657889472E+020.0000000000E+00+
*       -5.300000000E+02               0
GRID*               4247               04.7810109795E+020.0000000000E+00+
*       -5.200000000E+02               0
GRID*               4248               04.6931221178E+020.0000000000E+00+
*       -5.200000000E+02               0
GRID*               4249               04.6052332560E+020.0000000000E+00+
*       -5.200000000E+02               0
GRID*               4250               04.5173443943E+020.0000000000E+00+
*       -5.200000000E+02               0
GRID*               4251               04.4294555325E+020.0000000000E+00+
*       -5.200000000E+02               0
GRID*               4252               04.3415666707E+020.0000000000E+00+
*       -5.200000000E+02               0
GRID*               4253               04.2536778090E+020.0000000000E+00+
*       -5.200000000E+02               0
GRID*               4254               04.1657889472E+020.0000000000E+00+
*       -5.200000000E+02               0
GRID*               4255               04.7810109795E+020.0000000000E+00+
*       -5.100000000E+02               0
GRID*               4256               04.6931221178E+020.0000000000E+00+
*       -5.100000000E+02               0
GRID*               4257               04.6052332560E+020.0000000000E+00+
*       -5.100000000E+02               0
GRID*               4258               04.5173443943E+020.0000000000E+00+
*       -5.100000000E+02               0
GRID*               4259               04.4294555325E+020.0000000000E+00+
*       -5.100000000E+02               0
GRID*               4260               04.3415666707E+020.0000000000E+00+
*       -5.100000000E+02               0
GRID*               4261               04.2536778090E+020.0000000000E+00+
*       -5.100000000E+02               0
GRID*               4262               04.1657889472E+020.0000000000E+00+
*       -5.100000000E+02               0
GRID*               4263               04.7810109795E+020.0000000000E+00+
*       -5.000000000E+02               0
GRID*               4264               04.6931221178E+020.0000000000E+00+
*       -5.000000000E+02               0
GRID*               4265               04.6052332560E+020.0000000000E+00+
*       -5.000000000E+02               0
GRID*               4266               04.5173443943E+020.0000000000E+00+
*       -5.000000000E+02               0
GRID*               4267               04.4294555325E+020.0000000000E+00+
*       -5.000000000E+02               0
GRID*               4268               04.3415666707E+020.0000000000E+00+
*       -5.000000000E+02               0
GRID*               4269               04.2536778090E+020.0000000000E+00+
*       -5.000000000E+02               0
GRID*               4270               04.1657889472E+020.0000000000E+00+
*       -5.000000000E+02               0
GRID*               4271               04.7810109795E+020.0000000000E+00+
*       -4.900000000E+02               0
GRID*               4272               04.6931221178E+020.0000000000E+00+
*       -4.900000000E+02               0
GRID*               4273               04.6052332560E+020.0000000000E+00+
*       -4.900000000E+02               0
GRID*               4274               04.5173443943E+020.0000000000E+00+
*       -4.900000000E+02               0
GRID*               4275               04.4294555325E+020.0000000000E+00+
*       -4.900000000E+02               0
GRID*               4276               04.3415666707E+020.0000000000E+00+
*       -4.900000000E+02               0
GRID*               4277               04.2536778090E+020.0000000000E+00+
*       -4.900000000E+02               0
GRID*               4278               04.1657889472E+020.0000000000E+00+
*       -4.900000000E+02               0
GRID*               4279               04.7810109795E+020.0000000000E+00+
*       -4.800000000E+02               0
GRID*               4280               04.6931221178E+020.0000000000E+00+
*       -4.800000000E+02               0
GRID*               4281               04.6052332560E+020.0000000000E+00+
*       -4.800000000E+02               0
GRID*               4282               04.5173443943E+020.0000000000E+00+
*       -4.800000000E+02               0
GRID*               4283               04.4294555325E+020.0000000000E+00+
*       -4.800000000E+02               0
GRID*               4284               04.3415666707E+020.0000000000E+00+
*       -4.800000000E+02               0
GRID*               4285               04.2536778090E+020.0000000000E+00+
*       -4.800000000E+02               0
GRID*               4286               04.1657889472E+020.0000000000E+00+
*       -4.800000000E+02               0
GRID*               4287               04.7810109795E+020.0000000000E+00+
*       -4.700000000E+02               0
GRID*               4288               04.6931221178E+020.0000000000E+00+
*       -4.700000000E+02               0
GRID*               4289               04.6052332560E+020.0000000000E+00+
*       -4.700000000E+02               0
GRID*               4290               04.5173443943E+020.0000000000E+00+
*       -4.700000000E+02               0
GRID*               4291               04.4294555325E+020.0000000000E+00+
*       -4.700000000E+02               0
GRID*               4292               04.3415666707E+020.0000000000E+00+
*       -4.700000000E+02               0
GRID*               4293               04.2536778090E+020.0000000000E+00+
*       -4.700000000E+02               0
GRID*               4294               04.1657889472E+020.0000000000E+00+
*       -4.700000000E+02               0
GRID*               4295               04.7810109795E+020.0000000000E+00+
*       -4.600000000E+02               0
GRID*               4296               04.6931221178E+020.0000000000E+00+
*       -4.600000000E+02               0
GRID*               4297               04.6052332560E+020.0000000000E+00+
*       -4.600000000E+02               0
GRID*               4298               04.5173443943E+020.0000000000E+00+
*       -4.600000000E+02               0
GRID*               4299               04.4294555325E+020.0000000000E+00+
*       -4.600000000E+02               0
GRID*               4300               04.3415666707E+020.0000000000E+00+
*       -4.600000000E+02               0
GRID*               4301               04.2536778090E+020.0000000000E+00+
*       -4.600000000E+02               0
GRID*               4302               04.1657889472E+020.0000000000E+00+
*       -4.600000000E+02               0
GRID*               4303               04.7810109795E+020.0000000000E+00+
*       -4.500000000E+02               0
GRID*               4304               04.6931221178E+020.0000000000E+00+
*       -4.500000000E+02               0
GRID*               4305               04.6052332560E+020.0000000000E+00+
*       -4.500000000E+02               0
GRID*               4306               04.5173443943E+020.0000000000E+00+
*       -4.500000000E+02               0
GRID*               4307               04.4294555325E+020.0000000000E+00+
*       -4.500000000E+02               0
GRID*               4308               04.3415666707E+020.0000000000E+00+
*       -4.500000000E+02               0
GRID*               4309               04.2536778090E+020.0000000000E+00+
*       -4.500000000E+02               0
GRID*               4310               04.1657889472E+020.0000000000E+00+
*       -4.500000000E+02               0
GRID*               4311               04.7810109795E+020.0000000000E+00+
*       -4.400000000E+02               0
GRID*               4312               04.6931221178E+020.0000000000E+00+
*       -4.400000000E+02               0
GRID*               4313               04.6052332560E+020.0000000000E+00+
*       -4.400000000E+02               0
GRID*               4314               04.5173443943E+020.0000000000E+00+
*       -4.400000000E+02               0
GRID*               4315               04.4294555325E+020.0000000000E+00+
*       -4.400000000E+02               0
GRID*               4316               04.3415666707E+020.0000000000E+00+
*       -4.400000000E+02               0
GRID*               4317               04.2536778090E+020.0000000000E+00+
*       -4.400000000E+02               0
GRID*               4318               04.1657889472E+020.0000000000E+00+
*       -4.400000000E+02               0
GRID*               4319               04.7810109795E+020.0000000000E+00+
*       -4.300000000E+02               0
GRID*               4320               04.6931221178E+020.0000000000E+00+
*       -4.300000000E+02               0
GRID*               4321               04.6052332560E+020.0000000000E+00+
*       -4.300000000E+02               0
GRID*               4322               04.5173443943E+020.0000000000E+00+
*       -4.300000000E+02               0
GRID*               4323               04.4294555325E+020.0000000000E+00+
*       -4.300000000E+02               0
GRID*               4324               04.3415666707E+020.0000000000E+00+
*       -4.300000000E+02               0
GRID*               4325               04.2536778090E+020.0000000000E+00+
*       -4.300000000E+02               0
GRID*               4326               04.1657889472E+020.0000000000E+00+
*       -4.300000000E+02               0
GRID*               4327               04.7810109795E+020.0000000000E+00+
*       -4.200000000E+02               0
GRID*               4328               04.6931221178E+020.0000000000E+00+
*       -4.200000000E+02               0
GRID*               4329               04.6052332560E+020.0000000000E+00+
*       -4.200000000E+02               0
GRID*               4330               04.5173443943E+020.0000000000E+00+
*       -4.200000000E+02               0
GRID*               4331               04.4294555325E+020.0000000000E+00+
*       -4.200000000E+02               0
GRID*               4332               04.3415666707E+020.0000000000E+00+
*       -4.200000000E+02               0
GRID*               4333               04.2536778090E+020.0000000000E+00+
*       -4.200000000E+02               0
GRID*               4334               04.1657889472E+020.0000000000E+00+
*       -4.200000000E+02               0
GRID*               4335               04.7810109795E+020.0000000000E+00+
*       -4.100000000E+02               0
GRID*               4336               04.6931221178E+020.0000000000E+00+
*       -4.100000000E+02               0
GRID*               4337               04.6052332560E+020.0000000000E+00+
*       -4.100000000E+02               0
GRID*               4338               04.5173443943E+020.0000000000E+00+
*       -4.100000000E+02               0
GRID*               4339               04.4294555325E+020.0000000000E+00+
*       -4.100000000E+02               0
GRID*               4340               04.3415666707E+020.0000000000E+00+
*       -4.100000000E+02               0
GRID*               4341               04.2536778090E+020.0000000000E+00+
*       -4.100000000E+02               0
GRID*               4342               04.1657889472E+020.0000000000E+00+
*       -4.100000000E+02               0
GRID*               4343               04.7810109795E+020.0000000000E+00+
*       -4.000000000E+02               0
GRID*               4344               04.6931221178E+020.0000000000E+00+
*       -4.000000000E+02               0
GRID*               4345               04.6052332560E+020.0000000000E+00+
*       -4.000000000E+02               0
GRID*               4346               04.5173443943E+020.0000000000E+00+
*       -4.000000000E+02               0
GRID*               4347               04.4294555325E+020.0000000000E+00+
*       -4.000000000E+02               0
GRID*               4348               04.3415666707E+020.0000000000E+00+
*       -4.000000000E+02               0
GRID*               4349               04.2536778090E+020.0000000000E+00+
*       -4.000000000E+02               0
GRID*               4350               04.1657889472E+020.0000000000E+00+
*       -4.000000000E+02               0
GRID*               4351               04.7810109795E+020.0000000000E+00+
*       -3.900000000E+02               0
GRID*               4352               04.6931221178E+020.0000000000E+00+
*       -3.900000000E+02               0
GRID*               4353               04.6052332560E+020.0000000000E+00+
*       -3.900000000E+02               0
GRID*               4354               04.5173443943E+020.0000000000E+00+
*       -3.900000000E+02               0
GRID*               4355               04.4294555325E+020.0000000000E+00+
*       -3.900000000E+02               0
GRID*               4356               04.3415666707E+020.0000000000E+00+
*       -3.900000000E+02               0
GRID*               4357               04.2536778090E+020.0000000000E+00+
*       -3.900000000E+02               0
GRID*               4358               04.1657889472E+020.0000000000E+00+
*       -3.900000000E+02               0
GRID*               4359               04.7810109795E+020.0000000000E+00+
*       -3.800000000E+02               0
GRID*               4360               04.6931221178E+020.0000000000E+00+
*       -3.800000000E+02               0
GRID*               4361               04.6052332560E+020.0000000000E+00+
*       -3.800000000E+02               0
GRID*               4362               04.5173443943E+020.0000000000E+00+
*       -3.800000000E+02               0
GRID*               4363               04.4294555325E+020.0000000000E+00+
*       -3.800000000E+02               0
GRID*               4364               04.3415666707E+020.0000000000E+00+
*       -3.800000000E+02               0
GRID*               4365               04.2536778090E+020.0000000000E+00+
*       -3.800000000E+02               0
GRID*               4366               04.1657889472E+020.0000000000E+00+
*       -3.800000000E+02               0
GRID*               4367               04.7810109795E+020.0000000000E+00+
*       -3.700000000E+02               0
GRID*               4368               04.6931221178E+020.0000000000E+00+
*       -3.700000000E+02               0
GRID*               4369               04.6052332560E+020.0000000000E+00+
*       -3.700000000E+02               0
GRID*               4370               04.5173443943E+020.0000000000E+00+
*       -3.700000000E+02               0
GRID*               4371               04.4294555325E+020.0000000000E+00+
*       -3.700000000E+02               0
GRID*               4372               04.3415666707E+020.0000000000E+00+
*       -3.700000000E+02               0
GRID*               4373               04.2536778090E+020.0000000000E+00+
*       -3.700000000E+02               0
GRID*               4374               04.1657889472E+020.0000000000E+00+
*       -3.700000000E+02               0
GRID*               4375               04.7810109795E+020.0000000000E+00+
*       -3.600000000E+02               0
GRID*               4376               04.6931221178E+020.0000000000E+00+
*       -3.600000000E+02               0
GRID*               4377               04.6052332560E+020.0000000000E+00+
*       -3.600000000E+02               0
GRID*               4378               04.5173443943E+020.0000000000E+00+
*       -3.600000000E+02               0
GRID*               4379               04.4294555325E+020.0000000000E+00+
*       -3.600000000E+02               0
GRID*               4380               04.3415666707E+020.0000000000E+00+
*       -3.600000000E+02               0
GRID*               4381               04.2536778090E+020.0000000000E+00+
*       -3.600000000E+02               0
GRID*               4382               04.1657889472E+020.0000000000E+00+
*       -3.600000000E+02               0
GRID*               4383               04.7810109795E+020.0000000000E+00+
*       -3.500000000E+02               0
GRID*               4384               04.6931221178E+020.0000000000E+00+
*       -3.500000000E+02               0
GRID*               4385               04.6052332560E+020.0000000000E+00+
*       -3.500000000E+02               0
GRID*               4386               04.5173443943E+020.0000000000E+00+
*       -3.500000000E+02               0
GRID*               4387               04.4294555325E+020.0000000000E+00+
*       -3.500000000E+02               0
GRID*               4388               04.3415666707E+020.0000000000E+00+
*       -3.500000000E+02               0
GRID*               4389               04.2536778090E+020.0000000000E+00+
*       -3.500000000E+02               0
GRID*               4390               04.1657889472E+020.0000000000E+00+
*       -3.500000000E+02               0
GRID*               4391               04.7810109795E+020.0000000000E+00+
*       -3.400000000E+02               0
GRID*               4392               04.6931221178E+020.0000000000E+00+
*       -3.400000000E+02               0
GRID*               4393               04.6052332560E+020.0000000000E+00+
*       -3.400000000E+02               0
GRID*               4394               04.5173443943E+020.0000000000E+00+
*       -3.400000000E+02               0
GRID*               4395               04.4294555325E+020.0000000000E+00+
*       -3.400000000E+02               0
GRID*               4396               04.3415666707E+020.0000000000E+00+
*       -3.400000000E+02               0
GRID*               4397               04.2536778090E+020.0000000000E+00+
*       -3.400000000E+02               0
GRID*               4398               04.1657889472E+020.0000000000E+00+
*       -3.400000000E+02               0
GRID*               4399               04.7810109795E+020.0000000000E+00+
*       -3.300000000E+02               0
GRID*               4400               04.6931221178E+020.0000000000E+00+
*       -3.300000000E+02               0
GRID*               4401               04.6052332560E+020.0000000000E+00+
*       -3.300000000E+02               0
GRID*               4402               04.5173443943E+020.0000000000E+00+
*       -3.300000000E+02               0
GRID*               4403               04.4294555325E+020.0000000000E+00+
*       -3.300000000E+02               0
GRID*               4404               04.3415666707E+020.0000000000E+00+
*       -3.300000000E+02               0
GRID*               4405               04.2536778090E+020.0000000000E+00+
*       -3.300000000E+02               0
GRID*               4406               04.1657889472E+020.0000000000E+00+
*       -3.300000000E+02               0
GRID*               4407               04.7810109795E+020.0000000000E+00+
*       -3.200000000E+02               0
GRID*               4408               04.6931221178E+020.0000000000E+00+
*       -3.200000000E+02               0
GRID*               4409               04.6052332560E+020.0000000000E+00+
*       -3.200000000E+02               0
GRID*               4410               04.5173443943E+020.0000000000E+00+
*       -3.200000000E+02               0
GRID*               4411               04.4294555325E+020.0000000000E+00+
*       -3.200000000E+02               0
GRID*               4412               04.3415666707E+020.0000000000E+00+
*       -3.200000000E+02               0
GRID*               4413               04.2536778090E+020.0000000000E+00+
*       -3.200000000E+02               0
GRID*               4414               04.1657889472E+020.0000000000E+00+
*       -3.200000000E+02               0
GRID*               4415               04.7810109795E+020.0000000000E+00+
*       -3.100000000E+02               0
GRID*               4416               04.6931221178E+020.0000000000E+00+
*       -3.100000000E+02               0
GRID*               4417               04.6052332560E+020.0000000000E+00+
*       -3.100000000E+02               0
GRID*               4418               04.5173443943E+020.0000000000E+00+
*       -3.100000000E+02               0
GRID*               4419               04.4294555325E+020.0000000000E+00+
*       -3.100000000E+02               0
GRID*               4420               04.3415666707E+020.0000000000E+00+
*       -3.100000000E+02               0
GRID*               4421               04.2536778090E+020.0000000000E+00+
*       -3.100000000E+02               0
GRID*               4422               04.1657889472E+020.0000000000E+00+
*       -3.100000000E+02               0
GRID*               4423               04.7810109795E+020.0000000000E+00+
*       -3.000000000E+02               0
GRID*               4424               04.6931221178E+020.0000000000E+00+
*       -3.000000000E+02               0
GRID*               4425               04.6052332560E+020.0000000000E+00+
*       -3.000000000E+02               0
GRID*               4426               04.5173443943E+020.0000000000E+00+
*       -3.000000000E+02               0
GRID*               4427               04.4294555325E+020.0000000000E+00+
*       -3.000000000E+02               0
GRID*               4428               04.3415666707E+020.0000000000E+00+
*       -3.000000000E+02               0
GRID*               4429               04.2536778090E+020.0000000000E+00+
*       -3.000000000E+02               0
GRID*               4430               04.1657889472E+020.0000000000E+00+
*       -3.000000000E+02               0
GRID*               4431               04.7810109795E+020.0000000000E+00+
*       -2.900000000E+02               0
GRID*               4432               04.6931221178E+020.0000000000E+00+
*       -2.900000000E+02               0
GRID*               4433               04.6052332560E+020.0000000000E+00+
*       -2.900000000E+02               0
GRID*               4434               04.5173443943E+020.0000000000E+00+
*       -2.900000000E+02               0
GRID*               4435               04.4294555325E+020.0000000000E+00+
*       -2.900000000E+02               0
GRID*               4436               04.3415666707E+020.0000000000E+00+
*       -2.900000000E+02               0
GRID*               4437               04.2536778090E+020.0000000000E+00+
*       -2.900000000E+02               0
GRID*               4438               04.1657889472E+020.0000000000E+00+
*       -2.900000000E+02               0
GRID*               4439               04.7810109795E+020.0000000000E+00+
*       -2.800000000E+02               0
GRID*               4440               04.6931221178E+020.0000000000E+00+
*       -2.800000000E+02               0
GRID*               4441               04.6052332560E+020.0000000000E+00+
*       -2.800000000E+02               0
GRID*               4442               04.5173443943E+020.0000000000E+00+
*       -2.800000000E+02               0
GRID*               4443               04.4294555325E+020.0000000000E+00+
*       -2.800000000E+02               0
GRID*               4444               04.3415666707E+020.0000000000E+00+
*       -2.800000000E+02               0
GRID*               4445               04.2536778090E+020.0000000000E+00+
*       -2.800000000E+02               0
GRID*               4446               04.1657889472E+020.0000000000E+00+
*       -2.800000000E+02               0
GRID*               4447               04.7810109795E+020.0000000000E+00+
*       -2.700000000E+02               0
GRID*               4448               04.6931221178E+020.0000000000E+00+
*       -2.700000000E+02               0
GRID*               4449               04.6052332560E+020.0000000000E+00+
*       -2.700000000E+02               0
GRID*               4450               04.5173443943E+020.0000000000E+00+
*       -2.700000000E+02               0
GRID*               4451               04.4294555325E+020.0000000000E+00+
*       -2.700000000E+02               0
GRID*               4452               04.3415666707E+020.0000000000E+00+
*       -2.700000000E+02               0
GRID*               4453               04.2536778090E+020.0000000000E+00+
*       -2.700000000E+02               0
GRID*               4454               04.1657889472E+020.0000000000E+00+
*       -2.700000000E+02               0
GRID*               4455               04.7810109795E+020.0000000000E+00+
*       -2.600000000E+02               0
GRID*               4456               04.6931221178E+020.0000000000E+00+
*       -2.600000000E+02               0
GRID*               4457               04.6052332560E+020.0000000000E+00+
*       -2.600000000E+02               0
GRID*               4458               04.5173443943E+020.0000000000E+00+
*       -2.600000000E+02               0
GRID*               4459               04.4294555325E+020.0000000000E+00+
*       -2.600000000E+02               0
GRID*               4460               04.3415666707E+020.0000000000E+00+
*       -2.600000000E+02               0
GRID*               4461               04.2536778090E+020.0000000000E+00+
*       -2.600000000E+02               0
GRID*               4462               04.1657889472E+020.0000000000E+00+
*       -2.600000000E+02               0
GRID*               4463               04.7810109795E+020.0000000000E+00+
*       -2.500000000E+02               0
GRID*               4464               04.6931221178E+020.0000000000E+00+
*       -2.500000000E+02               0
GRID*               4465               04.6052332560E+020.0000000000E+00+
*       -2.500000000E+02               0
GRID*               4466               04.5173443943E+020.0000000000E+00+
*       -2.500000000E+02               0
GRID*               4467               04.4294555325E+020.0000000000E+00+
*       -2.500000000E+02               0
GRID*               4468               04.3415666707E+020.0000000000E+00+
*       -2.500000000E+02               0
GRID*               4469               04.2536778090E+020.0000000000E+00+
*       -2.500000000E+02               0
GRID*               4470               04.1657889472E+020.0000000000E+00+
*       -2.500000000E+02               0
GRID*               4471               04.7810109795E+020.0000000000E+00+
*       -2.400000000E+02               0
GRID*               4472               04.6931221178E+020.0000000000E+00+
*       -2.400000000E+02               0
GRID*               4473               04.6052332560E+020.0000000000E+00+
*       -2.400000000E+02               0
GRID*               4474               04.5173443943E+020.0000000000E+00+
*       -2.400000000E+02               0
GRID*               4475               04.4294555325E+020.0000000000E+00+
*       -2.400000000E+02               0
GRID*               4476               04.3415666707E+020.0000000000E+00+
*       -2.400000000E+02               0
GRID*               4477               04.2536778090E+020.0000000000E+00+
*       -2.400000000E+02               0
GRID*               4478               04.1657889472E+020.0000000000E+00+
*       -2.400000000E+02               0
GRID*               4479               04.7810109795E+020.0000000000E+00+
*       -2.300000000E+02               0
GRID*               4480               04.6931221178E+020.0000000000E+00+
*       -2.300000000E+02               0
GRID*               4481               04.6052332560E+020.0000000000E+00+
*       -2.300000000E+02               0
GRID*               4482               04.5173443943E+020.0000000000E+00+
*       -2.300000000E+02               0
GRID*               4483               04.4294555325E+020.0000000000E+00+
*       -2.300000000E+02               0
GRID*               4484               04.3415666707E+020.0000000000E+00+
*       -2.300000000E+02               0
GRID*               4485               04.2536778090E+020.0000000000E+00+
*       -2.300000000E+02               0
GRID*               4486               04.1657889472E+020.0000000000E+00+
*       -2.300000000E+02               0
GRID*               4487               04.7810109795E+020.0000000000E+00+
*       -2.200000000E+02               0
GRID*               4488               04.6931221178E+020.0000000000E+00+
*       -2.200000000E+02               0
GRID*               4489               04.6052332560E+020.0000000000E+00+
*       -2.200000000E+02               0
GRID*               4490               04.5173443943E+020.0000000000E+00+
*       -2.200000000E+02               0
GRID*               4491               04.4294555325E+020.0000000000E+00+
*       -2.200000000E+02               0
GRID*               4492               04.3415666707E+020.0000000000E+00+
*       -2.200000000E+02               0
GRID*               4493               04.2536778090E+020.0000000000E+00+
*       -2.200000000E+02               0
GRID*               4494               04.1657889472E+020.0000000000E+00+
*       -2.200000000E+02               0
GRID*               4495               04.7810109795E+020.0000000000E+00+
*       -2.100000000E+02               0
GRID*               4496               04.6931221178E+020.0000000000E+00+
*       -2.100000000E+02               0
GRID*               4497               04.6052332560E+020.0000000000E+00+
*       -2.100000000E+02               0
GRID*               4498               04.5173443943E+020.0000000000E+00+
*       -2.100000000E+02               0
GRID*               4499               04.4294555325E+020.0000000000E+00+
*       -2.100000000E+02               0
GRID*               4500               04.3415666707E+020.0000000000E+00+
*       -2.100000000E+02               0
GRID*               4501               04.2536778090E+020.0000000000E+00+
*       -2.100000000E+02               0
GRID*               4502               04.1657889472E+020.0000000000E+00+
*       -2.100000000E+02               0
GRID*               4503               04.7810109795E+020.0000000000E+00+
*       -2.000000000E+02               0
GRID*               4504               04.6931221178E+020.0000000000E+00+
*       -2.000000000E+02               0
GRID*               4505               04.6052332560E+020.0000000000E+00+
*       -2.000000000E+02               0
GRID*               4506               04.5173443943E+020.0000000000E+00+
*       -2.000000000E+02               0
GRID*               4507               04.4294555325E+020.0000000000E+00+
*       -2.000000000E+02               0
GRID*               4508               04.3415666707E+020.0000000000E+00+
*       -2.000000000E+02               0
GRID*               4509               04.2536778090E+020.0000000000E+00+
*       -2.000000000E+02               0
GRID*               4510               04.1657889472E+020.0000000000E+00+
*       -2.000000000E+02               0
GRID*               4511               04.7810109795E+020.0000000000E+00+
*       -1.900000000E+02               0
GRID*               4512               04.6931221178E+020.0000000000E+00+
*       -1.900000000E+02               0
GRID*               4513               04.6052332560E+020.0000000000E+00+
*       -1.900000000E+02               0
GRID*               4514               04.5173443943E+020.0000000000E+00+
*       -1.900000000E+02               0
GRID*               4515               04.4294555325E+020.0000000000E+00+
*       -1.900000000E+02               0
GRID*               4516               04.3415666707E+020.0000000000E+00+
*       -1.900000000E+02               0
GRID*               4517               04.2536778090E+020.0000000000E+00+
*       -1.900000000E+02               0
GRID*               4518               04.1657889472E+020.0000000000E+00+
*       -1.900000000E+02               0
GRID*               4519               04.7810109795E+020.0000000000E+00+
*       -1.800000000E+02               0
GRID*               4520               04.6931221178E+020.0000000000E+00+
*       -1.800000000E+02               0
GRID*               4521               04.6052332560E+020.0000000000E+00+
*       -1.800000000E+02               0
GRID*               4522               04.5173443943E+020.0000000000E+00+
*       -1.800000000E+02               0
GRID*               4523               04.4294555325E+020.0000000000E+00+
*       -1.800000000E+02               0
GRID*               4524               04.3415666707E+020.0000000000E+00+
*       -1.800000000E+02               0
GRID*               4525               04.2536778090E+020.0000000000E+00+
*       -1.800000000E+02               0
GRID*               4526               04.1657889472E+020.0000000000E+00+
*       -1.800000000E+02               0
GRID*               4527               04.7810109795E+020.0000000000E+00+
*       -1.700000000E+02               0
GRID*               4528               04.6931221178E+020.0000000000E+00+
*       -1.700000000E+02               0
GRID*               4529               04.6052332560E+020.0000000000E+00+
*       -1.700000000E+02               0
GRID*               4530               04.5173443943E+020.0000000000E+00+
*       -1.700000000E+02               0
GRID*               4531               04.4294555325E+020.0000000000E+00+
*       -1.700000000E+02               0
GRID*               4532               04.3415666707E+020.0000000000E+00+
*       -1.700000000E+02               0
GRID*               4533               04.2536778090E+020.0000000000E+00+
*       -1.700000000E+02               0
GRID*               4534               04.1657889472E+020.0000000000E+00+
*       -1.700000000E+02               0
GRID*               4535               04.7810109795E+020.0000000000E+00+
*       -1.600000000E+02               0
GRID*               4536               04.6931221178E+020.0000000000E+00+
*       -1.600000000E+02               0
GRID*               4537               04.6052332560E+020.0000000000E+00+
*       -1.600000000E+02               0
GRID*               4538               04.5173443943E+020.0000000000E+00+
*       -1.600000000E+02               0
GRID*               4539               04.4294555325E+020.0000000000E+00+
*       -1.600000000E+02               0
GRID*               4540               04.3415666707E+020.0000000000E+00+
*       -1.600000000E+02               0
GRID*               4541               04.2536778090E+020.0000000000E+00+
*       -1.600000000E+02               0
GRID*               4542               04.1657889472E+020.0000000000E+00+
*       -1.600000000E+02               0
GRID*               4543               04.7810109795E+020.0000000000E+00+
*       -1.500000000E+02               0
GRID*               4544               04.6931221178E+020.0000000000E+00+
*       -1.500000000E+02               0
GRID*               4545               04.6052332560E+020.0000000000E+00+
*       -1.500000000E+02               0
GRID*               4546               04.5173443943E+020.0000000000E+00+
*       -1.500000000E+02               0
GRID*               4547               04.4294555325E+020.0000000000E+00+
*       -1.500000000E+02               0
GRID*               4548               04.3415666707E+020.0000000000E+00+
*       -1.500000000E+02               0
GRID*               4549               04.2536778090E+020.0000000000E+00+
*       -1.500000000E+02               0
GRID*               4550               04.1657889472E+020.0000000000E+00+
*       -1.500000000E+02               0
GRID*               4551               04.7810109795E+020.0000000000E+00+
*       -1.400000000E+02               0
GRID*               4552               04.6931221178E+020.0000000000E+00+
*       -1.400000000E+02               0
GRID*               4553               04.6052332560E+020.0000000000E+00+
*       -1.400000000E+02               0
GRID*               4554               04.5173443943E+020.0000000000E+00+
*       -1.400000000E+02               0
GRID*               4555               04.4294555325E+020.0000000000E+00+
*       -1.400000000E+02               0
GRID*               4556               04.3415666707E+020.0000000000E+00+
*       -1.400000000E+02               0
GRID*               4557               04.2536778090E+020.0000000000E+00+
*       -1.400000000E+02               0
GRID*               4558               04.1657889472E+020.0000000000E+00+
*       -1.400000000E+02               0
GRID*               4559               04.7810109795E+020.0000000000E+00+
*       -1.300000000E+02               0
GRID*               4560               04.6931221178E+020.0000000000E+00+
*       -1.300000000E+02               0
GRID*               4561               04.6052332560E+020.0000000000E+00+
*       -1.300000000E+02               0
GRID*               4562               04.5173443943E+020.0000000000E+00+
*       -1.300000000E+02               0
GRID*               4563               04.4294555325E+020.0000000000E+00+
*       -1.300000000E+02               0
GRID*               4564               04.3415666707E+020.0000000000E+00+
*       -1.300000000E+02               0
GRID*               4565               04.2536778090E+020.0000000000E+00+
*       -1.300000000E+02               0
GRID*               4566               04.1657889472E+020.0000000000E+00+
*       -1.300000000E+02               0
GRID*               4567               04.7810109795E+020.0000000000E+00+
*       -1.200000000E+02               0
GRID*               4568               04.6931221178E+020.0000000000E+00+
*       -1.200000000E+02               0
GRID*               4569               04.6052332560E+020.0000000000E+00+
*       -1.200000000E+02               0
GRID*               4570               04.5173443943E+020.0000000000E+00+
*       -1.200000000E+02               0
GRID*               4571               04.4294555325E+020.0000000000E+00+
*       -1.200000000E+02               0
GRID*               4572               04.3415666707E+020.0000000000E+00+
*       -1.200000000E+02               0
GRID*               4573               04.2536778090E+020.0000000000E+00+
*       -1.200000000E+02               0
GRID*               4574               04.1657889472E+020.0000000000E+00+
*       -1.200000000E+02               0
GRID*               4575               04.7810109795E+020.0000000000E+00+
*       -1.100000000E+02               0
GRID*               4576               04.6931221178E+020.0000000000E+00+
*       -1.100000000E+02               0
GRID*               4577               04.6052332560E+020.0000000000E+00+
*       -1.100000000E+02               0
GRID*               4578               04.5173443943E+020.0000000000E+00+
*       -1.100000000E+02               0
GRID*               4579               04.4294555325E+020.0000000000E+00+
*       -1.100000000E+02               0
GRID*               4580               04.3415666707E+020.0000000000E+00+
*       -1.100000000E+02               0
GRID*               4581               04.2536778090E+020.0000000000E+00+
*       -1.100000000E+02               0
GRID*               4582               04.1657889472E+020.0000000000E+00+
*       -1.100000000E+02               0
GRID*               4583               04.7810109795E+020.0000000000E+00+
*       -1.000000000E+02               0
GRID*               4584               04.6931221178E+020.0000000000E+00+
*       -1.000000000E+02               0
GRID*               4585               04.6052332560E+020.0000000000E+00+
*       -1.000000000E+02               0
GRID*               4586               04.5173443943E+020.0000000000E+00+
*       -1.000000000E+02               0
GRID*               4587               04.4294555325E+020.0000000000E+00+
*       -1.000000000E+02               0
GRID*               4588               04.3415666707E+020.0000000000E+00+
*       -1.000000000E+02               0
GRID*               4589               04.2536778090E+020.0000000000E+00+
*       -1.000000000E+02               0
GRID*               4590               04.1657889472E+020.0000000000E+00+
*       -1.000000000E+02               0
GRID*               4591               04.7810109795E+020.0000000000E+00+
*       -9.000000000E+01               0
GRID*               4592               04.6931221178E+020.0000000000E+00+
*       -9.000000000E+01               0
GRID*               4593               04.6052332560E+020.0000000000E+00+
*       -9.000000000E+01               0
GRID*               4594               04.5173443943E+020.0000000000E+00+
*       -9.000000000E+01               0
GRID*               4595               04.4294555325E+020.0000000000E+00+
*       -9.000000000E+01               0
GRID*               4596               04.3415666707E+020.0000000000E+00+
*       -9.000000000E+01               0
GRID*               4597               04.2536778090E+020.0000000000E+00+
*       -9.000000000E+01               0
GRID*               4598               04.1657889472E+020.0000000000E+00+
*       -9.000000000E+01               0
GRID*               4599               04.7810109795E+020.0000000000E+00+
*       -8.000000000E+01               0
GRID*               4600               04.6931221178E+020.0000000000E+00+
*       -8.000000000E+01               0
GRID*               4601               04.6052332560E+020.0000000000E+00+
*       -8.000000000E+01               0
GRID*               4602               04.5173443943E+020.0000000000E+00+
*       -8.000000000E+01               0
GRID*               4603               04.4294555325E+020.0000000000E+00+
*       -8.000000000E+01               0
GRID*               4604               04.3415666707E+020.0000000000E+00+
*       -8.000000000E+01               0
GRID*               4605               04.2536778090E+020.0000000000E+00+
*       -8.000000000E+01               0
GRID*               4606               04.1657889472E+020.0000000000E+00+
*       -8.000000000E+01               0
GRID*               4607               04.7810109795E+020.0000000000E+00+
*       -7.000000000E+01               0
GRID*               4608               04.6931221178E+020.0000000000E+00+
*       -7.000000000E+01               0
GRID*               4609               04.6052332560E+020.0000000000E+00+
*       -7.000000000E+01               0
GRID*               4610               04.5173443943E+020.0000000000E+00+
*       -7.000000000E+01               0
GRID*               4611               04.4294555325E+020.0000000000E+00+
*       -7.000000000E+01               0
GRID*               4612               04.3415666707E+020.0000000000E+00+
*       -7.000000000E+01               0
GRID*               4613               04.2536778090E+020.0000000000E+00+
*       -7.000000000E+01               0
GRID*               4614               04.1657889472E+020.0000000000E+00+
*       -7.000000000E+01               0
GRID*               4615               04.7810109795E+020.0000000000E+00+
*       -6.000000000E+01               0
GRID*               4616               04.6931221178E+020.0000000000E+00+
*       -6.000000000E+01               0
GRID*               4617               04.6052332560E+020.0000000000E+00+
*       -6.000000000E+01               0
GRID*               4618               04.5173443943E+020.0000000000E+00+
*       -6.000000000E+01               0
GRID*               4619               04.4294555325E+020.0000000000E+00+
*       -6.000000000E+01               0
GRID*               4620               04.3415666707E+020.0000000000E+00+
*       -6.000000000E+01               0
GRID*               4621               04.2536778090E+020.0000000000E+00+
*       -6.000000000E+01               0
GRID*               4622               04.1657889472E+020.0000000000E+00+
*       -6.000000000E+01               0
GRID*               4623               04.7810109795E+020.0000000000E+00+
*       -5.000000000E+01               0
GRID*               4624               04.6931221178E+020.0000000000E+00+
*       -5.000000000E+01               0
GRID*               4625               04.6052332560E+020.0000000000E+00+
*       -5.000000000E+01               0
GRID*               4626               04.5173443943E+020.0000000000E+00+
*       -5.000000000E+01               0
GRID*               4627               04.4294555325E+020.0000000000E+00+
*       -5.000000000E+01               0
GRID*               4628               04.3415666707E+020.0000000000E+00+
*       -5.000000000E+01               0
GRID*               4629               04.2536778090E+020.0000000000E+00+
*       -5.000000000E+01               0
GRID*               4630               04.1657889472E+020.0000000000E+00+
*       -5.000000000E+01               0
GRID*               4631               04.7810109795E+020.0000000000E+00+
*       -4.000000000E+01               0
GRID*               4632               04.6931221178E+020.0000000000E+00+
*       -4.000000000E+01               0
GRID*               4633               04.6052332560E+020.0000000000E+00+
*       -4.000000000E+01               0
GRID*               4634               04.5173443943E+020.0000000000E+00+
*       -4.000000000E+01               0
GRID*               4635               04.4294555325E+020.0000000000E+00+
*       -4.000000000E+01               0
GRID*               4636               04.3415666707E+020.0000000000E+00+
*       -4.000000000E+01               0
GRID*               4637               04.2536778090E+020.0000000000E+00+
*       -4.000000000E+01               0
GRID*               4638               04.1657889472E+020.0000000000E+00+
*       -4.000000000E+01               0
GRID*               4639               04.7810109795E+020.0000000000E+00+
*       -3.000000000E+01               0
GRID*               4640               04.6931221178E+020.0000000000E+00+
*       -3.000000000E+01               0
GRID*               4641               04.6052332560E+020.0000000000E+00+
*       -3.000000000E+01               0
GRID*               4642               04.5173443943E+020.0000000000E+00+
*       -3.000000000E+01               0
GRID*               4643               04.4294555325E+020.0000000000E+00+
*       -3.000000000E+01               0
GRID*               4644               04.3415666707E+020.0000000000E+00+
*       -3.000000000E+01               0
GRID*               4645               04.2536778090E+020.0000000000E+00+
*       -3.000000000E+01               0
GRID*               4646               04.1657889472E+020.0000000000E+00+
*       -3.000000000E+01               0
GRID*               4647               04.7810109795E+020.0000000000E+00+
*       -2.000000000E+01               0
GRID*               4648               04.6931221178E+020.0000000000E+00+
*       -2.000000000E+01               0
GRID*               4649               04.6052332560E+020.0000000000E+00+
*       -2.000000000E+01               0
GRID*               4650               04.5173443943E+020.0000000000E+00+
*       -2.000000000E+01               0
GRID*               4651               04.4294555325E+020.0000000000E+00+
*       -2.000000000E+01               0
GRID*               4652               04.3415666707E+020.0000000000E+00+
*       -2.000000000E+01               0
GRID*               4653               04.2536778090E+020.0000000000E+00+
*       -2.000000000E+01               0
GRID*               4654               04.1657889472E+020.0000000000E+00+
*       -2.000000000E+01               0
GRID*               4655               04.7810109795E+020.0000000000E+00+
*       -1.000000000E+01               0
GRID*               4656               04.6931221178E+020.0000000000E+00+
*       -1.000000000E+01               0
GRID*               4657               04.6052332560E+020.0000000000E+00+
*       -1.000000000E+01               0
GRID*               4658               04.5173443943E+020.0000000000E+00+
*       -1.000000000E+01               0
GRID*               4659               04.4294555325E+020.0000000000E+00+
*       -1.000000000E+01               0
GRID*               4660               04.3415666707E+020.0000000000E+00+
*       -1.000000000E+01               0
GRID*               4661               04.2536778090E+020.0000000000E+00+
*       -1.000000000E+01               0
GRID*               4662               04.1657889472E+020.0000000000E+00+
*       -1.000000000E+01               0
GRID*               4663               09.9999994040E-020.0000000000E+00+
*       4.0089330851E+02               0
GRID*               4664               09.9999994040E-020.0000000000E+00+
*       3.9368664144E+02               0
GRID*               4665               09.9999994040E-020.0000000000E+00+
*       3.8647997437E+02               0
GRID*               4666               09.9999994040E-020.0000000000E+00+
*       3.7927330729E+02               0
GRID*               4667               09.9999994040E-020.0000000000E+00+
*       3.7206664022E+02               0
GRID*               4668               09.9999994040E-020.0000000000E+00+
*       3.6485997314E+02               0
GRID*               4669               09.9999994040E-020.0000000000E+00+
*       3.5765330607E+02               0
GRID*               4670               09.9999994040E-020.0000000000E+00+
*       3.5044663900E+02               0
GRID*               4671               09.9999994040E-020.0000000000E+00+
*       3.4323997192E+02               0
GRID*               4672               09.9999994040E-020.0000000000E+00+
*       3.3603330485E+02               0
GRID*               4673               09.9999994040E-020.0000000000E+00+
*       3.2882663778E+02               0
GRID*               4674               09.9999994040E-020.0000000000E+00+
*       3.2161997070E+02               0
GRID*               4675               09.9999994040E-020.0000000000E+00+
*       3.1441330363E+02               0
GRID*               4676               09.9999994040E-020.0000000000E+00+
*       3.0720663656E+02               0
GRID*               4677               06.3813664048E+000.0000000000E+00+
*       2.9993148677E+02               0
GRID*               4678               01.2659940902E+010.0000000000E+00+
*       2.9973214097E+02               0
GRID*               4679               01.8932966868E+010.0000000000E+00+
*       2.9940169423E+02               0
GRID*               4680               02.5197687685E+010.0000000000E+00+
*       2.9893990868E+02               0
GRID*               4681               03.1451357507E+010.0000000000E+00+
*       2.9834677689E+02               0
GRID*               4682               03.7691237730E+010.0000000000E+00+
*       2.9762282127E+02               0
GRID*               4683               04.3914596838E+010.0000000000E+00+
*       2.9676840830E+02               0
GRID*               4684               05.0118704509E+010.0000000000E+00+
*       2.9578389789E+02               0
GRID*               4685               05.6300831283E+010.0000000000E+00+
*       2.9466966189E+02               0
GRID*               4686               06.2458269044E+010.0000000000E+00+
*       2.9342620886E+02               0
GRID*               4687               06.8588328814E+010.0000000000E+00+
*       2.9205413457E+02               0
GRID*               4688               07.4688322174E+010.0000000000E+00+
*       2.9055403619E+02               0
GRID*               4689               08.0755561228E+010.0000000000E+00+
*       2.8892651559E+02               0
GRID*               4690               08.6787384334E+010.0000000000E+00+
*       2.8717228563E+02               0
GRID*               4691               09.2781163742E+010.0000000000E+00+
*       2.8529217169E+02               0
GRID*               4692               09.8734273755E+010.0000000000E+00+
*       2.8328700419E+02               0
GRID*               4693               01.0464408898E+020.0000000000E+00+
*       2.8115761514E+02               0
GRID*               4694               01.1050801124E+020.0000000000E+00+
*       2.7890492114E+02               0
GRID*               4695               01.1632349028E+020.0000000000E+00+
*       2.7652996341E+02               0
GRID*               4696               01.2208798065E+020.0000000000E+00+
*       2.7403379310E+02               0
GRID*               4697               01.2779893691E+020.0000000000E+00+
*       2.7141746155E+02               0
GRID*               4698               01.3345383750E+020.0000000000E+00+
*       2.6868208037E+02               0
GRID*               4699               01.3905022962E+020.0000000000E+00+
*       2.6582890430E+02               0
GRID*               4700               01.4458567252E+020.0000000000E+00+
*       2.6285920882E+02               0
GRID*               4701               01.5005772545E+020.0000000000E+00+
*       2.5977426945E+02               0
GRID*               4702               01.5546396439E+020.0000000000E+00+
*       2.5657539569E+02               0
GRID*               4703               01.6080204374E+020.0000000000E+00+
*       2.5326403236E+02               0
GRID*               4704               01.6606964019E+020.0000000000E+00+
*       2.4984165804E+02               0
GRID*               4705               01.7126443045E+020.0000000000E+00+
*       2.4630975129E+02               0
GRID*               4706               01.7638410354E+020.0000000000E+00+
*       2.4266981164E+02               0
GRID*               4707               01.8142643650E+020.0000000000E+00+
*       2.3892346741E+02               0
GRID*               4708               01.8638924469E+020.0000000000E+00+
*       2.3507239548E+02               0
GRID*               4709               01.9127034362E+020.0000000000E+00+
*       2.3111827281E+02               0
GRID*               4710               01.9606755546E+020.0000000000E+00+
*       2.2706278616E+02               0
GRID*               4711               02.0077878887E+020.0000000000E+00+
*       2.2290772961E+02               0
GRID*               4712               02.0540201270E+020.0000000000E+00+
*       2.1865496323E+02               0
GRID*               4713               02.0993519698E+020.0000000000E+00+
*       2.1430634802E+02               0
GRID*               4714               02.1437631477E+020.0000000000E+00+
*       2.0986374899E+02               0
GRID*               4715               02.1872341793E+020.0000000000E+00+
*       2.0532911472E+02               0
GRID*               4716               02.2297464227E+020.0000000000E+00+
*       2.0070447289E+02               0
GRID*               4717               02.2712812766E+020.0000000000E+00+
*       1.9599185426E+02               0
GRID*               4718               02.3118201489E+020.0000000000E+00+
*       1.9119329076E+02               0
GRID*               4719               02.3513451057E+020.0000000000E+00+
*       1.8631087428E+02               0
GRID*               4720               02.3898392857E+020.0000000000E+00+
*       1.8134678311E+02               0
GRID*               4721               02.4272859260E+020.0000000000E+00+
*       1.7630320225E+02               0
GRID*               4722               02.4636682646E+020.0000000000E+00+
*       1.7118231684E+02               0
GRID*               4723               02.4989700313E+020.0000000000E+00+
*       1.6598635067E+02               0
GRID*               4724               02.5331762352E+020.0000000000E+00+
*       1.6071761505E+02               0
GRID*               4725               02.5662720897E+020.0000000000E+00+
*       1.5537843326E+02               0
GRID*               4726               02.5982428084E+020.0000000000E+00+
*       1.4997112855E+02               0
GRID*               4727               02.6290739417E+020.0000000000E+00+
*       1.4449804663E+02               0
GRID*               4728               02.6587524092E+020.0000000000E+00+
*       1.3896161235E+02               0
GRID*               4729               02.6872654780E+020.0000000000E+00+
*       1.3336426763E+02               0
GRID*               4730               02.7146004154E+020.0000000000E+00+
*       1.2770845438E+02               0
GRID*               4731               02.7407446892E+020.0000000000E+00+
*       1.2199662617E+02               0
GRID*               4732               02.7656871837E+020.0000000000E+00+
*       1.1623130442E+02               0
GRID*               4733               02.7894173913E+020.0000000000E+00+
*       1.1041503476E+02               0
GRID*               4734               02.8119248068E+020.0000000000E+00+
*       1.0455036285E+02               0
GRID*               4735               02.8331990315E+020.0000000000E+00+
*       9.8639839359E+01               0
GRID*               4736               02.8532309190E+020.0000000000E+00+
*       9.2686063093E+01               0
GRID*               4737               02.8720121354E+020.0000000000E+00+
*       8.6691659088E+01               0
GRID*               4738               02.8895343609E+020.0000000000E+00+
*       8.0659252593E+01               0
GRID*               4739               02.9057893249E+020.0000000000E+00+
*       7.4591470966E+01               0
GRID*               4740               02.9207699008E+020.0000000000E+00+
*       6.8490976228E+01               0
GRID*               4741               02.9344701119E+020.0000000000E+00+
*       6.2360457269E+01               0
GRID*               4742               02.9468840321E+020.0000000000E+00+
*       5.6202603529E+01               0
GRID*               4743               02.9580057476E+020.0000000000E+00+
*       5.0020104960E+01               0
GRID*               4744               02.9678301770E+020.0000000000E+00+
*       4.3815669548E+01               0
GRID*               4745               02.9763535923E+020.0000000000E+00+
*       3.7592026423E+01               0
GRID*               4746               02.9835723889E+020.0000000000E+00+
*       3.1351905778E+01               0
GRID*               4747               02.9894828969E+020.0000000000E+00+
*       2.5098039000E+01               0
GRID*               4748               02.9940799034E+020.0000000000E+00+
*       1.8833164859E+01               0
GRID*               4749               02.9973634976E+020.0000000000E+00+
*       1.2560029295E+01               0
GRID*               4750               02.9993360672E+020.0000000000E+00+
*       6.2813888342E+00               0
GRID*               4751               04.0801004691E+020.0000000000E+00+
*       8.5452658714E+00               0
GRID*               4752               04.0774176607E+020.0000000000E+00+
*       1.7086789089E+01               0
GRID*               4753               04.0729488465E+020.0000000000E+00+
*       2.5620819981E+01               0
GRID*               4754               04.0666917845E+020.0000000000E+00+
*       3.4143612011E+01               0
GRID*               4755               04.0586505183E+020.0000000000E+00+
*       4.2651431427E+01               0
GRID*               4756               04.0488298459E+020.0000000000E+00+
*       5.1140551561E+01               0
GRID*               4757               04.0372339664E+020.0000000000E+00+
*       5.9607248968E+01               0
GRID*               4758               04.0238673640E+020.0000000000E+00+
*       6.8047802714E+01               0
GRID*               4759               04.0087363208E+020.0000000000E+00+
*       7.6458517873E+01               0
GRID*               4760               03.9918478184E+020.0000000000E+00+
*       8.4835713031E+01               0
GRID*               4761               03.9732088522E+020.0000000000E+00+
*       9.3175706959E+01               0
GRID*               4762               03.9528273513E+020.0000000000E+00+
*       1.0147483680E+02               0
GRID*               4763               03.9307128131E+020.0000000000E+00+
*       1.0972947726E+02               0
GRID*               4764               03.9068748850E+020.0000000000E+00+
*       1.1793600758E+02               0
GRID*               4765               03.8813233853E+020.0000000000E+00+
*       1.2609081083E+02               0
GRID*               4766               03.8540697957E+020.0000000000E+00+
*       1.3419031889E+02               0
GRID*               4767               03.8251265341E+020.0000000000E+00+
*       1.4223099626E+02               0
GRID*               4768               03.7945060304E+020.0000000000E+00+
*       1.5020930800E+02               0
GRID*               4769               03.7622213330E+020.0000000000E+00+
*       1.5812174084E+02               0
GRID*               4770               03.7282871205E+020.0000000000E+00+
*       1.6596484666E+02               0
GRID*               4771               03.6927183366E+020.0000000000E+00+
*       1.7373518933E+02               0
GRID*               4772               03.6555300117E+020.0000000000E+00+
*       1.8142933599E+02               0
GRID*               4773               03.6167385491E+020.0000000000E+00+
*       1.8904391646E+02               0
GRID*               4774               03.5763614487E+020.0000000000E+00+
*       1.9657561707E+02               0
GRID*               4775               03.5344162408E+020.0000000000E+00+
*       2.0402112613E+02               0
GRID*               4776               03.4909208600E+020.0000000000E+00+
*       2.1137715277E+02               0
GRID*               4777               03.4458948318E+020.0000000000E+00+
*       2.1864049800E+02               0
GRID*               4778               03.3993580734E+020.0000000000E+00+
*       2.2580798799E+02               0
GRID*               4779               03.3513305361E+020.0000000000E+00+
*       2.3287645069E+02               0
GRID*               4780               03.3018332099E+020.0000000000E+00+
*       2.3984278100E+02               0
GRID*               4781               03.2508882803E+020.0000000000E+00+
*       2.4670395861E+02               0
GRID*               4782               03.1985179986E+020.0000000000E+00+
*       2.5345696869E+02               0
GRID*               4783               03.1447448547E+020.0000000000E+00+
*       2.6009881325E+02               0
GRID*               4784               03.0895927617E+020.0000000000E+00+
*       2.6662660625E+02               0
GRID*               4785               03.0330861573E+020.0000000000E+00+
*       2.7303750716E+02               0
GRID*               4786               02.9752494888E+020.0000000000E+00+
*       2.7932867610E+02               0
GRID*               4787               02.9161079159E+020.0000000000E+00+
*       2.8549733499E+02               0
GRID*               4788               02.8556878203E+020.0000000000E+00+
*       2.9154082216E+02               0
GRID*               4789               02.7940157041E+020.0000000000E+00+
*       2.9745648872E+02               0
GRID*               4790               02.7311181943E+020.0000000000E+00+
*       3.0324169763E+02               0
GRID*               4791               02.6670230585E+020.0000000000E+00+
*       3.0889393174E+02               0
GRID*               4792               02.6017586710E+020.0000000000E+00+
*       3.1441074347E+02               0
GRID*               4793               02.5353534126E+020.0000000000E+00+
*       3.1978968620E+02               0
GRID*               4794               02.4678361284E+020.0000000000E+00+
*       3.2502836650E+02               0
GRID*               4795               02.3992368084E+020.0000000000E+00+
*       3.3012453657E+02               0
GRID*               4796               02.3295856155E+020.0000000000E+00+
*       3.3507597326E+02               0
GRID*               4797               02.2589127660E+020.0000000000E+00+
*       3.3988045999E+02               0
GRID*               4798               02.1872493033E+020.0000000000E+00+
*       3.4453589705E+02               0
GRID*               4799               02.1146269217E+020.0000000000E+00+
*       3.4904028519E+02               0
GRID*               4800               02.0410773332E+020.0000000000E+00+
*       3.5339162846E+02               0
GRID*               4801               01.9666325107E+020.0000000000E+00+
*       3.5758797125E+02               0
GRID*               4802               01.8913253731E+020.0000000000E+00+
*       3.6162752151E+02               0
GRID*               4803               01.8151890503E+020.0000000000E+00+
*       3.6550852864E+02               0
GRID*               4804               01.7382566916E+020.0000000000E+00+
*       3.6922924508E+02               0
GRID*               4805               01.6605619948E+020.0000000000E+00+
*       3.7278803022E+02               0
GRID*               4806               01.5821392698E+020.0000000000E+00+
*       3.7618337684E+02               0
GRID*               4807               01.5030228586E+020.0000000000E+00+
*       3.7941378607E+02               0
GRID*               4808               01.4232472250E+020.0000000000E+00+
*       3.8247778530E+02               0
GRID*               4809               01.3428475077E+020.0000000000E+00+
*       3.8537407065E+02               0
GRID*               4810               01.2618590755E+020.0000000000E+00+
*       3.8810140491E+02               0
GRID*               4811               01.1803173025E+020.0000000000E+00+
*       3.9065855211E+02               0
GRID*               4812               01.0982578716E+020.0000000000E+00+
*       3.9304436625E+02               0
GRID*               4813               01.0157169286E+020.0000000000E+00+
*       3.9525785769E+02               0
GRID*               4814               09.3273065634E+010.0000000000E+00+
*       3.9729805246E+02               0
GRID*               4815               08.4933528863E+010.0000000000E+00+
*       3.9916399299E+02               0
GRID*               4816               07.6556746368E+010.0000000000E+00+
*       4.0085488841E+02               0
GRID*               4817               06.8146400526E+010.0000000000E+00+
*       4.0237004476E+02               0
GRID*               4818               05.9706173834E+010.0000000000E+00+
*       4.0370876943E+02               0
GRID*               4819               05.1239761251E+010.0000000000E+00+
*       4.0487043597E+02               0
GRID*               4820               04.2750882821E+010.0000000000E+00+
*       4.0585459053E+02               0
GRID*               4821               03.4243261299E+010.0000000000E+00+
*       4.0666080699E+02               0
GRID*               4822               02.5720622764E+010.0000000000E+00+
*       4.0728860058E+02               0
GRID*               4823               01.7186701307E+010.0000000000E+00+
*       4.0773756830E+02               0
GRID*               4824               08.6452437580E+000.0000000000E+00+
*       4.0800793395E+02               0
GRID*               4825               03.0720666707E+020.0000000000E+00+
*       3.3318558235E-15               0
GRID*               4826               03.1441333415E+020.0000000000E+00+
*       6.6637116470E-15               0
GRID*               4827               03.2162000122E+020.0000000000E+00+
*       9.9955674705E-15               0
GRID*               4828               03.2882666829E+020.0000000000E+00+
*       1.3327423294E-14               0
GRID*               4829               03.3603333537E+020.0000000000E+00+
*       1.6659279118E-14               0
GRID*               4830               03.4324000244E+020.0000000000E+00+
*       1.9991134941E-14               0
GRID*               4831               03.5044666951E+020.0000000000E+00+
*       2.3322990765E-14               0
GRID*               4832               03.5765333659E+020.0000000000E+00+
*       2.6654846588E-14               0
GRID*               4833               03.6486000366E+020.0000000000E+00+
*       2.9986702412E-14               0
GRID*               4834               03.7206667074E+020.0000000000E+00+
*       3.3318558235E-14               0
GRID*               4835               03.7927333781E+020.0000000000E+00+
*       3.6650414059E-14               0
GRID*               4836               03.8648000488E+020.0000000000E+00+
*       3.9982269882E-14               0
GRID*               4837               03.9368667196E+020.0000000000E+00+
*       4.3314125706E-14               0
GRID*               4838               04.0089333903E+020.0000000000E+00+
*       4.6645981529E-14               0
GRID*               4839               04.0779000854E+020.0000000000E+00+
*       -1.000000000E+01               0
GRID*               4840               04.0779000854E+020.0000000000E+00+
*       -2.000000000E+01               0
GRID*               4841               04.0779000854E+020.0000000000E+00+
*       -3.000000000E+01               0
GRID*               4842               04.0779000854E+020.0000000000E+00+
*       -4.000000000E+01               0
GRID*               4843               04.0779000854E+020.0000000000E+00+
*       -5.000000000E+01               0
GRID*               4844               04.0779000854E+020.0000000000E+00+
*       -6.000000000E+01               0
GRID*               4845               04.0779000854E+020.0000000000E+00+
*       -7.000000000E+01               0
GRID*               4846               04.0779000854E+020.0000000000E+00+
*       -8.000000000E+01               0
GRID*               4847               04.0779000854E+020.0000000000E+00+
*       -9.000000000E+01               0
GRID*               4848               04.0779000854E+020.0000000000E+00+
*       -1.000000000E+02               0
GRID*               4849               04.0779000854E+020.0000000000E+00+
*       -1.100000000E+02               0
GRID*               4850               04.0779000854E+020.0000000000E+00+
*       -1.200000000E+02               0
GRID*               4851               04.0779000854E+020.0000000000E+00+
*       -1.300000000E+02               0
GRID*               4852               04.0779000854E+020.0000000000E+00+
*       -1.400000000E+02               0
GRID*               4853               04.0779000854E+020.0000000000E+00+
*       -1.500000000E+02               0
GRID*               4854               04.0779000854E+020.0000000000E+00+
*       -1.600000000E+02               0
GRID*               4855               04.0779000854E+020.0000000000E+00+
*       -1.700000000E+02               0
GRID*               4856               04.0779000854E+020.0000000000E+00+
*       -1.800000000E+02               0
GRID*               4857               04.0779000854E+020.0000000000E+00+
*       -1.900000000E+02               0
GRID*               4858               04.0779000854E+020.0000000000E+00+
*       -2.000000000E+02               0
GRID*               4859               04.0779000854E+020.0000000000E+00+
*       -2.100000000E+02               0
GRID*               4860               04.0779000854E+020.0000000000E+00+
*       -2.200000000E+02               0
GRID*               4861               04.0779000854E+020.0000000000E+00+
*       -2.300000000E+02               0
GRID*               4862               04.0779000854E+020.0000000000E+00+
*       -2.400000000E+02               0
GRID*               4863               04.0779000854E+020.0000000000E+00+
*       -2.500000000E+02               0
GRID*               4864               04.0779000854E+020.0000000000E+00+
*       -2.600000000E+02               0
GRID*               4865               04.0779000854E+020.0000000000E+00+
*       -2.700000000E+02               0
GRID*               4866               04.0779000854E+020.0000000000E+00+
*       -2.800000000E+02               0
GRID*               4867               04.0779000854E+020.0000000000E+00+
*       -2.900000000E+02               0
GRID*               4868               04.0779000854E+020.0000000000E+00+
*       -3.000000000E+02               0
GRID*               4869               04.0779000854E+020.0000000000E+00+
*       -3.100000000E+02               0
GRID*               4870               04.0779000854E+020.0000000000E+00+
*       -3.200000000E+02               0
GRID*               4871               04.0779000854E+020.0000000000E+00+
*       -3.300000000E+02               0
GRID*               4872               04.0779000854E+020.0000000000E+00+
*       -3.400000000E+02               0
GRID*               4873               04.0779000854E+020.0000000000E+00+
*       -3.500000000E+02               0
GRID*               4874               04.0779000854E+020.0000000000E+00+
*       -3.600000000E+02               0
GRID*               4875               04.0779000854E+020.0000000000E+00+
*       -3.700000000E+02               0
GRID*               4876               04.0779000854E+020.0000000000E+00+
*       -3.800000000E+02               0
GRID*               4877               04.0779000854E+020.0000000000E+00+
*       -3.900000000E+02               0
GRID*               4878               04.0779000854E+020.0000000000E+00+
*       -4.000000000E+02               0
GRID*               4879               04.0779000854E+020.0000000000E+00+
*       -4.100000000E+02               0
GRID*               4880               04.0779000854E+020.0000000000E+00+
*       -4.200000000E+02               0
GRID*               4881               04.0779000854E+020.0000000000E+00+
*       -4.300000000E+02               0
GRID*               4882               04.0779000854E+020.0000000000E+00+
*       -4.400000000E+02               0
GRID*               4883               04.0779000854E+020.0000000000E+00+
*       -4.500000000E+02               0
GRID*               4884               04.0779000854E+020.0000000000E+00+
*       -4.600000000E+02               0
GRID*               4885               04.0779000854E+020.0000000000E+00+
*       -4.700000000E+02               0
GRID*               4886               04.0779000854E+020.0000000000E+00+
*       -4.800000000E+02               0
GRID*               4887               04.0779000854E+020.0000000000E+00+
*       -4.900000000E+02               0
GRID*               4888               04.0779000854E+020.0000000000E+00+
*       -5.000000000E+02               0
GRID*               4889               04.0779000854E+020.0000000000E+00+
*       -5.100000000E+02               0
GRID*               4890               04.0779000854E+020.0000000000E+00+
*       -5.200000000E+02               0
GRID*               4891               04.0779000854E+020.0000000000E+00+
*       -5.300000000E+02               0
GRID*               4892               04.0779000854E+020.0000000000E+00+
*       -5.400000000E+02               0
GRID*               4893               04.0779000854E+020.0000000000E+00+
*       -5.500000000E+02               0
GRID*               4894               04.0779000854E+020.0000000000E+00+
*       -5.600000000E+02               0
GRID*               4895               04.0779000854E+020.0000000000E+00+
*       -5.700000000E+02               0
GRID*               4896               04.0779000854E+020.0000000000E+00+
*       -5.800000000E+02               0
GRID*               4897               04.0779000854E+020.0000000000E+00+
*       -5.900000000E+02               0
GRID*               4898               04.0779000854E+020.0000000000E+00+
*       -6.000000000E+02               0
GRID*               4899               04.0779000854E+020.0000000000E+00+
*       -6.100000000E+02               0
GRID*               4900               04.0779000854E+020.0000000000E+00+
*       -6.200000000E+02               0
GRID*               4901               04.0779000854E+020.0000000000E+00+
*       -6.300000000E+02               0
GRID*               4902               04.0779000854E+020.0000000000E+00+
*       -6.400000000E+02               0
GRID*               4903               04.0779000854E+020.0000000000E+00+
*       -6.500000000E+02               0
GRID*               4904               04.0779000854E+020.0000000000E+00+
*       -6.600000000E+02               0
GRID*               4905               04.0779000854E+020.0000000000E+00+
*       -6.700000000E+02               0
GRID*               4906               04.0779000854E+020.0000000000E+00+
*       -6.800000000E+02               0
GRID*               4907               04.0779000854E+020.0000000000E+00+
*       -6.900000000E+02               0
GRID*               4908               04.0779000854E+020.0000000000E+00+
*       -7.000000000E+02               0
GRID*               4909               04.0779000854E+020.0000000000E+00+
*       -7.100000000E+02               0
GRID*               4910               04.0779000854E+020.0000000000E+00+
*       -7.200000000E+02               0
GRID*               4911               04.0779000854E+020.0000000000E+00+
*       -7.300000000E+02               0
GRID*               4912               04.0779000854E+020.0000000000E+00+
*       -7.400000000E+02               0
GRID*               4913               04.0779000854E+020.0000000000E+00+
*       -7.500000000E+02               0
GRID*               4914               04.0779000854E+020.0000000000E+00+
*       -7.600000000E+02               0
GRID*               4915               04.0779000854E+020.0000000000E+00+
*       -7.700000000E+02               0
GRID*               4916               04.0779000854E+020.0000000000E+00+
*       -7.800000000E+02               0
GRID*               4917               04.0779000854E+020.0000000000E+00+
*       -7.900000000E+02               0
GRID*               4918               04.0779000854E+020.0000000000E+00+
*       -8.000000000E+02               0
GRID*               4919               04.0779000854E+020.0000000000E+00+
*       -8.100000000E+02               0
GRID*               4920               04.0779000854E+020.0000000000E+00+
*       -8.200000000E+02               0
GRID*               4921               04.0779000854E+020.0000000000E+00+
*       -8.300000000E+02               0
GRID*               4922               04.0779000854E+020.0000000000E+00+
*       -8.400000000E+02               0
GRID*               4923               04.0779000854E+020.0000000000E+00+
*       -8.500000000E+02               0
GRID*               4924               04.0779000854E+020.0000000000E+00+
*       -8.600000000E+02               0
GRID*               4925               04.0779000854E+020.0000000000E+00+
*       -8.700000000E+02               0
GRID*               4926               04.0779000854E+020.0000000000E+00+
*       -8.800000000E+02               0
GRID*               4927               04.0779000854E+020.0000000000E+00+
*       -8.900000000E+02               0
GRID*               4928               04.0779000854E+020.0000000000E+00+
*       -9.000000000E+02               0
GRID*               4929               04.0779000854E+020.0000000000E+00+
*       -9.100000000E+02               0
GRID*               4930               04.0779000854E+020.0000000000E+00+
*       -9.200000000E+02               0
GRID*               4931               04.0779000854E+020.0000000000E+00+
*       -9.300000000E+02               0
GRID*               4932               04.0779000854E+020.0000000000E+00+
*       -9.400000000E+02               0
GRID*               4933               04.0779000854E+020.0000000000E+00+
*       -9.500000000E+02               0
GRID*               4934               04.0779000854E+020.0000000000E+00+
*       -9.600000000E+02               0
GRID*               4935               04.0779000854E+020.0000000000E+00+
*       -9.700000000E+02               0
GRID*               4936               04.0779000854E+020.0000000000E+00+
*       -9.800000000E+02               0
GRID*               4937               04.0779000854E+020.0000000000E+00+
*       -9.900000000E+02               0
GRID*               4938               04.0779000854E+020.0000000000E+00+
*       -1.000000000E+03               0
GRID*               4939               04.0779000854E+020.0000000000E+00+
*       -1.010000000E+03               0
GRID*               4940               04.0779000854E+020.0000000000E+00+
*       -1.020000000E+03               0
GRID*               4941               04.0779000854E+020.0000000000E+00+
*       -1.030000000E+03               0
GRID*               4942               04.0779000854E+020.0000000000E+00+
*       -1.040000000E+03               0
GRID*               4943               04.0779000854E+020.0000000000E+00+
*       -1.050000000E+03               0
GRID*               4944               04.0779000854E+020.0000000000E+00+
*       -1.060000000E+03               0
GRID*               4945               04.0779000854E+020.0000000000E+00+
*       -1.070000000E+03               0
GRID*               4946               04.0779000854E+020.0000000000E+00+
*       -1.080000000E+03               0
GRID*               4947               04.0779000854E+020.0000000000E+00+
*       -1.090000000E+03               0
GRID*               4948               04.0779000854E+020.0000000000E+00+
*       -1.100000000E+03               0
GRID*               4949               04.0779000854E+020.0000000000E+00+
*       -1.110000000E+03               0
GRID*               4950               04.0779000854E+020.0000000000E+00+
*       -1.120000000E+03               0
GRID*               4951               04.0779000854E+020.0000000000E+00+
*       -1.130000000E+03               0
GRID*               4952               04.0779000854E+020.0000000000E+00+
*       -1.140000000E+03               0
GRID*               4953               04.0779000854E+020.0000000000E+00+
*       -1.150000000E+03               0
GRID*               4954               04.0779000854E+020.0000000000E+00+
*       -1.160000000E+03               0
GRID*               4955               04.0779000854E+020.0000000000E+00+
*       -1.170000000E+03               0
GRID*               4956               04.0779000854E+020.0000000000E+00+
*       -1.180000000E+03               0
GRID*               4957               04.0779000854E+020.0000000000E+00+
*       -1.190000000E+03               0
GRID*               4958               04.1657889472E+020.0000000000E+00+
*       -1.200000000E+03               0
GRID*               4959               04.2536778090E+020.0000000000E+00+
*       -1.200000000E+03               0
GRID*               4960               04.3415666707E+020.0000000000E+00+
*       -1.200000000E+03               0
GRID*               4961               04.4294555325E+020.0000000000E+00+
*       -1.200000000E+03               0
GRID*               4962               04.5173443943E+020.0000000000E+00+
*       -1.200000000E+03               0
GRID*               4963               04.6052332560E+020.0000000000E+00+
*       -1.200000000E+03               0
GRID*               4964               04.6931221178E+020.0000000000E+00+
*       -1.200000000E+03               0
GRID*               4965               04.7810109795E+020.0000000000E+00+
*       -1.200000000E+03               0
GRID*               4966               04.7810109795E+020.0000000000E+00+
*       0.0000000000E+00               0
GRID*               4967               04.6931221178E+020.0000000000E+00+
*       0.0000000000E+00               0
GRID*               4968               04.6052332560E+020.0000000000E+00+
*       0.0000000000E+00               0
GRID*               4969               04.5173443943E+020.0000000000E+00+
*       0.0000000000E+00               0
GRID*               4970               04.4294555325E+020.0000000000E+00+
*       0.0000000000E+00               0
GRID*               4971               04.3415666707E+020.0000000000E+00+
*       0.0000000000E+00               0
GRID*               4972               04.2536778090E+020.0000000000E+00+
*       0.0000000000E+00               0
GRID*               4973               04.1657889472E+020.0000000000E+00+
*       0.0000000000E+00               0
GRID*               4974               04.8688998413E+020.0000000000E+00+
*       -1.190000000E+03               0
GRID*               4975               04.8688998413E+020.0000000000E+00+
*       -1.180000000E+03               0
GRID*               4976               04.8688998413E+020.0000000000E+00+
*       -1.170000000E+03               0
GRID*               4977               04.8688998413E+020.0000000000E+00+
*       -1.160000000E+03               0
GRID*               4978               04.8688998413E+020.0000000000E+00+
*       -1.150000000E+03               0
GRID*               4979               04.8688998413E+020.0000000000E+00+
*       -1.140000000E+03               0
GRID*               4980               04.8688998413E+020.0000000000E+00+
*       -1.130000000E+03               0
GRID*               4981               04.8688998413E+020.0000000000E+00+
*       -1.120000000E+03               0
GRID*               4982               04.8688998413E+020.0000000000E+00+
*       -1.110000000E+03               0
GRID*               4983               04.8688998413E+020.0000000000E+00+
*       -1.100000000E+03               0
GRID*               4984               04.8688998413E+020.0000000000E+00+
*       -1.090000000E+03               0
GRID*               4985               04.8688998413E+020.0000000000E+00+
*       -1.080000000E+03               0
GRID*               4986               04.8688998413E+020.0000000000E+00+
*       -1.070000000E+03               0
GRID*               4987               04.8688998413E+020.0000000000E+00+
*       -1.060000000E+03               0
GRID*               4988               04.8688998413E+020.0000000000E+00+
*       -1.050000000E+03               0
GRID*               4989               04.8688998413E+020.0000000000E+00+
*       -1.040000000E+03               0
GRID*               4990               04.8688998413E+020.0000000000E+00+
*       -1.030000000E+03               0
GRID*               4991               04.8688998413E+020.0000000000E+00+
*       -1.020000000E+03               0
GRID*               4992               04.8688998413E+020.0000000000E+00+
*       -1.010000000E+03               0
GRID*               4993               04.8688998413E+020.0000000000E+00+
*       -1.000000000E+03               0
GRID*               4994               04.8688998413E+020.0000000000E+00+
*       -9.900000000E+02               0
GRID*               4995               04.8688998413E+020.0000000000E+00+
*       -9.800000000E+02               0
GRID*               4996               04.8688998413E+020.0000000000E+00+
*       -9.700000000E+02               0
GRID*               4997               04.8688998413E+020.0000000000E+00+
*       -9.600000000E+02               0
GRID*               4998               04.8688998413E+020.0000000000E+00+
*       -9.500000000E+02               0
GRID*               4999               04.8688998413E+020.0000000000E+00+
*       -9.400000000E+02               0
GRID*               5000               04.8688998413E+020.0000000000E+00+
*       -9.300000000E+02               0
GRID*               5001               04.8688998413E+020.0000000000E+00+
*       -9.200000000E+02               0
GRID*               5002               04.8688998413E+020.0000000000E+00+
*       -9.100000000E+02               0
GRID*               5003               04.8688998413E+020.0000000000E+00+
*       -9.000000000E+02               0
GRID*               5004               04.8688998413E+020.0000000000E+00+
*       -8.900000000E+02               0
GRID*               5005               04.8688998413E+020.0000000000E+00+
*       -8.800000000E+02               0
GRID*               5006               04.8688998413E+020.0000000000E+00+
*       -8.700000000E+02               0
GRID*               5007               04.8688998413E+020.0000000000E+00+
*       -8.600000000E+02               0
GRID*               5008               04.8688998413E+020.0000000000E+00+
*       -8.500000000E+02               0
GRID*               5009               04.8688998413E+020.0000000000E+00+
*       -8.400000000E+02               0
GRID*               5010               04.8688998413E+020.0000000000E+00+
*       -8.300000000E+02               0
GRID*               5011               04.8688998413E+020.0000000000E+00+
*       -8.200000000E+02               0
GRID*               5012               04.8688998413E+020.0000000000E+00+
*       -8.100000000E+02               0
GRID*               5013               04.8688998413E+020.0000000000E+00+
*       -8.000000000E+02               0
GRID*               5014               04.8688998413E+020.0000000000E+00+
*       -7.900000000E+02               0
GRID*               5015               04.8688998413E+020.0000000000E+00+
*       -7.800000000E+02               0
GRID*               5016               04.8688998413E+020.0000000000E+00+
*       -7.700000000E+02               0
GRID*               5017               04.8688998413E+020.0000000000E+00+
*       -7.600000000E+02               0
GRID*               5018               04.8688998413E+020.0000000000E+00+
*       -7.500000000E+02               0
GRID*               5019               04.8688998413E+020.0000000000E+00+
*       -7.400000000E+02               0
GRID*               5020               04.8688998413E+020.0000000000E+00+
*       -7.300000000E+02               0
GRID*               5021               04.8688998413E+020.0000000000E+00+
*       -7.200000000E+02               0
GRID*               5022               04.8688998413E+020.0000000000E+00+
*       -7.100000000E+02               0
GRID*               5023               04.8688998413E+020.0000000000E+00+
*       -7.000000000E+02               0
GRID*               5024               04.8688998413E+020.0000000000E+00+
*       -6.900000000E+02               0
GRID*               5025               04.8688998413E+020.0000000000E+00+
*       -6.800000000E+02               0
GRID*               5026               04.8688998413E+020.0000000000E+00+
*       -6.700000000E+02               0
GRID*               5027               04.8688998413E+020.0000000000E+00+
*       -6.600000000E+02               0
GRID*               5028               04.8688998413E+020.0000000000E+00+
*       -6.500000000E+02               0
GRID*               5029               04.8688998413E+020.0000000000E+00+
*       -6.400000000E+02               0
GRID*               5030               04.8688998413E+020.0000000000E+00+
*       -6.300000000E+02               0
GRID*               5031               04.8688998413E+020.0000000000E+00+
*       -6.200000000E+02               0
GRID*               5032               04.8688998413E+020.0000000000E+00+
*       -6.100000000E+02               0
GRID*               5033               04.8688998413E+020.0000000000E+00+
*       -6.000000000E+02               0
GRID*               5034               04.8688998413E+020.0000000000E+00+
*       -5.900000000E+02               0
GRID*               5035               04.8688998413E+020.0000000000E+00+
*       -5.800000000E+02               0
GRID*               5036               04.8688998413E+020.0000000000E+00+
*       -5.700000000E+02               0
GRID*               5037               04.8688998413E+020.0000000000E+00+
*       -5.600000000E+02               0
GRID*               5038               04.8688998413E+020.0000000000E+00+
*       -5.500000000E+02               0
GRID*               5039               04.8688998413E+020.0000000000E+00+
*       -5.400000000E+02               0
GRID*               5040               04.8688998413E+020.0000000000E+00+
*       -5.300000000E+02               0
GRID*               5041               04.8688998413E+020.0000000000E+00+
*       -5.200000000E+02               0
GRID*               5042               04.8688998413E+020.0000000000E+00+
*       -5.100000000E+02               0
GRID*               5043               04.8688998413E+020.0000000000E+00+
*       -5.000000000E+02               0
GRID*               5044               04.8688998413E+020.0000000000E+00+
*       -4.900000000E+02               0
GRID*               5045               04.8688998413E+020.0000000000E+00+
*       -4.800000000E+02               0
GRID*               5046               04.8688998413E+020.0000000000E+00+
*       -4.700000000E+02               0
GRID*               5047               04.8688998413E+020.0000000000E+00+
*       -4.600000000E+02               0
GRID*               5048               04.8688998413E+020.0000000000E+00+
*       -4.500000000E+02               0
GRID*               5049               04.8688998413E+020.0000000000E+00+
*       -4.400000000E+02               0
GRID*               5050               04.8688998413E+020.0000000000E+00+
*       -4.300000000E+02               0
GRID*               5051               04.8688998413E+020.0000000000E+00+
*       -4.200000000E+02               0
GRID*               5052               04.8688998413E+020.0000000000E+00+
*       -4.100000000E+02               0
GRID*               5053               04.8688998413E+020.0000000000E+00+
*       -4.000000000E+02               0
GRID*               5054               04.8688998413E+020.0000000000E+00+
*       -3.900000000E+02               0
GRID*               5055               04.8688998413E+020.0000000000E+00+
*       -3.800000000E+02               0
GRID*               5056               04.8688998413E+020.0000000000E+00+
*       -3.700000000E+02               0
GRID*               5057               04.8688998413E+020.0000000000E+00+
*       -3.600000000E+02               0
GRID*               5058               04.8688998413E+020.0000000000E+00+
*       -3.500000000E+02               0
GRID*               5059               04.8688998413E+020.0000000000E+00+
*       -3.400000000E+02               0
GRID*               5060               04.8688998413E+020.0000000000E+00+
*       -3.300000000E+02               0
GRID*               5061               04.8688998413E+020.0000000000E+00+
*       -3.200000000E+02               0
GRID*               5062               04.8688998413E+020.0000000000E+00+
*       -3.100000000E+02               0
GRID*               5063               04.8688998413E+020.0000000000E+00+
*       -3.000000000E+02               0
GRID*               5064               04.8688998413E+020.0000000000E+00+
*       -2.900000000E+02               0
GRID*               5065               04.8688998413E+020.0000000000E+00+
*       -2.800000000E+02               0
GRID*               5066               04.8688998413E+020.0000000000E+00+
*       -2.700000000E+02               0
GRID*               5067               04.8688998413E+020.0000000000E+00+
*       -2.600000000E+02               0
GRID*               5068               04.8688998413E+020.0000000000E+00+
*       -2.500000000E+02               0
GRID*               5069               04.8688998413E+020.0000000000E+00+
*       -2.400000000E+02               0
GRID*               5070               04.8688998413E+020.0000000000E+00+
*       -2.300000000E+02               0
GRID*               5071               04.8688998413E+020.0000000000E+00+
*       -2.200000000E+02               0
GRID*               5072               04.8688998413E+020.0000000000E+00+
*       -2.100000000E+02               0
GRID*               5073               04.8688998413E+020.0000000000E+00+
*       -2.000000000E+02               0
GRID*               5074               04.8688998413E+020.0000000000E+00+
*       -1.900000000E+02               0
GRID*               5075               04.8688998413E+020.0000000000E+00+
*       -1.800000000E+02               0
GRID*               5076               04.8688998413E+020.0000000000E+00+
*       -1.700000000E+02               0
GRID*               5077               04.8688998413E+020.0000000000E+00+
*       -1.600000000E+02               0
GRID*               5078               04.8688998413E+020.0000000000E+00+
*       -1.500000000E+02               0
GRID*               5079               04.8688998413E+020.0000000000E+00+
*       -1.400000000E+02               0
GRID*               5080               04.8688998413E+020.0000000000E+00+
*       -1.300000000E+02               0
GRID*               5081               04.8688998413E+020.0000000000E+00+
*       -1.200000000E+02               0
GRID*               5082               04.8688998413E+020.0000000000E+00+
*       -1.100000000E+02               0
GRID*               5083               04.8688998413E+020.0000000000E+00+
*       -1.000000000E+02               0
GRID*               5084               04.8688998413E+020.0000000000E+00+
*       -9.000000000E+01               0
GRID*               5085               04.8688998413E+020.0000000000E+00+
*       -8.000000000E+01               0
GRID*               5086               04.8688998413E+020.0000000000E+00+
*       -7.000000000E+01               0
GRID*               5087               04.8688998413E+020.0000000000E+00+
*       -6.000000000E+01               0
GRID*               5088               04.8688998413E+020.0000000000E+00+
*       -5.000000000E+01               0
GRID*               5089               04.8688998413E+020.0000000000E+00+
*       -4.000000000E+01               0
GRID*               5090               04.8688998413E+020.0000000000E+00+
*       -3.000000000E+01               0
GRID*               5091               04.8688998413E+020.0000000000E+00+
*       -2.000000000E+01               0
GRID*               5092               04.8688998413E+020.0000000000E+00+
*       -1.000000000E+01               0
GRID*               5093               09.9999994040E-020.0000000000E+00+
*       -1.440831787E+03               0
GRID*               5094               09.9999994040E-020.0000000000E+00+
*       -1.447270630E+03               0
GRID*               5095               09.9999994040E-020.0000000000E+00+
*       -1.453709473E+03               0
GRID*               5096               09.9999994040E-020.0000000000E+00+
*       -1.460148315E+03               0
GRID*               5097               09.9999994040E-020.0000000000E+00+
*       -1.466587158E+03               0
GRID*               5098               09.9999994040E-020.0000000000E+00+
*       -1.473026001E+03               0
GRID*               5099               09.9999994040E-020.0000000000E+00+
*       -1.479464844E+03               0
GRID*               5100               09.9999994040E-020.0000000000E+00+
*       -1.485903687E+03               0
GRID*               5101               09.9999994040E-020.0000000000E+00+
*       -1.492342529E+03               0
GRID*               5102               09.9999994040E-020.0000000000E+00+
*       -1.498781372E+03               0
GRID*               5103               09.9999994040E-020.0000000000E+00+
*       -1.505220215E+03               0
GRID*               5104               09.9999994040E-020.0000000000E+00+
*       -1.511659058E+03               0
GRID*               5105               09.9999994040E-020.0000000000E+00+
*       -1.518097900E+03               0
GRID*               5106               09.9999994040E-020.0000000000E+00+
*       -1.524536743E+03               0
GRID*               5107               01.0818483242E+020.0000000000E+00+
*       -1.391657486E+03               0
GRID*               5108               01.0375216002E+020.0000000000E+00+
*       -1.395622121E+03               0
GRID*               5109               09.9175268810E+010.0000000000E+00+
*       -1.399419306E+03               0
GRID*               5110               09.4460050236E+010.0000000000E+00+
*       -1.403043367E+03               0
GRID*               5111               08.9613437043E+010.0000000000E+00+
*       -1.406489736E+03               0
GRID*               5112               08.4642123531E+010.0000000000E+00+
*       -1.409753650E+03               0
GRID*               5113               07.9552893666E+010.0000000000E+00+
*       -1.412830473E+03               0
GRID*               5114               07.4352858575E+010.0000000000E+00+
*       -1.415716084E+03               0
GRID*               5115               06.9049203411E+010.0000000000E+00+
*       -1.418406501E+03               0
GRID*               5116               06.3649186505E+010.0000000000E+00+
*       -1.420897868E+03               0
GRID*               5117               05.8160332420E+010.0000000000E+00+
*       -1.423186885E+03               0
GRID*               5118               05.2590226039E+010.0000000000E+00+
*       -1.425270395E+03               0
GRID*               5119               04.6946511201E+010.0000000000E+00+
*       -1.427145384E+03               0
GRID*               5120               04.1237030736E+010.0000000000E+00+
*       -1.428809400E+03               0
GRID*               5121               03.5469667687E+010.0000000000E+00+
*       -1.430260130E+03               0
GRID*               5122               02.9652351394E+010.0000000000E+00+
*       -1.431495415E+03               0
GRID*               5123               02.3793153052E+010.0000000000E+00+
*       -1.432513704E+03               0
GRID*               5124               01.7900168288E+010.0000000000E+00+
*       -1.433313599E+03               0
GRID*               5125               01.1981520797E+010.0000000000E+00+
*       -1.433893390E+03               0
GRID*               5126               06.0453873345E+000.0000000000E+00+
*       -1.434252883E+03               0
GRID*               5127               02.0080807495E+020.0000000000E+00+
*       -1.299192011E+03               0
GRID*               5128               01.9660140991E+020.0000000000E+00+
*       -1.303398671E+03               0
GRID*               5129               01.9239474487E+020.0000000000E+00+
*       -1.307605330E+03               0
GRID*               5130               01.8818807983E+020.0000000000E+00+
*       -1.311811990E+03               0
GRID*               5131               01.8398141479E+020.0000000000E+00+
*       -1.316018649E+03               0
GRID*               5132               01.7977474976E+020.0000000000E+00+
*       -1.320225309E+03               0
GRID*               5133               01.7556808472E+020.0000000000E+00+
*       -1.324431968E+03               0
GRID*               5134               01.7136141968E+020.0000000000E+00+
*       -1.328638627E+03               0
GRID*               5135               01.6715475464E+020.0000000000E+00+
*       -1.332845287E+03               0
GRID*               5136               01.6294808960E+020.0000000000E+00+
*       -1.337051946E+03               0
GRID*               5137               01.5874142456E+020.0000000000E+00+
*       -1.341258606E+03               0
GRID*               5138               01.5453475952E+020.0000000000E+00+
*       -1.345465265E+03               0
GRID*               5139               01.5032809448E+020.0000000000E+00+
*       -1.349671925E+03               0
GRID*               5140               01.4612142944E+020.0000000000E+00+
*       -1.353878584E+03               0
GRID*               5141               01.4191476440E+020.0000000000E+00+
*       -1.358085244E+03               0
GRID*               5142               01.3770809937E+020.0000000000E+00+
*       -1.362291903E+03               0
GRID*               5143               01.3350143433E+020.0000000000E+00+
*       -1.366498563E+03               0
GRID*               5144               01.2929476929E+020.0000000000E+00+
*       -1.370705222E+03               0
GRID*               5145               01.2508810425E+020.0000000000E+00+
*       -1.374911882E+03               0
GRID*               5146               01.2088143921E+020.0000000000E+00+
*       -1.379118541E+03               0
GRID*               5147               01.1667477417E+020.0000000000E+00+
*       -1.383325201E+03               0
GRID*               5148               08.2826405202E+000.0000000000E+00+
*       -1.532842572E+03               0
GRID*               5149               01.6511244536E+010.0000000000E+00+
*       -1.534495191E+03               0
GRID*               5150               02.4780311333E+010.0000000000E+00+
*       -1.535931608E+03               0
GRID*               5151               03.3084279731E+010.0000000000E+00+
*       -1.537150294E+03               0
GRID*               5152               04.1417359045E+010.0000000000E+00+
*       -1.538150771E+03               0
GRID*               5153               04.9773805070E+010.0000000000E+00+
*       -1.538932412E+03               0
GRID*               5154               05.8147878881E+010.0000000000E+00+
*       -1.539494581E+03               0
GRID*               5155               06.6533818117E+010.0000000000E+00+
*       -1.539836890E+03               0
GRID*               5156               07.4925850298E+010.0000000000E+00+
*       -1.539959204E+03               0
GRID*               5157               08.3318203303E+010.0000000000E+00+
*       -1.539861401E+03               0
GRID*               5158               09.1705103254E+010.0000000000E+00+
*       -1.539543497E+03               0
GRID*               5159               01.0008078499E+020.0000000000E+00+
*       -1.539005801E+03               0
GRID*               5160               01.0843948591E+020.0000000000E+00+
*       -1.538248658E+03               0
GRID*               5161               01.1677544806E+020.0000000000E+00+
*       -1.537272498E+03               0
GRID*               5162               01.2508294701E+020.0000000000E+00+
*       -1.536078084E+03               0
GRID*               5163               01.3335627071E+020.0000000000E+00+
*       -1.534666253E+03               0
GRID*               5164               01.4158971126E+020.0000000000E+00+
*       -1.533037878E+03               0
GRID*               5165               01.4977761425E+020.0000000000E+00+
*       -1.531194130E+03               0
GRID*               5166               01.5791436024E+020.0000000000E+00+
*       -1.529136335E+03               0
GRID*               5167               01.6599433195E+020.0000000000E+00+
*       -1.526865827E+03               0
GRID*               5168               01.7401197017E+020.0000000000E+00+
*       -1.524384167E+03               0
GRID*               5169               01.8196178516E+020.0000000000E+00+
*       -1.521693145E+03               0
GRID*               5170               01.8983829122E+020.0000000000E+00+
*       -1.518794558E+03               0
GRID*               5171               01.9763605141E+020.0000000000E+00+
*       -1.515690353E+03               0
GRID*               5172               02.0534973830E+020.0000000000E+00+
*       -1.512382757E+03               0
GRID*               5173               02.1297403906E+020.0000000000E+00+
*       -1.508874026E+03               0
GRID*               5174               02.2050367332E+020.0000000000E+00+
*       -1.505166499E+03               0
GRID*               5175               02.2793349907E+020.0000000000E+00+
*       -1.501262801E+03               0
GRID*               5176               02.3525841124E+020.0000000000E+00+
*       -1.497165630E+03               0
GRID*               5177               02.4247332118E+020.0000000000E+00+
*       -1.492877714E+03               0
GRID*               5178               02.4957329263E+020.0000000000E+00+
*       -1.488402050E+03               0
GRID*               5179               02.5655347220E+020.0000000000E+00+
*       -1.483741765E+03               0
GRID*               5180               02.6340901192E+020.0000000000E+00+
*       -1.478899996E+03               0
GRID*               5181               02.7013519401E+020.0000000000E+00+
*       -1.473880073E+03               0
GRID*               5182               02.7672744435E+020.0000000000E+00+
*       -1.468685518E+03               0
GRID*               5183               02.8318117899E+020.0000000000E+00+
*       -1.463319850E+03               0
GRID*               5184               02.8949170521E+020.0000000000E+00+
*       -1.457786495E+03               0
GRID*               5185               02.9565507269E+020.0000000000E+00+
*       -1.452089656E+03               0
GRID*               5186               02.9994526965E+020.0000000000E+00+
*       -1.071593563E+03               0
GRID*               5187               02.9978292947E+020.0000000000E+00+
*       -1.077514624E+03               0
GRID*               5188               02.9951280810E+020.0000000000E+00+
*       -1.083431735E+03               0
GRID*               5189               02.9913473421E+020.0000000000E+00+
*       -1.089342921E+03               0
GRID*               5190               02.9864854723E+020.0000000000E+00+
*       -1.095246204E+03               0
GRID*               5191               02.9805447976E+020.0000000000E+00+
*       -1.101139619E+03               0
GRID*               5192               02.9735288061E+020.0000000000E+00+
*       -1.107021203E+03               0
GRID*               5193               02.9654400770E+020.0000000000E+00+
*       -1.112888997E+03               0
GRID*               5194               02.9562811893E+020.0000000000E+00+
*       -1.118741040E+03               0
GRID*               5195               02.9460547483E+020.0000000000E+00+
*       -1.124575375E+03               0
GRID*               5196               02.9347641203E+020.0000000000E+00+
*       -1.130390054E+03               0
GRID*               5197               02.9224135310E+020.0000000000E+00+
*       -1.136183145E+03               0
GRID*               5198               02.9090072517E+020.0000000000E+00+
*       -1.141952719E+03               0
GRID*               5199               02.8945495541E+020.0000000000E+00+
*       -1.147696848E+03               0
GRID*               5200               02.8790447938E+020.0000000000E+00+
*       -1.153413603E+03               0
GRID*               5201               02.8624982931E+020.0000000000E+00+
*       -1.159101080E+03               0
GRID*               5202               02.8449159918E+020.0000000000E+00+
*       -1.164757396E+03               0
GRID*               5203               02.8263038398E+020.0000000000E+00+
*       -1.170380664E+03               0
GRID*               5204               02.8066677870E+020.0000000000E+00+
*       -1.175969002E+03               0
GRID*               5205               02.7860139793E+020.0000000000E+00+
*       -1.181520531E+03               0
GRID*               5206               02.7643496137E+020.0000000000E+00+
*       -1.187033408E+03               0
GRID*               5207               02.7416822378E+020.0000000000E+00+
*       -1.192505810E+03               0
GRID*               5208               02.7180193994E+020.0000000000E+00+
*       -1.197935908E+03               0
GRID*               5209               02.6933686470E+020.0000000000E+00+
*       -1.203321878E+03               0
GRID*               5210               02.6677379081E+020.0000000000E+00+
*       -1.208661908E+03               0
GRID*               5211               02.6411361387E+020.0000000000E+00+
*       -1.213954235E+03               0
GRID*               5212               02.6135724673E+020.0000000000E+00+
*       -1.219197108E+03               0
GRID*               5213               02.5850560221E+020.0000000000E+00+
*       -1.224388773E+03               0
GRID*               5214               02.5555959405E+020.0000000000E+00+
*       -1.229527480E+03               0
GRID*               5215               02.5252019113E+020.0000000000E+00+
*       -1.234611503E+03               0
GRID*               5216               02.4938844879E+020.0000000000E+00+
*       -1.239639173E+03               0
GRID*               5217               02.4616542996E+020.0000000000E+00+
*       -1.244608823E+03               0
GRID*               5218               02.4285219757E+020.0000000000E+00+
*       -1.249518788E+03               0
GRID*               5219               02.3944981867E+020.0000000000E+00+
*       -1.254367405E+03               0
GRID*               5220               02.3595943250E+020.0000000000E+00+
*       -1.259153057E+03               0
GRID*               5221               02.3238223945E+020.0000000000E+00+
*       -1.263874176E+03               0
GRID*               5222               02.2871944185E+020.0000000000E+00+
*       -1.268529193E+03               0
GRID*               5223               02.2497224205E+020.0000000000E+00+
*       -1.273116541E+03               0
GRID*               5224               02.2114178230E+020.0000000000E+00+
*       -1.277634583E+03               0
GRID*               5225               02.1722928797E+020.0000000000E+00+
*       -1.282081767E+03               0
GRID*               5226               02.1323626977E+020.0000000000E+00+
*       -1.286456807E+03               0
GRID*               5227               02.0916424727E+020.0000000000E+00+
*       -1.290758428E+03               0
GRID*               5228               03.0000000000E+020.0000000000E+00+
*       -1.057835266E+03               0
GRID*               5229               03.0788712565E+020.0000000000E+00+
*       -1.440014160E+03               0
GRID*               5230               03.1410670980E+020.0000000000E+00+
*       -1.433794556E+03               0
GRID*               5231               03.2639935717E+020.0000000000E+00+
*       -1.421321657E+03               0
GRID*               5232               03.3228869938E+020.0000000000E+00+
*       -1.414895060E+03               0
GRID*               5233               03.3798864833E+020.0000000000E+00+
*       -1.408299926E+03               0
GRID*               5234               03.4349407930E+020.0000000000E+00+
*       -1.401541532E+03               0
GRID*               5235               03.4880064241E+020.0000000000E+00+
*       -1.394625893E+03               0
GRID*               5236               03.5390384778E+020.0000000000E+00+
*       -1.387558860E+03               0
GRID*               5237               03.5879929009E+020.0000000000E+00+
*       -1.380346350E+03               0
GRID*               5238               03.6348291622E+020.0000000000E+00+
*       -1.372994526E+03               0
GRID*               5239               03.6795076469E+020.0000000000E+00+
*       -1.365509609E+03               0
GRID*               5240               03.7219896314E+020.0000000000E+00+
*       -1.357897877E+03               0
GRID*               5241               03.7622401059E+020.0000000000E+00+
*       -1.350165822E+03               0
GRID*               5242               03.8002250255E+020.0000000000E+00+
*       -1.342319988E+03               0
GRID*               5243               03.8359112815E+020.0000000000E+00+
*       -1.334366965E+03               0
GRID*               5244               03.8692696610E+020.0000000000E+00+
*       -1.326313528E+03               0
GRID*               5245               03.9002719628E+020.0000000000E+00+
*       -1.318166490E+03               0
GRID*               5246               03.9288909767E+020.0000000000E+00+
*       -1.309932707E+03               0
GRID*               5247               03.9551034773E+020.0000000000E+00+
*       -1.301619181E+03               0
GRID*               5248               03.9788872407E+020.0000000000E+00+
*       -1.293232943E+03               0
GRID*               5249               04.0002210861E+020.0000000000E+00+
*       -1.284781060E+03               0
GRID*               5250               04.0190880267E+020.0000000000E+00+
*       -1.276270710E+03               0
GRID*               5251               04.0354721287E+020.0000000000E+00+
*       -1.267709094E+03               0
GRID*               5252               04.0493584787E+020.0000000000E+00+
*       -1.259103436E+03               0
GRID*               5253               04.0607363831E+020.0000000000E+00+
*       -1.250461035E+03               0
GRID*               5254               04.0695962374E+020.0000000000E+00+
*       -1.241789202E+03               0
GRID*               5255               04.0759262763E+020.0000000000E+00+
*       -1.233095266E+03               0
GRID*               5256               04.0797254190E+020.0000000000E+00+
*       -1.224386582E+03               0
GRID*               5257               04.0810000610E+020.0000000000E+00+
*       -1.206951031E+03               0
GRID*               5258               04.0810000610E+020.0000000000E+00+
*       -1.198231529E+03               0
GRID*               5259               04.0810000610E+020.0000000000E+00+
*       -1.189512027E+03               0
GRID*               5260               04.0810000610E+020.0000000000E+00+
*       -1.180792525E+03               0
GRID*               5261               04.0810000610E+020.0000000000E+00+
*       -1.172073024E+03               0
GRID*               5262               04.0810000610E+020.0000000000E+00+
*       -1.163353522E+03               0
GRID*               5263               04.0810000610E+020.0000000000E+00+
*       -1.154634020E+03               0
GRID*               5264               04.0810000610E+020.0000000000E+00+
*       -1.145914519E+03               0
GRID*               5265               04.0810000610E+020.0000000000E+00+
*       -1.137195017E+03               0
GRID*               5266               04.0810000610E+020.0000000000E+00+
*       -1.128475515E+03               0
GRID*               5267               04.0810000610E+020.0000000000E+00+
*       -1.119756014E+03               0
GRID*               5268               04.0810000610E+020.0000000000E+00+
*       -1.111036512E+03               0
GRID*               5269               04.0810000610E+020.0000000000E+00+
*       -1.102317010E+03               0
GRID*               5270               04.0810000610E+020.0000000000E+00+
*       -1.093597508E+03               0
GRID*               5271               04.0810000610E+020.0000000000E+00+
*       -1.084878007E+03               0
GRID*               5272               04.0810000610E+020.0000000000E+00+
*       -1.076158505E+03               0
GRID*               5273               04.0810000610E+020.0000000000E+00+
*       -1.067439003E+03               0
GRID*               5274               04.0810000610E+020.0000000000E+00+
*       -1.058719502E+03               0
GRID*               5275               03.0000000000E+020.0000000000E+00+
*       -1.000000000E+01               0
GRID*               5276               03.0000000000E+020.0000000000E+00+
*       -2.000000000E+01               0
GRID*               5277               03.0000000000E+020.0000000000E+00+
*       -3.000000000E+01               0
GRID*               5278               03.0000000000E+020.0000000000E+00+
*       -4.000000000E+01               0
GRID*               5279               03.0000000000E+020.0000000000E+00+
*       -5.000000000E+01               0
GRID*               5280               03.0000000000E+020.0000000000E+00+
*       -6.000000000E+01               0
GRID*               5281               03.0000000000E+020.0000000000E+00+
*       -7.000000000E+01               0
GRID*               5282               03.0000000000E+020.0000000000E+00+
*       -8.000000000E+01               0
GRID*               5283               03.0000000000E+020.0000000000E+00+
*       -9.000000000E+01               0
GRID*               5284               03.0000000000E+020.0000000000E+00+
*       -1.000000000E+02               0
GRID*               5285               03.0000000000E+020.0000000000E+00+
*       -1.100000000E+02               0
GRID*               5286               03.0000000000E+020.0000000000E+00+
*       -1.200000000E+02               0
GRID*               5287               03.0000000000E+020.0000000000E+00+
*       -1.300000000E+02               0
GRID*               5288               03.0000000000E+020.0000000000E+00+
*       -1.400000000E+02               0
GRID*               5289               03.0000000000E+020.0000000000E+00+
*       -1.500000000E+02               0
GRID*               5290               03.0000000000E+020.0000000000E+00+
*       -1.600000000E+02               0
GRID*               5291               03.0000000000E+020.0000000000E+00+
*       -1.700000000E+02               0
GRID*               5292               03.0000000000E+020.0000000000E+00+
*       -1.800000000E+02               0
GRID*               5293               03.0000000000E+020.0000000000E+00+
*       -1.900000000E+02               0
GRID*               5294               03.0000000000E+020.0000000000E+00+
*       -2.000000000E+02               0
GRID*               5295               03.0000000000E+020.0000000000E+00+
*       -2.100000000E+02               0
GRID*               5296               03.0000000000E+020.0000000000E+00+
*       -2.200000000E+02               0
GRID*               5297               03.0000000000E+020.0000000000E+00+
*       -2.300000000E+02               0
GRID*               5298               03.0000000000E+020.0000000000E+00+
*       -2.400000000E+02               0
GRID*               5299               03.0000000000E+020.0000000000E+00+
*       -2.500000000E+02               0
GRID*               5300               03.0000000000E+020.0000000000E+00+
*       -2.600000000E+02               0
GRID*               5301               03.0000000000E+020.0000000000E+00+
*       -2.700000000E+02               0
GRID*               5302               03.0000000000E+020.0000000000E+00+
*       -2.800000000E+02               0
GRID*               5303               03.0000000000E+020.0000000000E+00+
*       -2.900000000E+02               0
GRID*               5304               03.0000000000E+020.0000000000E+00+
*       -3.000000000E+02               0
GRID*               5305               03.0000000000E+020.0000000000E+00+
*       -3.100000000E+02               0
GRID*               5306               03.0000000000E+020.0000000000E+00+
*       -3.200000000E+02               0
GRID*               5307               03.0000000000E+020.0000000000E+00+
*       -3.300000000E+02               0
GRID*               5308               03.0000000000E+020.0000000000E+00+
*       -3.400000000E+02               0
GRID*               5309               03.0000000000E+020.0000000000E+00+
*       -3.500000000E+02               0
GRID*               5310               03.0000000000E+020.0000000000E+00+
*       -3.600000000E+02               0
GRID*               5311               03.0000000000E+020.0000000000E+00+
*       -3.700000000E+02               0
GRID*               5312               03.0000000000E+020.0000000000E+00+
*       -3.800000000E+02               0
GRID*               5313               03.0000000000E+020.0000000000E+00+
*       -3.900000000E+02               0
GRID*               5314               03.0000000000E+020.0000000000E+00+
*       -4.000000000E+02               0
GRID*               5315               03.0000000000E+020.0000000000E+00+
*       -4.100000000E+02               0
GRID*               5316               03.0000000000E+020.0000000000E+00+
*       -4.200000000E+02               0
GRID*               5317               03.0000000000E+020.0000000000E+00+
*       -4.300000000E+02               0
GRID*               5318               03.0000000000E+020.0000000000E+00+
*       -4.400000000E+02               0
GRID*               5319               03.0000000000E+020.0000000000E+00+
*       -4.500000000E+02               0
GRID*               5320               03.0000000000E+020.0000000000E+00+
*       -4.600000000E+02               0
GRID*               5321               03.0000000000E+020.0000000000E+00+
*       -4.700000000E+02               0
GRID*               5322               03.0000000000E+020.0000000000E+00+
*       -4.800000000E+02               0
GRID*               5323               03.0000000000E+020.0000000000E+00+
*       -4.900000000E+02               0
GRID*               5324               03.0000000000E+020.0000000000E+00+
*       -5.000000000E+02               0
GRID*               5325               03.0000000000E+020.0000000000E+00+
*       -5.100000000E+02               0
GRID*               5326               03.0000000000E+020.0000000000E+00+
*       -5.200000000E+02               0
GRID*               5327               03.0000000000E+020.0000000000E+00+
*       -5.300000000E+02               0
GRID*               5328               03.0000000000E+020.0000000000E+00+
*       -5.400000000E+02               0
GRID*               5329               03.0000000000E+020.0000000000E+00+
*       -5.500000000E+02               0
GRID*               5330               03.0000000000E+020.0000000000E+00+
*       -5.600000000E+02               0
GRID*               5331               03.0000000000E+020.0000000000E+00+
*       -5.700000000E+02               0
GRID*               5332               03.0000000000E+020.0000000000E+00+
*       -5.800000000E+02               0
GRID*               5333               03.0000000000E+020.0000000000E+00+
*       -5.900000000E+02               0
GRID*               5334               03.0000000000E+020.0000000000E+00+
*       -6.000000000E+02               0
GRID*               5335               03.0000000000E+020.0000000000E+00+
*       -6.100000000E+02               0
GRID*               5336               03.0000000000E+020.0000000000E+00+
*       -6.200000000E+02               0
GRID*               5337               03.0000000000E+020.0000000000E+00+
*       -6.300000000E+02               0
GRID*               5338               03.0000000000E+020.0000000000E+00+
*       -6.400000000E+02               0
GRID*               5339               03.0000000000E+020.0000000000E+00+
*       -6.500000000E+02               0
GRID*               5340               03.0000000000E+020.0000000000E+00+
*       -6.600000000E+02               0
GRID*               5341               03.0000000000E+020.0000000000E+00+
*       -6.700000000E+02               0
GRID*               5342               03.0000000000E+020.0000000000E+00+
*       -6.800000000E+02               0
GRID*               5343               03.0000000000E+020.0000000000E+00+
*       -6.900000000E+02               0
GRID*               5344               03.0000000000E+020.0000000000E+00+
*       -7.000000000E+02               0
GRID*               5345               03.0000000000E+020.0000000000E+00+
*       -7.100000000E+02               0
GRID*               5346               03.0000000000E+020.0000000000E+00+
*       -7.200000000E+02               0
GRID*               5347               03.0000000000E+020.0000000000E+00+
*       -7.300000000E+02               0
GRID*               5348               03.0000000000E+020.0000000000E+00+
*       -7.400000000E+02               0
GRID*               5349               03.0000000000E+020.0000000000E+00+
*       -7.500000000E+02               0
GRID*               5350               03.0000000000E+020.0000000000E+00+
*       -7.600000000E+02               0
GRID*               5351               03.0000000000E+020.0000000000E+00+
*       -7.700000000E+02               0
GRID*               5352               03.0000000000E+020.0000000000E+00+
*       -7.800000000E+02               0
GRID*               5353               03.0000000000E+020.0000000000E+00+
*       -7.900000000E+02               0
GRID*               5354               03.0000000000E+020.0000000000E+00+
*       -8.000000000E+02               0
GRID*               5355               03.0000000000E+020.0000000000E+00+
*       -8.100000000E+02               0
GRID*               5356               03.0000000000E+020.0000000000E+00+
*       -8.200000000E+02               0
GRID*               5357               03.0000000000E+020.0000000000E+00+
*       -8.300000000E+02               0
GRID*               5358               03.0000000000E+020.0000000000E+00+
*       -8.400000000E+02               0
GRID*               5359               03.0000000000E+020.0000000000E+00+
*       -8.500000000E+02               0
GRID*               5360               03.0000000000E+020.0000000000E+00+
*       -8.600000000E+02               0
GRID*               5361               03.0000000000E+020.0000000000E+00+
*       -8.700000000E+02               0
GRID*               5362               03.0000000000E+020.0000000000E+00+
*       -8.800000000E+02               0
GRID*               5363               03.0000000000E+020.0000000000E+00+
*       -8.900000000E+02               0
GRID*               5364               03.0000000000E+020.0000000000E+00+
*       -9.000000000E+02               0
GRID*               5365               03.0000000000E+020.0000000000E+00+
*       -9.100000000E+02               0
GRID*               5366               03.0000000000E+020.0000000000E+00+
*       -9.200000000E+02               0
GRID*               5367               03.0000000000E+020.0000000000E+00+
*       -9.300000000E+02               0
GRID*               5368               03.0000000000E+020.0000000000E+00+
*       -9.400000000E+02               0
GRID*               5369               03.0000000000E+020.0000000000E+00+
*       -9.500000000E+02               0
GRID*               5370               03.0000000000E+020.0000000000E+00+
*       -9.600000000E+02               0
GRID*               5371               03.0000000000E+020.0000000000E+00+
*       -9.700000000E+02               0
GRID*               5372               03.0000000000E+020.0000000000E+00+
*       -9.800000000E+02               0
GRID*               5373               03.0000000000E+020.0000000000E+00+
*       -9.900000000E+02               0
GRID*               5374               03.0000000000E+020.0000000000E+00+
*       -1.000000000E+03               0
GRID*               5375               03.0000000000E+020.0000000000E+00+
*       -1.010000000E+03               0
GRID*               5376               03.0000000000E+020.0000000000E+00+
*       -1.020000000E+03               0
GRID*               5377               03.0000000000E+020.0000000000E+00+
*       -1.030000000E+03               0
GRID*               5378               03.0000000000E+020.0000000000E+00+
*       -1.040000000E+03               0
GRID*               5379               03.0720666707E+020.0000000000E+00+
*       -1.050000000E+03               0
GRID*               5380               03.1441333415E+020.0000000000E+00+
*       -1.050000000E+03               0
GRID*               5381               03.2162000122E+020.0000000000E+00+
*       -1.050000000E+03               0
GRID*               5382               03.2882666829E+020.0000000000E+00+
*       -1.050000000E+03               0
GRID*               5383               03.3603333537E+020.0000000000E+00+
*       -1.050000000E+03               0
GRID*               5384               03.4324000244E+020.0000000000E+00+
*       -1.050000000E+03               0
GRID*               5385               03.5044666951E+020.0000000000E+00+
*       -1.050000000E+03               0
GRID*               5386               03.5765333659E+020.0000000000E+00+
*       -1.050000000E+03               0
GRID*               5387               03.6486000366E+020.0000000000E+00+
*       -1.050000000E+03               0
GRID*               5388               03.7206667074E+020.0000000000E+00+
*       -1.050000000E+03               0
GRID*               5389               03.7927333781E+020.0000000000E+00+
*       -1.050000000E+03               0
GRID*               5390               03.8648000488E+020.0000000000E+00+
*       -1.050000000E+03               0
GRID*               5391               03.9368667196E+020.0000000000E+00+
*       -1.050000000E+03               0
GRID*               5392               04.0089333903E+020.0000000000E+00+
*       -1.050000000E+03               0
GRID*               5393               04.0810000610E+020.0000000000E+00+
*       -1.040000000E+03               0
GRID*               5394               04.0810000610E+020.0000000000E+00+
*       -1.030000000E+03               0
GRID*               5395               04.0810000610E+020.0000000000E+00+
*       -1.020000000E+03               0
GRID*               5396               04.0810000610E+020.0000000000E+00+
*       -1.010000000E+03               0
GRID*               5397               04.0810000610E+020.0000000000E+00+
*       -1.000000000E+03               0
GRID*               5398               04.0810000610E+020.0000000000E+00+
*       -9.900000000E+02               0
GRID*               5399               04.0810000610E+020.0000000000E+00+
*       -9.800000000E+02               0
GRID*               5400               04.0810000610E+020.0000000000E+00+
*       -9.700000000E+02               0
GRID*               5401               04.0810000610E+020.0000000000E+00+
*       -9.600000000E+02               0
GRID*               5402               04.0810000610E+020.0000000000E+00+
*       -9.500000000E+02               0
GRID*               5403               04.0810000610E+020.0000000000E+00+
*       -9.400000000E+02               0
GRID*               5404               04.0810000610E+020.0000000000E+00+
*       -9.300000000E+02               0
GRID*               5405               04.0810000610E+020.0000000000E+00+
*       -9.200000000E+02               0
GRID*               5406               04.0810000610E+020.0000000000E+00+
*       -9.100000000E+02               0
GRID*               5407               04.0810000610E+020.0000000000E+00+
*       -9.000000000E+02               0
GRID*               5408               04.0810000610E+020.0000000000E+00+
*       -8.900000000E+02               0
GRID*               5409               04.0810000610E+020.0000000000E+00+
*       -8.800000000E+02               0
GRID*               5410               04.0810000610E+020.0000000000E+00+
*       -8.700000000E+02               0
GRID*               5411               04.0810000610E+020.0000000000E+00+
*       -8.600000000E+02               0
GRID*               5412               04.0810000610E+020.0000000000E+00+
*       -8.500000000E+02               0
GRID*               5413               04.0810000610E+020.0000000000E+00+
*       -8.400000000E+02               0
GRID*               5414               04.0810000610E+020.0000000000E+00+
*       -8.300000000E+02               0
GRID*               5415               04.0810000610E+020.0000000000E+00+
*       -8.200000000E+02               0
GRID*               5416               04.0810000610E+020.0000000000E+00+
*       -8.100000000E+02               0
GRID*               5417               04.0810000610E+020.0000000000E+00+
*       -8.000000000E+02               0
GRID*               5418               04.0810000610E+020.0000000000E+00+
*       -7.900000000E+02               0
GRID*               5419               04.0810000610E+020.0000000000E+00+
*       -7.800000000E+02               0
GRID*               5420               04.0810000610E+020.0000000000E+00+
*       -7.700000000E+02               0
GRID*               5421               04.0810000610E+020.0000000000E+00+
*       -7.600000000E+02               0
GRID*               5422               04.0810000610E+020.0000000000E+00+
*       -7.500000000E+02               0
GRID*               5423               04.0810000610E+020.0000000000E+00+
*       -7.400000000E+02               0
GRID*               5424               04.0810000610E+020.0000000000E+00+
*       -7.300000000E+02               0
GRID*               5425               04.0810000610E+020.0000000000E+00+
*       -7.200000000E+02               0
GRID*               5426               04.0810000610E+020.0000000000E+00+
*       -7.100000000E+02               0
GRID*               5427               04.0810000610E+020.0000000000E+00+
*       -7.000000000E+02               0
GRID*               5428               04.0810000610E+020.0000000000E+00+
*       -6.900000000E+02               0
GRID*               5429               04.0810000610E+020.0000000000E+00+
*       -6.800000000E+02               0
GRID*               5430               04.0810000610E+020.0000000000E+00+
*       -6.700000000E+02               0
GRID*               5431               04.0810000610E+020.0000000000E+00+
*       -6.600000000E+02               0
GRID*               5432               04.0810000610E+020.0000000000E+00+
*       -6.500000000E+02               0
GRID*               5433               04.0810000610E+020.0000000000E+00+
*       -6.400000000E+02               0
GRID*               5434               04.0810000610E+020.0000000000E+00+
*       -6.300000000E+02               0
GRID*               5435               04.0810000610E+020.0000000000E+00+
*       -6.200000000E+02               0
GRID*               5436               04.0810000610E+020.0000000000E+00+
*       -6.100000000E+02               0
GRID*               5437               04.0810000610E+020.0000000000E+00+
*       -6.000000000E+02               0
GRID*               5438               04.0810000610E+020.0000000000E+00+
*       -5.900000000E+02               0
GRID*               5439               04.0810000610E+020.0000000000E+00+
*       -5.800000000E+02               0
GRID*               5440               04.0810000610E+020.0000000000E+00+
*       -5.700000000E+02               0
GRID*               5441               04.0810000610E+020.0000000000E+00+
*       -5.600000000E+02               0
GRID*               5442               04.0810000610E+020.0000000000E+00+
*       -5.500000000E+02               0
GRID*               5443               04.0810000610E+020.0000000000E+00+
*       -5.400000000E+02               0
GRID*               5444               04.0810000610E+020.0000000000E+00+
*       -5.300000000E+02               0
GRID*               5445               04.0810000610E+020.0000000000E+00+
*       -5.200000000E+02               0
GRID*               5446               04.0810000610E+020.0000000000E+00+
*       -5.100000000E+02               0
GRID*               5447               04.0810000610E+020.0000000000E+00+
*       -5.000000000E+02               0
GRID*               5448               04.0810000610E+020.0000000000E+00+
*       -4.900000000E+02               0
GRID*               5449               04.0810000610E+020.0000000000E+00+
*       -4.800000000E+02               0
GRID*               5450               04.0810000610E+020.0000000000E+00+
*       -4.700000000E+02               0
GRID*               5451               04.0810000610E+020.0000000000E+00+
*       -4.600000000E+02               0
GRID*               5452               04.0810000610E+020.0000000000E+00+
*       -4.500000000E+02               0
GRID*               5453               04.0810000610E+020.0000000000E+00+
*       -4.400000000E+02               0
GRID*               5454               04.0810000610E+020.0000000000E+00+
*       -4.300000000E+02               0
GRID*               5455               04.0810000610E+020.0000000000E+00+
*       -4.200000000E+02               0
GRID*               5456               04.0810000610E+020.0000000000E+00+
*       -4.100000000E+02               0
GRID*               5457               04.0810000610E+020.0000000000E+00+
*       -4.000000000E+02               0
GRID*               5458               04.0810000610E+020.0000000000E+00+
*       -3.900000000E+02               0
GRID*               5459               04.0810000610E+020.0000000000E+00+
*       -3.800000000E+02               0
GRID*               5460               04.0810000610E+020.0000000000E+00+
*       -3.700000000E+02               0
GRID*               5461               04.0810000610E+020.0000000000E+00+
*       -3.600000000E+02               0
GRID*               5462               04.0810000610E+020.0000000000E+00+
*       -3.500000000E+02               0
GRID*               5463               04.0810000610E+020.0000000000E+00+
*       -3.400000000E+02               0
GRID*               5464               04.0810000610E+020.0000000000E+00+
*       -3.300000000E+02               0
GRID*               5465               04.0810000610E+020.0000000000E+00+
*       -3.200000000E+02               0
GRID*               5466               04.0810000610E+020.0000000000E+00+
*       -3.100000000E+02               0
GRID*               5467               04.0810000610E+020.0000000000E+00+
*       -3.000000000E+02               0
GRID*               5468               04.0810000610E+020.0000000000E+00+
*       -2.900000000E+02               0
GRID*               5469               04.0810000610E+020.0000000000E+00+
*       -2.800000000E+02               0
GRID*               5470               04.0810000610E+020.0000000000E+00+
*       -2.700000000E+02               0
GRID*               5471               04.0810000610E+020.0000000000E+00+
*       -2.600000000E+02               0
GRID*               5472               04.0810000610E+020.0000000000E+00+
*       -2.500000000E+02               0
GRID*               5473               04.0810000610E+020.0000000000E+00+
*       -2.400000000E+02               0
GRID*               5474               04.0810000610E+020.0000000000E+00+
*       -2.300000000E+02               0
GRID*               5475               04.0810000610E+020.0000000000E+00+
*       -2.200000000E+02               0
GRID*               5476               04.0810000610E+020.0000000000E+00+
*       -2.100000000E+02               0
GRID*               5477               04.0810000610E+020.0000000000E+00+
*       -2.000000000E+02               0
GRID*               5478               04.0810000610E+020.0000000000E+00+
*       -1.900000000E+02               0
GRID*               5479               04.0810000610E+020.0000000000E+00+
*       -1.800000000E+02               0
GRID*               5480               04.0810000610E+020.0000000000E+00+
*       -1.700000000E+02               0
GRID*               5481               04.0810000610E+020.0000000000E+00+
*       -1.600000000E+02               0
GRID*               5482               04.0810000610E+020.0000000000E+00+
*       -1.500000000E+02               0
GRID*               5483               04.0810000610E+020.0000000000E+00+
*       -1.400000000E+02               0
GRID*               5484               04.0810000610E+020.0000000000E+00+
*       -1.300000000E+02               0
GRID*               5485               04.0810000610E+020.0000000000E+00+
*       -1.200000000E+02               0
GRID*               5486               04.0810000610E+020.0000000000E+00+
*       -1.100000000E+02               0
GRID*               5487               04.0810000610E+020.0000000000E+00+
*       -1.000000000E+02               0
GRID*               5488               04.0810000610E+020.0000000000E+00+
*       -9.000000000E+01               0
GRID*               5489               04.0810000610E+020.0000000000E+00+
*       -8.000000000E+01               0
GRID*               5490               04.0810000610E+020.0000000000E+00+
*       -7.000000000E+01               0
GRID*               5491               04.0810000610E+020.0000000000E+00+
*       -6.000000000E+01               0
GRID*               5492               04.0810000610E+020.0000000000E+00+
*       -5.000000000E+01               0
GRID*               5493               04.0810000610E+020.0000000000E+00+
*       -4.000000000E+01               0
GRID*               5494               04.0810000610E+020.0000000000E+00+
*       -3.000000000E+01               0
GRID*               5495               04.0810000610E+020.0000000000E+00+
*       -2.000000000E+01               0
GRID*               5496               04.0810000610E+020.0000000000E+00+
*       -1.000000000E+01               0
GRID*               5497               09.9999994040E-020.0000000000E+00+
*       4.0809997559E+02               0
GRID*               5498               09.9999994040E-020.0000000000E+00+
*       2.9999996948E+02               0
GRID*               5499               03.0000000000E+020.0000000000E+00+
*       0.0000000000E+00               0
GRID*               5500               04.0810000610E+020.0000000000E+00+
*       4.9977837353E-14               0
GRID*               5501               04.0779000854E+020.0000000000E+00+
*       0.0000000000E+00               0
GRID*               5502               04.0779000854E+020.0000000000E+00+
*       -1.200000000E+03               0
GRID*               5503               04.8688998413E+020.0000000000E+00+
*       -1.200000000E+03               0
GRID*               5504               04.8688998413E+020.0000000000E+00+
*       0.0000000000E+00               0
GRID*               5505               09.9999994040E-020.0000000000E+00+
*       -1.434392944E+03               0
GRID*               5506               09.9999994040E-020.0000000000E+00+
*       -1.530975586E+03               0
GRID*               5507               01.1246810913E+020.0000000000E+00+
*       -1.387531860E+03               0
GRID*               5508               02.0501473999E+020.0000000000E+00+
*       -1.294985352E+03               0
GRID*               5509               03.0166754150E+020.0000000000E+00+
*       -1.446233765E+03               0
GRID*               5510               03.0000000000E+020.0000000000E+00+
*       -1.065670532E+03               0
GRID*               5511               03.2032629395E+020.0000000000E+00+
*       -1.427574951E+03               0
GRID*               5512               04.0810000610E+020.0000000000E+00+
*       -1.215670532E+03               0
GRID*               5513               03.0000000000E+020.0000000000E+00+
*       -1.050000000E+03               0
GRID*               5514               04.0810000610E+020.0000000000E+00+
*       -1.050000000E+03               0
$*
$* ELEMENT CARDS
$*
$*  Mesh Collector: Solid Axisymmetric ZX Collector(1)
$*  Mesh: 2d_mapped_mesh(2)
CQUADX4        1       1       1     105     106       2
CQUADX4        2       1       2     106     107       3
CQUADX4        3       1       3     107     108       4
CQUADX4        4       1       4     108     109       5
CQUADX4        5       1       5     109     110       6
CQUADX4        6       1       6     110     111       7
CQUADX4        7       1       7     111     112       8
CQUADX4        8       1       8     112     113       9
CQUADX4        9       1       9     113     114      10
CQUADX4       10       1      10     114     115      11
CQUADX4       11       1      11     115     116      12
CQUADX4       12       1      12     116     117      13
CQUADX4       13       1      13     117     118      14
CQUADX4       14       1      14     118     119      15
CQUADX4       15       1      15     119     120      16
CQUADX4       16       1      16     120     121      17
CQUADX4       17       1      17     121     122      18
CQUADX4       18       1      18     122     123      19
CQUADX4       19       1      19     123     124      20
CQUADX4       20       1      20     124     125      21
CQUADX4       21       1      21     125     126      22
CQUADX4       22       1      22     126     127      23
CQUADX4       23       1      23     127     128      24
CQUADX4       24       1      24     128     129      25
CQUADX4       25       1      25     129     130      26
CQUADX4       26       1      26     130     131      27
CQUADX4       27       1      27     131     132      28
CQUADX4       28       1      28     132     133      29
CQUADX4       29       1      29     133     134      30
CQUADX4       30       1      30     134     135      31
CQUADX4       31       1      31     135     136      32
CQUADX4       32       1      32     136     137      33
CQUADX4       33       1      33     137     138      34
CQUADX4       34       1      34     138     139      35
CQUADX4       35       1      35     139     140      36
CQUADX4       36       1      36     140     141      37
CQUADX4       37       1      37     141     142      38
CQUADX4       38       1      38     142     143      39
CQUADX4       39       1      39     143     144      40
CQUADX4       40       1      40     144     145      41
CQUADX4       41       1      41     145     146      42
CQUADX4       42       1      42     146     147      43
CQUADX4       43       1      43     147     148      44
CQUADX4       44       1      44     148     149      45
CQUADX4       45       1      45     149     150      46
CQUADX4       46       1      46     150     151      47
CQUADX4       47       1      47     151     152      48
CQUADX4       48       1      48     152     153      49
CQUADX4       49       1      49     153     154      50
CQUADX4       50       1      50     154     155      51
CQUADX4       51       1      51     155     156      52
CQUADX4       52       1      52     156     157      53
CQUADX4       53       1      53     157     158      54
CQUADX4       54       1      54     158     159      55
CQUADX4       55       1      55     159     160      56
CQUADX4       56       1      56     160     161      57
CQUADX4       57       1      57     161     162      58
CQUADX4       58       1      58     162     163      59
CQUADX4       59       1      59     163     164      60
CQUADX4       60       1      60     164     165      61
CQUADX4       61       1      61     165     166      62
CQUADX4       62       1      62     166     167      63
CQUADX4       63       1      63     167     168      64
CQUADX4       64       1      64     168     169      65
CQUADX4       65       1      65     169     170      66
CQUADX4       66       1      66     170     171      67
CQUADX4       67       1      67     171     172      68
CQUADX4       68       1      68     172     173      69
CQUADX4       69       1      69     173     174      70
CQUADX4       70       1      70     174     175      71
CQUADX4       71       1      71     175     176      72
CQUADX4       72       1      72     176     177      73
CQUADX4       73       1      73     177     178      74
CQUADX4       74       1      74     178     179      75
CQUADX4       75       1      75     179     180      76
CQUADX4       76       1      76     180     181      77
CQUADX4       77       1      77     181     182      78
CQUADX4       78       1      78     182     183      79
CQUADX4       79       1      79     183     184      80
CQUADX4       80       1      80     184     185      81
CQUADX4       81       1      81     185     186      82
CQUADX4       82       1      82     186     187      83
CQUADX4       83       1      83     187     188      84
CQUADX4       84       1      84     188     189      85
CQUADX4       85       1      85     189     190      86
CQUADX4       86       1      86     190     191      87
CQUADX4       87       1      87     191     192      88
CQUADX4       88       1      88     192     193      89
CQUADX4       89       1      89     193     194      90
CQUADX4       90       1      90     194     195      91
CQUADX4       91       1      91     195     196      92
CQUADX4       92       1      92     196     197      93
CQUADX4       93       1      93     197     198      94
CQUADX4       94       1      94     198     199      95
CQUADX4       95       1      95     199     200      96
CQUADX4       96       1      96     200     201      97
CQUADX4       97       1      97     201     202      98
CQUADX4       98       1      98     202     203      99
CQUADX4       99       1      99     203     204     100
CQUADX4      100       1     100     204     205     101
CQUADX4      101       1     101     205     206     102
CQUADX4      102       1     102     206     207     103
CQUADX4      103       1     103     207     208     104
CQUADX4      104       1     105     209     210     106
CQUADX4      105       1     106     210     211     107
CQUADX4      106       1     107     211     212     108
CQUADX4      107       1     108     212     213     109
CQUADX4      108       1     109     213     214     110
CQUADX4      109       1     110     214     215     111
CQUADX4      110       1     111     215     216     112
CQUADX4      111       1     112     216     217     113
CQUADX4      112       1     113     217     218     114
CQUADX4      113       1     114     218     219     115
CQUADX4      114       1     115     219     220     116
CQUADX4      115       1     116     220     221     117
CQUADX4      116       1     117     221     222     118
CQUADX4      117       1     118     222     223     119
CQUADX4      118       1     119     223     224     120
CQUADX4      119       1     120     224     225     121
CQUADX4      120       1     121     225     226     122
CQUADX4      121       1     122     226     227     123
CQUADX4      122       1     123     227     228     124
CQUADX4      123       1     124     228     229     125
CQUADX4      124       1     125     229     230     126
CQUADX4      125       1     126     230     231     127
CQUADX4      126       1     127     231     232     128
CQUADX4      127       1     128     232     233     129
CQUADX4      128       1     129     233     234     130
CQUADX4      129       1     130     234     235     131
CQUADX4      130       1     131     235     236     132
CQUADX4      131       1     132     236     237     133
CQUADX4      132       1     133     237     238     134
CQUADX4      133       1     134     238     239     135
CQUADX4      134       1     135     239     240     136
CQUADX4      135       1     136     240     241     137
CQUADX4      136       1     137     241     242     138
CQUADX4      137       1     138     242     243     139
CQUADX4      138       1     139     243     244     140
CQUADX4      139       1     140     244     245     141
CQUADX4      140       1     141     245     246     142
CQUADX4      141       1     142     246     247     143
CQUADX4      142       1     143     247     248     144
CQUADX4      143       1     144     248     249     145
CQUADX4      144       1     145     249     250     146
CQUADX4      145       1     146     250     251     147
CQUADX4      146       1     147     251     252     148
CQUADX4      147       1     148     252     253     149
CQUADX4      148       1     149     253     254     150
CQUADX4      149       1     150     254     255     151
CQUADX4      150       1     151     255     256     152
CQUADX4      151       1     152     256     257     153
CQUADX4      152       1     153     257     258     154
CQUADX4      153       1     154     258     259     155
CQUADX4      154       1     155     259     260     156
CQUADX4      155       1     156     260     261     157
CQUADX4      156       1     157     261     262     158
CQUADX4      157       1     158     262     263     159
CQUADX4      158       1     159     263     264     160
CQUADX4      159       1     160     264     265     161
CQUADX4      160       1     161     265     266     162
CQUADX4      161       1     162     266     267     163
CQUADX4      162       1     163     267     268     164
CQUADX4      163       1     164     268     269     165
CQUADX4      164       1     165     269     270     166
CQUADX4      165       1     166     270     271     167
CQUADX4      166       1     167     271     272     168
CQUADX4      167       1     168     272     273     169
CQUADX4      168       1     169     273     274     170
CQUADX4      169       1     170     274     275     171
CQUADX4      170       1     171     275     276     172
CQUADX4      171       1     172     276     277     173
CQUADX4      172       1     173     277     278     174
CQUADX4      173       1     174     278     279     175
CQUADX4      174       1     175     279     280     176
CQUADX4      175       1     176     280     281     177
CQUADX4      176       1     177     281     282     178
CQUADX4      177       1     178     282     283     179
CQUADX4      178       1     179     283     284     180
CQUADX4      179       1     180     284     285     181
CQUADX4      180       1     181     285     286     182
CQUADX4      181       1     182     286     287     183
CQUADX4      182       1     183     287     288     184
CQUADX4      183       1     184     288     289     185
CQUADX4      184       1     185     289     290     186
CQUADX4      185       1     186     290     291     187
CQUADX4      186       1     187     291     292     188
CQUADX4      187       1     188     292     293     189
CQUADX4      188       1     189     293     294     190
CQUADX4      189       1     190     294     295     191
CQUADX4      190       1     191     295     296     192
CQUADX4      191       1     192     296     297     193
CQUADX4      192       1     193     297     298     194
CQUADX4      193       1     194     298     299     195
CQUADX4      194       1     195     299     300     196
CQUADX4      195       1     196     300     301     197
CQUADX4      196       1     197     301     302     198
CQUADX4      197       1     198     302     303     199
CQUADX4      198       1     199     303     304     200
CQUADX4      199       1     200     304     305     201
CQUADX4      200       1     201     305     306     202
CQUADX4      201       1     202     306     307     203
CQUADX4      202       1     203     307     308     204
CQUADX4      203       1     204     308     309     205
CQUADX4      204       1     205     309     310     206
CQUADX4      205       1     206     310     311     207
CQUADX4      206       1     207     311     312     208
CQUADX4      207       1     209     313     314     210
CQUADX4      208       1     210     314     315     211
CQUADX4      209       1     211     315     316     212
CQUADX4      210       1     212     316     317     213
CQUADX4      211       1     213     317     318     214
CQUADX4      212       1     214     318     319     215
CQUADX4      213       1     215     319     320     216
CQUADX4      214       1     216     320     321     217
CQUADX4      215       1     217     321     322     218
CQUADX4      216       1     218     322     323     219
CQUADX4      217       1     219     323     324     220
CQUADX4      218       1     220     324     325     221
CQUADX4      219       1     221     325     326     222
CQUADX4      220       1     222     326     327     223
CQUADX4      221       1     223     327     328     224
CQUADX4      222       1     224     328     329     225
CQUADX4      223       1     225     329     330     226
CQUADX4      224       1     226     330     331     227
CQUADX4      225       1     227     331     332     228
CQUADX4      226       1     228     332     333     229
CQUADX4      227       1     229     333     334     230
CQUADX4      228       1     230     334     335     231
CQUADX4      229       1     231     335     336     232
CQUADX4      230       1     232     336     337     233
CQUADX4      231       1     233     337     338     234
CQUADX4      232       1     234     338     339     235
CQUADX4      233       1     235     339     340     236
CQUADX4      234       1     236     340     341     237
CQUADX4      235       1     237     341     342     238
CQUADX4      236       1     238     342     343     239
CQUADX4      237       1     239     343     344     240
CQUADX4      238       1     240     344     345     241
CQUADX4      239       1     241     345     346     242
CQUADX4      240       1     242     346     347     243
CQUADX4      241       1     243     347     348     244
CQUADX4      242       1     244     348     349     245
CQUADX4      243       1     245     349     350     246
CQUADX4      244       1     246     350     351     247
CQUADX4      245       1     247     351     352     248
CQUADX4      246       1     248     352     353     249
CQUADX4      247       1     249     353     354     250
CQUADX4      248       1     250     354     355     251
CQUADX4      249       1     251     355     356     252
CQUADX4      250       1     252     356     357     253
CQUADX4      251       1     253     357     358     254
CQUADX4      252       1     254     358     359     255
CQUADX4      253       1     255     359     360     256
CQUADX4      254       1     256     360     361     257
CQUADX4      255       1     257     361     362     258
CQUADX4      256       1     258     362     363     259
CQUADX4      257       1     259     363     364     260
CQUADX4      258       1     260     364     365     261
CQUADX4      259       1     261     365     366     262
CQUADX4      260       1     262     366     367     263
CQUADX4      261       1     263     367     368     264
CQUADX4      262       1     264     368     369     265
CQUADX4      263       1     265     369     370     266
CQUADX4      264       1     266     370     371     267
CQUADX4      265       1     267     371     372     268
CQUADX4      266       1     268     372     373     269
CQUADX4      267       1     269     373     374     270
CQUADX4      268       1     270     374     375     271
CQUADX4      269       1     271     375     376     272
CQUADX4      270       1     272     376     377     273
CQUADX4      271       1     273     377     378     274
CQUADX4      272       1     274     378     379     275
CQUADX4      273       1     275     379     380     276
CQUADX4      274       1     276     380     381     277
CQUADX4      275       1     277     381     382     278
CQUADX4      276       1     278     382     383     279
CQUADX4      277       1     279     383     384     280
CQUADX4      278       1     280     384     385     281
CQUADX4      279       1     281     385     386     282
CQUADX4      280       1     282     386     387     283
CQUADX4      281       1     283     387     388     284
CQUADX4      282       1     284     388     389     285
CQUADX4      283       1     285     389     390     286
CQUADX4      284       1     286     390     391     287
CQUADX4      285       1     287     391     392     288
CQUADX4      286       1     288     392     393     289
CQUADX4      287       1     289     393     394     290
CQUADX4      288       1     290     394     395     291
CQUADX4      289       1     291     395     396     292
CQUADX4      290       1     292     396     397     293
CQUADX4      291       1     293     397     398     294
CQUADX4      292       1     294     398     399     295
CQUADX4      293       1     295     399     400     296
CQUADX4      294       1     296     400     401     297
CQUADX4      295       1     297     401     402     298
CQUADX4      296       1     298     402     403     299
CQUADX4      297       1     299     403     404     300
CQUADX4      298       1     300     404     405     301
CQUADX4      299       1     301     405     406     302
CQUADX4      300       1     302     406     407     303
CQUADX4      301       1     303     407     408     304
CQUADX4      302       1     304     408     409     305
CQUADX4      303       1     305     409     410     306
CQUADX4      304       1     306     410     411     307
CQUADX4      305       1     307     411     412     308
CQUADX4      306       1     308     412     413     309
CQUADX4      307       1     309     413     414     310
CQUADX4      308       1     310     414     415     311
CQUADX4      309       1     311     415     416     312
CQUADX4      310       1     313     417     418     314
CQUADX4      311       1     314     418     419     315
CQUADX4      312       1     315     419     420     316
CQUADX4      313       1     316     420     421     317
CQUADX4      314       1     317     421     422     318
CQUADX4      315       1     318     422     423     319
CQUADX4      316       1     319     423     424     320
CQUADX4      317       1     320     424     425     321
CQUADX4      318       1     321     425     426     322
CQUADX4      319       1     322     426     427     323
CQUADX4      320       1     323     427     428     324
CQUADX4      321       1     324     428     429     325
CQUADX4      322       1     325     429     430     326
CQUADX4      323       1     326     430     431     327
CQUADX4      324       1     327     431     432     328
CQUADX4      325       1     328     432     433     329
CQUADX4      326       1     329     433     434     330
CQUADX4      327       1     330     434     435     331
CQUADX4      328       1     331     435     436     332
CQUADX4      329       1     332     436     437     333
CQUADX4      330       1     333     437     438     334
CQUADX4      331       1     334     438     439     335
CQUADX4      332       1     335     439     440     336
CQUADX4      333       1     336     440     441     337
CQUADX4      334       1     337     441     442     338
CQUADX4      335       1     338     442     443     339
CQUADX4      336       1     339     443     444     340
CQUADX4      337       1     340     444     445     341
CQUADX4      338       1     341     445     446     342
CQUADX4      339       1     342     446     447     343
CQUADX4      340       1     343     447     448     344
CQUADX4      341       1     344     448     449     345
CQUADX4      342       1     345     449     450     346
CQUADX4      343       1     346     450     451     347
CQUADX4      344       1     347     451     452     348
CQUADX4      345       1     348     452     453     349
CQUADX4      346       1     349     453     454     350
CQUADX4      347       1     350     454     455     351
CQUADX4      348       1     351     455     456     352
CQUADX4      349       1     352     456     457     353
CQUADX4      350       1     353     457     458     354
CQUADX4      351       1     354     458     459     355
CQUADX4      352       1     355     459     460     356
CQUADX4      353       1     356     460     461     357
CQUADX4      354       1     357     461     462     358
CQUADX4      355       1     358     462     463     359
CQUADX4      356       1     359     463     464     360
CQUADX4      357       1     360     464     465     361
CQUADX4      358       1     361     465     466     362
CQUADX4      359       1     362     466     467     363
CQUADX4      360       1     363     467     468     364
CQUADX4      361       1     364     468     469     365
CQUADX4      362       1     365     469     470     366
CQUADX4      363       1     366     470     471     367
CQUADX4      364       1     367     471     472     368
CQUADX4      365       1     368     472     473     369
CQUADX4      366       1     369     473     474     370
CQUADX4      367       1     370     474     475     371
CQUADX4      368       1     371     475     476     372
CQUADX4      369       1     372     476     477     373
CQUADX4      370       1     373     477     478     374
CQUADX4      371       1     374     478     479     375
CQUADX4      372       1     375     479     480     376
CQUADX4      373       1     376     480     481     377
CQUADX4      374       1     377     481     482     378
CQUADX4      375       1     378     482     483     379
CQUADX4      376       1     379     483     484     380
CQUADX4      377       1     380     484     485     381
CQUADX4      378       1     381     485     486     382
CQUADX4      379       1     382     486     487     383
CQUADX4      380       1     383     487     488     384
CQUADX4      381       1     384     488     489     385
CQUADX4      382       1     385     489     490     386
CQUADX4      383       1     386     490     491     387
CQUADX4      384       1     387     491     492     388
CQUADX4      385       1     388     492     493     389
CQUADX4      386       1     389     493     494     390
CQUADX4      387       1     390     494     495     391
CQUADX4      388       1     391     495     496     392
CQUADX4      389       1     392     496     497     393
CQUADX4      390       1     393     497     498     394
CQUADX4      391       1     394     498     499     395
CQUADX4      392       1     395     499     500     396
CQUADX4      393       1     396     500     501     397
CQUADX4      394       1     397     501     502     398
CQUADX4      395       1     398     502     503     399
CQUADX4      396       1     399     503     504     400
CQUADX4      397       1     400     504     505     401
CQUADX4      398       1     401     505     506     402
CQUADX4      399       1     402     506     507     403
CQUADX4      400       1     403     507     508     404
CQUADX4      401       1     404     508     509     405
CQUADX4      402       1     405     509     510     406
CQUADX4      403       1     406     510     511     407
CQUADX4      404       1     407     511     512     408
CQUADX4      405       1     408     512     513     409
CQUADX4      406       1     409     513     514     410
CQUADX4      407       1     410     514     515     411
CQUADX4      408       1     411     515     516     412
CQUADX4      409       1     412     516     517     413
CQUADX4      410       1     413     517     518     414
CQUADX4      411       1     414     518     519     415
CQUADX4      412       1     415     519     520     416
CQUADX4      413       1     417     521     522     418
CQUADX4      414       1     418     522     523     419
CQUADX4      415       1     419     523     524     420
CQUADX4      416       1     420     524     525     421
CQUADX4      417       1     421     525     526     422
CQUADX4      418       1     422     526     527     423
CQUADX4      419       1     423     527     528     424
CQUADX4      420       1     424     528     529     425
CQUADX4      421       1     425     529     530     426
CQUADX4      422       1     426     530     531     427
CQUADX4      423       1     427     531     532     428
CQUADX4      424       1     428     532     533     429
CQUADX4      425       1     429     533     534     430
CQUADX4      426       1     430     534     535     431
CQUADX4      427       1     431     535     536     432
CQUADX4      428       1     432     536     537     433
CQUADX4      429       1     433     537     538     434
CQUADX4      430       1     434     538     539     435
CQUADX4      431       1     435     539     540     436
CQUADX4      432       1     436     540     541     437
CQUADX4      433       1     437     541     542     438
CQUADX4      434       1     438     542     543     439
CQUADX4      435       1     439     543     544     440
CQUADX4      436       1     440     544     545     441
CQUADX4      437       1     441     545     546     442
CQUADX4      438       1     442     546     547     443
CQUADX4      439       1     443     547     548     444
CQUADX4      440       1     444     548     549     445
CQUADX4      441       1     445     549     550     446
CQUADX4      442       1     446     550     551     447
CQUADX4      443       1     447     551     552     448
CQUADX4      444       1     448     552     553     449
CQUADX4      445       1     449     553     554     450
CQUADX4      446       1     450     554     555     451
CQUADX4      447       1     451     555     556     452
CQUADX4      448       1     452     556     557     453
CQUADX4      449       1     453     557     558     454
CQUADX4      450       1     454     558     559     455
CQUADX4      451       1     455     559     560     456
CQUADX4      452       1     456     560     561     457
CQUADX4      453       1     457     561     562     458
CQUADX4      454       1     458     562     563     459
CQUADX4      455       1     459     563     564     460
CQUADX4      456       1     460     564     565     461
CQUADX4      457       1     461     565     566     462
CQUADX4      458       1     462     566     567     463
CQUADX4      459       1     463     567     568     464
CQUADX4      460       1     464     568     569     465
CQUADX4      461       1     465     569     570     466
CQUADX4      462       1     466     570     571     467
CQUADX4      463       1     467     571     572     468
CQUADX4      464       1     468     572     573     469
CQUADX4      465       1     469     573     574     470
CQUADX4      466       1     470     574     575     471
CQUADX4      467       1     471     575     576     472
CQUADX4      468       1     472     576     577     473
CQUADX4      469       1     473     577     578     474
CQUADX4      470       1     474     578     579     475
CQUADX4      471       1     475     579     580     476
CQUADX4      472       1     476     580     581     477
CQUADX4      473       1     477     581     582     478
CQUADX4      474       1     478     582     583     479
CQUADX4      475       1     479     583     584     480
CQUADX4      476       1     480     584     585     481
CQUADX4      477       1     481     585     586     482
CQUADX4      478       1     482     586     587     483
CQUADX4      479       1     483     587     588     484
CQUADX4      480       1     484     588     589     485
CQUADX4      481       1     485     589     590     486
CQUADX4      482       1     486     590     591     487
CQUADX4      483       1     487     591     592     488
CQUADX4      484       1     488     592     593     489
CQUADX4      485       1     489     593     594     490
CQUADX4      486       1     490     594     595     491
CQUADX4      487       1     491     595     596     492
CQUADX4      488       1     492     596     597     493
CQUADX4      489       1     493     597     598     494
CQUADX4      490       1     494     598     599     495
CQUADX4      491       1     495     599     600     496
CQUADX4      492       1     496     600     601     497
CQUADX4      493       1     497     601     602     498
CQUADX4      494       1     498     602     603     499
CQUADX4      495       1     499     603     604     500
CQUADX4      496       1     500     604     605     501
CQUADX4      497       1     501     605     606     502
CQUADX4      498       1     502     606     607     503
CQUADX4      499       1     503     607     608     504
CQUADX4      500       1     504     608     609     505
CQUADX4      501       1     505     609     610     506
CQUADX4      502       1     506     610     611     507
CQUADX4      503       1     507     611     612     508
CQUADX4      504       1     508     612     613     509
CQUADX4      505       1     509     613     614     510
CQUADX4      506       1     510     614     615     511
CQUADX4      507       1     511     615     616     512
CQUADX4      508       1     512     616     617     513
CQUADX4      509       1     513     617     618     514
CQUADX4      510       1     514     618     619     515
CQUADX4      511       1     515     619     620     516
CQUADX4      512       1     516     620     621     517
CQUADX4      513       1     517     621     622     518
CQUADX4      514       1     518     622     623     519
CQUADX4      515       1     519     623     624     520
CQUADX4      516       1     521     625     626     522
CQUADX4      517       1     522     626     627     523
CQUADX4      518       1     523     627     628     524
CQUADX4      519       1     524     628     629     525
CQUADX4      520       1     525     629     630     526
CQUADX4      521       1     526     630     631     527
CQUADX4      522       1     527     631     632     528
CQUADX4      523       1     528     632     633     529
CQUADX4      524       1     529     633     634     530
CQUADX4      525       1     530     634     635     531
CQUADX4      526       1     531     635     636     532
CQUADX4      527       1     532     636     637     533
CQUADX4      528       1     533     637     638     534
CQUADX4      529       1     534     638     639     535
CQUADX4      530       1     535     639     640     536
CQUADX4      531       1     536     640     641     537
CQUADX4      532       1     537     641     642     538
CQUADX4      533       1     538     642     643     539
CQUADX4      534       1     539     643     644     540
CQUADX4      535       1     540     644     645     541
CQUADX4      536       1     541     645     646     542
CQUADX4      537       1     542     646     647     543
CQUADX4      538       1     543     647     648     544
CQUADX4      539       1     544     648     649     545
CQUADX4      540       1     545     649     650     546
CQUADX4      541       1     546     650     651     547
CQUADX4      542       1     547     651     652     548
CQUADX4      543       1     548     652     653     549
CQUADX4      544       1     549     653     654     550
CQUADX4      545       1     550     654     655     551
CQUADX4      546       1     551     655     656     552
CQUADX4      547       1     552     656     657     553
CQUADX4      548       1     553     657     658     554
CQUADX4      549       1     554     658     659     555
CQUADX4      550       1     555     659     660     556
CQUADX4      551       1     556     660     661     557
CQUADX4      552       1     557     661     662     558
CQUADX4      553       1     558     662     663     559
CQUADX4      554       1     559     663     664     560
CQUADX4      555       1     560     664     665     561
CQUADX4      556       1     561     665     666     562
CQUADX4      557       1     562     666     667     563
CQUADX4      558       1     563     667     668     564
CQUADX4      559       1     564     668     669     565
CQUADX4      560       1     565     669     670     566
CQUADX4      561       1     566     670     671     567
CQUADX4      562       1     567     671     672     568
CQUADX4      563       1     568     672     673     569
CQUADX4      564       1     569     673     674     570
CQUADX4      565       1     570     674     675     571
CQUADX4      566       1     571     675     676     572
CQUADX4      567       1     572     676     677     573
CQUADX4      568       1     573     677     678     574
CQUADX4      569       1     574     678     679     575
CQUADX4      570       1     575     679     680     576
CQUADX4      571       1     576     680     681     577
CQUADX4      572       1     577     681     682     578
CQUADX4      573       1     578     682     683     579
CQUADX4      574       1     579     683     684     580
CQUADX4      575       1     580     684     685     581
CQUADX4      576       1     581     685     686     582
CQUADX4      577       1     582     686     687     583
CQUADX4      578       1     583     687     688     584
CQUADX4      579       1     584     688     689     585
CQUADX4      580       1     585     689     690     586
CQUADX4      581       1     586     690     691     587
CQUADX4      582       1     587     691     692     588
CQUADX4      583       1     588     692     693     589
CQUADX4      584       1     589     693     694     590
CQUADX4      585       1     590     694     695     591
CQUADX4      586       1     591     695     696     592
CQUADX4      587       1     592     696     697     593
CQUADX4      588       1     593     697     698     594
CQUADX4      589       1     594     698     699     595
CQUADX4      590       1     595     699     700     596
CQUADX4      591       1     596     700     701     597
CQUADX4      592       1     597     701     702     598
CQUADX4      593       1     598     702     703     599
CQUADX4      594       1     599     703     704     600
CQUADX4      595       1     600     704     705     601
CQUADX4      596       1     601     705     706     602
CQUADX4      597       1     602     706     707     603
CQUADX4      598       1     603     707     708     604
CQUADX4      599       1     604     708     709     605
CQUADX4      600       1     605     709     710     606
CQUADX4      601       1     606     710     711     607
CQUADX4      602       1     607     711     712     608
CQUADX4      603       1     608     712     713     609
CQUADX4      604       1     609     713     714     610
CQUADX4      605       1     610     714     715     611
CQUADX4      606       1     611     715     716     612
CQUADX4      607       1     612     716     717     613
CQUADX4      608       1     613     717     718     614
CQUADX4      609       1     614     718     719     615
CQUADX4      610       1     615     719     720     616
CQUADX4      611       1     616     720     721     617
CQUADX4      612       1     617     721     722     618
CQUADX4      613       1     618     722     723     619
CQUADX4      614       1     619     723     724     620
CQUADX4      615       1     620     724     725     621
CQUADX4      616       1     621     725     726     622
CQUADX4      617       1     622     726     727     623
CQUADX4      618       1     623     727     728     624
CQUADX4      619       1     625     729     730     626
CQUADX4      620       1     626     730     731     627
CQUADX4      621       1     627     731     732     628
CQUADX4      622       1     628     732     733     629
CQUADX4      623       1     629     733     734     630
CQUADX4      624       1     630     734     735     631
CQUADX4      625       1     631     735     736     632
CQUADX4      626       1     632     736     737     633
CQUADX4      627       1     633     737     738     634
CQUADX4      628       1     634     738     739     635
CQUADX4      629       1     635     739     740     636
CQUADX4      630       1     636     740     741     637
CQUADX4      631       1     637     741     742     638
CQUADX4      632       1     638     742     743     639
CQUADX4      633       1     639     743     744     640
CQUADX4      634       1     640     744     745     641
CQUADX4      635       1     641     745     746     642
CQUADX4      636       1     642     746     747     643
CQUADX4      637       1     643     747     748     644
CQUADX4      638       1     644     748     749     645
CQUADX4      639       1     645     749     750     646
CQUADX4      640       1     646     750     751     647
CQUADX4      641       1     647     751     752     648
CQUADX4      642       1     648     752     753     649
CQUADX4      643       1     649     753     754     650
CQUADX4      644       1     650     754     755     651
CQUADX4      645       1     651     755     756     652
CQUADX4      646       1     652     756     757     653
CQUADX4      647       1     653     757     758     654
CQUADX4      648       1     654     758     759     655
CQUADX4      649       1     655     759     760     656
CQUADX4      650       1     656     760     761     657
CQUADX4      651       1     657     761     762     658
CQUADX4      652       1     658     762     763     659
CQUADX4      653       1     659     763     764     660
CQUADX4      654       1     660     764     765     661
CQUADX4      655       1     661     765     766     662
CQUADX4      656       1     662     766     767     663
CQUADX4      657       1     663     767     768     664
CQUADX4      658       1     664     768     769     665
CQUADX4      659       1     665     769     770     666
CQUADX4      660       1     666     770     771     667
CQUADX4      661       1     667     771     772     668
CQUADX4      662       1     668     772     773     669
CQUADX4      663       1     669     773     774     670
CQUADX4      664       1     670     774     775     671
CQUADX4      665       1     671     775     776     672
CQUADX4      666       1     672     776     777     673
CQUADX4      667       1     673     777     778     674
CQUADX4      668       1     674     778     779     675
CQUADX4      669       1     675     779     780     676
CQUADX4      670       1     676     780     781     677
CQUADX4      671       1     677     781     782     678
CQUADX4      672       1     678     782     783     679
CQUADX4      673       1     679     783     784     680
CQUADX4      674       1     680     784     785     681
CQUADX4      675       1     681     785     786     682
CQUADX4      676       1     682     786     787     683
CQUADX4      677       1     683     787     788     684
CQUADX4      678       1     684     788     789     685
CQUADX4      679       1     685     789     790     686
CQUADX4      680       1     686     790     791     687
CQUADX4      681       1     687     791     792     688
CQUADX4      682       1     688     792     793     689
CQUADX4      683       1     689     793     794     690
CQUADX4      684       1     690     794     795     691
CQUADX4      685       1     691     795     796     692
CQUADX4      686       1     692     796     797     693
CQUADX4      687       1     693     797     798     694
CQUADX4      688       1     694     798     799     695
CQUADX4      689       1     695     799     800     696
CQUADX4      690       1     696     800     801     697
CQUADX4      691       1     697     801     802     698
CQUADX4      692       1     698     802     803     699
CQUADX4      693       1     699     803     804     700
CQUADX4      694       1     700     804     805     701
CQUADX4      695       1     701     805     806     702
CQUADX4      696       1     702     806     807     703
CQUADX4      697       1     703     807     808     704
CQUADX4      698       1     704     808     809     705
CQUADX4      699       1     705     809     810     706
CQUADX4      700       1     706     810     811     707
CQUADX4      701       1     707     811     812     708
CQUADX4      702       1     708     812     813     709
CQUADX4      703       1     709     813     814     710
CQUADX4      704       1     710     814     815     711
CQUADX4      705       1     711     815     816     712
CQUADX4      706       1     712     816     817     713
CQUADX4      707       1     713     817     818     714
CQUADX4      708       1     714     818     819     715
CQUADX4      709       1     715     819     820     716
CQUADX4      710       1     716     820     821     717
CQUADX4      711       1     717     821     822     718
CQUADX4      712       1     718     822     823     719
CQUADX4      713       1     719     823     824     720
CQUADX4      714       1     720     824     825     721
CQUADX4      715       1     721     825     826     722
CQUADX4      716       1     722     826     827     723
CQUADX4      717       1     723     827     828     724
CQUADX4      718       1     724     828     829     725
CQUADX4      719       1     725     829     830     726
CQUADX4      720       1     726     830     831     727
CQUADX4      721       1     727     831     832     728
CQUADX4      722       1     729     833     834     730
CQUADX4      723       1     730     834     835     731
CQUADX4      724       1     731     835     836     732
CQUADX4      725       1     732     836     837     733
CQUADX4      726       1     733     837     838     734
CQUADX4      727       1     734     838     839     735
CQUADX4      728       1     735     839     840     736
CQUADX4      729       1     736     840     841     737
CQUADX4      730       1     737     841     842     738
CQUADX4      731       1     738     842     843     739
CQUADX4      732       1     739     843     844     740
CQUADX4      733       1     740     844     845     741
CQUADX4      734       1     741     845     846     742
CQUADX4      735       1     742     846     847     743
CQUADX4      736       1     743     847     848     744
CQUADX4      737       1     744     848     849     745
CQUADX4      738       1     745     849     850     746
CQUADX4      739       1     746     850     851     747
CQUADX4      740       1     747     851     852     748
CQUADX4      741       1     748     852     853     749
CQUADX4      742       1     749     853     854     750
CQUADX4      743       1     750     854     855     751
CQUADX4      744       1     751     855     856     752
CQUADX4      745       1     752     856     857     753
CQUADX4      746       1     753     857     858     754
CQUADX4      747       1     754     858     859     755
CQUADX4      748       1     755     859     860     756
CQUADX4      749       1     756     860     861     757
CQUADX4      750       1     757     861     862     758
CQUADX4      751       1     758     862     863     759
CQUADX4      752       1     759     863     864     760
CQUADX4      753       1     760     864     865     761
CQUADX4      754       1     761     865     866     762
CQUADX4      755       1     762     866     867     763
CQUADX4      756       1     763     867     868     764
CQUADX4      757       1     764     868     869     765
CQUADX4      758       1     765     869     870     766
CQUADX4      759       1     766     870     871     767
CQUADX4      760       1     767     871     872     768
CQUADX4      761       1     768     872     873     769
CQUADX4      762       1     769     873     874     770
CQUADX4      763       1     770     874     875     771
CQUADX4      764       1     771     875     876     772
CQUADX4      765       1     772     876     877     773
CQUADX4      766       1     773     877     878     774
CQUADX4      767       1     774     878     879     775
CQUADX4      768       1     775     879     880     776
CQUADX4      769       1     776     880     881     777
CQUADX4      770       1     777     881     882     778
CQUADX4      771       1     778     882     883     779
CQUADX4      772       1     779     883     884     780
CQUADX4      773       1     780     884     885     781
CQUADX4      774       1     781     885     886     782
CQUADX4      775       1     782     886     887     783
CQUADX4      776       1     783     887     888     784
CQUADX4      777       1     784     888     889     785
CQUADX4      778       1     785     889     890     786
CQUADX4      779       1     786     890     891     787
CQUADX4      780       1     787     891     892     788
CQUADX4      781       1     788     892     893     789
CQUADX4      782       1     789     893     894     790
CQUADX4      783       1     790     894     895     791
CQUADX4      784       1     791     895     896     792
CQUADX4      785       1     792     896     897     793
CQUADX4      786       1     793     897     898     794
CQUADX4      787       1     794     898     899     795
CQUADX4      788       1     795     899     900     796
CQUADX4      789       1     796     900     901     797
CQUADX4      790       1     797     901     902     798
CQUADX4      791       1     798     902     903     799
CQUADX4      792       1     799     903     904     800
CQUADX4      793       1     800     904     905     801
CQUADX4      794       1     801     905     906     802
CQUADX4      795       1     802     906     907     803
CQUADX4      796       1     803     907     908     804
CQUADX4      797       1     804     908     909     805
CQUADX4      798       1     805     909     910     806
CQUADX4      799       1     806     910     911     807
CQUADX4      800       1     807     911     912     808
CQUADX4      801       1     808     912     913     809
CQUADX4      802       1     809     913     914     810
CQUADX4      803       1     810     914     915     811
CQUADX4      804       1     811     915     916     812
CQUADX4      805       1     812     916     917     813
CQUADX4      806       1     813     917     918     814
CQUADX4      807       1     814     918     919     815
CQUADX4      808       1     815     919     920     816
CQUADX4      809       1     816     920     921     817
CQUADX4      810       1     817     921     922     818
CQUADX4      811       1     818     922     923     819
CQUADX4      812       1     819     923     924     820
CQUADX4      813       1     820     924     925     821
CQUADX4      814       1     821     925     926     822
CQUADX4      815       1     822     926     927     823
CQUADX4      816       1     823     927     928     824
CQUADX4      817       1     824     928     929     825
CQUADX4      818       1     825     929     930     826
CQUADX4      819       1     826     930     931     827
CQUADX4      820       1     827     931     932     828
CQUADX4      821       1     828     932     933     829
CQUADX4      822       1     829     933     934     830
CQUADX4      823       1     830     934     935     831
CQUADX4      824       1     831     935     936     832
CQUADX4      825       1     833     937     938     834
CQUADX4      826       1     834     938     939     835
CQUADX4      827       1     835     939     940     836
CQUADX4      828       1     836     940     941     837
CQUADX4      829       1     837     941     942     838
CQUADX4      830       1     838     942     943     839
CQUADX4      831       1     839     943     944     840
CQUADX4      832       1     840     944     945     841
CQUADX4      833       1     841     945     946     842
CQUADX4      834       1     842     946     947     843
CQUADX4      835       1     843     947     948     844
CQUADX4      836       1     844     948     949     845
CQUADX4      837       1     845     949     950     846
CQUADX4      838       1     846     950     951     847
CQUADX4      839       1     847     951     952     848
CQUADX4      840       1     848     952     953     849
CQUADX4      841       1     849     953     954     850
CQUADX4      842       1     850     954     955     851
CQUADX4      843       1     851     955     956     852
CQUADX4      844       1     852     956     957     853
CQUADX4      845       1     853     957     958     854
CQUADX4      846       1     854     958     959     855
CQUADX4      847       1     855     959     960     856
CQUADX4      848       1     856     960     961     857
CQUADX4      849       1     857     961     962     858
CQUADX4      850       1     858     962     963     859
CQUADX4      851       1     859     963     964     860
CQUADX4      852       1     860     964     965     861
CQUADX4      853       1     861     965     966     862
CQUADX4      854       1     862     966     967     863
CQUADX4      855       1     863     967     968     864
CQUADX4      856       1     864     968     969     865
CQUADX4      857       1     865     969     970     866
CQUADX4      858       1     866     970     971     867
CQUADX4      859       1     867     971     972     868
CQUADX4      860       1     868     972     973     869
CQUADX4      861       1     869     973     974     870
CQUADX4      862       1     870     974     975     871
CQUADX4      863       1     871     975     976     872
CQUADX4      864       1     872     976     977     873
CQUADX4      865       1     873     977     978     874
CQUADX4      866       1     874     978     979     875
CQUADX4      867       1     875     979     980     876
CQUADX4      868       1     876     980     981     877
CQUADX4      869       1     877     981     982     878
CQUADX4      870       1     878     982     983     879
CQUADX4      871       1     879     983     984     880
CQUADX4      872       1     880     984     985     881
CQUADX4      873       1     881     985     986     882
CQUADX4      874       1     882     986     987     883
CQUADX4      875       1     883     987     988     884
CQUADX4      876       1     884     988     989     885
CQUADX4      877       1     885     989     990     886
CQUADX4      878       1     886     990     991     887
CQUADX4      879       1     887     991     992     888
CQUADX4      880       1     888     992     993     889
CQUADX4      881       1     889     993     994     890
CQUADX4      882       1     890     994     995     891
CQUADX4      883       1     891     995     996     892
CQUADX4      884       1     892     996     997     893
CQUADX4      885       1     893     997     998     894
CQUADX4      886       1     894     998     999     895
CQUADX4      887       1     895     999    1000     896
CQUADX4      888       1     896    1000    1001     897
CQUADX4      889       1     897    1001    1002     898
CQUADX4      890       1     898    1002    1003     899
CQUADX4      891       1     899    1003    1004     900
CQUADX4      892       1     900    1004    1005     901
CQUADX4      893       1     901    1005    1006     902
CQUADX4      894       1     902    1006    1007     903
CQUADX4      895       1     903    1007    1008     904
CQUADX4      896       1     904    1008    1009     905
CQUADX4      897       1     905    1009    1010     906
CQUADX4      898       1     906    1010    1011     907
CQUADX4      899       1     907    1011    1012     908
CQUADX4      900       1     908    1012    1013     909
CQUADX4      901       1     909    1013    1014     910
CQUADX4      902       1     910    1014    1015     911
CQUADX4      903       1     911    1015    1016     912
CQUADX4      904       1     912    1016    1017     913
CQUADX4      905       1     913    1017    1018     914
CQUADX4      906       1     914    1018    1019     915
CQUADX4      907       1     915    1019    1020     916
CQUADX4      908       1     916    1020    1021     917
CQUADX4      909       1     917    1021    1022     918
CQUADX4      910       1     918    1022    1023     919
CQUADX4      911       1     919    1023    1024     920
CQUADX4      912       1     920    1024    1025     921
CQUADX4      913       1     921    1025    1026     922
CQUADX4      914       1     922    1026    1027     923
CQUADX4      915       1     923    1027    1028     924
CQUADX4      916       1     924    1028    1029     925
CQUADX4      917       1     925    1029    1030     926
CQUADX4      918       1     926    1030    1031     927
CQUADX4      919       1     927    1031    1032     928
CQUADX4      920       1     928    1032    1033     929
CQUADX4      921       1     929    1033    1034     930
CQUADX4      922       1     930    1034    1035     931
CQUADX4      923       1     931    1035    1036     932
CQUADX4      924       1     932    1036    1037     933
CQUADX4      925       1     933    1037    1038     934
CQUADX4      926       1     934    1038    1039     935
CQUADX4      927       1     935    1039    1040     936
CQUADX4      928       1     937    1041    1042     938
CQUADX4      929       1     938    1042    1043     939
CQUADX4      930       1     939    1043    1044     940
CQUADX4      931       1     940    1044    1045     941
CQUADX4      932       1     941    1045    1046     942
CQUADX4      933       1     942    1046    1047     943
CQUADX4      934       1     943    1047    1048     944
CQUADX4      935       1     944    1048    1049     945
CQUADX4      936       1     945    1049    1050     946
CQUADX4      937       1     946    1050    1051     947
CQUADX4      938       1     947    1051    1052     948
CQUADX4      939       1     948    1052    1053     949
CQUADX4      940       1     949    1053    1054     950
CQUADX4      941       1     950    1054    1055     951
CQUADX4      942       1     951    1055    1056     952
CQUADX4      943       1     952    1056    1057     953
CQUADX4      944       1     953    1057    1058     954
CQUADX4      945       1     954    1058    1059     955
CQUADX4      946       1     955    1059    1060     956
CQUADX4      947       1     956    1060    1061     957
CQUADX4      948       1     957    1061    1062     958
CQUADX4      949       1     958    1062    1063     959
CQUADX4      950       1     959    1063    1064     960
CQUADX4      951       1     960    1064    1065     961
CQUADX4      952       1     961    1065    1066     962
CQUADX4      953       1     962    1066    1067     963
CQUADX4      954       1     963    1067    1068     964
CQUADX4      955       1     964    1068    1069     965
CQUADX4      956       1     965    1069    1070     966
CQUADX4      957       1     966    1070    1071     967
CQUADX4      958       1     967    1071    1072     968
CQUADX4      959       1     968    1072    1073     969
CQUADX4      960       1     969    1073    1074     970
CQUADX4      961       1     970    1074    1075     971
CQUADX4      962       1     971    1075    1076     972
CQUADX4      963       1     972    1076    1077     973
CQUADX4      964       1     973    1077    1078     974
CQUADX4      965       1     974    1078    1079     975
CQUADX4      966       1     975    1079    1080     976
CQUADX4      967       1     976    1080    1081     977
CQUADX4      968       1     977    1081    1082     978
CQUADX4      969       1     978    1082    1083     979
CQUADX4      970       1     979    1083    1084     980
CQUADX4      971       1     980    1084    1085     981
CQUADX4      972       1     981    1085    1086     982
CQUADX4      973       1     982    1086    1087     983
CQUADX4      974       1     983    1087    1088     984
CQUADX4      975       1     984    1088    1089     985
CQUADX4      976       1     985    1089    1090     986
CQUADX4      977       1     986    1090    1091     987
CQUADX4      978       1     987    1091    1092     988
CQUADX4      979       1     988    1092    1093     989
CQUADX4      980       1     989    1093    1094     990
CQUADX4      981       1     990    1094    1095     991
CQUADX4      982       1     991    1095    1096     992
CQUADX4      983       1     992    1096    1097     993
CQUADX4      984       1     993    1097    1098     994
CQUADX4      985       1     994    1098    1099     995
CQUADX4      986       1     995    1099    1100     996
CQUADX4      987       1     996    1100    1101     997
CQUADX4      988       1     997    1101    1102     998
CQUADX4      989       1     998    1102    1103     999
CQUADX4      990       1     999    1103    1104    1000
CQUADX4      991       1    1000    1104    1105    1001
CQUADX4      992       1    1001    1105    1106    1002
CQUADX4      993       1    1002    1106    1107    1003
CQUADX4      994       1    1003    1107    1108    1004
CQUADX4      995       1    1004    1108    1109    1005
CQUADX4      996       1    1005    1109    1110    1006
CQUADX4      997       1    1006    1110    1111    1007
CQUADX4      998       1    1007    1111    1112    1008
CQUADX4      999       1    1008    1112    1113    1009
CQUADX4     1000       1    1009    1113    1114    1010
CQUADX4     1001       1    1010    1114    1115    1011
CQUADX4     1002       1    1011    1115    1116    1012
CQUADX4     1003       1    1012    1116    1117    1013
CQUADX4     1004       1    1013    1117    1118    1014
CQUADX4     1005       1    1014    1118    1119    1015
CQUADX4     1006       1    1015    1119    1120    1016
CQUADX4     1007       1    1016    1120    1121    1017
CQUADX4     1008       1    1017    1121    1122    1018
CQUADX4     1009       1    1018    1122    1123    1019
CQUADX4     1010       1    1019    1123    1124    1020
CQUADX4     1011       1    1020    1124    1125    1021
CQUADX4     1012       1    1021    1125    1126    1022
CQUADX4     1013       1    1022    1126    1127    1023
CQUADX4     1014       1    1023    1127    1128    1024
CQUADX4     1015       1    1024    1128    1129    1025
CQUADX4     1016       1    1025    1129    1130    1026
CQUADX4     1017       1    1026    1130    1131    1027
CQUADX4     1018       1    1027    1131    1132    1028
CQUADX4     1019       1    1028    1132    1133    1029
CQUADX4     1020       1    1029    1133    1134    1030
CQUADX4     1021       1    1030    1134    1135    1031
CQUADX4     1022       1    1031    1135    1136    1032
CQUADX4     1023       1    1032    1136    1137    1033
CQUADX4     1024       1    1033    1137    1138    1034
CQUADX4     1025       1    1034    1138    1139    1035
CQUADX4     1026       1    1035    1139    1140    1036
CQUADX4     1027       1    1036    1140    1141    1037
CQUADX4     1028       1    1037    1141    1142    1038
CQUADX4     1029       1    1038    1142    1143    1039
CQUADX4     1030       1    1039    1143    1144    1040
CQUADX4     1031       1    1041    1145    1146    1042
CQUADX4     1032       1    1042    1146    1147    1043
CQUADX4     1033       1    1043    1147    1148    1044
CQUADX4     1034       1    1044    1148    1149    1045
CQUADX4     1035       1    1045    1149    1150    1046
CQUADX4     1036       1    1046    1150    1151    1047
CQUADX4     1037       1    1047    1151    1152    1048
CQUADX4     1038       1    1048    1152    1153    1049
CQUADX4     1039       1    1049    1153    1154    1050
CQUADX4     1040       1    1050    1154    1155    1051
CQUADX4     1041       1    1051    1155    1156    1052
CQUADX4     1042       1    1052    1156    1157    1053
CQUADX4     1043       1    1053    1157    1158    1054
CQUADX4     1044       1    1054    1158    1159    1055
CQUADX4     1045       1    1055    1159    1160    1056
CQUADX4     1046       1    1056    1160    1161    1057
CQUADX4     1047       1    1057    1161    1162    1058
CQUADX4     1048       1    1058    1162    1163    1059
CQUADX4     1049       1    1059    1163    1164    1060
CQUADX4     1050       1    1060    1164    1165    1061
CQUADX4     1051       1    1061    1165    1166    1062
CQUADX4     1052       1    1062    1166    1167    1063
CQUADX4     1053       1    1063    1167    1168    1064
CQUADX4     1054       1    1064    1168    1169    1065
CQUADX4     1055       1    1065    1169    1170    1066
CQUADX4     1056       1    1066    1170    1171    1067
CQUADX4     1057       1    1067    1171    1172    1068
CQUADX4     1058       1    1068    1172    1173    1069
CQUADX4     1059       1    1069    1173    1174    1070
CQUADX4     1060       1    1070    1174    1175    1071
CQUADX4     1061       1    1071    1175    1176    1072
CQUADX4     1062       1    1072    1176    1177    1073
CQUADX4     1063       1    1073    1177    1178    1074
CQUADX4     1064       1    1074    1178    1179    1075
CQUADX4     1065       1    1075    1179    1180    1076
CQUADX4     1066       1    1076    1180    1181    1077
CQUADX4     1067       1    1077    1181    1182    1078
CQUADX4     1068       1    1078    1182    1183    1079
CQUADX4     1069       1    1079    1183    1184    1080
CQUADX4     1070       1    1080    1184    1185    1081
CQUADX4     1071       1    1081    1185    1186    1082
CQUADX4     1072       1    1082    1186    1187    1083
CQUADX4     1073       1    1083    1187    1188    1084
CQUADX4     1074       1    1084    1188    1189    1085
CQUADX4     1075       1    1085    1189    1190    1086
CQUADX4     1076       1    1086    1190    1191    1087
CQUADX4     1077       1    1087    1191    1192    1088
CQUADX4     1078       1    1088    1192    1193    1089
CQUADX4     1079       1    1089    1193    1194    1090
CQUADX4     1080       1    1090    1194    1195    1091
CQUADX4     1081       1    1091    1195    1196    1092
CQUADX4     1082       1    1092    1196    1197    1093
CQUADX4     1083       1    1093    1197    1198    1094
CQUADX4     1084       1    1094    1198    1199    1095
CQUADX4     1085       1    1095    1199    1200    1096
CQUADX4     1086       1    1096    1200    1201    1097
CQUADX4     1087       1    1097    1201    1202    1098
CQUADX4     1088       1    1098    1202    1203    1099
CQUADX4     1089       1    1099    1203    1204    1100
CQUADX4     1090       1    1100    1204    1205    1101
CQUADX4     1091       1    1101    1205    1206    1102
CQUADX4     1092       1    1102    1206    1207    1103
CQUADX4     1093       1    1103    1207    1208    1104
CQUADX4     1094       1    1104    1208    1209    1105
CQUADX4     1095       1    1105    1209    1210    1106
CQUADX4     1096       1    1106    1210    1211    1107
CQUADX4     1097       1    1107    1211    1212    1108
CQUADX4     1098       1    1108    1212    1213    1109
CQUADX4     1099       1    1109    1213    1214    1110
CQUADX4     1100       1    1110    1214    1215    1111
CQUADX4     1101       1    1111    1215    1216    1112
CQUADX4     1102       1    1112    1216    1217    1113
CQUADX4     1103       1    1113    1217    1218    1114
CQUADX4     1104       1    1114    1218    1219    1115
CQUADX4     1105       1    1115    1219    1220    1116
CQUADX4     1106       1    1116    1220    1221    1117
CQUADX4     1107       1    1117    1221    1222    1118
CQUADX4     1108       1    1118    1222    1223    1119
CQUADX4     1109       1    1119    1223    1224    1120
CQUADX4     1110       1    1120    1224    1225    1121
CQUADX4     1111       1    1121    1225    1226    1122
CQUADX4     1112       1    1122    1226    1227    1123
CQUADX4     1113       1    1123    1227    1228    1124
CQUADX4     1114       1    1124    1228    1229    1125
CQUADX4     1115       1    1125    1229    1230    1126
CQUADX4     1116       1    1126    1230    1231    1127
CQUADX4     1117       1    1127    1231    1232    1128
CQUADX4     1118       1    1128    1232    1233    1129
CQUADX4     1119       1    1129    1233    1234    1130
CQUADX4     1120       1    1130    1234    1235    1131
CQUADX4     1121       1    1131    1235    1236    1132
CQUADX4     1122       1    1132    1236    1237    1133
CQUADX4     1123       1    1133    1237    1238    1134
CQUADX4     1124       1    1134    1238    1239    1135
CQUADX4     1125       1    1135    1239    1240    1136
CQUADX4     1126       1    1136    1240    1241    1137
CQUADX4     1127       1    1137    1241    1242    1138
CQUADX4     1128       1    1138    1242    1243    1139
CQUADX4     1129       1    1139    1243    1244    1140
CQUADX4     1130       1    1140    1244    1245    1141
CQUADX4     1131       1    1141    1245    1246    1142
CQUADX4     1132       1    1142    1246    1247    1143
CQUADX4     1133       1    1143    1247    1248    1144
CQUADX4     1134       1    1145    1249    1250    1146
CQUADX4     1135       1    1146    1250    1251    1147
CQUADX4     1136       1    1147    1251    1252    1148
CQUADX4     1137       1    1148    1252    1253    1149
CQUADX4     1138       1    1149    1253    1254    1150
CQUADX4     1139       1    1150    1254    1255    1151
CQUADX4     1140       1    1151    1255    1256    1152
CQUADX4     1141       1    1152    1256    1257    1153
CQUADX4     1142       1    1153    1257    1258    1154
CQUADX4     1143       1    1154    1258    1259    1155
CQUADX4     1144       1    1155    1259    1260    1156
CQUADX4     1145       1    1156    1260    1261    1157
CQUADX4     1146       1    1157    1261    1262    1158
CQUADX4     1147       1    1158    1262    1263    1159
CQUADX4     1148       1    1159    1263    1264    1160
CQUADX4     1149       1    1160    1264    1265    1161
CQUADX4     1150       1    1161    1265    1266    1162
CQUADX4     1151       1    1162    1266    1267    1163
CQUADX4     1152       1    1163    1267    1268    1164
CQUADX4     1153       1    1164    1268    1269    1165
CQUADX4     1154       1    1165    1269    1270    1166
CQUADX4     1155       1    1166    1270    1271    1167
CQUADX4     1156       1    1167    1271    1272    1168
CQUADX4     1157       1    1168    1272    1273    1169
CQUADX4     1158       1    1169    1273    1274    1170
CQUADX4     1159       1    1170    1274    1275    1171
CQUADX4     1160       1    1171    1275    1276    1172
CQUADX4     1161       1    1172    1276    1277    1173
CQUADX4     1162       1    1173    1277    1278    1174
CQUADX4     1163       1    1174    1278    1279    1175
CQUADX4     1164       1    1175    1279    1280    1176
CQUADX4     1165       1    1176    1280    1281    1177
CQUADX4     1166       1    1177    1281    1282    1178
CQUADX4     1167       1    1178    1282    1283    1179
CQUADX4     1168       1    1179    1283    1284    1180
CQUADX4     1169       1    1180    1284    1285    1181
CQUADX4     1170       1    1181    1285    1286    1182
CQUADX4     1171       1    1182    1286    1287    1183
CQUADX4     1172       1    1183    1287    1288    1184
CQUADX4     1173       1    1184    1288    1289    1185
CQUADX4     1174       1    1185    1289    1290    1186
CQUADX4     1175       1    1186    1290    1291    1187
CQUADX4     1176       1    1187    1291    1292    1188
CQUADX4     1177       1    1188    1292    1293    1189
CQUADX4     1178       1    1189    1293    1294    1190
CQUADX4     1179       1    1190    1294    1295    1191
CQUADX4     1180       1    1191    1295    1296    1192
CQUADX4     1181       1    1192    1296    1297    1193
CQUADX4     1182       1    1193    1297    1298    1194
CQUADX4     1183       1    1194    1298    1299    1195
CQUADX4     1184       1    1195    1299    1300    1196
CQUADX4     1185       1    1196    1300    1301    1197
CQUADX4     1186       1    1197    1301    1302    1198
CQUADX4     1187       1    1198    1302    1303    1199
CQUADX4     1188       1    1199    1303    1304    1200
CQUADX4     1189       1    1200    1304    1305    1201
CQUADX4     1190       1    1201    1305    1306    1202
CQUADX4     1191       1    1202    1306    1307    1203
CQUADX4     1192       1    1203    1307    1308    1204
CQUADX4     1193       1    1204    1308    1309    1205
CQUADX4     1194       1    1205    1309    1310    1206
CQUADX4     1195       1    1206    1310    1311    1207
CQUADX4     1196       1    1207    1311    1312    1208
CQUADX4     1197       1    1208    1312    1313    1209
CQUADX4     1198       1    1209    1313    1314    1210
CQUADX4     1199       1    1210    1314    1315    1211
CQUADX4     1200       1    1211    1315    1316    1212
CQUADX4     1201       1    1212    1316    1317    1213
CQUADX4     1202       1    1213    1317    1318    1214
CQUADX4     1203       1    1214    1318    1319    1215
CQUADX4     1204       1    1215    1319    1320    1216
CQUADX4     1205       1    1216    1320    1321    1217
CQUADX4     1206       1    1217    1321    1322    1218
CQUADX4     1207       1    1218    1322    1323    1219
CQUADX4     1208       1    1219    1323    1324    1220
CQUADX4     1209       1    1220    1324    1325    1221
CQUADX4     1210       1    1221    1325    1326    1222
CQUADX4     1211       1    1222    1326    1327    1223
CQUADX4     1212       1    1223    1327    1328    1224
CQUADX4     1213       1    1224    1328    1329    1225
CQUADX4     1214       1    1225    1329    1330    1226
CQUADX4     1215       1    1226    1330    1331    1227
CQUADX4     1216       1    1227    1331    1332    1228
CQUADX4     1217       1    1228    1332    1333    1229
CQUADX4     1218       1    1229    1333    1334    1230
CQUADX4     1219       1    1230    1334    1335    1231
CQUADX4     1220       1    1231    1335    1336    1232
CQUADX4     1221       1    1232    1336    1337    1233
CQUADX4     1222       1    1233    1337    1338    1234
CQUADX4     1223       1    1234    1338    1339    1235
CQUADX4     1224       1    1235    1339    1340    1236
CQUADX4     1225       1    1236    1340    1341    1237
CQUADX4     1226       1    1237    1341    1342    1238
CQUADX4     1227       1    1238    1342    1343    1239
CQUADX4     1228       1    1239    1343    1344    1240
CQUADX4     1229       1    1240    1344    1345    1241
CQUADX4     1230       1    1241    1345    1346    1242
CQUADX4     1231       1    1242    1346    1347    1243
CQUADX4     1232       1    1243    1347    1348    1244
CQUADX4     1233       1    1244    1348    1349    1245
CQUADX4     1234       1    1245    1349    1350    1246
CQUADX4     1235       1    1246    1350    1351    1247
CQUADX4     1236       1    1247    1351    1352    1248
CQUADX4     1237       1    1249    1353    1354    1250
CQUADX4     1238       1    1250    1354    1355    1251
CQUADX4     1239       1    1251    1355    1356    1252
CQUADX4     1240       1    1252    1356    1357    1253
CQUADX4     1241       1    1253    1357    1358    1254
CQUADX4     1242       1    1254    1358    1359    1255
CQUADX4     1243       1    1255    1359    1360    1256
CQUADX4     1244       1    1256    1360    1361    1257
CQUADX4     1245       1    1257    1361    1362    1258
CQUADX4     1246       1    1258    1362    1363    1259
CQUADX4     1247       1    1259    1363    1364    1260
CQUADX4     1248       1    1260    1364    1365    1261
CQUADX4     1249       1    1261    1365    1366    1262
CQUADX4     1250       1    1262    1366    1367    1263
CQUADX4     1251       1    1263    1367    1368    1264
CQUADX4     1252       1    1264    1368    1369    1265
CQUADX4     1253       1    1265    1369    1370    1266
CQUADX4     1254       1    1266    1370    1371    1267
CQUADX4     1255       1    1267    1371    1372    1268
CQUADX4     1256       1    1268    1372    1373    1269
CQUADX4     1257       1    1269    1373    1374    1270
CQUADX4     1258       1    1270    1374    1375    1271
CQUADX4     1259       1    1271    1375    1376    1272
CQUADX4     1260       1    1272    1376    1377    1273
CQUADX4     1261       1    1273    1377    1378    1274
CQUADX4     1262       1    1274    1378    1379    1275
CQUADX4     1263       1    1275    1379    1380    1276
CQUADX4     1264       1    1276    1380    1381    1277
CQUADX4     1265       1    1277    1381    1382    1278
CQUADX4     1266       1    1278    1382    1383    1279
CQUADX4     1267       1    1279    1383    1384    1280
CQUADX4     1268       1    1280    1384    1385    1281
CQUADX4     1269       1    1281    1385    1386    1282
CQUADX4     1270       1    1282    1386    1387    1283
CQUADX4     1271       1    1283    1387    1388    1284
CQUADX4     1272       1    1284    1388    1389    1285
CQUADX4     1273       1    1285    1389    1390    1286
CQUADX4     1274       1    1286    1390    1391    1287
CQUADX4     1275       1    1287    1391    1392    1288
CQUADX4     1276       1    1288    1392    1393    1289
CQUADX4     1277       1    1289    1393    1394    1290
CQUADX4     1278       1    1290    1394    1395    1291
CQUADX4     1279       1    1291    1395    1396    1292
CQUADX4     1280       1    1292    1396    1397    1293
CQUADX4     1281       1    1293    1397    1398    1294
CQUADX4     1282       1    1294    1398    1399    1295
CQUADX4     1283       1    1295    1399    1400    1296
CQUADX4     1284       1    1296    1400    1401    1297
CQUADX4     1285       1    1297    1401    1402    1298
CQUADX4     1286       1    1298    1402    1403    1299
CQUADX4     1287       1    1299    1403    1404    1300
CQUADX4     1288       1    1300    1404    1405    1301
CQUADX4     1289       1    1301    1405    1406    1302
CQUADX4     1290       1    1302    1406    1407    1303
CQUADX4     1291       1    1303    1407    1408    1304
CQUADX4     1292       1    1304    1408    1409    1305
CQUADX4     1293       1    1305    1409    1410    1306
CQUADX4     1294       1    1306    1410    1411    1307
CQUADX4     1295       1    1307    1411    1412    1308
CQUADX4     1296       1    1308    1412    1413    1309
CQUADX4     1297       1    1309    1413    1414    1310
CQUADX4     1298       1    1310    1414    1415    1311
CQUADX4     1299       1    1311    1415    1416    1312
CQUADX4     1300       1    1312    1416    1417    1313
CQUADX4     1301       1    1313    1417    1418    1314
CQUADX4     1302       1    1314    1418    1419    1315
CQUADX4     1303       1    1315    1419    1420    1316
CQUADX4     1304       1    1316    1420    1421    1317
CQUADX4     1305       1    1317    1421    1422    1318
CQUADX4     1306       1    1318    1422    1423    1319
CQUADX4     1307       1    1319    1423    1424    1320
CQUADX4     1308       1    1320    1424    1425    1321
CQUADX4     1309       1    1321    1425    1426    1322
CQUADX4     1310       1    1322    1426    1427    1323
CQUADX4     1311       1    1323    1427    1428    1324
CQUADX4     1312       1    1324    1428    1429    1325
CQUADX4     1313       1    1325    1429    1430    1326
CQUADX4     1314       1    1326    1430    1431    1327
CQUADX4     1315       1    1327    1431    1432    1328
CQUADX4     1316       1    1328    1432    1433    1329
CQUADX4     1317       1    1329    1433    1434    1330
CQUADX4     1318       1    1330    1434    1435    1331
CQUADX4     1319       1    1331    1435    1436    1332
CQUADX4     1320       1    1332    1436    1437    1333
CQUADX4     1321       1    1333    1437    1438    1334
CQUADX4     1322       1    1334    1438    1439    1335
CQUADX4     1323       1    1335    1439    1440    1336
CQUADX4     1324       1    1336    1440    1441    1337
CQUADX4     1325       1    1337    1441    1442    1338
CQUADX4     1326       1    1338    1442    1443    1339
CQUADX4     1327       1    1339    1443    1444    1340
CQUADX4     1328       1    1340    1444    1445    1341
CQUADX4     1329       1    1341    1445    1446    1342
CQUADX4     1330       1    1342    1446    1447    1343
CQUADX4     1331       1    1343    1447    1448    1344
CQUADX4     1332       1    1344    1448    1449    1345
CQUADX4     1333       1    1345    1449    1450    1346
CQUADX4     1334       1    1346    1450    1451    1347
CQUADX4     1335       1    1347    1451    1452    1348
CQUADX4     1336       1    1348    1452    1453    1349
CQUADX4     1337       1    1349    1453    1454    1350
CQUADX4     1338       1    1350    1454    1455    1351
CQUADX4     1339       1    1351    1455    1456    1352
CQUADX4     1340       1    5513    5379       1    5378
CQUADX4     1341       1    5379    5380     105       1
CQUADX4     1342       1    5380    5381     209     105
CQUADX4     1343       1    5381    5382     313     209
CQUADX4     1344       1    5382    5383     417     313
CQUADX4     1345       1    5383    5384     521     417
CQUADX4     1346       1    5384    5385     625     521
CQUADX4     1347       1    5385    5386     729     625
CQUADX4     1348       1    5386    5387     833     729
CQUADX4     1349       1    5387    5388     937     833
CQUADX4     1350       1    5388    5389    1041     937
CQUADX4     1351       1    5389    5390    1145    1041
CQUADX4     1352       1    5390    5391    1249    1145
CQUADX4     1353       1    5391    5392    1353    1249
CQUADX4     1354       1    5392    5514    5393    1353
CQUADX4     1355       1    1353    5393    5394    1354
CQUADX4     1356       1    1354    5394    5395    1355
CQUADX4     1357       1    1355    5395    5396    1356
CQUADX4     1358       1    1356    5396    5397    1357
CQUADX4     1359       1    1357    5397    5398    1358
CQUADX4     1360       1    1358    5398    5399    1359
CQUADX4     1361       1    1359    5399    5400    1360
CQUADX4     1362       1    1360    5400    5401    1361
CQUADX4     1363       1    1361    5401    5402    1362
CQUADX4     1364       1    1362    5402    5403    1363
CQUADX4     1365       1    1363    5403    5404    1364
CQUADX4     1366       1    1364    5404    5405    1365
CQUADX4     1367       1    1365    5405    5406    1366
CQUADX4     1368       1    1366    5406    5407    1367
CQUADX4     1369       1    1367    5407    5408    1368
CQUADX4     1370       1    1368    5408    5409    1369
CQUADX4     1371       1    1369    5409    5410    1370
CQUADX4     1372       1    1370    5410    5411    1371
CQUADX4     1373       1    1371    5411    5412    1372
CQUADX4     1374       1    1372    5412    5413    1373
CQUADX4     1375       1    1373    5413    5414    1374
CQUADX4     1376       1    1374    5414    5415    1375
CQUADX4     1377       1    1375    5415    5416    1376
CQUADX4     1378       1    1376    5416    5417    1377
CQUADX4     1379       1    1377    5417    5418    1378
CQUADX4     1380       1    1378    5418    5419    1379
CQUADX4     1381       1    1379    5419    5420    1380
CQUADX4     1382       1    1380    5420    5421    1381
CQUADX4     1383       1    1381    5421    5422    1382
CQUADX4     1384       1    1382    5422    5423    1383
CQUADX4     1385       1    1383    5423    5424    1384
CQUADX4     1386       1    1384    5424    5425    1385
CQUADX4     1387       1    1385    5425    5426    1386
CQUADX4     1388       1    1386    5426    5427    1387
CQUADX4     1389       1    1387    5427    5428    1388
CQUADX4     1390       1    1388    5428    5429    1389
CQUADX4     1391       1    1389    5429    5430    1390
CQUADX4     1392       1    1390    5430    5431    1391
CQUADX4     1393       1    1391    5431    5432    1392
CQUADX4     1394       1    1392    5432    5433    1393
CQUADX4     1395       1    1393    5433    5434    1394
CQUADX4     1396       1    1394    5434    5435    1395
CQUADX4     1397       1    1395    5435    5436    1396
CQUADX4     1398       1    1396    5436    5437    1397
CQUADX4     1399       1    1397    5437    5438    1398
CQUADX4     1400       1    1398    5438    5439    1399
CQUADX4     1401       1    1399    5439    5440    1400
CQUADX4     1402       1    1400    5440    5441    1401
CQUADX4     1403       1    1401    5441    5442    1402
CQUADX4     1404       1    1402    5442    5443    1403
CQUADX4     1405       1    1403    5443    5444    1404
CQUADX4     1406       1    1404    5444    5445    1405
CQUADX4     1407       1    1405    5445    5446    1406
CQUADX4     1408       1    1406    5446    5447    1407
CQUADX4     1409       1    1407    5447    5448    1408
CQUADX4     1410       1    1408    5448    5449    1409
CQUADX4     1411       1    1409    5449    5450    1410
CQUADX4     1412       1    1410    5450    5451    1411
CQUADX4     1413       1    1411    5451    5452    1412
CQUADX4     1414       1    1412    5452    5453    1413
CQUADX4     1415       1    1413    5453    5454    1414
CQUADX4     1416       1    1414    5454    5455    1415
CQUADX4     1417       1    1415    5455    5456    1416
CQUADX4     1418       1    1416    5456    5457    1417
CQUADX4     1419       1    1417    5457    5458    1418
CQUADX4     1420       1    1418    5458    5459    1419
CQUADX4     1421       1    1419    5459    5460    1420
CQUADX4     1422       1    1420    5460    5461    1421
CQUADX4     1423       1    1421    5461    5462    1422
CQUADX4     1424       1    1422    5462    5463    1423
CQUADX4     1425       1    1423    5463    5464    1424
CQUADX4     1426       1    1424    5464    5465    1425
CQUADX4     1427       1    1425    5465    5466    1426
CQUADX4     1428       1    1426    5466    5467    1427
CQUADX4     1429       1    1427    5467    5468    1428
CQUADX4     1430       1    1428    5468    5469    1429
CQUADX4     1431       1    1429    5469    5470    1430
CQUADX4     1432       1    1430    5470    5471    1431
CQUADX4     1433       1    1431    5471    5472    1432
CQUADX4     1434       1    1432    5472    5473    1433
CQUADX4     1435       1    1433    5473    5474    1434
CQUADX4     1436       1    1434    5474    5475    1435
CQUADX4     1437       1    1435    5475    5476    1436
CQUADX4     1438       1    1436    5476    5477    1437
CQUADX4     1439       1    1437    5477    5478    1438
CQUADX4     1440       1    1438    5478    5479    1439
CQUADX4     1441       1    1439    5479    5480    1440
CQUADX4     1442       1    1440    5480    5481    1441
CQUADX4     1443       1    1441    5481    5482    1442
CQUADX4     1444       1    1442    5482    5483    1443
CQUADX4     1445       1    1443    5483    5484    1444
CQUADX4     1446       1    1444    5484    5485    1445
CQUADX4     1447       1    1445    5485    5486    1446
CQUADX4     1448       1    1446    5486    5487    1447
CQUADX4     1449       1    1447    5487    5488    1448
CQUADX4     1450       1    1448    5488    5489    1449
CQUADX4     1451       1    1449    5489    5490    1450
CQUADX4     1452       1    1450    5490    5491    1451
CQUADX4     1453       1    1451    5491    5492    1452
CQUADX4     1454       1    1452    5492    5493    1453
CQUADX4     1455       1    1453    5493    5494    1454
CQUADX4     1456       1    1454    5494    5495    1455
CQUADX4     1457       1    1455    5495    5496    1456
CQUADX4     1458       1    1456    5496    5500    4838
CQUADX4     1459       1    1352    1456    4838    4837
CQUADX4     1460       1    1248    1352    4837    4836
CQUADX4     1461       1    1144    1248    4836    4835
CQUADX4     1462       1    1040    1144    4835    4834
CQUADX4     1463       1     936    1040    4834    4833
CQUADX4     1464       1     832     936    4833    4832
CQUADX4     1465       1     728     832    4832    4831
CQUADX4     1466       1     624     728    4831    4830
CQUADX4     1467       1     520     624    4830    4829
CQUADX4     1468       1     416     520    4829    4828
CQUADX4     1469       1     312     416    4828    4827
CQUADX4     1470       1     208     312    4827    4826
CQUADX4     1471       1     104     208    4826    4825
CQUADX4     1472       1    5275     104    4825    5499
CQUADX4     1473       1    5276     103     104    5275
CQUADX4     1474       1    5277     102     103    5276
CQUADX4     1475       1    5278     101     102    5277
CQUADX4     1476       1    5279     100     101    5278
CQUADX4     1477       1    5280      99     100    5279
CQUADX4     1478       1    5281      98      99    5280
CQUADX4     1479       1    5282      97      98    5281
CQUADX4     1480       1    5283      96      97    5282
CQUADX4     1481       1    5284      95      96    5283
CQUADX4     1482       1    5285      94      95    5284
CQUADX4     1483       1    5286      93      94    5285
CQUADX4     1484       1    5287      92      93    5286
CQUADX4     1485       1    5288      91      92    5287
CQUADX4     1486       1    5289      90      91    5288
CQUADX4     1487       1    5290      89      90    5289
CQUADX4     1488       1    5291      88      89    5290
CQUADX4     1489       1    5292      87      88    5291
CQUADX4     1490       1    5293      86      87    5292
CQUADX4     1491       1    5294      85      86    5293
CQUADX4     1492       1    5295      84      85    5294
CQUADX4     1493       1    5296      83      84    5295
CQUADX4     1494       1    5297      82      83    5296
CQUADX4     1495       1    5298      81      82    5297
CQUADX4     1496       1    5299      80      81    5298
CQUADX4     1497       1    5300      79      80    5299
CQUADX4     1498       1    5301      78      79    5300
CQUADX4     1499       1    5302      77      78    5301
CQUADX4     1500       1    5303      76      77    5302
CQUADX4     1501       1    5304      75      76    5303
CQUADX4     1502       1    5305      74      75    5304
CQUADX4     1503       1    5306      73      74    5305
CQUADX4     1504       1    5307      72      73    5306
CQUADX4     1505       1    5308      71      72    5307
CQUADX4     1506       1    5309      70      71    5308
CQUADX4     1507       1    5310      69      70    5309
CQUADX4     1508       1    5311      68      69    5310
CQUADX4     1509       1    5312      67      68    5311
CQUADX4     1510       1    5313      66      67    5312
CQUADX4     1511       1    5314      65      66    5313
CQUADX4     1512       1    5315      64      65    5314
CQUADX4     1513       1    5316      63      64    5315
CQUADX4     1514       1    5317      62      63    5316
CQUADX4     1515       1    5318      61      62    5317
CQUADX4     1516       1    5319      60      61    5318
CQUADX4     1517       1    5320      59      60    5319
CQUADX4     1518       1    5321      58      59    5320
CQUADX4     1519       1    5322      57      58    5321
CQUADX4     1520       1    5323      56      57    5322
CQUADX4     1521       1    5324      55      56    5323
CQUADX4     1522       1    5325      54      55    5324
CQUADX4     1523       1    5326      53      54    5325
CQUADX4     1524       1    5327      52      53    5326
CQUADX4     1525       1    5328      51      52    5327
CQUADX4     1526       1    5329      50      51    5328
CQUADX4     1527       1    5330      49      50    5329
CQUADX4     1528       1    5331      48      49    5330
CQUADX4     1529       1    5332      47      48    5331
CQUADX4     1530       1    5333      46      47    5332
CQUADX4     1531       1    5334      45      46    5333
CQUADX4     1532       1    5335      44      45    5334
CQUADX4     1533       1    5336      43      44    5335
CQUADX4     1534       1    5337      42      43    5336
CQUADX4     1535       1    5338      41      42    5337
CQUADX4     1536       1    5339      40      41    5338
CQUADX4     1537       1    5340      39      40    5339
CQUADX4     1538       1    5341      38      39    5340
CQUADX4     1539       1    5342      37      38    5341
CQUADX4     1540       1    5343      36      37    5342
CQUADX4     1541       1    5344      35      36    5343
CQUADX4     1542       1    5345      34      35    5344
CQUADX4     1543       1    5346      33      34    5345
CQUADX4     1544       1    5347      32      33    5346
CQUADX4     1545       1    5348      31      32    5347
CQUADX4     1546       1    5349      30      31    5348
CQUADX4     1547       1    5350      29      30    5349
CQUADX4     1548       1    5351      28      29    5350
CQUADX4     1549       1    5352      27      28    5351
CQUADX4     1550       1    5353      26      27    5352
CQUADX4     1551       1    5354      25      26    5353
CQUADX4     1552       1    5355      24      25    5354
CQUADX4     1553       1    5356      23      24    5355
CQUADX4     1554       1    5357      22      23    5356
CQUADX4     1555       1    5358      21      22    5357
CQUADX4     1556       1    5359      20      21    5358
CQUADX4     1557       1    5360      19      20    5359
CQUADX4     1558       1    5361      18      19    5360
CQUADX4     1559       1    5362      17      18    5361
CQUADX4     1560       1    5363      16      17    5362
CQUADX4     1561       1    5364      15      16    5363
CQUADX4     1562       1    5365      14      15    5364
CQUADX4     1563       1    5366      13      14    5365
CQUADX4     1564       1    5367      12      13    5366
CQUADX4     1565       1    5368      11      12    5367
CQUADX4     1566       1    5369      10      11    5368
CQUADX4     1567       1    5370       9      10    5369
CQUADX4     1568       1    5371       8       9    5370
CQUADX4     1569       1    5372       7       8    5371
CQUADX4     1570       1    5373       6       7    5372
CQUADX4     1571       1    5374       5       6    5373
CQUADX4     1572       1    5375       4       5    5374
CQUADX4     1573       1    5376       3       4    5375
CQUADX4     1574       1    5377       2       3    5376
CQUADX4     1575       1    5378       1       2    5377
CQUADX4     1576       1    1458    1457    1471    1472
CQUADX4     1577       1    1459    1458    1472    1473
CQUADX4     1578       1    1460    1459    1473    1474
CQUADX4     1579       1    1461    1460    1474    1475
CQUADX4     1580       1    1462    1461    1475    1476
CQUADX4     1581       1    1463    1462    1476    1477
CQUADX4     1582       1    1464    1463    1477    1478
CQUADX4     1583       1    1465    1464    1478    1479
CQUADX4     1584       1    1466    1465    1479    1480
CQUADX4     1585       1    1467    1466    1480    1481
CQUADX4     1586       1    1468    1467    1481    1482
CQUADX4     1587       1    1469    1468    1482    1483
CQUADX4     1588       1    1470    1469    1483    1484
CQUADX4     1589       1    1472    1471    1485    1486
CQUADX4     1590       1    1473    1472    1486    1487
CQUADX4     1591       1    1474    1473    1487    1488
CQUADX4     1592       1    1475    1474    1488    1489
CQUADX4     1593       1    1476    1475    1489    1490
CQUADX4     1594       1    1477    1476    1490    1491
CQUADX4     1595       1    1478    1477    1491    1492
CQUADX4     1596       1    1479    1478    1492    1493
CQUADX4     1597       1    1480    1479    1493    1494
CQUADX4     1598       1    1481    1480    1494    1495
CQUADX4     1599       1    1482    1481    1495    1496
CQUADX4     1600       1    1483    1482    1496    1497
CQUADX4     1601       1    1484    1483    1497    1498
CQUADX4     1602       1    1486    1485    1499    1500
CQUADX4     1603       1    1487    1486    1500    1501
CQUADX4     1604       1    1488    1487    1501    1502
CQUADX4     1605       1    1489    1488    1502    1503
CQUADX4     1606       1    1490    1489    1503    1504
CQUADX4     1607       1    1491    1490    1504    1505
CQUADX4     1608       1    1492    1491    1505    1506
CQUADX4     1609       1    1493    1492    1506    1507
CQUADX4     1610       1    1494    1493    1507    1508
CQUADX4     1611       1    1495    1494    1508    1509
CQUADX4     1612       1    1496    1495    1509    1510
CQUADX4     1613       1    1497    1496    1510    1511
CQUADX4     1614       1    1498    1497    1511    1512
CQUADX4     1615       1    1500    1499    1513    1514
CQUADX4     1616       1    1501    1500    1514    1515
CQUADX4     1617       1    1502    1501    1515    1516
CQUADX4     1618       1    1503    1502    1516    1517
CQUADX4     1619       1    1504    1503    1517    1518
CQUADX4     1620       1    1505    1504    1518    1519
CQUADX4     1621       1    1506    1505    1519    1520
CQUADX4     1622       1    1507    1506    1520    1521
CQUADX4     1623       1    1508    1507    1521    1522
CQUADX4     1624       1    1509    1508    1522    1523
CQUADX4     1625       1    1510    1509    1523    1524
CQUADX4     1626       1    1511    1510    1524    1525
CQUADX4     1627       1    1512    1511    1525    1526
CQUADX4     1628       1    1514    1513    1527    1528
CQUADX4     1629       1    1515    1514    1528    1529
CQUADX4     1630       1    1516    1515    1529    1530
CQUADX4     1631       1    1517    1516    1530    1531
CQUADX4     1632       1    1518    1517    1531    1532
CQUADX4     1633       1    1519    1518    1532    1533
CQUADX4     1634       1    1520    1519    1533    1534
CQUADX4     1635       1    1521    1520    1534    1535
CQUADX4     1636       1    1522    1521    1535    1536
CQUADX4     1637       1    1523    1522    1536    1537
CQUADX4     1638       1    1524    1523    1537    1538
CQUADX4     1639       1    1525    1524    1538    1539
CQUADX4     1640       1    1526    1525    1539    1540
CQUADX4     1641       1    1528    1527    1541    1542
CQUADX4     1642       1    1529    1528    1542    1543
CQUADX4     1643       1    1530    1529    1543    1544
CQUADX4     1644       1    1531    1530    1544    1545
CQUADX4     1645       1    1532    1531    1545    1546
CQUADX4     1646       1    1533    1532    1546    1547
CQUADX4     1647       1    1534    1533    1547    1548
CQUADX4     1648       1    1535    1534    1548    1549
CQUADX4     1649       1    1536    1535    1549    1550
CQUADX4     1650       1    1537    1536    1550    1551
CQUADX4     1651       1    1538    1537    1551    1552
CQUADX4     1652       1    1539    1538    1552    1553
CQUADX4     1653       1    1540    1539    1553    1554
CQUADX4     1654       1    1542    1541    1555    1556
CQUADX4     1655       1    1543    1542    1556    1557
CQUADX4     1656       1    1544    1543    1557    1558
CQUADX4     1657       1    1545    1544    1558    1559
CQUADX4     1658       1    1546    1545    1559    1560
CQUADX4     1659       1    1547    1546    1560    1561
CQUADX4     1660       1    1548    1547    1561    1562
CQUADX4     1661       1    1549    1548    1562    1563
CQUADX4     1662       1    1550    1549    1563    1564
CQUADX4     1663       1    1551    1550    1564    1565
CQUADX4     1664       1    1552    1551    1565    1566
CQUADX4     1665       1    1553    1552    1566    1567
CQUADX4     1666       1    1554    1553    1567    1568
CQUADX4     1667       1    1556    1555    1569    1570
CQUADX4     1668       1    1557    1556    1570    1571
CQUADX4     1669       1    1558    1557    1571    1572
CQUADX4     1670       1    1559    1558    1572    1573
CQUADX4     1671       1    1560    1559    1573    1574
CQUADX4     1672       1    1561    1560    1574    1575
CQUADX4     1673       1    1562    1561    1575    1576
CQUADX4     1674       1    1563    1562    1576    1577
CQUADX4     1675       1    1564    1563    1577    1578
CQUADX4     1676       1    1565    1564    1578    1579
CQUADX4     1677       1    1566    1565    1579    1580
CQUADX4     1678       1    1567    1566    1580    1581
CQUADX4     1679       1    1568    1567    1581    1582
CQUADX4     1680       1    1570    1569    1583    1584
CQUADX4     1681       1    1571    1570    1584    1585
CQUADX4     1682       1    1572    1571    1585    1586
CQUADX4     1683       1    1573    1572    1586    1587
CQUADX4     1684       1    1574    1573    1587    1588
CQUADX4     1685       1    1575    1574    1588    1589
CQUADX4     1686       1    1576    1575    1589    1590
CQUADX4     1687       1    1577    1576    1590    1591
CQUADX4     1688       1    1578    1577    1591    1592
CQUADX4     1689       1    1579    1578    1592    1593
CQUADX4     1690       1    1580    1579    1593    1594
CQUADX4     1691       1    1581    1580    1594    1595
CQUADX4     1692       1    1582    1581    1595    1596
CQUADX4     1693       1    1584    1583    1597    1598
CQUADX4     1694       1    1585    1584    1598    1599
CQUADX4     1695       1    1586    1585    1599    1600
CQUADX4     1696       1    1587    1586    1600    1601
CQUADX4     1697       1    1588    1587    1601    1602
CQUADX4     1698       1    1589    1588    1602    1603
CQUADX4     1699       1    1590    1589    1603    1604
CQUADX4     1700       1    1591    1590    1604    1605
CQUADX4     1701       1    1592    1591    1605    1606
CQUADX4     1702       1    1593    1592    1606    1607
CQUADX4     1703       1    1594    1593    1607    1608
CQUADX4     1704       1    1595    1594    1608    1609
CQUADX4     1705       1    1596    1595    1609    1610
CQUADX4     1706       1    1598    1597    1611    1612
CQUADX4     1707       1    1599    1598    1612    1613
CQUADX4     1708       1    1600    1599    1613    1614
CQUADX4     1709       1    1601    1600    1614    1615
CQUADX4     1710       1    1602    1601    1615    1616
CQUADX4     1711       1    1603    1602    1616    1617
CQUADX4     1712       1    1604    1603    1617    1618
CQUADX4     1713       1    1605    1604    1618    1619
CQUADX4     1714       1    1606    1605    1619    1620
CQUADX4     1715       1    1607    1606    1620    1621
CQUADX4     1716       1    1608    1607    1621    1622
CQUADX4     1717       1    1609    1608    1622    1623
CQUADX4     1718       1    1610    1609    1623    1624
CQUADX4     1719       1    1612    1611    1625    1626
CQUADX4     1720       1    1613    1612    1626    1627
CQUADX4     1721       1    1614    1613    1627    1628
CQUADX4     1722       1    1615    1614    1628    1629
CQUADX4     1723       1    1616    1615    1629    1630
CQUADX4     1724       1    1617    1616    1630    1631
CQUADX4     1725       1    1618    1617    1631    1632
CQUADX4     1726       1    1619    1618    1632    1633
CQUADX4     1727       1    1620    1619    1633    1634
CQUADX4     1728       1    1621    1620    1634    1635
CQUADX4     1729       1    1622    1621    1635    1636
CQUADX4     1730       1    1623    1622    1636    1637
CQUADX4     1731       1    1624    1623    1637    1638
CQUADX4     1732       1    1626    1625    1639    1640
CQUADX4     1733       1    1627    1626    1640    1641
CQUADX4     1734       1    1628    1627    1641    1642
CQUADX4     1735       1    1629    1628    1642    1643
CQUADX4     1736       1    1630    1629    1643    1644
CQUADX4     1737       1    1631    1630    1644    1645
CQUADX4     1738       1    1632    1631    1645    1646
CQUADX4     1739       1    1633    1632    1646    1647
CQUADX4     1740       1    1634    1633    1647    1648
CQUADX4     1741       1    1635    1634    1648    1649
CQUADX4     1742       1    1636    1635    1649    1650
CQUADX4     1743       1    1637    1636    1650    1651
CQUADX4     1744       1    1638    1637    1651    1652
CQUADX4     1745       1    1640    1639    1653    1654
CQUADX4     1746       1    1641    1640    1654    1655
CQUADX4     1747       1    1642    1641    1655    1656
CQUADX4     1748       1    1643    1642    1656    1657
CQUADX4     1749       1    1644    1643    1657    1658
CQUADX4     1750       1    1645    1644    1658    1659
CQUADX4     1751       1    1646    1645    1659    1660
CQUADX4     1752       1    1647    1646    1660    1661
CQUADX4     1753       1    1648    1647    1661    1662
CQUADX4     1754       1    1649    1648    1662    1663
CQUADX4     1755       1    1650    1649    1663    1664
CQUADX4     1756       1    1651    1650    1664    1665
CQUADX4     1757       1    1652    1651    1665    1666
CQUADX4     1758       1    1654    1653    1667    1668
CQUADX4     1759       1    1655    1654    1668    1669
CQUADX4     1760       1    1656    1655    1669    1670
CQUADX4     1761       1    1657    1656    1670    1671
CQUADX4     1762       1    1658    1657    1671    1672
CQUADX4     1763       1    1659    1658    1672    1673
CQUADX4     1764       1    1660    1659    1673    1674
CQUADX4     1765       1    1661    1660    1674    1675
CQUADX4     1766       1    1662    1661    1675    1676
CQUADX4     1767       1    1663    1662    1676    1677
CQUADX4     1768       1    1664    1663    1677    1678
CQUADX4     1769       1    1665    1664    1678    1679
CQUADX4     1770       1    1666    1665    1679    1680
CQUADX4     1771       1    1668    1667    1681    1682
CQUADX4     1772       1    1669    1668    1682    1683
CQUADX4     1773       1    1670    1669    1683    1684
CQUADX4     1774       1    1671    1670    1684    1685
CQUADX4     1775       1    1672    1671    1685    1686
CQUADX4     1776       1    1673    1672    1686    1687
CQUADX4     1777       1    1674    1673    1687    1688
CQUADX4     1778       1    1675    1674    1688    1689
CQUADX4     1779       1    1676    1675    1689    1690
CQUADX4     1780       1    1677    1676    1690    1691
CQUADX4     1781       1    1678    1677    1691    1692
CQUADX4     1782       1    1679    1678    1692    1693
CQUADX4     1783       1    1680    1679    1693    1694
CQUADX4     1784       1    1682    1681    1695    1696
CQUADX4     1785       1    1683    1682    1696    1697
CQUADX4     1786       1    1684    1683    1697    1698
CQUADX4     1787       1    1685    1684    1698    1699
CQUADX4     1788       1    1686    1685    1699    1700
CQUADX4     1789       1    1687    1686    1700    1701
CQUADX4     1790       1    1688    1687    1701    1702
CQUADX4     1791       1    1689    1688    1702    1703
CQUADX4     1792       1    1690    1689    1703    1704
CQUADX4     1793       1    1691    1690    1704    1705
CQUADX4     1794       1    1692    1691    1705    1706
CQUADX4     1795       1    1693    1692    1706    1707
CQUADX4     1796       1    1694    1693    1707    1708
CQUADX4     1797       1    1696    1695    1709    1710
CQUADX4     1798       1    1697    1696    1710    1711
CQUADX4     1799       1    1698    1697    1711    1712
CQUADX4     1800       1    1699    1698    1712    1713
CQUADX4     1801       1    1700    1699    1713    1714
CQUADX4     1802       1    1701    1700    1714    1715
CQUADX4     1803       1    1702    1701    1715    1716
CQUADX4     1804       1    1703    1702    1716    1717
CQUADX4     1805       1    1704    1703    1717    1718
CQUADX4     1806       1    1705    1704    1718    1719
CQUADX4     1807       1    1706    1705    1719    1720
CQUADX4     1808       1    1707    1706    1720    1721
CQUADX4     1809       1    1708    1707    1721    1722
CQUADX4     1810       1    1710    1709    1723    1724
CQUADX4     1811       1    1711    1710    1724    1725
CQUADX4     1812       1    1712    1711    1725    1726
CQUADX4     1813       1    1713    1712    1726    1727
CQUADX4     1814       1    1714    1713    1727    1728
CQUADX4     1815       1    1715    1714    1728    1729
CQUADX4     1816       1    1716    1715    1729    1730
CQUADX4     1817       1    1717    1716    1730    1731
CQUADX4     1818       1    1718    1717    1731    1732
CQUADX4     1819       1    1719    1718    1732    1733
CQUADX4     1820       1    1720    1719    1733    1734
CQUADX4     1821       1    1721    1720    1734    1735
CQUADX4     1822       1    1722    1721    1735    1736
CQUADX4     1823       1    1724    1723    1737    1738
CQUADX4     1824       1    1725    1724    1738    1739
CQUADX4     1825       1    1726    1725    1739    1740
CQUADX4     1826       1    1727    1726    1740    1741
CQUADX4     1827       1    1728    1727    1741    1742
CQUADX4     1828       1    1729    1728    1742    1743
CQUADX4     1829       1    1730    1729    1743    1744
CQUADX4     1830       1    1731    1730    1744    1745
CQUADX4     1831       1    1732    1731    1745    1746
CQUADX4     1832       1    1733    1732    1746    1747
CQUADX4     1833       1    1734    1733    1747    1748
CQUADX4     1834       1    1735    1734    1748    1749
CQUADX4     1835       1    1736    1735    1749    1750
CQUADX4     1836       1    1738    1737    1751    1752
CQUADX4     1837       1    1739    1738    1752    1753
CQUADX4     1838       1    1740    1739    1753    1754
CQUADX4     1839       1    1741    1740    1754    1755
CQUADX4     1840       1    1742    1741    1755    1756
CQUADX4     1841       1    1743    1742    1756    1757
CQUADX4     1842       1    1744    1743    1757    1758
CQUADX4     1843       1    1745    1744    1758    1759
CQUADX4     1844       1    1746    1745    1759    1760
CQUADX4     1845       1    1747    1746    1760    1761
CQUADX4     1846       1    1748    1747    1761    1762
CQUADX4     1847       1    1749    1748    1762    1763
CQUADX4     1848       1    1750    1749    1763    1764
CQUADX4     1849       1    1752    1751    1765    1766
CQUADX4     1850       1    1753    1752    1766    1767
CQUADX4     1851       1    1754    1753    1767    1768
CQUADX4     1852       1    1755    1754    1768    1769
CQUADX4     1853       1    1756    1755    1769    1770
CQUADX4     1854       1    1757    1756    1770    1771
CQUADX4     1855       1    1758    1757    1771    1772
CQUADX4     1856       1    1759    1758    1772    1773
CQUADX4     1857       1    1760    1759    1773    1774
CQUADX4     1858       1    1761    1760    1774    1775
CQUADX4     1859       1    1762    1761    1775    1776
CQUADX4     1860       1    1763    1762    1776    1777
CQUADX4     1861       1    1764    1763    1777    1778
CQUADX4     1862       1    1766    1765    1779    1780
CQUADX4     1863       1    1767    1766    1780    1781
CQUADX4     1864       1    1768    1767    1781    1782
CQUADX4     1865       1    1769    1768    1782    1783
CQUADX4     1866       1    1770    1769    1783    1784
CQUADX4     1867       1    1771    1770    1784    1785
CQUADX4     1868       1    1772    1771    1785    1786
CQUADX4     1869       1    1773    1772    1786    1787
CQUADX4     1870       1    1774    1773    1787    1788
CQUADX4     1871       1    1775    1774    1788    1789
CQUADX4     1872       1    1776    1775    1789    1790
CQUADX4     1873       1    1777    1776    1790    1791
CQUADX4     1874       1    1778    1777    1791    1792
CQUADX4     1875       1    1780    1779    1793    1794
CQUADX4     1876       1    1781    1780    1794    1795
CQUADX4     1877       1    1782    1781    1795    1796
CQUADX4     1878       1    1783    1782    1796    1797
CQUADX4     1879       1    1784    1783    1797    1798
CQUADX4     1880       1    1785    1784    1798    1799
CQUADX4     1881       1    1786    1785    1799    1800
CQUADX4     1882       1    1787    1786    1800    1801
CQUADX4     1883       1    1788    1787    1801    1802
CQUADX4     1884       1    1789    1788    1802    1803
CQUADX4     1885       1    1790    1789    1803    1804
CQUADX4     1886       1    1791    1790    1804    1805
CQUADX4     1887       1    1792    1791    1805    1806
CQUADX4     1888       1    1794    1793    1807    1808
CQUADX4     1889       1    1795    1794    1808    1809
CQUADX4     1890       1    1796    1795    1809    1810
CQUADX4     1891       1    1797    1796    1810    1811
CQUADX4     1892       1    1798    1797    1811    1812
CQUADX4     1893       1    1799    1798    1812    1813
CQUADX4     1894       1    1800    1799    1813    1814
CQUADX4     1895       1    1801    1800    1814    1815
CQUADX4     1896       1    1802    1801    1815    1816
CQUADX4     1897       1    1803    1802    1816    1817
CQUADX4     1898       1    1804    1803    1817    1818
CQUADX4     1899       1    1805    1804    1818    1819
CQUADX4     1900       1    1806    1805    1819    1820
CQUADX4     1901       1    1808    1807    1821    1822
CQUADX4     1902       1    1809    1808    1822    1823
CQUADX4     1903       1    1810    1809    1823    1824
CQUADX4     1904       1    1811    1810    1824    1825
CQUADX4     1905       1    1812    1811    1825    1826
CQUADX4     1906       1    1813    1812    1826    1827
CQUADX4     1907       1    1814    1813    1827    1828
CQUADX4     1908       1    1815    1814    1828    1829
CQUADX4     1909       1    1816    1815    1829    1830
CQUADX4     1910       1    1817    1816    1830    1831
CQUADX4     1911       1    1818    1817    1831    1832
CQUADX4     1912       1    1819    1818    1832    1833
CQUADX4     1913       1    1820    1819    1833    1834
CQUADX4     1914       1    1822    1821    1835    1836
CQUADX4     1915       1    1823    1822    1836    1837
CQUADX4     1916       1    1824    1823    1837    1838
CQUADX4     1917       1    1825    1824    1838    1839
CQUADX4     1918       1    1826    1825    1839    1840
CQUADX4     1919       1    1827    1826    1840    1841
CQUADX4     1920       1    1828    1827    1841    1842
CQUADX4     1921       1    1829    1828    1842    1843
CQUADX4     1922       1    1830    1829    1843    1844
CQUADX4     1923       1    1831    1830    1844    1845
CQUADX4     1924       1    1832    1831    1845    1846
CQUADX4     1925       1    1833    1832    1846    1847
CQUADX4     1926       1    1834    1833    1847    1848
CQUADX4     1927       1    1836    1835    1849    1850
CQUADX4     1928       1    1837    1836    1850    1851
CQUADX4     1929       1    1838    1837    1851    1852
CQUADX4     1930       1    1839    1838    1852    1853
CQUADX4     1931       1    1840    1839    1853    1854
CQUADX4     1932       1    1841    1840    1854    1855
CQUADX4     1933       1    1842    1841    1855    1856
CQUADX4     1934       1    1843    1842    1856    1857
CQUADX4     1935       1    1844    1843    1857    1858
CQUADX4     1936       1    1845    1844    1858    1859
CQUADX4     1937       1    1846    1845    1859    1860
CQUADX4     1938       1    1847    1846    1860    1861
CQUADX4     1939       1    1848    1847    1861    1862
CQUADX4     1940       1    1850    1849    1863    1864
CQUADX4     1941       1    1851    1850    1864    1865
CQUADX4     1942       1    1852    1851    1865    1866
CQUADX4     1943       1    1853    1852    1866    1867
CQUADX4     1944       1    1854    1853    1867    1868
CQUADX4     1945       1    1855    1854    1868    1869
CQUADX4     1946       1    1856    1855    1869    1870
CQUADX4     1947       1    1857    1856    1870    1871
CQUADX4     1948       1    1858    1857    1871    1872
CQUADX4     1949       1    1859    1858    1872    1873
CQUADX4     1950       1    1860    1859    1873    1874
CQUADX4     1951       1    1861    1860    1874    1875
CQUADX4     1952       1    1862    1861    1875    1876
CQUADX4     1953       1    1864    1863    1877    1878
CQUADX4     1954       1    1865    1864    1878    1879
CQUADX4     1955       1    1866    1865    1879    1880
CQUADX4     1956       1    1867    1866    1880    1881
CQUADX4     1957       1    1868    1867    1881    1882
CQUADX4     1958       1    1869    1868    1882    1883
CQUADX4     1959       1    1870    1869    1883    1884
CQUADX4     1960       1    1871    1870    1884    1885
CQUADX4     1961       1    1872    1871    1885    1886
CQUADX4     1962       1    1873    1872    1886    1887
CQUADX4     1963       1    1874    1873    1887    1888
CQUADX4     1964       1    1875    1874    1888    1889
CQUADX4     1965       1    1876    1875    1889    1890
CQUADX4     1966       1    1878    1877    1891    1892
CQUADX4     1967       1    1879    1878    1892    1893
CQUADX4     1968       1    1880    1879    1893    1894
CQUADX4     1969       1    1881    1880    1894    1895
CQUADX4     1970       1    1882    1881    1895    1896
CQUADX4     1971       1    1883    1882    1896    1897
CQUADX4     1972       1    1884    1883    1897    1898
CQUADX4     1973       1    1885    1884    1898    1899
CQUADX4     1974       1    1886    1885    1899    1900
CQUADX4     1975       1    1887    1886    1900    1901
CQUADX4     1976       1    1888    1887    1901    1902
CQUADX4     1977       1    1889    1888    1902    1903
CQUADX4     1978       1    1890    1889    1903    1904
CQUADX4     1979       1    1892    1891    1905    1906
CQUADX4     1980       1    1893    1892    1906    1907
CQUADX4     1981       1    1894    1893    1907    1908
CQUADX4     1982       1    1895    1894    1908    1909
CQUADX4     1983       1    1896    1895    1909    1910
CQUADX4     1984       1    1897    1896    1910    1911
CQUADX4     1985       1    1898    1897    1911    1912
CQUADX4     1986       1    1899    1898    1912    1913
CQUADX4     1987       1    1900    1899    1913    1914
CQUADX4     1988       1    1901    1900    1914    1915
CQUADX4     1989       1    1902    1901    1915    1916
CQUADX4     1990       1    1903    1902    1916    1917
CQUADX4     1991       1    1904    1903    1917    1918
CQUADX4     1992       1    1906    1905    1919    1920
CQUADX4     1993       1    1907    1906    1920    1921
CQUADX4     1994       1    1908    1907    1921    1922
CQUADX4     1995       1    1909    1908    1922    1923
CQUADX4     1996       1    1910    1909    1923    1924
CQUADX4     1997       1    1911    1910    1924    1925
CQUADX4     1998       1    1912    1911    1925    1926
CQUADX4     1999       1    1913    1912    1926    1927
CQUADX4     2000       1    1914    1913    1927    1928
CQUADX4     2001       1    1915    1914    1928    1929
CQUADX4     2002       1    1916    1915    1929    1930
CQUADX4     2003       1    1917    1916    1930    1931
CQUADX4     2004       1    1918    1917    1931    1932
CQUADX4     2005       1    1920    1919    1933    1934
CQUADX4     2006       1    1921    1920    1934    1935
CQUADX4     2007       1    1922    1921    1935    1936
CQUADX4     2008       1    1923    1922    1936    1937
CQUADX4     2009       1    1924    1923    1937    1938
CQUADX4     2010       1    1925    1924    1938    1939
CQUADX4     2011       1    1926    1925    1939    1940
CQUADX4     2012       1    1927    1926    1940    1941
CQUADX4     2013       1    1928    1927    1941    1942
CQUADX4     2014       1    1929    1928    1942    1943
CQUADX4     2015       1    1930    1929    1943    1944
CQUADX4     2016       1    1931    1930    1944    1945
CQUADX4     2017       1    1932    1931    1945    1946
CQUADX4     2018       1    1934    1933    1947    1948
CQUADX4     2019       1    1935    1934    1948    1949
CQUADX4     2020       1    1936    1935    1949    1950
CQUADX4     2021       1    1937    1936    1950    1951
CQUADX4     2022       1    1938    1937    1951    1952
CQUADX4     2023       1    1939    1938    1952    1953
CQUADX4     2024       1    1940    1939    1953    1954
CQUADX4     2025       1    1941    1940    1954    1955
CQUADX4     2026       1    1942    1941    1955    1956
CQUADX4     2027       1    1943    1942    1956    1957
CQUADX4     2028       1    1944    1943    1957    1958
CQUADX4     2029       1    1945    1944    1958    1959
CQUADX4     2030       1    1946    1945    1959    1960
CQUADX4     2031       1    1948    1947    1961    1962
CQUADX4     2032       1    1949    1948    1962    1963
CQUADX4     2033       1    1950    1949    1963    1964
CQUADX4     2034       1    1951    1950    1964    1965
CQUADX4     2035       1    1952    1951    1965    1966
CQUADX4     2036       1    1953    1952    1966    1967
CQUADX4     2037       1    1954    1953    1967    1968
CQUADX4     2038       1    1955    1954    1968    1969
CQUADX4     2039       1    1956    1955    1969    1970
CQUADX4     2040       1    1957    1956    1970    1971
CQUADX4     2041       1    1958    1957    1971    1972
CQUADX4     2042       1    1959    1958    1972    1973
CQUADX4     2043       1    1960    1959    1973    1974
CQUADX4     2044       1    1962    1961    1975    1976
CQUADX4     2045       1    1963    1962    1976    1977
CQUADX4     2046       1    1964    1963    1977    1978
CQUADX4     2047       1    1965    1964    1978    1979
CQUADX4     2048       1    1966    1965    1979    1980
CQUADX4     2049       1    1967    1966    1980    1981
CQUADX4     2050       1    1968    1967    1981    1982
CQUADX4     2051       1    1969    1968    1982    1983
CQUADX4     2052       1    1970    1969    1983    1984
CQUADX4     2053       1    1971    1970    1984    1985
CQUADX4     2054       1    1972    1971    1985    1986
CQUADX4     2055       1    1973    1972    1986    1987
CQUADX4     2056       1    1974    1973    1987    1988
CQUADX4     2057       1    1976    1975    1989    1990
CQUADX4     2058       1    1977    1976    1990    1991
CQUADX4     2059       1    1978    1977    1991    1992
CQUADX4     2060       1    1979    1978    1992    1993
CQUADX4     2061       1    1980    1979    1993    1994
CQUADX4     2062       1    1981    1980    1994    1995
CQUADX4     2063       1    1982    1981    1995    1996
CQUADX4     2064       1    1983    1982    1996    1997
CQUADX4     2065       1    1984    1983    1997    1998
CQUADX4     2066       1    1985    1984    1998    1999
CQUADX4     2067       1    1986    1985    1999    2000
CQUADX4     2068       1    1987    1986    2000    2001
CQUADX4     2069       1    1988    1987    2001    2002
CQUADX4     2070       1    1990    1989    2003    2004
CQUADX4     2071       1    1991    1990    2004    2005
CQUADX4     2072       1    1992    1991    2005    2006
CQUADX4     2073       1    1993    1992    2006    2007
CQUADX4     2074       1    1994    1993    2007    2008
CQUADX4     2075       1    1995    1994    2008    2009
CQUADX4     2076       1    1996    1995    2009    2010
CQUADX4     2077       1    1997    1996    2010    2011
CQUADX4     2078       1    1998    1997    2011    2012
CQUADX4     2079       1    1999    1998    2012    2013
CQUADX4     2080       1    2000    1999    2013    2014
CQUADX4     2081       1    2001    2000    2014    2015
CQUADX4     2082       1    2002    2001    2015    2016
CQUADX4     2083       1    2004    2003    2017    2018
CQUADX4     2084       1    2005    2004    2018    2019
CQUADX4     2085       1    2006    2005    2019    2020
CQUADX4     2086       1    2007    2006    2020    2021
CQUADX4     2087       1    2008    2007    2021    2022
CQUADX4     2088       1    2009    2008    2022    2023
CQUADX4     2089       1    2010    2009    2023    2024
CQUADX4     2090       1    2011    2010    2024    2025
CQUADX4     2091       1    2012    2011    2025    2026
CQUADX4     2092       1    2013    2012    2026    2027
CQUADX4     2093       1    2014    2013    2027    2028
CQUADX4     2094       1    2015    2014    2028    2029
CQUADX4     2095       1    2016    2015    2029    2030
CQUADX4     2096       1    2018    2017    2031    2032
CQUADX4     2097       1    2019    2018    2032    2033
CQUADX4     2098       1    2020    2019    2033    2034
CQUADX4     2099       1    2021    2020    2034    2035
CQUADX4     2100       1    2022    2021    2035    2036
CQUADX4     2101       1    2023    2022    2036    2037
CQUADX4     2102       1    2024    2023    2037    2038
CQUADX4     2103       1    2025    2024    2038    2039
CQUADX4     2104       1    2026    2025    2039    2040
CQUADX4     2105       1    2027    2026    2040    2041
CQUADX4     2106       1    2028    2027    2041    2042
CQUADX4     2107       1    2029    2028    2042    2043
CQUADX4     2108       1    2030    2029    2043    2044
CQUADX4     2109       1    2032    2031    2045    2046
CQUADX4     2110       1    2033    2032    2046    2047
CQUADX4     2111       1    2034    2033    2047    2048
CQUADX4     2112       1    2035    2034    2048    2049
CQUADX4     2113       1    2036    2035    2049    2050
CQUADX4     2114       1    2037    2036    2050    2051
CQUADX4     2115       1    2038    2037    2051    2052
CQUADX4     2116       1    2039    2038    2052    2053
CQUADX4     2117       1    2040    2039    2053    2054
CQUADX4     2118       1    2041    2040    2054    2055
CQUADX4     2119       1    2042    2041    2055    2056
CQUADX4     2120       1    2043    2042    2056    2057
CQUADX4     2121       1    2044    2043    2057    2058
CQUADX4     2122       1    2046    2045    2059    2060
CQUADX4     2123       1    2047    2046    2060    2061
CQUADX4     2124       1    2048    2047    2061    2062
CQUADX4     2125       1    2049    2048    2062    2063
CQUADX4     2126       1    2050    2049    2063    2064
CQUADX4     2127       1    2051    2050    2064    2065
CQUADX4     2128       1    2052    2051    2065    2066
CQUADX4     2129       1    2053    2052    2066    2067
CQUADX4     2130       1    2054    2053    2067    2068
CQUADX4     2131       1    2055    2054    2068    2069
CQUADX4     2132       1    2056    2055    2069    2070
CQUADX4     2133       1    2057    2056    2070    2071
CQUADX4     2134       1    2058    2057    2071    2072
CQUADX4     2135       1    2060    2059    2073    2074
CQUADX4     2136       1    2061    2060    2074    2075
CQUADX4     2137       1    2062    2061    2075    2076
CQUADX4     2138       1    2063    2062    2076    2077
CQUADX4     2139       1    2064    2063    2077    2078
CQUADX4     2140       1    2065    2064    2078    2079
CQUADX4     2141       1    2066    2065    2079    2080
CQUADX4     2142       1    2067    2066    2080    2081
CQUADX4     2143       1    2068    2067    2081    2082
CQUADX4     2144       1    2069    2068    2082    2083
CQUADX4     2145       1    2070    2069    2083    2084
CQUADX4     2146       1    2071    2070    2084    2085
CQUADX4     2147       1    2072    2071    2085    2086
CQUADX4     2148       1    2074    2073    2087    2088
CQUADX4     2149       1    2075    2074    2088    2089
CQUADX4     2150       1    2076    2075    2089    2090
CQUADX4     2151       1    2077    2076    2090    2091
CQUADX4     2152       1    2078    2077    2091    2092
CQUADX4     2153       1    2079    2078    2092    2093
CQUADX4     2154       1    2080    2079    2093    2094
CQUADX4     2155       1    2081    2080    2094    2095
CQUADX4     2156       1    2082    2081    2095    2096
CQUADX4     2157       1    2083    2082    2096    2097
CQUADX4     2158       1    2084    2083    2097    2098
CQUADX4     2159       1    2085    2084    2098    2099
CQUADX4     2160       1    2086    2085    2099    2100
CQUADX4     2161       1    2088    2087    2101    2102
CQUADX4     2162       1    2089    2088    2102    2103
CQUADX4     2163       1    2090    2089    2103    2104
CQUADX4     2164       1    2091    2090    2104    2105
CQUADX4     2165       1    2092    2091    2105    2106
CQUADX4     2166       1    2093    2092    2106    2107
CQUADX4     2167       1    2094    2093    2107    2108
CQUADX4     2168       1    2095    2094    2108    2109
CQUADX4     2169       1    2096    2095    2109    2110
CQUADX4     2170       1    2097    2096    2110    2111
CQUADX4     2171       1    2098    2097    2111    2112
CQUADX4     2172       1    2099    2098    2112    2113
CQUADX4     2173       1    2100    2099    2113    2114
CQUADX4     2174       1    2102    2101    2115    2116
CQUADX4     2175       1    2103    2102    2116    2117
CQUADX4     2176       1    2104    2103    2117    2118
CQUADX4     2177       1    2105    2104    2118    2119
CQUADX4     2178       1    2106    2105    2119    2120
CQUADX4     2179       1    2107    2106    2120    2121
CQUADX4     2180       1    2108    2107    2121    2122
CQUADX4     2181       1    2109    2108    2122    2123
CQUADX4     2182       1    2110    2109    2123    2124
CQUADX4     2183       1    2111    2110    2124    2125
CQUADX4     2184       1    2112    2111    2125    2126
CQUADX4     2185       1    2113    2112    2126    2127
CQUADX4     2186       1    2114    2113    2127    2128
CQUADX4     2187       1    2116    2115    2129    2130
CQUADX4     2188       1    2117    2116    2130    2131
CQUADX4     2189       1    2118    2117    2131    2132
CQUADX4     2190       1    2119    2118    2132    2133
CQUADX4     2191       1    2120    2119    2133    2134
CQUADX4     2192       1    2121    2120    2134    2135
CQUADX4     2193       1    2122    2121    2135    2136
CQUADX4     2194       1    2123    2122    2136    2137
CQUADX4     2195       1    2124    2123    2137    2138
CQUADX4     2196       1    2125    2124    2138    2139
CQUADX4     2197       1    2126    2125    2139    2140
CQUADX4     2198       1    2127    2126    2140    2141
CQUADX4     2199       1    2128    2127    2141    2142
CQUADX4     2200       1    2130    2129    2143    2144
CQUADX4     2201       1    2131    2130    2144    2145
CQUADX4     2202       1    2132    2131    2145    2146
CQUADX4     2203       1    2133    2132    2146    2147
CQUADX4     2204       1    2134    2133    2147    2148
CQUADX4     2205       1    2135    2134    2148    2149
CQUADX4     2206       1    2136    2135    2149    2150
CQUADX4     2207       1    2137    2136    2150    2151
CQUADX4     2208       1    2138    2137    2151    2152
CQUADX4     2209       1    2139    2138    2152    2153
CQUADX4     2210       1    2140    2139    2153    2154
CQUADX4     2211       1    2141    2140    2154    2155
CQUADX4     2212       1    2142    2141    2155    2156
CQUADX4     2213       1    2144    2143    2157    2158
CQUADX4     2214       1    2145    2144    2158    2159
CQUADX4     2215       1    2146    2145    2159    2160
CQUADX4     2216       1    2147    2146    2160    2161
CQUADX4     2217       1    2148    2147    2161    2162
CQUADX4     2218       1    2149    2148    2162    2163
CQUADX4     2219       1    2150    2149    2163    2164
CQUADX4     2220       1    2151    2150    2164    2165
CQUADX4     2221       1    2152    2151    2165    2166
CQUADX4     2222       1    2153    2152    2166    2167
CQUADX4     2223       1    2154    2153    2167    2168
CQUADX4     2224       1    2155    2154    2168    2169
CQUADX4     2225       1    2156    2155    2169    2170
CQUADX4     2226       1    2158    2157    2171    2172
CQUADX4     2227       1    2159    2158    2172    2173
CQUADX4     2228       1    2160    2159    2173    2174
CQUADX4     2229       1    2161    2160    2174    2175
CQUADX4     2230       1    2162    2161    2175    2176
CQUADX4     2231       1    2163    2162    2176    2177
CQUADX4     2232       1    2164    2163    2177    2178
CQUADX4     2233       1    2165    2164    2178    2179
CQUADX4     2234       1    2166    2165    2179    2180
CQUADX4     2235       1    2167    2166    2180    2181
CQUADX4     2236       1    2168    2167    2181    2182
CQUADX4     2237       1    2169    2168    2182    2183
CQUADX4     2238       1    2170    2169    2183    2184
CQUADX4     2239       1    2172    2171    2185    2186
CQUADX4     2240       1    2173    2172    2186    2187
CQUADX4     2241       1    2174    2173    2187    2188
CQUADX4     2242       1    2175    2174    2188    2189
CQUADX4     2243       1    2176    2175    2189    2190
CQUADX4     2244       1    2177    2176    2190    2191
CQUADX4     2245       1    2178    2177    2191    2192
CQUADX4     2246       1    2179    2178    2192    2193
CQUADX4     2247       1    2180    2179    2193    2194
CQUADX4     2248       1    2181    2180    2194    2195
CQUADX4     2249       1    2182    2181    2195    2196
CQUADX4     2250       1    2183    2182    2196    2197
CQUADX4     2251       1    2184    2183    2197    2198
CQUADX4     2252       1    2186    2185    2199    2200
CQUADX4     2253       1    2187    2186    2200    2201
CQUADX4     2254       1    2188    2187    2201    2202
CQUADX4     2255       1    2189    2188    2202    2203
CQUADX4     2256       1    2190    2189    2203    2204
CQUADX4     2257       1    2191    2190    2204    2205
CQUADX4     2258       1    2192    2191    2205    2206
CQUADX4     2259       1    2193    2192    2206    2207
CQUADX4     2260       1    2194    2193    2207    2208
CQUADX4     2261       1    2195    2194    2208    2209
CQUADX4     2262       1    2196    2195    2209    2210
CQUADX4     2263       1    2197    2196    2210    2211
CQUADX4     2264       1    2198    2197    2211    2212
CQUADX4     2265       1    2200    2199    2213    2214
CQUADX4     2266       1    2201    2200    2214    2215
CQUADX4     2267       1    2202    2201    2215    2216
CQUADX4     2268       1    2203    2202    2216    2217
CQUADX4     2269       1    2204    2203    2217    2218
CQUADX4     2270       1    2205    2204    2218    2219
CQUADX4     2271       1    2206    2205    2219    2220
CQUADX4     2272       1    2207    2206    2220    2221
CQUADX4     2273       1    2208    2207    2221    2222
CQUADX4     2274       1    2209    2208    2222    2223
CQUADX4     2275       1    2210    2209    2223    2224
CQUADX4     2276       1    2211    2210    2224    2225
CQUADX4     2277       1    2212    2211    2225    2226
CQUADX4     2278       1    2214    2213    2227    2228
CQUADX4     2279       1    2215    2214    2228    2229
CQUADX4     2280       1    2216    2215    2229    2230
CQUADX4     2281       1    2217    2216    2230    2231
CQUADX4     2282       1    2218    2217    2231    2232
CQUADX4     2283       1    2219    2218    2232    2233
CQUADX4     2284       1    2220    2219    2233    2234
CQUADX4     2285       1    2221    2220    2234    2235
CQUADX4     2286       1    2222    2221    2235    2236
CQUADX4     2287       1    2223    2222    2236    2237
CQUADX4     2288       1    2224    2223    2237    2238
CQUADX4     2289       1    2225    2224    2238    2239
CQUADX4     2290       1    2226    2225    2239    2240
CQUADX4     2291       1    2228    2227    2241    2242
CQUADX4     2292       1    2229    2228    2242    2243
CQUADX4     2293       1    2230    2229    2243    2244
CQUADX4     2294       1    2231    2230    2244    2245
CQUADX4     2295       1    2232    2231    2245    2246
CQUADX4     2296       1    2233    2232    2246    2247
CQUADX4     2297       1    2234    2233    2247    2248
CQUADX4     2298       1    2235    2234    2248    2249
CQUADX4     2299       1    2236    2235    2249    2250
CQUADX4     2300       1    2237    2236    2250    2251
CQUADX4     2301       1    2238    2237    2251    2252
CQUADX4     2302       1    2239    2238    2252    2253
CQUADX4     2303       1    2240    2239    2253    2254
CQUADX4     2304       1    2242    2241    2255    2256
CQUADX4     2305       1    2243    2242    2256    2257
CQUADX4     2306       1    2244    2243    2257    2258
CQUADX4     2307       1    2245    2244    2258    2259
CQUADX4     2308       1    2246    2245    2259    2260
CQUADX4     2309       1    2247    2246    2260    2261
CQUADX4     2310       1    2248    2247    2261    2262
CQUADX4     2311       1    2249    2248    2262    2263
CQUADX4     2312       1    2250    2249    2263    2264
CQUADX4     2313       1    2251    2250    2264    2265
CQUADX4     2314       1    2252    2251    2265    2266
CQUADX4     2315       1    2253    2252    2266    2267
CQUADX4     2316       1    2254    2253    2267    2268
CQUADX4     2317       1    2256    2255    2269    2270
CQUADX4     2318       1    2257    2256    2270    2271
CQUADX4     2319       1    2258    2257    2271    2272
CQUADX4     2320       1    2259    2258    2272    2273
CQUADX4     2321       1    2260    2259    2273    2274
CQUADX4     2322       1    2261    2260    2274    2275
CQUADX4     2323       1    2262    2261    2275    2276
CQUADX4     2324       1    2263    2262    2276    2277
CQUADX4     2325       1    2264    2263    2277    2278
CQUADX4     2326       1    2265    2264    2278    2279
CQUADX4     2327       1    2266    2265    2279    2280
CQUADX4     2328       1    2267    2266    2280    2281
CQUADX4     2329       1    2268    2267    2281    2282
CQUADX4     2330       1    2270    2269    2283    2284
CQUADX4     2331       1    2271    2270    2284    2285
CQUADX4     2332       1    2272    2271    2285    2286
CQUADX4     2333       1    2273    2272    2286    2287
CQUADX4     2334       1    2274    2273    2287    2288
CQUADX4     2335       1    2275    2274    2288    2289
CQUADX4     2336       1    2276    2275    2289    2290
CQUADX4     2337       1    2277    2276    2290    2291
CQUADX4     2338       1    2278    2277    2291    2292
CQUADX4     2339       1    2279    2278    2292    2293
CQUADX4     2340       1    2280    2279    2293    2294
CQUADX4     2341       1    2281    2280    2294    2295
CQUADX4     2342       1    2282    2281    2295    2296
CQUADX4     2343       1    2284    2283    2297    2298
CQUADX4     2344       1    2285    2284    2298    2299
CQUADX4     2345       1    2286    2285    2299    2300
CQUADX4     2346       1    2287    2286    2300    2301
CQUADX4     2347       1    2288    2287    2301    2302
CQUADX4     2348       1    2289    2288    2302    2303
CQUADX4     2349       1    2290    2289    2303    2304
CQUADX4     2350       1    2291    2290    2304    2305
CQUADX4     2351       1    2292    2291    2305    2306
CQUADX4     2352       1    2293    2292    2306    2307
CQUADX4     2353       1    2294    2293    2307    2308
CQUADX4     2354       1    2295    2294    2308    2309
CQUADX4     2355       1    2296    2295    2309    2310
CQUADX4     2356       1    2298    2297    2311    2312
CQUADX4     2357       1    2299    2298    2312    2313
CQUADX4     2358       1    2300    2299    2313    2314
CQUADX4     2359       1    2301    2300    2314    2315
CQUADX4     2360       1    2302    2301    2315    2316
CQUADX4     2361       1    2303    2302    2316    2317
CQUADX4     2362       1    2304    2303    2317    2318
CQUADX4     2363       1    2305    2304    2318    2319
CQUADX4     2364       1    2306    2305    2319    2320
CQUADX4     2365       1    2307    2306    2320    2321
CQUADX4     2366       1    2308    2307    2321    2322
CQUADX4     2367       1    2309    2308    2322    2323
CQUADX4     2368       1    2310    2309    2323    2324
CQUADX4     2369       1    2312    2311    2325    2326
CQUADX4     2370       1    2313    2312    2326    2327
CQUADX4     2371       1    2314    2313    2327    2328
CQUADX4     2372       1    2315    2314    2328    2329
CQUADX4     2373       1    2316    2315    2329    2330
CQUADX4     2374       1    2317    2316    2330    2331
CQUADX4     2375       1    2318    2317    2331    2332
CQUADX4     2376       1    2319    2318    2332    2333
CQUADX4     2377       1    2320    2319    2333    2334
CQUADX4     2378       1    2321    2320    2334    2335
CQUADX4     2379       1    2322    2321    2335    2336
CQUADX4     2380       1    2323    2322    2336    2337
CQUADX4     2381       1    2324    2323    2337    2338
CQUADX4     2382       1    2326    2325    2339    2340
CQUADX4     2383       1    2327    2326    2340    2341
CQUADX4     2384       1    2328    2327    2341    2342
CQUADX4     2385       1    2329    2328    2342    2343
CQUADX4     2386       1    2330    2329    2343    2344
CQUADX4     2387       1    2331    2330    2344    2345
CQUADX4     2388       1    2332    2331    2345    2346
CQUADX4     2389       1    2333    2332    2346    2347
CQUADX4     2390       1    2334    2333    2347    2348
CQUADX4     2391       1    2335    2334    2348    2349
CQUADX4     2392       1    2336    2335    2349    2350
CQUADX4     2393       1    2337    2336    2350    2351
CQUADX4     2394       1    2338    2337    2351    2352
CQUADX4     2395       1    2340    2339    2353    2354
CQUADX4     2396       1    2341    2340    2354    2355
CQUADX4     2397       1    2342    2341    2355    2356
CQUADX4     2398       1    2343    2342    2356    2357
CQUADX4     2399       1    2344    2343    2357    2358
CQUADX4     2400       1    2345    2344    2358    2359
CQUADX4     2401       1    2346    2345    2359    2360
CQUADX4     2402       1    2347    2346    2360    2361
CQUADX4     2403       1    2348    2347    2361    2362
CQUADX4     2404       1    2349    2348    2362    2363
CQUADX4     2405       1    2350    2349    2363    2364
CQUADX4     2406       1    2351    2350    2364    2365
CQUADX4     2407       1    2352    2351    2365    2366
CQUADX4     2408       1    2354    2353    2367    2368
CQUADX4     2409       1    2355    2354    2368    2369
CQUADX4     2410       1    2356    2355    2369    2370
CQUADX4     2411       1    2357    2356    2370    2371
CQUADX4     2412       1    2358    2357    2371    2372
CQUADX4     2413       1    2359    2358    2372    2373
CQUADX4     2414       1    2360    2359    2373    2374
CQUADX4     2415       1    2361    2360    2374    2375
CQUADX4     2416       1    2362    2361    2375    2376
CQUADX4     2417       1    2363    2362    2376    2377
CQUADX4     2418       1    2364    2363    2377    2378
CQUADX4     2419       1    2365    2364    2378    2379
CQUADX4     2420       1    2366    2365    2379    2380
CQUADX4     2421       1    2368    2367    2381    2382
CQUADX4     2422       1    2369    2368    2382    2383
CQUADX4     2423       1    2370    2369    2383    2384
CQUADX4     2424       1    2371    2370    2384    2385
CQUADX4     2425       1    2372    2371    2385    2386
CQUADX4     2426       1    2373    2372    2386    2387
CQUADX4     2427       1    2374    2373    2387    2388
CQUADX4     2428       1    2375    2374    2388    2389
CQUADX4     2429       1    2376    2375    2389    2390
CQUADX4     2430       1    2377    2376    2390    2391
CQUADX4     2431       1    2378    2377    2391    2392
CQUADX4     2432       1    2379    2378    2392    2393
CQUADX4     2433       1    2380    2379    2393    2394
CQUADX4     2434       1    2382    2381    2395    2396
CQUADX4     2435       1    2383    2382    2396    2397
CQUADX4     2436       1    2384    2383    2397    2398
CQUADX4     2437       1    2385    2384    2398    2399
CQUADX4     2438       1    2386    2385    2399    2400
CQUADX4     2439       1    2387    2386    2400    2401
CQUADX4     2440       1    2388    2387    2401    2402
CQUADX4     2441       1    2389    2388    2402    2403
CQUADX4     2442       1    2390    2389    2403    2404
CQUADX4     2443       1    2391    2390    2404    2405
CQUADX4     2444       1    2392    2391    2405    2406
CQUADX4     2445       1    2393    2392    2406    2407
CQUADX4     2446       1    2394    2393    2407    2408
CQUADX4     2447       1    2396    2395    2409    2410
CQUADX4     2448       1    2397    2396    2410    2411
CQUADX4     2449       1    2398    2397    2411    2412
CQUADX4     2450       1    2399    2398    2412    2413
CQUADX4     2451       1    2400    2399    2413    2414
CQUADX4     2452       1    2401    2400    2414    2415
CQUADX4     2453       1    2402    2401    2415    2416
CQUADX4     2454       1    2403    2402    2416    2417
CQUADX4     2455       1    2404    2403    2417    2418
CQUADX4     2456       1    2405    2404    2418    2419
CQUADX4     2457       1    2406    2405    2419    2420
CQUADX4     2458       1    2407    2406    2420    2421
CQUADX4     2459       1    2408    2407    2421    2422
CQUADX4     2460       1    2410    2409    2423    2424
CQUADX4     2461       1    2411    2410    2424    2425
CQUADX4     2462       1    2412    2411    2425    2426
CQUADX4     2463       1    2413    2412    2426    2427
CQUADX4     2464       1    2414    2413    2427    2428
CQUADX4     2465       1    2415    2414    2428    2429
CQUADX4     2466       1    2416    2415    2429    2430
CQUADX4     2467       1    2417    2416    2430    2431
CQUADX4     2468       1    2418    2417    2431    2432
CQUADX4     2469       1    2419    2418    2432    2433
CQUADX4     2470       1    2420    2419    2433    2434
CQUADX4     2471       1    2421    2420    2434    2435
CQUADX4     2472       1    2422    2421    2435    2436
CQUADX4     2473       1    2424    2423    2437    2438
CQUADX4     2474       1    2425    2424    2438    2439
CQUADX4     2475       1    2426    2425    2439    2440
CQUADX4     2476       1    2427    2426    2440    2441
CQUADX4     2477       1    2428    2427    2441    2442
CQUADX4     2478       1    2429    2428    2442    2443
CQUADX4     2479       1    2430    2429    2443    2444
CQUADX4     2480       1    2431    2430    2444    2445
CQUADX4     2481       1    2432    2431    2445    2446
CQUADX4     2482       1    2433    2432    2446    2447
CQUADX4     2483       1    2434    2433    2447    2448
CQUADX4     2484       1    2435    2434    2448    2449
CQUADX4     2485       1    2436    2435    2449    2450
CQUADX4     2486       1    2438    2437    2451    2452
CQUADX4     2487       1    2439    2438    2452    2453
CQUADX4     2488       1    2440    2439    2453    2454
CQUADX4     2489       1    2441    2440    2454    2455
CQUADX4     2490       1    2442    2441    2455    2456
CQUADX4     2491       1    2443    2442    2456    2457
CQUADX4     2492       1    2444    2443    2457    2458
CQUADX4     2493       1    2445    2444    2458    2459
CQUADX4     2494       1    2446    2445    2459    2460
CQUADX4     2495       1    2447    2446    2460    2461
CQUADX4     2496       1    2448    2447    2461    2462
CQUADX4     2497       1    2449    2448    2462    2463
CQUADX4     2498       1    2450    2449    2463    2464
CQUADX4     2499       1    2452    2451    2465    2466
CQUADX4     2500       1    2453    2452    2466    2467
CQUADX4     2501       1    2454    2453    2467    2468
CQUADX4     2502       1    2455    2454    2468    2469
CQUADX4     2503       1    2456    2455    2469    2470
CQUADX4     2504       1    2457    2456    2470    2471
CQUADX4     2505       1    2458    2457    2471    2472
CQUADX4     2506       1    2459    2458    2472    2473
CQUADX4     2507       1    2460    2459    2473    2474
CQUADX4     2508       1    2461    2460    2474    2475
CQUADX4     2509       1    2462    2461    2475    2476
CQUADX4     2510       1    2463    2462    2476    2477
CQUADX4     2511       1    2464    2463    2477    2478
CQUADX4     2512       1    2466    2465    2479    2480
CQUADX4     2513       1    2467    2466    2480    2481
CQUADX4     2514       1    2468    2467    2481    2482
CQUADX4     2515       1    2469    2468    2482    2483
CQUADX4     2516       1    2470    2469    2483    2484
CQUADX4     2517       1    2471    2470    2484    2485
CQUADX4     2518       1    2472    2471    2485    2486
CQUADX4     2519       1    2473    2472    2486    2487
CQUADX4     2520       1    2474    2473    2487    2488
CQUADX4     2521       1    2475    2474    2488    2489
CQUADX4     2522       1    2476    2475    2489    2490
CQUADX4     2523       1    2477    2476    2490    2491
CQUADX4     2524       1    2478    2477    2491    2492
CQUADX4     2525       1    4838    5500    4751    1457
CQUADX4     2526       1    1457    4751    4752    1471
CQUADX4     2527       1    1471    4752    4753    1485
CQUADX4     2528       1    1485    4753    4754    1499
CQUADX4     2529       1    1499    4754    4755    1513
CQUADX4     2530       1    1513    4755    4756    1527
CQUADX4     2531       1    1527    4756    4757    1541
CQUADX4     2532       1    1541    4757    4758    1555
CQUADX4     2533       1    1555    4758    4759    1569
CQUADX4     2534       1    1569    4759    4760    1583
CQUADX4     2535       1    1583    4760    4761    1597
CQUADX4     2536       1    1597    4761    4762    1611
CQUADX4     2537       1    1611    4762    4763    1625
CQUADX4     2538       1    1625    4763    4764    1639
CQUADX4     2539       1    1639    4764    4765    1653
CQUADX4     2540       1    1653    4765    4766    1667
CQUADX4     2541       1    1667    4766    4767    1681
CQUADX4     2542       1    1681    4767    4768    1695
CQUADX4     2543       1    1695    4768    4769    1709
CQUADX4     2544       1    1709    4769    4770    1723
CQUADX4     2545       1    1723    4770    4771    1737
CQUADX4     2546       1    1737    4771    4772    1751
CQUADX4     2547       1    1751    4772    4773    1765
CQUADX4     2548       1    1765    4773    4774    1779
CQUADX4     2549       1    1779    4774    4775    1793
CQUADX4     2550       1    1793    4775    4776    1807
CQUADX4     2551       1    1807    4776    4777    1821
CQUADX4     2552       1    1821    4777    4778    1835
CQUADX4     2553       1    1835    4778    4779    1849
CQUADX4     2554       1    1849    4779    4780    1863
CQUADX4     2555       1    1863    4780    4781    1877
CQUADX4     2556       1    1877    4781    4782    1891
CQUADX4     2557       1    1891    4782    4783    1905
CQUADX4     2558       1    1905    4783    4784    1919
CQUADX4     2559       1    1919    4784    4785    1933
CQUADX4     2560       1    1933    4785    4786    1947
CQUADX4     2561       1    1947    4786    4787    1961
CQUADX4     2562       1    1961    4787    4788    1975
CQUADX4     2563       1    1975    4788    4789    1989
CQUADX4     2564       1    1989    4789    4790    2003
CQUADX4     2565       1    2003    4790    4791    2017
CQUADX4     2566       1    2017    4791    4792    2031
CQUADX4     2567       1    2031    4792    4793    2045
CQUADX4     2568       1    2045    4793    4794    2059
CQUADX4     2569       1    2059    4794    4795    2073
CQUADX4     2570       1    2073    4795    4796    2087
CQUADX4     2571       1    2087    4796    4797    2101
CQUADX4     2572       1    2101    4797    4798    2115
CQUADX4     2573       1    2115    4798    4799    2129
CQUADX4     2574       1    2129    4799    4800    2143
CQUADX4     2575       1    2143    4800    4801    2157
CQUADX4     2576       1    2157    4801    4802    2171
CQUADX4     2577       1    2171    4802    4803    2185
CQUADX4     2578       1    2185    4803    4804    2199
CQUADX4     2579       1    2199    4804    4805    2213
CQUADX4     2580       1    2213    4805    4806    2227
CQUADX4     2581       1    2227    4806    4807    2241
CQUADX4     2582       1    2241    4807    4808    2255
CQUADX4     2583       1    2255    4808    4809    2269
CQUADX4     2584       1    2269    4809    4810    2283
CQUADX4     2585       1    2283    4810    4811    2297
CQUADX4     2586       1    2297    4811    4812    2311
CQUADX4     2587       1    2311    4812    4813    2325
CQUADX4     2588       1    2325    4813    4814    2339
CQUADX4     2589       1    2339    4814    4815    2353
CQUADX4     2590       1    2353    4815    4816    2367
CQUADX4     2591       1    2367    4816    4817    2381
CQUADX4     2592       1    2381    4817    4818    2395
CQUADX4     2593       1    2395    4818    4819    2409
CQUADX4     2594       1    2409    4819    4820    2423
CQUADX4     2595       1    2423    4820    4821    2437
CQUADX4     2596       1    2437    4821    4822    2451
CQUADX4     2597       1    2451    4822    4823    2465
CQUADX4     2598       1    2465    4823    4824    2479
CQUADX4     2599       1    2479    4824    5497    4663
CQUADX4     2600       1    2480    2479    4663    4664
CQUADX4     2601       1    2481    2480    4664    4665
CQUADX4     2602       1    2482    2481    4665    4666
CQUADX4     2603       1    2483    2482    4666    4667
CQUADX4     2604       1    2484    2483    4667    4668
CQUADX4     2605       1    2485    2484    4668    4669
CQUADX4     2606       1    2486    2485    4669    4670
CQUADX4     2607       1    2487    2486    4670    4671
CQUADX4     2608       1    2488    2487    4671    4672
CQUADX4     2609       1    2489    2488    4672    4673
CQUADX4     2610       1    2490    2489    4673    4674
CQUADX4     2611       1    2491    2490    4674    4675
CQUADX4     2612       1    2492    2491    4675    4676
CQUADX4     2613       1    4677    2492    4676    5498
CQUADX4     2614       1    4678    2478    2492    4677
CQUADX4     2615       1    4679    2464    2478    4678
CQUADX4     2616       1    4680    2450    2464    4679
CQUADX4     2617       1    4681    2436    2450    4680
CQUADX4     2618       1    4682    2422    2436    4681
CQUADX4     2619       1    4683    2408    2422    4682
CQUADX4     2620       1    4684    2394    2408    4683
CQUADX4     2621       1    4685    2380    2394    4684
CQUADX4     2622       1    4686    2366    2380    4685
CQUADX4     2623       1    4687    2352    2366    4686
CQUADX4     2624       1    4688    2338    2352    4687
CQUADX4     2625       1    4689    2324    2338    4688
CQUADX4     2626       1    4690    2310    2324    4689
CQUADX4     2627       1    4691    2296    2310    4690
CQUADX4     2628       1    4692    2282    2296    4691
CQUADX4     2629       1    4693    2268    2282    4692
CQUADX4     2630       1    4694    2254    2268    4693
CQUADX4     2631       1    4695    2240    2254    4694
CQUADX4     2632       1    4696    2226    2240    4695
CQUADX4     2633       1    4697    2212    2226    4696
CQUADX4     2634       1    4698    2198    2212    4697
CQUADX4     2635       1    4699    2184    2198    4698
CQUADX4     2636       1    4700    2170    2184    4699
CQUADX4     2637       1    4701    2156    2170    4700
CQUADX4     2638       1    4702    2142    2156    4701
CQUADX4     2639       1    4703    2128    2142    4702
CQUADX4     2640       1    4704    2114    2128    4703
CQUADX4     2641       1    4705    2100    2114    4704
CQUADX4     2642       1    4706    2086    2100    4705
CQUADX4     2643       1    4707    2072    2086    4706
CQUADX4     2644       1    4708    2058    2072    4707
CQUADX4     2645       1    4709    2044    2058    4708
CQUADX4     2646       1    4710    2030    2044    4709
CQUADX4     2647       1    4711    2016    2030    4710
CQUADX4     2648       1    4712    2002    2016    4711
CQUADX4     2649       1    4713    1988    2002    4712
CQUADX4     2650       1    4714    1974    1988    4713
CQUADX4     2651       1    4715    1960    1974    4714
CQUADX4     2652       1    4716    1946    1960    4715
CQUADX4     2653       1    4717    1932    1946    4716
CQUADX4     2654       1    4718    1918    1932    4717
CQUADX4     2655       1    4719    1904    1918    4718
CQUADX4     2656       1    4720    1890    1904    4719
CQUADX4     2657       1    4721    1876    1890    4720
CQUADX4     2658       1    4722    1862    1876    4721
CQUADX4     2659       1    4723    1848    1862    4722
CQUADX4     2660       1    4724    1834    1848    4723
CQUADX4     2661       1    4725    1820    1834    4724
CQUADX4     2662       1    4726    1806    1820    4725
CQUADX4     2663       1    4727    1792    1806    4726
CQUADX4     2664       1    4728    1778    1792    4727
CQUADX4     2665       1    4729    1764    1778    4728
CQUADX4     2666       1    4730    1750    1764    4729
CQUADX4     2667       1    4731    1736    1750    4730
CQUADX4     2668       1    4732    1722    1736    4731
CQUADX4     2669       1    4733    1708    1722    4732
CQUADX4     2670       1    4734    1694    1708    4733
CQUADX4     2671       1    4735    1680    1694    4734
CQUADX4     2672       1    4736    1666    1680    4735
CQUADX4     2673       1    4737    1652    1666    4736
CQUADX4     2674       1    4738    1638    1652    4737
CQUADX4     2675       1    4739    1624    1638    4738
CQUADX4     2676       1    4740    1610    1624    4739
CQUADX4     2677       1    4741    1596    1610    4740
CQUADX4     2678       1    4742    1582    1596    4741
CQUADX4     2679       1    4743    1568    1582    4742
CQUADX4     2680       1    4744    1554    1568    4743
CQUADX4     2681       1    4745    1540    1554    4744
CQUADX4     2682       1    4746    1526    1540    4745
CQUADX4     2683       1    4747    1512    1526    4746
CQUADX4     2684       1    4748    1498    1512    4747
CQUADX4     2685       1    4749    1484    1498    4748
CQUADX4     2686       1    4750    1470    1484    4749
CQUADX4     2687       1    5499    4825    1470    4750
CQUADX4     2688       1    4825    4826    1469    1470
CQUADX4     2689       1    4826    4827    1468    1469
CQUADX4     2690       1    4827    4828    1467    1468
CQUADX4     2691       1    4828    4829    1466    1467
CQUADX4     2692       1    4829    4830    1465    1466
CQUADX4     2693       1    4830    4831    1464    1465
CQUADX4     2694       1    4831    4832    1463    1464
CQUADX4     2695       1    4832    4833    1462    1463
CQUADX4     2696       1    4833    4834    1461    1462
CQUADX4     2697       1    4834    4835    1460    1461
CQUADX4     2698       1    4835    4836    1459    1460
CQUADX4     2699       1    4836    4837    1458    1459
CQUADX4     2700       1    4837    4838    1457    1458
CQUADX4     2701       1    2493    2580    2581    2494
CQUADX4     2702       1    2494    2581    2582    2495
CQUADX4     2703       1    2495    2582    2583    2496
CQUADX4     2704       1    2496    2583    2584    2497
CQUADX4     2705       1    2497    2584    2585    2498
CQUADX4     2706       1    2498    2585    2586    2499
CQUADX4     2707       1    2499    2586    2587    2500
CQUADX4     2708       1    2500    2587    2588    2501
CQUADX4     2709       1    2501    2588    2589    2502
CQUADX4     2710       1    2502    2589    2590    2503
CQUADX4     2711       1    2503    2590    2591    2504
CQUADX4     2712       1    2504    2591    2592    2505
CQUADX4     2713       1    2505    2592    2593    2506
CQUADX4     2714       1    2506    2593    2594    2507
CQUADX4     2715       1    2507    2594    2595    2508
CQUADX4     2716       1    2508    2595    2596    2509
CQUADX4     2717       1    2509    2596    2597    2510
CQUADX4     2718       1    2510    2597    2598    2511
CQUADX4     2719       1    2511    2598    2599    2512
CQUADX4     2720       1    2512    2599    2600    2513
CQUADX4     2721       1    2513    2600    2601    2514
CQUADX4     2722       1    2514    2601    2602    2515
CQUADX4     2723       1    2515    2602    2603    2516
CQUADX4     2724       1    2516    2603    2604    2517
CQUADX4     2725       1    2517    2604    2605    2518
CQUADX4     2726       1    2518    2605    2606    2519
CQUADX4     2727       1    2519    2606    2607    2520
CQUADX4     2728       1    2520    2607    2608    2521
CQUADX4     2729       1    2521    2608    2609    2522
CQUADX4     2730       1    2522    2609    2610    2523
CQUADX4     2731       1    2523    2610    2611    2524
CQUADX4     2732       1    2524    2611    2612    2525
CQUADX4     2733       1    2525    2612    2613    2526
CQUADX4     2734       1    2526    2613    2614    2527
CQUADX4     2735       1    2527    2614    2615    2528
CQUADX4     2736       1    2528    2615    2616    2529
CQUADX4     2737       1    2529    2616    2617    2530
CQUADX4     2738       1    2530    2617    2618    2531
CQUADX4     2739       1    2531    2618    2619    2532
CQUADX4     2740       1    2532    2619    2620    2533
CQUADX4     2741       1    2533    2620    2621    2534
CQUADX4     2742       1    2534    2621    2622    2535
CQUADX4     2743       1    2535    2622    2623    2536
CQUADX4     2744       1    2536    2623    2624    2537
CQUADX4     2745       1    2537    2624    2625    2538
CQUADX4     2746       1    2538    2625    2626    2539
CQUADX4     2747       1    2539    2626    2627    2540
CQUADX4     2748       1    2540    2627    2628    2541
CQUADX4     2749       1    2541    2628    2629    2542
CQUADX4     2750       1    2542    2629    2630    2543
CQUADX4     2751       1    2543    2630    2631    2544
CQUADX4     2752       1    2544    2631    2632    2545
CQUADX4     2753       1    2545    2632    2633    2546
CQUADX4     2754       1    2546    2633    2634    2547
CQUADX4     2755       1    2547    2634    2635    2548
CQUADX4     2756       1    2548    2635    2636    2549
CQUADX4     2757       1    2549    2636    2637    2550
CQUADX4     2758       1    2550    2637    2638    2551
CQUADX4     2759       1    2551    2638    2639    2552
CQUADX4     2760       1    2552    2639    2640    2553
CQUADX4     2761       1    2553    2640    2641    2554
CQUADX4     2762       1    2554    2641    2642    2555
CQUADX4     2763       1    2555    2642    2643    2556
CQUADX4     2764       1    2556    2643    2644    2557
CQUADX4     2765       1    2557    2644    2645    2558
CQUADX4     2766       1    2558    2645    2646    2559
CQUADX4     2767       1    2559    2646    2647    2560
CQUADX4     2768       1    2560    2647    2648    2561
CQUADX4     2769       1    2561    2648    2649    2562
CQUADX4     2770       1    2562    2649    2650    2563
CQUADX4     2771       1    2563    2650    2651    2564
CQUADX4     2772       1    2564    2651    2652    2565
CQUADX4     2773       1    2565    2652    2653    2566
CQUADX4     2774       1    2566    2653    2654    2567
CQUADX4     2775       1    2567    2654    2655    2568
CQUADX4     2776       1    2568    2655    2656    2569
CQUADX4     2777       1    2569    2656    2657    2570
CQUADX4     2778       1    2570    2657    2658    2571
CQUADX4     2779       1    2571    2658    2659    2572
CQUADX4     2780       1    2572    2659    2660    2573
CQUADX4     2781       1    2573    2660    2661    2574
CQUADX4     2782       1    2574    2661    2662    2575
CQUADX4     2783       1    2575    2662    2663    2576
CQUADX4     2784       1    2576    2663    2664    2577
CQUADX4     2785       1    2577    2664    2665    2578
CQUADX4     2786       1    2578    2665    2666    2579
CQUADX4     2787       1    2580    2667    2668    2581
CQUADX4     2788       1    2581    2668    2669    2582
CQUADX4     2789       1    2582    2669    2670    2583
CQUADX4     2790       1    2583    2670    2671    2584
CQUADX4     2791       1    2584    2671    2672    2585
CQUADX4     2792       1    2585    2672    2673    2586
CQUADX4     2793       1    2586    2673    2674    2587
CQUADX4     2794       1    2587    2674    2675    2588
CQUADX4     2795       1    2588    2675    2676    2589
CQUADX4     2796       1    2589    2676    2677    2590
CQUADX4     2797       1    2590    2677    2678    2591
CQUADX4     2798       1    2591    2678    2679    2592
CQUADX4     2799       1    2592    2679    2680    2593
CQUADX4     2800       1    2593    2680    2681    2594
CQUADX4     2801       1    2594    2681    2682    2595
CQUADX4     2802       1    2595    2682    2683    2596
CQUADX4     2803       1    2596    2683    2684    2597
CQUADX4     2804       1    2597    2684    2685    2598
CQUADX4     2805       1    2598    2685    2686    2599
CQUADX4     2806       1    2599    2686    2687    2600
CQUADX4     2807       1    2600    2687    2688    2601
CQUADX4     2808       1    2601    2688    2689    2602
CQUADX4     2809       1    2602    2689    2690    2603
CQUADX4     2810       1    2603    2690    2691    2604
CQUADX4     2811       1    2604    2691    2692    2605
CQUADX4     2812       1    2605    2692    2693    2606
CQUADX4     2813       1    2606    2693    2694    2607
CQUADX4     2814       1    2607    2694    2695    2608
CQUADX4     2815       1    2608    2695    2696    2609
CQUADX4     2816       1    2609    2696    2697    2610
CQUADX4     2817       1    2610    2697    2698    2611
CQUADX4     2818       1    2611    2698    2699    2612
CQUADX4     2819       1    2612    2699    2700    2613
CQUADX4     2820       1    2613    2700    2701    2614
CQUADX4     2821       1    2614    2701    2702    2615
CQUADX4     2822       1    2615    2702    2703    2616
CQUADX4     2823       1    2616    2703    2704    2617
CQUADX4     2824       1    2617    2704    2705    2618
CQUADX4     2825       1    2618    2705    2706    2619
CQUADX4     2826       1    2619    2706    2707    2620
CQUADX4     2827       1    2620    2707    2708    2621
CQUADX4     2828       1    2621    2708    2709    2622
CQUADX4     2829       1    2622    2709    2710    2623
CQUADX4     2830       1    2623    2710    2711    2624
CQUADX4     2831       1    2624    2711    2712    2625
CQUADX4     2832       1    2625    2712    2713    2626
CQUADX4     2833       1    2626    2713    2714    2627
CQUADX4     2834       1    2627    2714    2715    2628
CQUADX4     2835       1    2628    2715    2716    2629
CQUADX4     2836       1    2629    2716    2717    2630
CQUADX4     2837       1    2630    2717    2718    2631
CQUADX4     2838       1    2631    2718    2719    2632
CQUADX4     2839       1    2632    2719    2720    2633
CQUADX4     2840       1    2633    2720    2721    2634
CQUADX4     2841       1    2634    2721    2722    2635
CQUADX4     2842       1    2635    2722    2723    2636
CQUADX4     2843       1    2636    2723    2724    2637
CQUADX4     2844       1    2637    2724    2725    2638
CQUADX4     2845       1    2638    2725    2726    2639
CQUADX4     2846       1    2639    2726    2727    2640
CQUADX4     2847       1    2640    2727    2728    2641
CQUADX4     2848       1    2641    2728    2729    2642
CQUADX4     2849       1    2642    2729    2730    2643
CQUADX4     2850       1    2643    2730    2731    2644
CQUADX4     2851       1    2644    2731    2732    2645
CQUADX4     2852       1    2645    2732    2733    2646
CQUADX4     2853       1    2646    2733    2734    2647
CQUADX4     2854       1    2647    2734    2735    2648
CQUADX4     2855       1    2648    2735    2736    2649
CQUADX4     2856       1    2649    2736    2737    2650
CQUADX4     2857       1    2650    2737    2738    2651
CQUADX4     2858       1    2651    2738    2739    2652
CQUADX4     2859       1    2652    2739    2740    2653
CQUADX4     2860       1    2653    2740    2741    2654
CQUADX4     2861       1    2654    2741    2742    2655
CQUADX4     2862       1    2655    2742    2743    2656
CQUADX4     2863       1    2656    2743    2744    2657
CQUADX4     2864       1    2657    2744    2745    2658
CQUADX4     2865       1    2658    2745    2746    2659
CQUADX4     2866       1    2659    2746    2747    2660
CQUADX4     2867       1    2660    2747    2748    2661
CQUADX4     2868       1    2661    2748    2749    2662
CQUADX4     2869       1    2662    2749    2750    2663
CQUADX4     2870       1    2663    2750    2751    2664
CQUADX4     2871       1    2664    2751    2752    2665
CQUADX4     2872       1    2665    2752    2753    2666
CQUADX4     2873       1    2667    2754    2755    2668
CQUADX4     2874       1    2668    2755    2756    2669
CQUADX4     2875       1    2669    2756    2757    2670
CQUADX4     2876       1    2670    2757    2758    2671
CQUADX4     2877       1    2671    2758    2759    2672
CQUADX4     2878       1    2672    2759    2760    2673
CQUADX4     2879       1    2673    2760    2761    2674
CQUADX4     2880       1    2674    2761    2762    2675
CQUADX4     2881       1    2675    2762    2763    2676
CQUADX4     2882       1    2676    2763    2764    2677
CQUADX4     2883       1    2677    2764    2765    2678
CQUADX4     2884       1    2678    2765    2766    2679
CQUADX4     2885       1    2679    2766    2767    2680
CQUADX4     2886       1    2680    2767    2768    2681
CQUADX4     2887       1    2681    2768    2769    2682
CQUADX4     2888       1    2682    2769    2770    2683
CQUADX4     2889       1    2683    2770    2771    2684
CQUADX4     2890       1    2684    2771    2772    2685
CQUADX4     2891       1    2685    2772    2773    2686
CQUADX4     2892       1    2686    2773    2774    2687
CQUADX4     2893       1    2687    2774    2775    2688
CQUADX4     2894       1    2688    2775    2776    2689
CQUADX4     2895       1    2689    2776    2777    2690
CQUADX4     2896       1    2690    2777    2778    2691
CQUADX4     2897       1    2691    2778    2779    2692
CQUADX4     2898       1    2692    2779    2780    2693
CQUADX4     2899       1    2693    2780    2781    2694
CQUADX4     2900       1    2694    2781    2782    2695
CQUADX4     2901       1    2695    2782    2783    2696
CQUADX4     2902       1    2696    2783    2784    2697
CQUADX4     2903       1    2697    2784    2785    2698
CQUADX4     2904       1    2698    2785    2786    2699
CQUADX4     2905       1    2699    2786    2787    2700
CQUADX4     2906       1    2700    2787    2788    2701
CQUADX4     2907       1    2701    2788    2789    2702
CQUADX4     2908       1    2702    2789    2790    2703
CQUADX4     2909       1    2703    2790    2791    2704
CQUADX4     2910       1    2704    2791    2792    2705
CQUADX4     2911       1    2705    2792    2793    2706
CQUADX4     2912       1    2706    2793    2794    2707
CQUADX4     2913       1    2707    2794    2795    2708
CQUADX4     2914       1    2708    2795    2796    2709
CQUADX4     2915       1    2709    2796    2797    2710
CQUADX4     2916       1    2710    2797    2798    2711
CQUADX4     2917       1    2711    2798    2799    2712
CQUADX4     2918       1    2712    2799    2800    2713
CQUADX4     2919       1    2713    2800    2801    2714
CQUADX4     2920       1    2714    2801    2802    2715
CQUADX4     2921       1    2715    2802    2803    2716
CQUADX4     2922       1    2716    2803    2804    2717
CQUADX4     2923       1    2717    2804    2805    2718
CQUADX4     2924       1    2718    2805    2806    2719
CQUADX4     2925       1    2719    2806    2807    2720
CQUADX4     2926       1    2720    2807    2808    2721
CQUADX4     2927       1    2721    2808    2809    2722
CQUADX4     2928       1    2722    2809    2810    2723
CQUADX4     2929       1    2723    2810    2811    2724
CQUADX4     2930       1    2724    2811    2812    2725
CQUADX4     2931       1    2725    2812    2813    2726
CQUADX4     2932       1    2726    2813    2814    2727
CQUADX4     2933       1    2727    2814    2815    2728
CQUADX4     2934       1    2728    2815    2816    2729
CQUADX4     2935       1    2729    2816    2817    2730
CQUADX4     2936       1    2730    2817    2818    2731
CQUADX4     2937       1    2731    2818    2819    2732
CQUADX4     2938       1    2732    2819    2820    2733
CQUADX4     2939       1    2733    2820    2821    2734
CQUADX4     2940       1    2734    2821    2822    2735
CQUADX4     2941       1    2735    2822    2823    2736
CQUADX4     2942       1    2736    2823    2824    2737
CQUADX4     2943       1    2737    2824    2825    2738
CQUADX4     2944       1    2738    2825    2826    2739
CQUADX4     2945       1    2739    2826    2827    2740
CQUADX4     2946       1    2740    2827    2828    2741
CQUADX4     2947       1    2741    2828    2829    2742
CQUADX4     2948       1    2742    2829    2830    2743
CQUADX4     2949       1    2743    2830    2831    2744
CQUADX4     2950       1    2744    2831    2832    2745
CQUADX4     2951       1    2745    2832    2833    2746
CQUADX4     2952       1    2746    2833    2834    2747
CQUADX4     2953       1    2747    2834    2835    2748
CQUADX4     2954       1    2748    2835    2836    2749
CQUADX4     2955       1    2749    2836    2837    2750
CQUADX4     2956       1    2750    2837    2838    2751
CQUADX4     2957       1    2751    2838    2839    2752
CQUADX4     2958       1    2752    2839    2840    2753
CQUADX4     2959       1    2754    2841    2842    2755
CQUADX4     2960       1    2755    2842    2843    2756
CQUADX4     2961       1    2756    2843    2844    2757
CQUADX4     2962       1    2757    2844    2845    2758
CQUADX4     2963       1    2758    2845    2846    2759
CQUADX4     2964       1    2759    2846    2847    2760
CQUADX4     2965       1    2760    2847    2848    2761
CQUADX4     2966       1    2761    2848    2849    2762
CQUADX4     2967       1    2762    2849    2850    2763
CQUADX4     2968       1    2763    2850    2851    2764
CQUADX4     2969       1    2764    2851    2852    2765
CQUADX4     2970       1    2765    2852    2853    2766
CQUADX4     2971       1    2766    2853    2854    2767
CQUADX4     2972       1    2767    2854    2855    2768
CQUADX4     2973       1    2768    2855    2856    2769
CQUADX4     2974       1    2769    2856    2857    2770
CQUADX4     2975       1    2770    2857    2858    2771
CQUADX4     2976       1    2771    2858    2859    2772
CQUADX4     2977       1    2772    2859    2860    2773
CQUADX4     2978       1    2773    2860    2861    2774
CQUADX4     2979       1    2774    2861    2862    2775
CQUADX4     2980       1    2775    2862    2863    2776
CQUADX4     2981       1    2776    2863    2864    2777
CQUADX4     2982       1    2777    2864    2865    2778
CQUADX4     2983       1    2778    2865    2866    2779
CQUADX4     2984       1    2779    2866    2867    2780
CQUADX4     2985       1    2780    2867    2868    2781
CQUADX4     2986       1    2781    2868    2869    2782
CQUADX4     2987       1    2782    2869    2870    2783
CQUADX4     2988       1    2783    2870    2871    2784
CQUADX4     2989       1    2784    2871    2872    2785
CQUADX4     2990       1    2785    2872    2873    2786
CQUADX4     2991       1    2786    2873    2874    2787
CQUADX4     2992       1    2787    2874    2875    2788
CQUADX4     2993       1    2788    2875    2876    2789
CQUADX4     2994       1    2789    2876    2877    2790
CQUADX4     2995       1    2790    2877    2878    2791
CQUADX4     2996       1    2791    2878    2879    2792
CQUADX4     2997       1    2792    2879    2880    2793
CQUADX4     2998       1    2793    2880    2881    2794
CQUADX4     2999       1    2794    2881    2882    2795
CQUADX4     3000       1    2795    2882    2883    2796
CQUADX4     3001       1    2796    2883    2884    2797
CQUADX4     3002       1    2797    2884    2885    2798
CQUADX4     3003       1    2798    2885    2886    2799
CQUADX4     3004       1    2799    2886    2887    2800
CQUADX4     3005       1    2800    2887    2888    2801
CQUADX4     3006       1    2801    2888    2889    2802
CQUADX4     3007       1    2802    2889    2890    2803
CQUADX4     3008       1    2803    2890    2891    2804
CQUADX4     3009       1    2804    2891    2892    2805
CQUADX4     3010       1    2805    2892    2893    2806
CQUADX4     3011       1    2806    2893    2894    2807
CQUADX4     3012       1    2807    2894    2895    2808
CQUADX4     3013       1    2808    2895    2896    2809
CQUADX4     3014       1    2809    2896    2897    2810
CQUADX4     3015       1    2810    2897    2898    2811
CQUADX4     3016       1    2811    2898    2899    2812
CQUADX4     3017       1    2812    2899    2900    2813
CQUADX4     3018       1    2813    2900    2901    2814
CQUADX4     3019       1    2814    2901    2902    2815
CQUADX4     3020       1    2815    2902    2903    2816
CQUADX4     3021       1    2816    2903    2904    2817
CQUADX4     3022       1    2817    2904    2905    2818
CQUADX4     3023       1    2818    2905    2906    2819
CQUADX4     3024       1    2819    2906    2907    2820
CQUADX4     3025       1    2820    2907    2908    2821
CQUADX4     3026       1    2821    2908    2909    2822
CQUADX4     3027       1    2822    2909    2910    2823
CQUADX4     3028       1    2823    2910    2911    2824
CQUADX4     3029       1    2824    2911    2912    2825
CQUADX4     3030       1    2825    2912    2913    2826
CQUADX4     3031       1    2826    2913    2914    2827
CQUADX4     3032       1    2827    2914    2915    2828
CQUADX4     3033       1    2828    2915    2916    2829
CQUADX4     3034       1    2829    2916    2917    2830
CQUADX4     3035       1    2830    2917    2918    2831
CQUADX4     3036       1    2831    2918    2919    2832
CQUADX4     3037       1    2832    2919    2920    2833
CQUADX4     3038       1    2833    2920    2921    2834
CQUADX4     3039       1    2834    2921    2922    2835
CQUADX4     3040       1    2835    2922    2923    2836
CQUADX4     3041       1    2836    2923    2924    2837
CQUADX4     3042       1    2837    2924    2925    2838
CQUADX4     3043       1    2838    2925    2926    2839
CQUADX4     3044       1    2839    2926    2927    2840
CQUADX4     3045       1    2841    2928    2929    2842
CQUADX4     3046       1    2842    2929    2930    2843
CQUADX4     3047       1    2843    2930    2931    2844
CQUADX4     3048       1    2844    2931    2932    2845
CQUADX4     3049       1    2845    2932    2933    2846
CQUADX4     3050       1    2846    2933    2934    2847
CQUADX4     3051       1    2847    2934    2935    2848
CQUADX4     3052       1    2848    2935    2936    2849
CQUADX4     3053       1    2849    2936    2937    2850
CQUADX4     3054       1    2850    2937    2938    2851
CQUADX4     3055       1    2851    2938    2939    2852
CQUADX4     3056       1    2852    2939    2940    2853
CQUADX4     3057       1    2853    2940    2941    2854
CQUADX4     3058       1    2854    2941    2942    2855
CQUADX4     3059       1    2855    2942    2943    2856
CQUADX4     3060       1    2856    2943    2944    2857
CQUADX4     3061       1    2857    2944    2945    2858
CQUADX4     3062       1    2858    2945    2946    2859
CQUADX4     3063       1    2859    2946    2947    2860
CQUADX4     3064       1    2860    2947    2948    2861
CQUADX4     3065       1    2861    2948    2949    2862
CQUADX4     3066       1    2862    2949    2950    2863
CQUADX4     3067       1    2863    2950    2951    2864
CQUADX4     3068       1    2864    2951    2952    2865
CQUADX4     3069       1    2865    2952    2953    2866
CQUADX4     3070       1    2866    2953    2954    2867
CQUADX4     3071       1    2867    2954    2955    2868
CQUADX4     3072       1    2868    2955    2956    2869
CQUADX4     3073       1    2869    2956    2957    2870
CQUADX4     3074       1    2870    2957    2958    2871
CQUADX4     3075       1    2871    2958    2959    2872
CQUADX4     3076       1    2872    2959    2960    2873
CQUADX4     3077       1    2873    2960    2961    2874
CQUADX4     3078       1    2874    2961    2962    2875
CQUADX4     3079       1    2875    2962    2963    2876
CQUADX4     3080       1    2876    2963    2964    2877
CQUADX4     3081       1    2877    2964    2965    2878
CQUADX4     3082       1    2878    2965    2966    2879
CQUADX4     3083       1    2879    2966    2967    2880
CQUADX4     3084       1    2880    2967    2968    2881
CQUADX4     3085       1    2881    2968    2969    2882
CQUADX4     3086       1    2882    2969    2970    2883
CQUADX4     3087       1    2883    2970    2971    2884
CQUADX4     3088       1    2884    2971    2972    2885
CQUADX4     3089       1    2885    2972    2973    2886
CQUADX4     3090       1    2886    2973    2974    2887
CQUADX4     3091       1    2887    2974    2975    2888
CQUADX4     3092       1    2888    2975    2976    2889
CQUADX4     3093       1    2889    2976    2977    2890
CQUADX4     3094       1    2890    2977    2978    2891
CQUADX4     3095       1    2891    2978    2979    2892
CQUADX4     3096       1    2892    2979    2980    2893
CQUADX4     3097       1    2893    2980    2981    2894
CQUADX4     3098       1    2894    2981    2982    2895
CQUADX4     3099       1    2895    2982    2983    2896
CQUADX4     3100       1    2896    2983    2984    2897
CQUADX4     3101       1    2897    2984    2985    2898
CQUADX4     3102       1    2898    2985    2986    2899
CQUADX4     3103       1    2899    2986    2987    2900
CQUADX4     3104       1    2900    2987    2988    2901
CQUADX4     3105       1    2901    2988    2989    2902
CQUADX4     3106       1    2902    2989    2990    2903
CQUADX4     3107       1    2903    2990    2991    2904
CQUADX4     3108       1    2904    2991    2992    2905
CQUADX4     3109       1    2905    2992    2993    2906
CQUADX4     3110       1    2906    2993    2994    2907
CQUADX4     3111       1    2907    2994    2995    2908
CQUADX4     3112       1    2908    2995    2996    2909
CQUADX4     3113       1    2909    2996    2997    2910
CQUADX4     3114       1    2910    2997    2998    2911
CQUADX4     3115       1    2911    2998    2999    2912
CQUADX4     3116       1    2912    2999    3000    2913
CQUADX4     3117       1    2913    3000    3001    2914
CQUADX4     3118       1    2914    3001    3002    2915
CQUADX4     3119       1    2915    3002    3003    2916
CQUADX4     3120       1    2916    3003    3004    2917
CQUADX4     3121       1    2917    3004    3005    2918
CQUADX4     3122       1    2918    3005    3006    2919
CQUADX4     3123       1    2919    3006    3007    2920
CQUADX4     3124       1    2920    3007    3008    2921
CQUADX4     3125       1    2921    3008    3009    2922
CQUADX4     3126       1    2922    3009    3010    2923
CQUADX4     3127       1    2923    3010    3011    2924
CQUADX4     3128       1    2924    3011    3012    2925
CQUADX4     3129       1    2925    3012    3013    2926
CQUADX4     3130       1    2926    3013    3014    2927
CQUADX4     3131       1    2928    3015    3016    2929
CQUADX4     3132       1    2929    3016    3017    2930
CQUADX4     3133       1    2930    3017    3018    2931
CQUADX4     3134       1    2931    3018    3019    2932
CQUADX4     3135       1    2932    3019    3020    2933
CQUADX4     3136       1    2933    3020    3021    2934
CQUADX4     3137       1    2934    3021    3022    2935
CQUADX4     3138       1    2935    3022    3023    2936
CQUADX4     3139       1    2936    3023    3024    2937
CQUADX4     3140       1    2937    3024    3025    2938
CQUADX4     3141       1    2938    3025    3026    2939
CQUADX4     3142       1    2939    3026    3027    2940
CQUADX4     3143       1    2940    3027    3028    2941
CQUADX4     3144       1    2941    3028    3029    2942
CQUADX4     3145       1    2942    3029    3030    2943
CQUADX4     3146       1    2943    3030    3031    2944
CQUADX4     3147       1    2944    3031    3032    2945
CQUADX4     3148       1    2945    3032    3033    2946
CQUADX4     3149       1    2946    3033    3034    2947
CQUADX4     3150       1    2947    3034    3035    2948
CQUADX4     3151       1    2948    3035    3036    2949
CQUADX4     3152       1    2949    3036    3037    2950
CQUADX4     3153       1    2950    3037    3038    2951
CQUADX4     3154       1    2951    3038    3039    2952
CQUADX4     3155       1    2952    3039    3040    2953
CQUADX4     3156       1    2953    3040    3041    2954
CQUADX4     3157       1    2954    3041    3042    2955
CQUADX4     3158       1    2955    3042    3043    2956
CQUADX4     3159       1    2956    3043    3044    2957
CQUADX4     3160       1    2957    3044    3045    2958
CQUADX4     3161       1    2958    3045    3046    2959
CQUADX4     3162       1    2959    3046    3047    2960
CQUADX4     3163       1    2960    3047    3048    2961
CQUADX4     3164       1    2961    3048    3049    2962
CQUADX4     3165       1    2962    3049    3050    2963
CQUADX4     3166       1    2963    3050    3051    2964
CQUADX4     3167       1    2964    3051    3052    2965
CQUADX4     3168       1    2965    3052    3053    2966
CQUADX4     3169       1    2966    3053    3054    2967
CQUADX4     3170       1    2967    3054    3055    2968
CQUADX4     3171       1    2968    3055    3056    2969
CQUADX4     3172       1    2969    3056    3057    2970
CQUADX4     3173       1    2970    3057    3058    2971
CQUADX4     3174       1    2971    3058    3059    2972
CQUADX4     3175       1    2972    3059    3060    2973
CQUADX4     3176       1    2973    3060    3061    2974
CQUADX4     3177       1    2974    3061    3062    2975
CQUADX4     3178       1    2975    3062    3063    2976
CQUADX4     3179       1    2976    3063    3064    2977
CQUADX4     3180       1    2977    3064    3065    2978
CQUADX4     3181       1    2978    3065    3066    2979
CQUADX4     3182       1    2979    3066    3067    2980
CQUADX4     3183       1    2980    3067    3068    2981
CQUADX4     3184       1    2981    3068    3069    2982
CQUADX4     3185       1    2982    3069    3070    2983
CQUADX4     3186       1    2983    3070    3071    2984
CQUADX4     3187       1    2984    3071    3072    2985
CQUADX4     3188       1    2985    3072    3073    2986
CQUADX4     3189       1    2986    3073    3074    2987
CQUADX4     3190       1    2987    3074    3075    2988
CQUADX4     3191       1    2988    3075    3076    2989
CQUADX4     3192       1    2989    3076    3077    2990
CQUADX4     3193       1    2990    3077    3078    2991
CQUADX4     3194       1    2991    3078    3079    2992
CQUADX4     3195       1    2992    3079    3080    2993
CQUADX4     3196       1    2993    3080    3081    2994
CQUADX4     3197       1    2994    3081    3082    2995
CQUADX4     3198       1    2995    3082    3083    2996
CQUADX4     3199       1    2996    3083    3084    2997
CQUADX4     3200       1    2997    3084    3085    2998
CQUADX4     3201       1    2998    3085    3086    2999
CQUADX4     3202       1    2999    3086    3087    3000
CQUADX4     3203       1    3000    3087    3088    3001
CQUADX4     3204       1    3001    3088    3089    3002
CQUADX4     3205       1    3002    3089    3090    3003
CQUADX4     3206       1    3003    3090    3091    3004
CQUADX4     3207       1    3004    3091    3092    3005
CQUADX4     3208       1    3005    3092    3093    3006
CQUADX4     3209       1    3006    3093    3094    3007
CQUADX4     3210       1    3007    3094    3095    3008
CQUADX4     3211       1    3008    3095    3096    3009
CQUADX4     3212       1    3009    3096    3097    3010
CQUADX4     3213       1    3010    3097    3098    3011
CQUADX4     3214       1    3011    3098    3099    3012
CQUADX4     3215       1    3012    3099    3100    3013
CQUADX4     3216       1    3013    3100    3101    3014
CQUADX4     3217       1    3015    3102    3103    3016
CQUADX4     3218       1    3016    3103    3104    3017
CQUADX4     3219       1    3017    3104    3105    3018
CQUADX4     3220       1    3018    3105    3106    3019
CQUADX4     3221       1    3019    3106    3107    3020
CQUADX4     3222       1    3020    3107    3108    3021
CQUADX4     3223       1    3021    3108    3109    3022
CQUADX4     3224       1    3022    3109    3110    3023
CQUADX4     3225       1    3023    3110    3111    3024
CQUADX4     3226       1    3024    3111    3112    3025
CQUADX4     3227       1    3025    3112    3113    3026
CQUADX4     3228       1    3026    3113    3114    3027
CQUADX4     3229       1    3027    3114    3115    3028
CQUADX4     3230       1    3028    3115    3116    3029
CQUADX4     3231       1    3029    3116    3117    3030
CQUADX4     3232       1    3030    3117    3118    3031
CQUADX4     3233       1    3031    3118    3119    3032
CQUADX4     3234       1    3032    3119    3120    3033
CQUADX4     3235       1    3033    3120    3121    3034
CQUADX4     3236       1    3034    3121    3122    3035
CQUADX4     3237       1    3035    3122    3123    3036
CQUADX4     3238       1    3036    3123    3124    3037
CQUADX4     3239       1    3037    3124    3125    3038
CQUADX4     3240       1    3038    3125    3126    3039
CQUADX4     3241       1    3039    3126    3127    3040
CQUADX4     3242       1    3040    3127    3128    3041
CQUADX4     3243       1    3041    3128    3129    3042
CQUADX4     3244       1    3042    3129    3130    3043
CQUADX4     3245       1    3043    3130    3131    3044
CQUADX4     3246       1    3044    3131    3132    3045
CQUADX4     3247       1    3045    3132    3133    3046
CQUADX4     3248       1    3046    3133    3134    3047
CQUADX4     3249       1    3047    3134    3135    3048
CQUADX4     3250       1    3048    3135    3136    3049
CQUADX4     3251       1    3049    3136    3137    3050
CQUADX4     3252       1    3050    3137    3138    3051
CQUADX4     3253       1    3051    3138    3139    3052
CQUADX4     3254       1    3052    3139    3140    3053
CQUADX4     3255       1    3053    3140    3141    3054
CQUADX4     3256       1    3054    3141    3142    3055
CQUADX4     3257       1    3055    3142    3143    3056
CQUADX4     3258       1    3056    3143    3144    3057
CQUADX4     3259       1    3057    3144    3145    3058
CQUADX4     3260       1    3058    3145    3146    3059
CQUADX4     3261       1    3059    3146    3147    3060
CQUADX4     3262       1    3060    3147    3148    3061
CQUADX4     3263       1    3061    3148    3149    3062
CQUADX4     3264       1    3062    3149    3150    3063
CQUADX4     3265       1    3063    3150    3151    3064
CQUADX4     3266       1    3064    3151    3152    3065
CQUADX4     3267       1    3065    3152    3153    3066
CQUADX4     3268       1    3066    3153    3154    3067
CQUADX4     3269       1    3067    3154    3155    3068
CQUADX4     3270       1    3068    3155    3156    3069
CQUADX4     3271       1    3069    3156    3157    3070
CQUADX4     3272       1    3070    3157    3158    3071
CQUADX4     3273       1    3071    3158    3159    3072
CQUADX4     3274       1    3072    3159    3160    3073
CQUADX4     3275       1    3073    3160    3161    3074
CQUADX4     3276       1    3074    3161    3162    3075
CQUADX4     3277       1    3075    3162    3163    3076
CQUADX4     3278       1    3076    3163    3164    3077
CQUADX4     3279       1    3077    3164    3165    3078
CQUADX4     3280       1    3078    3165    3166    3079
CQUADX4     3281       1    3079    3166    3167    3080
CQUADX4     3282       1    3080    3167    3168    3081
CQUADX4     3283       1    3081    3168    3169    3082
CQUADX4     3284       1    3082    3169    3170    3083
CQUADX4     3285       1    3083    3170    3171    3084
CQUADX4     3286       1    3084    3171    3172    3085
CQUADX4     3287       1    3085    3172    3173    3086
CQUADX4     3288       1    3086    3173    3174    3087
CQUADX4     3289       1    3087    3174    3175    3088
CQUADX4     3290       1    3088    3175    3176    3089
CQUADX4     3291       1    3089    3176    3177    3090
CQUADX4     3292       1    3090    3177    3178    3091
CQUADX4     3293       1    3091    3178    3179    3092
CQUADX4     3294       1    3092    3179    3180    3093
CQUADX4     3295       1    3093    3180    3181    3094
CQUADX4     3296       1    3094    3181    3182    3095
CQUADX4     3297       1    3095    3182    3183    3096
CQUADX4     3298       1    3096    3183    3184    3097
CQUADX4     3299       1    3097    3184    3185    3098
CQUADX4     3300       1    3098    3185    3186    3099
CQUADX4     3301       1    3099    3186    3187    3100
CQUADX4     3302       1    3100    3187    3188    3101
CQUADX4     3303       1    3102    3189    3190    3103
CQUADX4     3304       1    3103    3190    3191    3104
CQUADX4     3305       1    3104    3191    3192    3105
CQUADX4     3306       1    3105    3192    3193    3106
CQUADX4     3307       1    3106    3193    3194    3107
CQUADX4     3308       1    3107    3194    3195    3108
CQUADX4     3309       1    3108    3195    3196    3109
CQUADX4     3310       1    3109    3196    3197    3110
CQUADX4     3311       1    3110    3197    3198    3111
CQUADX4     3312       1    3111    3198    3199    3112
CQUADX4     3313       1    3112    3199    3200    3113
CQUADX4     3314       1    3113    3200    3201    3114
CQUADX4     3315       1    3114    3201    3202    3115
CQUADX4     3316       1    3115    3202    3203    3116
CQUADX4     3317       1    3116    3203    3204    3117
CQUADX4     3318       1    3117    3204    3205    3118
CQUADX4     3319       1    3118    3205    3206    3119
CQUADX4     3320       1    3119    3206    3207    3120
CQUADX4     3321       1    3120    3207    3208    3121
CQUADX4     3322       1    3121    3208    3209    3122
CQUADX4     3323       1    3122    3209    3210    3123
CQUADX4     3324       1    3123    3210    3211    3124
CQUADX4     3325       1    3124    3211    3212    3125
CQUADX4     3326       1    3125    3212    3213    3126
CQUADX4     3327       1    3126    3213    3214    3127
CQUADX4     3328       1    3127    3214    3215    3128
CQUADX4     3329       1    3128    3215    3216    3129
CQUADX4     3330       1    3129    3216    3217    3130
CQUADX4     3331       1    3130    3217    3218    3131
CQUADX4     3332       1    3131    3218    3219    3132
CQUADX4     3333       1    3132    3219    3220    3133
CQUADX4     3334       1    3133    3220    3221    3134
CQUADX4     3335       1    3134    3221    3222    3135
CQUADX4     3336       1    3135    3222    3223    3136
CQUADX4     3337       1    3136    3223    3224    3137
CQUADX4     3338       1    3137    3224    3225    3138
CQUADX4     3339       1    3138    3225    3226    3139
CQUADX4     3340       1    3139    3226    3227    3140
CQUADX4     3341       1    3140    3227    3228    3141
CQUADX4     3342       1    3141    3228    3229    3142
CQUADX4     3343       1    3142    3229    3230    3143
CQUADX4     3344       1    3143    3230    3231    3144
CQUADX4     3345       1    3144    3231    3232    3145
CQUADX4     3346       1    3145    3232    3233    3146
CQUADX4     3347       1    3146    3233    3234    3147
CQUADX4     3348       1    3147    3234    3235    3148
CQUADX4     3349       1    3148    3235    3236    3149
CQUADX4     3350       1    3149    3236    3237    3150
CQUADX4     3351       1    3150    3237    3238    3151
CQUADX4     3352       1    3151    3238    3239    3152
CQUADX4     3353       1    3152    3239    3240    3153
CQUADX4     3354       1    3153    3240    3241    3154
CQUADX4     3355       1    3154    3241    3242    3155
CQUADX4     3356       1    3155    3242    3243    3156
CQUADX4     3357       1    3156    3243    3244    3157
CQUADX4     3358       1    3157    3244    3245    3158
CQUADX4     3359       1    3158    3245    3246    3159
CQUADX4     3360       1    3159    3246    3247    3160
CQUADX4     3361       1    3160    3247    3248    3161
CQUADX4     3362       1    3161    3248    3249    3162
CQUADX4     3363       1    3162    3249    3250    3163
CQUADX4     3364       1    3163    3250    3251    3164
CQUADX4     3365       1    3164    3251    3252    3165
CQUADX4     3366       1    3165    3252    3253    3166
CQUADX4     3367       1    3166    3253    3254    3167
CQUADX4     3368       1    3167    3254    3255    3168
CQUADX4     3369       1    3168    3255    3256    3169
CQUADX4     3370       1    3169    3256    3257    3170
CQUADX4     3371       1    3170    3257    3258    3171
CQUADX4     3372       1    3171    3258    3259    3172
CQUADX4     3373       1    3172    3259    3260    3173
CQUADX4     3374       1    3173    3260    3261    3174
CQUADX4     3375       1    3174    3261    3262    3175
CQUADX4     3376       1    3175    3262    3263    3176
CQUADX4     3377       1    3176    3263    3264    3177
CQUADX4     3378       1    3177    3264    3265    3178
CQUADX4     3379       1    3178    3265    3266    3179
CQUADX4     3380       1    3179    3266    3267    3180
CQUADX4     3381       1    3180    3267    3268    3181
CQUADX4     3382       1    3181    3268    3269    3182
CQUADX4     3383       1    3182    3269    3270    3183
CQUADX4     3384       1    3183    3270    3271    3184
CQUADX4     3385       1    3184    3271    3272    3185
CQUADX4     3386       1    3185    3272    3273    3186
CQUADX4     3387       1    3186    3273    3274    3187
CQUADX4     3388       1    3187    3274    3275    3188
CQUADX4     3389       1    3189    3276    3277    3190
CQUADX4     3390       1    3190    3277    3278    3191
CQUADX4     3391       1    3191    3278    3279    3192
CQUADX4     3392       1    3192    3279    3280    3193
CQUADX4     3393       1    3193    3280    3281    3194
CQUADX4     3394       1    3194    3281    3282    3195
CQUADX4     3395       1    3195    3282    3283    3196
CQUADX4     3396       1    3196    3283    3284    3197
CQUADX4     3397       1    3197    3284    3285    3198
CQUADX4     3398       1    3198    3285    3286    3199
CQUADX4     3399       1    3199    3286    3287    3200
CQUADX4     3400       1    3200    3287    3288    3201
CQUADX4     3401       1    3201    3288    3289    3202
CQUADX4     3402       1    3202    3289    3290    3203
CQUADX4     3403       1    3203    3290    3291    3204
CQUADX4     3404       1    3204    3291    3292    3205
CQUADX4     3405       1    3205    3292    3293    3206
CQUADX4     3406       1    3206    3293    3294    3207
CQUADX4     3407       1    3207    3294    3295    3208
CQUADX4     3408       1    3208    3295    3296    3209
CQUADX4     3409       1    3209    3296    3297    3210
CQUADX4     3410       1    3210    3297    3298    3211
CQUADX4     3411       1    3211    3298    3299    3212
CQUADX4     3412       1    3212    3299    3300    3213
CQUADX4     3413       1    3213    3300    3301    3214
CQUADX4     3414       1    3214    3301    3302    3215
CQUADX4     3415       1    3215    3302    3303    3216
CQUADX4     3416       1    3216    3303    3304    3217
CQUADX4     3417       1    3217    3304    3305    3218
CQUADX4     3418       1    3218    3305    3306    3219
CQUADX4     3419       1    3219    3306    3307    3220
CQUADX4     3420       1    3220    3307    3308    3221
CQUADX4     3421       1    3221    3308    3309    3222
CQUADX4     3422       1    3222    3309    3310    3223
CQUADX4     3423       1    3223    3310    3311    3224
CQUADX4     3424       1    3224    3311    3312    3225
CQUADX4     3425       1    3225    3312    3313    3226
CQUADX4     3426       1    3226    3313    3314    3227
CQUADX4     3427       1    3227    3314    3315    3228
CQUADX4     3428       1    3228    3315    3316    3229
CQUADX4     3429       1    3229    3316    3317    3230
CQUADX4     3430       1    3230    3317    3318    3231
CQUADX4     3431       1    3231    3318    3319    3232
CQUADX4     3432       1    3232    3319    3320    3233
CQUADX4     3433       1    3233    3320    3321    3234
CQUADX4     3434       1    3234    3321    3322    3235
CQUADX4     3435       1    3235    3322    3323    3236
CQUADX4     3436       1    3236    3323    3324    3237
CQUADX4     3437       1    3237    3324    3325    3238
CQUADX4     3438       1    3238    3325    3326    3239
CQUADX4     3439       1    3239    3326    3327    3240
CQUADX4     3440       1    3240    3327    3328    3241
CQUADX4     3441       1    3241    3328    3329    3242
CQUADX4     3442       1    3242    3329    3330    3243
CQUADX4     3443       1    3243    3330    3331    3244
CQUADX4     3444       1    3244    3331    3332    3245
CQUADX4     3445       1    3245    3332    3333    3246
CQUADX4     3446       1    3246    3333    3334    3247
CQUADX4     3447       1    3247    3334    3335    3248
CQUADX4     3448       1    3248    3335    3336    3249
CQUADX4     3449       1    3249    3336    3337    3250
CQUADX4     3450       1    3250    3337    3338    3251
CQUADX4     3451       1    3251    3338    3339    3252
CQUADX4     3452       1    3252    3339    3340    3253
CQUADX4     3453       1    3253    3340    3341    3254
CQUADX4     3454       1    3254    3341    3342    3255
CQUADX4     3455       1    3255    3342    3343    3256
CQUADX4     3456       1    3256    3343    3344    3257
CQUADX4     3457       1    3257    3344    3345    3258
CQUADX4     3458       1    3258    3345    3346    3259
CQUADX4     3459       1    3259    3346    3347    3260
CQUADX4     3460       1    3260    3347    3348    3261
CQUADX4     3461       1    3261    3348    3349    3262
CQUADX4     3462       1    3262    3349    3350    3263
CQUADX4     3463       1    3263    3350    3351    3264
CQUADX4     3464       1    3264    3351    3352    3265
CQUADX4     3465       1    3265    3352    3353    3266
CQUADX4     3466       1    3266    3353    3354    3267
CQUADX4     3467       1    3267    3354    3355    3268
CQUADX4     3468       1    3268    3355    3356    3269
CQUADX4     3469       1    3269    3356    3357    3270
CQUADX4     3470       1    3270    3357    3358    3271
CQUADX4     3471       1    3271    3358    3359    3272
CQUADX4     3472       1    3272    3359    3360    3273
CQUADX4     3473       1    3273    3360    3361    3274
CQUADX4     3474       1    3274    3361    3362    3275
CQUADX4     3475       1    3276    3363    3364    3277
CQUADX4     3476       1    3277    3364    3365    3278
CQUADX4     3477       1    3278    3365    3366    3279
CQUADX4     3478       1    3279    3366    3367    3280
CQUADX4     3479       1    3280    3367    3368    3281
CQUADX4     3480       1    3281    3368    3369    3282
CQUADX4     3481       1    3282    3369    3370    3283
CQUADX4     3482       1    3283    3370    3371    3284
CQUADX4     3483       1    3284    3371    3372    3285
CQUADX4     3484       1    3285    3372    3373    3286
CQUADX4     3485       1    3286    3373    3374    3287
CQUADX4     3486       1    3287    3374    3375    3288
CQUADX4     3487       1    3288    3375    3376    3289
CQUADX4     3488       1    3289    3376    3377    3290
CQUADX4     3489       1    3290    3377    3378    3291
CQUADX4     3490       1    3291    3378    3379    3292
CQUADX4     3491       1    3292    3379    3380    3293
CQUADX4     3492       1    3293    3380    3381    3294
CQUADX4     3493       1    3294    3381    3382    3295
CQUADX4     3494       1    3295    3382    3383    3296
CQUADX4     3495       1    3296    3383    3384    3297
CQUADX4     3496       1    3297    3384    3385    3298
CQUADX4     3497       1    3298    3385    3386    3299
CQUADX4     3498       1    3299    3386    3387    3300
CQUADX4     3499       1    3300    3387    3388    3301
CQUADX4     3500       1    3301    3388    3389    3302
CQUADX4     3501       1    3302    3389    3390    3303
CQUADX4     3502       1    3303    3390    3391    3304
CQUADX4     3503       1    3304    3391    3392    3305
CQUADX4     3504       1    3305    3392    3393    3306
CQUADX4     3505       1    3306    3393    3394    3307
CQUADX4     3506       1    3307    3394    3395    3308
CQUADX4     3507       1    3308    3395    3396    3309
CQUADX4     3508       1    3309    3396    3397    3310
CQUADX4     3509       1    3310    3397    3398    3311
CQUADX4     3510       1    3311    3398    3399    3312
CQUADX4     3511       1    3312    3399    3400    3313
CQUADX4     3512       1    3313    3400    3401    3314
CQUADX4     3513       1    3314    3401    3402    3315
CQUADX4     3514       1    3315    3402    3403    3316
CQUADX4     3515       1    3316    3403    3404    3317
CQUADX4     3516       1    3317    3404    3405    3318
CQUADX4     3517       1    3318    3405    3406    3319
CQUADX4     3518       1    3319    3406    3407    3320
CQUADX4     3519       1    3320    3407    3408    3321
CQUADX4     3520       1    3321    3408    3409    3322
CQUADX4     3521       1    3322    3409    3410    3323
CQUADX4     3522       1    3323    3410    3411    3324
CQUADX4     3523       1    3324    3411    3412    3325
CQUADX4     3524       1    3325    3412    3413    3326
CQUADX4     3525       1    3326    3413    3414    3327
CQUADX4     3526       1    3327    3414    3415    3328
CQUADX4     3527       1    3328    3415    3416    3329
CQUADX4     3528       1    3329    3416    3417    3330
CQUADX4     3529       1    3330    3417    3418    3331
CQUADX4     3530       1    3331    3418    3419    3332
CQUADX4     3531       1    3332    3419    3420    3333
CQUADX4     3532       1    3333    3420    3421    3334
CQUADX4     3533       1    3334    3421    3422    3335
CQUADX4     3534       1    3335    3422    3423    3336
CQUADX4     3535       1    3336    3423    3424    3337
CQUADX4     3536       1    3337    3424    3425    3338
CQUADX4     3537       1    3338    3425    3426    3339
CQUADX4     3538       1    3339    3426    3427    3340
CQUADX4     3539       1    3340    3427    3428    3341
CQUADX4     3540       1    3341    3428    3429    3342
CQUADX4     3541       1    3342    3429    3430    3343
CQUADX4     3542       1    3343    3430    3431    3344
CQUADX4     3543       1    3344    3431    3432    3345
CQUADX4     3544       1    3345    3432    3433    3346
CQUADX4     3545       1    3346    3433    3434    3347
CQUADX4     3546       1    3347    3434    3435    3348
CQUADX4     3547       1    3348    3435    3436    3349
CQUADX4     3548       1    3349    3436    3437    3350
CQUADX4     3549       1    3350    3437    3438    3351
CQUADX4     3550       1    3351    3438    3439    3352
CQUADX4     3551       1    3352    3439    3440    3353
CQUADX4     3552       1    3353    3440    3441    3354
CQUADX4     3553       1    3354    3441    3442    3355
CQUADX4     3554       1    3355    3442    3443    3356
CQUADX4     3555       1    3356    3443    3444    3357
CQUADX4     3556       1    3357    3444    3445    3358
CQUADX4     3557       1    3358    3445    3446    3359
CQUADX4     3558       1    3359    3446    3447    3360
CQUADX4     3559       1    3360    3447    3448    3361
CQUADX4     3560       1    3361    3448    3449    3362
CQUADX4     3561       1    3363    3450    3451    3364
CQUADX4     3562       1    3364    3451    3452    3365
CQUADX4     3563       1    3365    3452    3453    3366
CQUADX4     3564       1    3366    3453    3454    3367
CQUADX4     3565       1    3367    3454    3455    3368
CQUADX4     3566       1    3368    3455    3456    3369
CQUADX4     3567       1    3369    3456    3457    3370
CQUADX4     3568       1    3370    3457    3458    3371
CQUADX4     3569       1    3371    3458    3459    3372
CQUADX4     3570       1    3372    3459    3460    3373
CQUADX4     3571       1    3373    3460    3461    3374
CQUADX4     3572       1    3374    3461    3462    3375
CQUADX4     3573       1    3375    3462    3463    3376
CQUADX4     3574       1    3376    3463    3464    3377
CQUADX4     3575       1    3377    3464    3465    3378
CQUADX4     3576       1    3378    3465    3466    3379
CQUADX4     3577       1    3379    3466    3467    3380
CQUADX4     3578       1    3380    3467    3468    3381
CQUADX4     3579       1    3381    3468    3469    3382
CQUADX4     3580       1    3382    3469    3470    3383
CQUADX4     3581       1    3383    3470    3471    3384
CQUADX4     3582       1    3384    3471    3472    3385
CQUADX4     3583       1    3385    3472    3473    3386
CQUADX4     3584       1    3386    3473    3474    3387
CQUADX4     3585       1    3387    3474    3475    3388
CQUADX4     3586       1    3388    3475    3476    3389
CQUADX4     3587       1    3389    3476    3477    3390
CQUADX4     3588       1    3390    3477    3478    3391
CQUADX4     3589       1    3391    3478    3479    3392
CQUADX4     3590       1    3392    3479    3480    3393
CQUADX4     3591       1    3393    3480    3481    3394
CQUADX4     3592       1    3394    3481    3482    3395
CQUADX4     3593       1    3395    3482    3483    3396
CQUADX4     3594       1    3396    3483    3484    3397
CQUADX4     3595       1    3397    3484    3485    3398
CQUADX4     3596       1    3398    3485    3486    3399
CQUADX4     3597       1    3399    3486    3487    3400
CQUADX4     3598       1    3400    3487    3488    3401
CQUADX4     3599       1    3401    3488    3489    3402
CQUADX4     3600       1    3402    3489    3490    3403
CQUADX4     3601       1    3403    3490    3491    3404
CQUADX4     3602       1    3404    3491    3492    3405
CQUADX4     3603       1    3405    3492    3493    3406
CQUADX4     3604       1    3406    3493    3494    3407
CQUADX4     3605       1    3407    3494    3495    3408
CQUADX4     3606       1    3408    3495    3496    3409
CQUADX4     3607       1    3409    3496    3497    3410
CQUADX4     3608       1    3410    3497    3498    3411
CQUADX4     3609       1    3411    3498    3499    3412
CQUADX4     3610       1    3412    3499    3500    3413
CQUADX4     3611       1    3413    3500    3501    3414
CQUADX4     3612       1    3414    3501    3502    3415
CQUADX4     3613       1    3415    3502    3503    3416
CQUADX4     3614       1    3416    3503    3504    3417
CQUADX4     3615       1    3417    3504    3505    3418
CQUADX4     3616       1    3418    3505    3506    3419
CQUADX4     3617       1    3419    3506    3507    3420
CQUADX4     3618       1    3420    3507    3508    3421
CQUADX4     3619       1    3421    3508    3509    3422
CQUADX4     3620       1    3422    3509    3510    3423
CQUADX4     3621       1    3423    3510    3511    3424
CQUADX4     3622       1    3424    3511    3512    3425
CQUADX4     3623       1    3425    3512    3513    3426
CQUADX4     3624       1    3426    3513    3514    3427
CQUADX4     3625       1    3427    3514    3515    3428
CQUADX4     3626       1    3428    3515    3516    3429
CQUADX4     3627       1    3429    3516    3517    3430
CQUADX4     3628       1    3430    3517    3518    3431
CQUADX4     3629       1    3431    3518    3519    3432
CQUADX4     3630       1    3432    3519    3520    3433
CQUADX4     3631       1    3433    3520    3521    3434
CQUADX4     3632       1    3434    3521    3522    3435
CQUADX4     3633       1    3435    3522    3523    3436
CQUADX4     3634       1    3436    3523    3524    3437
CQUADX4     3635       1    3437    3524    3525    3438
CQUADX4     3636       1    3438    3525    3526    3439
CQUADX4     3637       1    3439    3526    3527    3440
CQUADX4     3638       1    3440    3527    3528    3441
CQUADX4     3639       1    3441    3528    3529    3442
CQUADX4     3640       1    3442    3529    3530    3443
CQUADX4     3641       1    3443    3530    3531    3444
CQUADX4     3642       1    3444    3531    3532    3445
CQUADX4     3643       1    3445    3532    3533    3446
CQUADX4     3644       1    3446    3533    3534    3447
CQUADX4     3645       1    3447    3534    3535    3448
CQUADX4     3646       1    3448    3535    3536    3449
CQUADX4     3647       1    3450    3537    3538    3451
CQUADX4     3648       1    3451    3538    3539    3452
CQUADX4     3649       1    3452    3539    3540    3453
CQUADX4     3650       1    3453    3540    3541    3454
CQUADX4     3651       1    3454    3541    3542    3455
CQUADX4     3652       1    3455    3542    3543    3456
CQUADX4     3653       1    3456    3543    3544    3457
CQUADX4     3654       1    3457    3544    3545    3458
CQUADX4     3655       1    3458    3545    3546    3459
CQUADX4     3656       1    3459    3546    3547    3460
CQUADX4     3657       1    3460    3547    3548    3461
CQUADX4     3658       1    3461    3548    3549    3462
CQUADX4     3659       1    3462    3549    3550    3463
CQUADX4     3660       1    3463    3550    3551    3464
CQUADX4     3661       1    3464    3551    3552    3465
CQUADX4     3662       1    3465    3552    3553    3466
CQUADX4     3663       1    3466    3553    3554    3467
CQUADX4     3664       1    3467    3554    3555    3468
CQUADX4     3665       1    3468    3555    3556    3469
CQUADX4     3666       1    3469    3556    3557    3470
CQUADX4     3667       1    3470    3557    3558    3471
CQUADX4     3668       1    3471    3558    3559    3472
CQUADX4     3669       1    3472    3559    3560    3473
CQUADX4     3670       1    3473    3560    3561    3474
CQUADX4     3671       1    3474    3561    3562    3475
CQUADX4     3672       1    3475    3562    3563    3476
CQUADX4     3673       1    3476    3563    3564    3477
CQUADX4     3674       1    3477    3564    3565    3478
CQUADX4     3675       1    3478    3565    3566    3479
CQUADX4     3676       1    3479    3566    3567    3480
CQUADX4     3677       1    3480    3567    3568    3481
CQUADX4     3678       1    3481    3568    3569    3482
CQUADX4     3679       1    3482    3569    3570    3483
CQUADX4     3680       1    3483    3570    3571    3484
CQUADX4     3681       1    3484    3571    3572    3485
CQUADX4     3682       1    3485    3572    3573    3486
CQUADX4     3683       1    3486    3573    3574    3487
CQUADX4     3684       1    3487    3574    3575    3488
CQUADX4     3685       1    3488    3575    3576    3489
CQUADX4     3686       1    3489    3576    3577    3490
CQUADX4     3687       1    3490    3577    3578    3491
CQUADX4     3688       1    3491    3578    3579    3492
CQUADX4     3689       1    3492    3579    3580    3493
CQUADX4     3690       1    3493    3580    3581    3494
CQUADX4     3691       1    3494    3581    3582    3495
CQUADX4     3692       1    3495    3582    3583    3496
CQUADX4     3693       1    3496    3583    3584    3497
CQUADX4     3694       1    3497    3584    3585    3498
CQUADX4     3695       1    3498    3585    3586    3499
CQUADX4     3696       1    3499    3586    3587    3500
CQUADX4     3697       1    3500    3587    3588    3501
CQUADX4     3698       1    3501    3588    3589    3502
CQUADX4     3699       1    3502    3589    3590    3503
CQUADX4     3700       1    3503    3590    3591    3504
CQUADX4     3701       1    3504    3591    3592    3505
CQUADX4     3702       1    3505    3592    3593    3506
CQUADX4     3703       1    3506    3593    3594    3507
CQUADX4     3704       1    3507    3594    3595    3508
CQUADX4     3705       1    3508    3595    3596    3509
CQUADX4     3706       1    3509    3596    3597    3510
CQUADX4     3707       1    3510    3597    3598    3511
CQUADX4     3708       1    3511    3598    3599    3512
CQUADX4     3709       1    3512    3599    3600    3513
CQUADX4     3710       1    3513    3600    3601    3514
CQUADX4     3711       1    3514    3601    3602    3515
CQUADX4     3712       1    3515    3602    3603    3516
CQUADX4     3713       1    3516    3603    3604    3517
CQUADX4     3714       1    3517    3604    3605    3518
CQUADX4     3715       1    3518    3605    3606    3519
CQUADX4     3716       1    3519    3606    3607    3520
CQUADX4     3717       1    3520    3607    3608    3521
CQUADX4     3718       1    3521    3608    3609    3522
CQUADX4     3719       1    3522    3609    3610    3523
CQUADX4     3720       1    3523    3610    3611    3524
CQUADX4     3721       1    3524    3611    3612    3525
CQUADX4     3722       1    3525    3612    3613    3526
CQUADX4     3723       1    3526    3613    3614    3527
CQUADX4     3724       1    3527    3614    3615    3528
CQUADX4     3725       1    3528    3615    3616    3529
CQUADX4     3726       1    3529    3616    3617    3530
CQUADX4     3727       1    3530    3617    3618    3531
CQUADX4     3728       1    3531    3618    3619    3532
CQUADX4     3729       1    3532    3619    3620    3533
CQUADX4     3730       1    3533    3620    3621    3534
CQUADX4     3731       1    3534    3621    3622    3535
CQUADX4     3732       1    3535    3622    3623    3536
CQUADX4     3733       1    3537    3624    3625    3538
CQUADX4     3734       1    3538    3625    3626    3539
CQUADX4     3735       1    3539    3626    3627    3540
CQUADX4     3736       1    3540    3627    3628    3541
CQUADX4     3737       1    3541    3628    3629    3542
CQUADX4     3738       1    3542    3629    3630    3543
CQUADX4     3739       1    3543    3630    3631    3544
CQUADX4     3740       1    3544    3631    3632    3545
CQUADX4     3741       1    3545    3632    3633    3546
CQUADX4     3742       1    3546    3633    3634    3547
CQUADX4     3743       1    3547    3634    3635    3548
CQUADX4     3744       1    3548    3635    3636    3549
CQUADX4     3745       1    3549    3636    3637    3550
CQUADX4     3746       1    3550    3637    3638    3551
CQUADX4     3747       1    3551    3638    3639    3552
CQUADX4     3748       1    3552    3639    3640    3553
CQUADX4     3749       1    3553    3640    3641    3554
CQUADX4     3750       1    3554    3641    3642    3555
CQUADX4     3751       1    3555    3642    3643    3556
CQUADX4     3752       1    3556    3643    3644    3557
CQUADX4     3753       1    3557    3644    3645    3558
CQUADX4     3754       1    3558    3645    3646    3559
CQUADX4     3755       1    3559    3646    3647    3560
CQUADX4     3756       1    3560    3647    3648    3561
CQUADX4     3757       1    3561    3648    3649    3562
CQUADX4     3758       1    3562    3649    3650    3563
CQUADX4     3759       1    3563    3650    3651    3564
CQUADX4     3760       1    3564    3651    3652    3565
CQUADX4     3761       1    3565    3652    3653    3566
CQUADX4     3762       1    3566    3653    3654    3567
CQUADX4     3763       1    3567    3654    3655    3568
CQUADX4     3764       1    3568    3655    3656    3569
CQUADX4     3765       1    3569    3656    3657    3570
CQUADX4     3766       1    3570    3657    3658    3571
CQUADX4     3767       1    3571    3658    3659    3572
CQUADX4     3768       1    3572    3659    3660    3573
CQUADX4     3769       1    3573    3660    3661    3574
CQUADX4     3770       1    3574    3661    3662    3575
CQUADX4     3771       1    3575    3662    3663    3576
CQUADX4     3772       1    3576    3663    3664    3577
CQUADX4     3773       1    3577    3664    3665    3578
CQUADX4     3774       1    3578    3665    3666    3579
CQUADX4     3775       1    3579    3666    3667    3580
CQUADX4     3776       1    3580    3667    3668    3581
CQUADX4     3777       1    3581    3668    3669    3582
CQUADX4     3778       1    3582    3669    3670    3583
CQUADX4     3779       1    3583    3670    3671    3584
CQUADX4     3780       1    3584    3671    3672    3585
CQUADX4     3781       1    3585    3672    3673    3586
CQUADX4     3782       1    3586    3673    3674    3587
CQUADX4     3783       1    3587    3674    3675    3588
CQUADX4     3784       1    3588    3675    3676    3589
CQUADX4     3785       1    3589    3676    3677    3590
CQUADX4     3786       1    3590    3677    3678    3591
CQUADX4     3787       1    3591    3678    3679    3592
CQUADX4     3788       1    3592    3679    3680    3593
CQUADX4     3789       1    3593    3680    3681    3594
CQUADX4     3790       1    3594    3681    3682    3595
CQUADX4     3791       1    3595    3682    3683    3596
CQUADX4     3792       1    3596    3683    3684    3597
CQUADX4     3793       1    3597    3684    3685    3598
CQUADX4     3794       1    3598    3685    3686    3599
CQUADX4     3795       1    3599    3686    3687    3600
CQUADX4     3796       1    3600    3687    3688    3601
CQUADX4     3797       1    3601    3688    3689    3602
CQUADX4     3798       1    3602    3689    3690    3603
CQUADX4     3799       1    3603    3690    3691    3604
CQUADX4     3800       1    3604    3691    3692    3605
CQUADX4     3801       1    3605    3692    3693    3606
CQUADX4     3802       1    3606    3693    3694    3607
CQUADX4     3803       1    3607    3694    3695    3608
CQUADX4     3804       1    3608    3695    3696    3609
CQUADX4     3805       1    3609    3696    3697    3610
CQUADX4     3806       1    3610    3697    3698    3611
CQUADX4     3807       1    3611    3698    3699    3612
CQUADX4     3808       1    3612    3699    3700    3613
CQUADX4     3809       1    3613    3700    3701    3614
CQUADX4     3810       1    3614    3701    3702    3615
CQUADX4     3811       1    3615    3702    3703    3616
CQUADX4     3812       1    3616    3703    3704    3617
CQUADX4     3813       1    3617    3704    3705    3618
CQUADX4     3814       1    3618    3705    3706    3619
CQUADX4     3815       1    3619    3706    3707    3620
CQUADX4     3816       1    3620    3707    3708    3621
CQUADX4     3817       1    3621    3708    3709    3622
CQUADX4     3818       1    3622    3709    3710    3623
CQUADX4     3819       1    5514    5392    2493    5274
CQUADX4     3820       1    5392    5391    2580    2493
CQUADX4     3821       1    5391    5390    2667    2580
CQUADX4     3822       1    5390    5389    2754    2667
CQUADX4     3823       1    5389    5388    2841    2754
CQUADX4     3824       1    5388    5387    2928    2841
CQUADX4     3825       1    5387    5386    3015    2928
CQUADX4     3826       1    5386    5385    3102    3015
CQUADX4     3827       1    5385    5384    3189    3102
CQUADX4     3828       1    5384    5383    3276    3189
CQUADX4     3829       1    5383    5382    3363    3276
CQUADX4     3830       1    5382    5381    3450    3363
CQUADX4     3831       1    5381    5380    3537    3450
CQUADX4     3832       1    5380    5379    3624    3537
CQUADX4     3833       1    5379    5513    5228    3624
CQUADX4     3834       1    3624    5228    5510    3625
CQUADX4     3835       1    3625    5510    5186    3626
CQUADX4     3836       1    3626    5186    5187    3627
CQUADX4     3837       1    3627    5187    5188    3628
CQUADX4     3838       1    3628    5188    5189    3629
CQUADX4     3839       1    3629    5189    5190    3630
CQUADX4     3840       1    3630    5190    5191    3631
CQUADX4     3841       1    3631    5191    5192    3632
CQUADX4     3842       1    3632    5192    5193    3633
CQUADX4     3843       1    3633    5193    5194    3634
CQUADX4     3844       1    3634    5194    5195    3635
CQUADX4     3845       1    3635    5195    5196    3636
CQUADX4     3846       1    3636    5196    5197    3637
CQUADX4     3847       1    3637    5197    5198    3638
CQUADX4     3848       1    3638    5198    5199    3639
CQUADX4     3849       1    3639    5199    5200    3640
CQUADX4     3850       1    3640    5200    5201    3641
CQUADX4     3851       1    3641    5201    5202    3642
CQUADX4     3852       1    3642    5202    5203    3643
CQUADX4     3853       1    3643    5203    5204    3644
CQUADX4     3854       1    3644    5204    5205    3645
CQUADX4     3855       1    3645    5205    5206    3646
CQUADX4     3856       1    3646    5206    5207    3647
CQUADX4     3857       1    3647    5207    5208    3648
CQUADX4     3858       1    3648    5208    5209    3649
CQUADX4     3859       1    3649    5209    5210    3650
CQUADX4     3860       1    3650    5210    5211    3651
CQUADX4     3861       1    3651    5211    5212    3652
CQUADX4     3862       1    3652    5212    5213    3653
CQUADX4     3863       1    3653    5213    5214    3654
CQUADX4     3864       1    3654    5214    5215    3655
CQUADX4     3865       1    3655    5215    5216    3656
CQUADX4     3866       1    3656    5216    5217    3657
CQUADX4     3867       1    3657    5217    5218    3658
CQUADX4     3868       1    3658    5218    5219    3659
CQUADX4     3869       1    3659    5219    5220    3660
CQUADX4     3870       1    3660    5220    5221    3661
CQUADX4     3871       1    3661    5221    5222    3662
CQUADX4     3872       1    3662    5222    5223    3663
CQUADX4     3873       1    3663    5223    5224    3664
CQUADX4     3874       1    3664    5224    5225    3665
CQUADX4     3875       1    3665    5225    5226    3666
CQUADX4     3876       1    3666    5226    5227    3667
CQUADX4     3877       1    3667    5227    5508    3668
CQUADX4     3878       1    3668    5508    5127    3669
CQUADX4     3879       1    3669    5127    5128    3670
CQUADX4     3880       1    3670    5128    5129    3671
CQUADX4     3881       1    3671    5129    5130    3672
CQUADX4     3882       1    3672    5130    5131    3673
CQUADX4     3883       1    3673    5131    5132    3674
CQUADX4     3884       1    3674    5132    5133    3675
CQUADX4     3885       1    3675    5133    5134    3676
CQUADX4     3886       1    3676    5134    5135    3677
CQUADX4     3887       1    3677    5135    5136    3678
CQUADX4     3888       1    3678    5136    5137    3679
CQUADX4     3889       1    3679    5137    5138    3680
CQUADX4     3890       1    3680    5138    5139    3681
CQUADX4     3891       1    3681    5139    5140    3682
CQUADX4     3892       1    3682    5140    5141    3683
CQUADX4     3893       1    3683    5141    5142    3684
CQUADX4     3894       1    3684    5142    5143    3685
CQUADX4     3895       1    3685    5143    5144    3686
CQUADX4     3896       1    3686    5144    5145    3687
CQUADX4     3897       1    3687    5145    5146    3688
CQUADX4     3898       1    3688    5146    5147    3689
CQUADX4     3899       1    3689    5147    5507    3690
CQUADX4     3900       1    3690    5507    5107    3691
CQUADX4     3901       1    3691    5107    5108    3692
CQUADX4     3902       1    3692    5108    5109    3693
CQUADX4     3903       1    3693    5109    5110    3694
CQUADX4     3904       1    3694    5110    5111    3695
CQUADX4     3905       1    3695    5111    5112    3696
CQUADX4     3906       1    3696    5112    5113    3697
CQUADX4     3907       1    3697    5113    5114    3698
CQUADX4     3908       1    3698    5114    5115    3699
CQUADX4     3909       1    3699    5115    5116    3700
CQUADX4     3910       1    3700    5116    5117    3701
CQUADX4     3911       1    3701    5117    5118    3702
CQUADX4     3912       1    3702    5118    5119    3703
CQUADX4     3913       1    3703    5119    5120    3704
CQUADX4     3914       1    3704    5120    5121    3705
CQUADX4     3915       1    3705    5121    5122    3706
CQUADX4     3916       1    3706    5122    5123    3707
CQUADX4     3917       1    3707    5123    5124    3708
CQUADX4     3918       1    3708    5124    5125    3709
CQUADX4     3919       1    3709    5125    5126    3710
CQUADX4     3920       1    3710    5126    5505    5093
CQUADX4     3921       1    3623    3710    5093    5094
CQUADX4     3922       1    3536    3623    5094    5095
CQUADX4     3923       1    3449    3536    5095    5096
CQUADX4     3924       1    3362    3449    5096    5097
CQUADX4     3925       1    3275    3362    5097    5098
CQUADX4     3926       1    3188    3275    5098    5099
CQUADX4     3927       1    3101    3188    5099    5100
CQUADX4     3928       1    3014    3101    5100    5101
CQUADX4     3929       1    2927    3014    5101    5102
CQUADX4     3930       1    2840    2927    5102    5103
CQUADX4     3931       1    2753    2840    5103    5104
CQUADX4     3932       1    2666    2753    5104    5105
CQUADX4     3933       1    2579    2666    5105    5106
CQUADX4     3934       1    5148    2579    5106    5506
CQUADX4     3935       1    5149    2578    2579    5148
CQUADX4     3936       1    5150    2577    2578    5149
CQUADX4     3937       1    5151    2576    2577    5150
CQUADX4     3938       1    5152    2575    2576    5151
CQUADX4     3939       1    5153    2574    2575    5152
CQUADX4     3940       1    5154    2573    2574    5153
CQUADX4     3941       1    5155    2572    2573    5154
CQUADX4     3942       1    5156    2571    2572    5155
CQUADX4     3943       1    5157    2570    2571    5156
CQUADX4     3944       1    5158    2569    2570    5157
CQUADX4     3945       1    5159    2568    2569    5158
CQUADX4     3946       1    5160    2567    2568    5159
CQUADX4     3947       1    5161    2566    2567    5160
CQUADX4     3948       1    5162    2565    2566    5161
CQUADX4     3949       1    5163    2564    2565    5162
CQUADX4     3950       1    5164    2563    2564    5163
CQUADX4     3951       1    5165    2562    2563    5164
CQUADX4     3952       1    5166    2561    2562    5165
CQUADX4     3953       1    5167    2560    2561    5166
CQUADX4     3954       1    5168    2559    2560    5167
CQUADX4     3955       1    5169    2558    2559    5168
CQUADX4     3956       1    5170    2557    2558    5169
CQUADX4     3957       1    5171    2556    2557    5170
CQUADX4     3958       1    5172    2555    2556    5171
CQUADX4     3959       1    5173    2554    2555    5172
CQUADX4     3960       1    5174    2553    2554    5173
CQUADX4     3961       1    5175    2552    2553    5174
CQUADX4     3962       1    5176    2551    2552    5175
CQUADX4     3963       1    5177    2550    2551    5176
CQUADX4     3964       1    5178    2549    2550    5177
CQUADX4     3965       1    5179    2548    2549    5178
CQUADX4     3966       1    5180    2547    2548    5179
CQUADX4     3967       1    5181    2546    2547    5180
CQUADX4     3968       1    5182    2545    2546    5181
CQUADX4     3969       1    5183    2544    2545    5182
CQUADX4     3970       1    5184    2543    2544    5183
CQUADX4     3971       1    5185    2542    2543    5184
CQUADX4     3972       1    5509    2541    2542    5185
CQUADX4     3973       1    5229    2540    2541    5509
CQUADX4     3974       1    5230    2539    2540    5229
CQUADX4     3975       1    5511    2538    2539    5230
CQUADX4     3976       1    5231    2537    2538    5511
CQUADX4     3977       1    5232    2536    2537    5231
CQUADX4     3978       1    5233    2535    2536    5232
CQUADX4     3979       1    5234    2534    2535    5233
CQUADX4     3980       1    5235    2533    2534    5234
CQUADX4     3981       1    5236    2532    2533    5235
CQUADX4     3982       1    5237    2531    2532    5236
CQUADX4     3983       1    5238    2530    2531    5237
CQUADX4     3984       1    5239    2529    2530    5238
CQUADX4     3985       1    5240    2528    2529    5239
CQUADX4     3986       1    5241    2527    2528    5240
CQUADX4     3987       1    5242    2526    2527    5241
CQUADX4     3988       1    5243    2525    2526    5242
CQUADX4     3989       1    5244    2524    2525    5243
CQUADX4     3990       1    5245    2523    2524    5244
CQUADX4     3991       1    5246    2522    2523    5245
CQUADX4     3992       1    5247    2521    2522    5246
CQUADX4     3993       1    5248    2520    2521    5247
CQUADX4     3994       1    5249    2519    2520    5248
CQUADX4     3995       1    5250    2518    2519    5249
CQUADX4     3996       1    5251    2517    2518    5250
CQUADX4     3997       1    5252    2516    2517    5251
CQUADX4     3998       1    5253    2515    2516    5252
CQUADX4     3999       1    5254    2514    2515    5253
CQUADX4     4000       1    5255    2513    2514    5254
CQUADX4     4001       1    5256    2512    2513    5255
CQUADX4     4002       1    5512    2511    2512    5256
CQUADX4     4003       1    5257    2510    2511    5512
CQUADX4     4004       1    5258    2509    2510    5257
CQUADX4     4005       1    5259    2508    2509    5258
CQUADX4     4006       1    5260    2507    2508    5259
CQUADX4     4007       1    5261    2506    2507    5260
CQUADX4     4008       1    5262    2505    2506    5261
CQUADX4     4009       1    5263    2504    2505    5262
CQUADX4     4010       1    5264    2503    2504    5263
CQUADX4     4011       1    5265    2502    2503    5264
CQUADX4     4012       1    5266    2501    2502    5265
CQUADX4     4013       1    5267    2500    2501    5266
CQUADX4     4014       1    5268    2499    2500    5267
CQUADX4     4015       1    5269    2498    2499    5268
CQUADX4     4016       1    5270    2497    2498    5269
CQUADX4     4017       1    5271    2496    2497    5270
CQUADX4     4018       1    5272    2495    2496    5271
CQUADX4     4019       1    5273    2494    2495    5272
CQUADX4     4020       1    5274    2493    2494    5273
CQUADX4     4021       1    3711    3719    3720    3712
CQUADX4     4022       1    3712    3720    3721    3713
CQUADX4     4023       1    3713    3721    3722    3714
CQUADX4     4024       1    3714    3722    3723    3715
CQUADX4     4025       1    3715    3723    3724    3716
CQUADX4     4026       1    3716    3724    3725    3717
CQUADX4     4027       1    3717    3725    3726    3718
CQUADX4     4028       1    3719    3727    3728    3720
CQUADX4     4029       1    3720    3728    3729    3721
CQUADX4     4030       1    3721    3729    3730    3722
CQUADX4     4031       1    3722    3730    3731    3723
CQUADX4     4032       1    3723    3731    3732    3724
CQUADX4     4033       1    3724    3732    3733    3725
CQUADX4     4034       1    3725    3733    3734    3726
CQUADX4     4035       1    3727    3735    3736    3728
CQUADX4     4036       1    3728    3736    3737    3729
CQUADX4     4037       1    3729    3737    3738    3730
CQUADX4     4038       1    3730    3738    3739    3731
CQUADX4     4039       1    3731    3739    3740    3732
CQUADX4     4040       1    3732    3740    3741    3733
CQUADX4     4041       1    3733    3741    3742    3734
CQUADX4     4042       1    3735    3743    3744    3736
CQUADX4     4043       1    3736    3744    3745    3737
CQUADX4     4044       1    3737    3745    3746    3738
CQUADX4     4045       1    3738    3746    3747    3739
CQUADX4     4046       1    3739    3747    3748    3740
CQUADX4     4047       1    3740    3748    3749    3741
CQUADX4     4048       1    3741    3749    3750    3742
CQUADX4     4049       1    3743    3751    3752    3744
CQUADX4     4050       1    3744    3752    3753    3745
CQUADX4     4051       1    3745    3753    3754    3746
CQUADX4     4052       1    3746    3754    3755    3747
CQUADX4     4053       1    3747    3755    3756    3748
CQUADX4     4054       1    3748    3756    3757    3749
CQUADX4     4055       1    3749    3757    3758    3750
CQUADX4     4056       1    3751    3759    3760    3752
CQUADX4     4057       1    3752    3760    3761    3753
CQUADX4     4058       1    3753    3761    3762    3754
CQUADX4     4059       1    3754    3762    3763    3755
CQUADX4     4060       1    3755    3763    3764    3756
CQUADX4     4061       1    3756    3764    3765    3757
CQUADX4     4062       1    3757    3765    3766    3758
CQUADX4     4063       1    3759    3767    3768    3760
CQUADX4     4064       1    3760    3768    3769    3761
CQUADX4     4065       1    3761    3769    3770    3762
CQUADX4     4066       1    3762    3770    3771    3763
CQUADX4     4067       1    3763    3771    3772    3764
CQUADX4     4068       1    3764    3772    3773    3765
CQUADX4     4069       1    3765    3773    3774    3766
CQUADX4     4070       1    3767    3775    3776    3768
CQUADX4     4071       1    3768    3776    3777    3769
CQUADX4     4072       1    3769    3777    3778    3770
CQUADX4     4073       1    3770    3778    3779    3771
CQUADX4     4074       1    3771    3779    3780    3772
CQUADX4     4075       1    3772    3780    3781    3773
CQUADX4     4076       1    3773    3781    3782    3774
CQUADX4     4077       1    3775    3783    3784    3776
CQUADX4     4078       1    3776    3784    3785    3777
CQUADX4     4079       1    3777    3785    3786    3778
CQUADX4     4080       1    3778    3786    3787    3779
CQUADX4     4081       1    3779    3787    3788    3780
CQUADX4     4082       1    3780    3788    3789    3781
CQUADX4     4083       1    3781    3789    3790    3782
CQUADX4     4084       1    3783    3791    3792    3784
CQUADX4     4085       1    3784    3792    3793    3785
CQUADX4     4086       1    3785    3793    3794    3786
CQUADX4     4087       1    3786    3794    3795    3787
CQUADX4     4088       1    3787    3795    3796    3788
CQUADX4     4089       1    3788    3796    3797    3789
CQUADX4     4090       1    3789    3797    3798    3790
CQUADX4     4091       1    3791    3799    3800    3792
CQUADX4     4092       1    3792    3800    3801    3793
CQUADX4     4093       1    3793    3801    3802    3794
CQUADX4     4094       1    3794    3802    3803    3795
CQUADX4     4095       1    3795    3803    3804    3796
CQUADX4     4096       1    3796    3804    3805    3797
CQUADX4     4097       1    3797    3805    3806    3798
CQUADX4     4098       1    3799    3807    3808    3800
CQUADX4     4099       1    3800    3808    3809    3801
CQUADX4     4100       1    3801    3809    3810    3802
CQUADX4     4101       1    3802    3810    3811    3803
CQUADX4     4102       1    3803    3811    3812    3804
CQUADX4     4103       1    3804    3812    3813    3805
CQUADX4     4104       1    3805    3813    3814    3806
CQUADX4     4105       1    3807    3815    3816    3808
CQUADX4     4106       1    3808    3816    3817    3809
CQUADX4     4107       1    3809    3817    3818    3810
CQUADX4     4108       1    3810    3818    3819    3811
CQUADX4     4109       1    3811    3819    3820    3812
CQUADX4     4110       1    3812    3820    3821    3813
CQUADX4     4111       1    3813    3821    3822    3814
CQUADX4     4112       1    3815    3823    3824    3816
CQUADX4     4113       1    3816    3824    3825    3817
CQUADX4     4114       1    3817    3825    3826    3818
CQUADX4     4115       1    3818    3826    3827    3819
CQUADX4     4116       1    3819    3827    3828    3820
CQUADX4     4117       1    3820    3828    3829    3821
CQUADX4     4118       1    3821    3829    3830    3822
CQUADX4     4119       1    3823    3831    3832    3824
CQUADX4     4120       1    3824    3832    3833    3825
CQUADX4     4121       1    3825    3833    3834    3826
CQUADX4     4122       1    3826    3834    3835    3827
CQUADX4     4123       1    3827    3835    3836    3828
CQUADX4     4124       1    3828    3836    3837    3829
CQUADX4     4125       1    3829    3837    3838    3830
CQUADX4     4126       1    3831    3839    3840    3832
CQUADX4     4127       1    3832    3840    3841    3833
CQUADX4     4128       1    3833    3841    3842    3834
CQUADX4     4129       1    3834    3842    3843    3835
CQUADX4     4130       1    3835    3843    3844    3836
CQUADX4     4131       1    3836    3844    3845    3837
CQUADX4     4132       1    3837    3845    3846    3838
CQUADX4     4133       1    3839    3847    3848    3840
CQUADX4     4134       1    3840    3848    3849    3841
CQUADX4     4135       1    3841    3849    3850    3842
CQUADX4     4136       1    3842    3850    3851    3843
CQUADX4     4137       1    3843    3851    3852    3844
CQUADX4     4138       1    3844    3852    3853    3845
CQUADX4     4139       1    3845    3853    3854    3846
CQUADX4     4140       1    3847    3855    3856    3848
CQUADX4     4141       1    3848    3856    3857    3849
CQUADX4     4142       1    3849    3857    3858    3850
CQUADX4     4143       1    3850    3858    3859    3851
CQUADX4     4144       1    3851    3859    3860    3852
CQUADX4     4145       1    3852    3860    3861    3853
CQUADX4     4146       1    3853    3861    3862    3854
CQUADX4     4147       1    3855    3863    3864    3856
CQUADX4     4148       1    3856    3864    3865    3857
CQUADX4     4149       1    3857    3865    3866    3858
CQUADX4     4150       1    3858    3866    3867    3859
CQUADX4     4151       1    3859    3867    3868    3860
CQUADX4     4152       1    3860    3868    3869    3861
CQUADX4     4153       1    3861    3869    3870    3862
CQUADX4     4154       1    3863    3871    3872    3864
CQUADX4     4155       1    3864    3872    3873    3865
CQUADX4     4156       1    3865    3873    3874    3866
CQUADX4     4157       1    3866    3874    3875    3867
CQUADX4     4158       1    3867    3875    3876    3868
CQUADX4     4159       1    3868    3876    3877    3869
CQUADX4     4160       1    3869    3877    3878    3870
CQUADX4     4161       1    3871    3879    3880    3872
CQUADX4     4162       1    3872    3880    3881    3873
CQUADX4     4163       1    3873    3881    3882    3874
CQUADX4     4164       1    3874    3882    3883    3875
CQUADX4     4165       1    3875    3883    3884    3876
CQUADX4     4166       1    3876    3884    3885    3877
CQUADX4     4167       1    3877    3885    3886    3878
CQUADX4     4168       1    3879    3887    3888    3880
CQUADX4     4169       1    3880    3888    3889    3881
CQUADX4     4170       1    3881    3889    3890    3882
CQUADX4     4171       1    3882    3890    3891    3883
CQUADX4     4172       1    3883    3891    3892    3884
CQUADX4     4173       1    3884    3892    3893    3885
CQUADX4     4174       1    3885    3893    3894    3886
CQUADX4     4175       1    3887    3895    3896    3888
CQUADX4     4176       1    3888    3896    3897    3889
CQUADX4     4177       1    3889    3897    3898    3890
CQUADX4     4178       1    3890    3898    3899    3891
CQUADX4     4179       1    3891    3899    3900    3892
CQUADX4     4180       1    3892    3900    3901    3893
CQUADX4     4181       1    3893    3901    3902    3894
CQUADX4     4182       1    3895    3903    3904    3896
CQUADX4     4183       1    3896    3904    3905    3897
CQUADX4     4184       1    3897    3905    3906    3898
CQUADX4     4185       1    3898    3906    3907    3899
CQUADX4     4186       1    3899    3907    3908    3900
CQUADX4     4187       1    3900    3908    3909    3901
CQUADX4     4188       1    3901    3909    3910    3902
CQUADX4     4189       1    3903    3911    3912    3904
CQUADX4     4190       1    3904    3912    3913    3905
CQUADX4     4191       1    3905    3913    3914    3906
CQUADX4     4192       1    3906    3914    3915    3907
CQUADX4     4193       1    3907    3915    3916    3908
CQUADX4     4194       1    3908    3916    3917    3909
CQUADX4     4195       1    3909    3917    3918    3910
CQUADX4     4196       1    3911    3919    3920    3912
CQUADX4     4197       1    3912    3920    3921    3913
CQUADX4     4198       1    3913    3921    3922    3914
CQUADX4     4199       1    3914    3922    3923    3915
CQUADX4     4200       1    3915    3923    3924    3916
CQUADX4     4201       1    3916    3924    3925    3917
CQUADX4     4202       1    3917    3925    3926    3918
CQUADX4     4203       1    3919    3927    3928    3920
CQUADX4     4204       1    3920    3928    3929    3921
CQUADX4     4205       1    3921    3929    3930    3922
CQUADX4     4206       1    3922    3930    3931    3923
CQUADX4     4207       1    3923    3931    3932    3924
CQUADX4     4208       1    3924    3932    3933    3925
CQUADX4     4209       1    3925    3933    3934    3926
CQUADX4     4210       1    3927    3935    3936    3928
CQUADX4     4211       1    3928    3936    3937    3929
CQUADX4     4212       1    3929    3937    3938    3930
CQUADX4     4213       1    3930    3938    3939    3931
CQUADX4     4214       1    3931    3939    3940    3932
CQUADX4     4215       1    3932    3940    3941    3933
CQUADX4     4216       1    3933    3941    3942    3934
CQUADX4     4217       1    3935    3943    3944    3936
CQUADX4     4218       1    3936    3944    3945    3937
CQUADX4     4219       1    3937    3945    3946    3938
CQUADX4     4220       1    3938    3946    3947    3939
CQUADX4     4221       1    3939    3947    3948    3940
CQUADX4     4222       1    3940    3948    3949    3941
CQUADX4     4223       1    3941    3949    3950    3942
CQUADX4     4224       1    3943    3951    3952    3944
CQUADX4     4225       1    3944    3952    3953    3945
CQUADX4     4226       1    3945    3953    3954    3946
CQUADX4     4227       1    3946    3954    3955    3947
CQUADX4     4228       1    3947    3955    3956    3948
CQUADX4     4229       1    3948    3956    3957    3949
CQUADX4     4230       1    3949    3957    3958    3950
CQUADX4     4231       1    3951    3959    3960    3952
CQUADX4     4232       1    3952    3960    3961    3953
CQUADX4     4233       1    3953    3961    3962    3954
CQUADX4     4234       1    3954    3962    3963    3955
CQUADX4     4235       1    3955    3963    3964    3956
CQUADX4     4236       1    3956    3964    3965    3957
CQUADX4     4237       1    3957    3965    3966    3958
CQUADX4     4238       1    3959    3967    3968    3960
CQUADX4     4239       1    3960    3968    3969    3961
CQUADX4     4240       1    3961    3969    3970    3962
CQUADX4     4241       1    3962    3970    3971    3963
CQUADX4     4242       1    3963    3971    3972    3964
CQUADX4     4243       1    3964    3972    3973    3965
CQUADX4     4244       1    3965    3973    3974    3966
CQUADX4     4245       1    3967    3975    3976    3968
CQUADX4     4246       1    3968    3976    3977    3969
CQUADX4     4247       1    3969    3977    3978    3970
CQUADX4     4248       1    3970    3978    3979    3971
CQUADX4     4249       1    3971    3979    3980    3972
CQUADX4     4250       1    3972    3980    3981    3973
CQUADX4     4251       1    3973    3981    3982    3974
CQUADX4     4252       1    3975    3983    3984    3976
CQUADX4     4253       1    3976    3984    3985    3977
CQUADX4     4254       1    3977    3985    3986    3978
CQUADX4     4255       1    3978    3986    3987    3979
CQUADX4     4256       1    3979    3987    3988    3980
CQUADX4     4257       1    3980    3988    3989    3981
CQUADX4     4258       1    3981    3989    3990    3982
CQUADX4     4259       1    3983    3991    3992    3984
CQUADX4     4260       1    3984    3992    3993    3985
CQUADX4     4261       1    3985    3993    3994    3986
CQUADX4     4262       1    3986    3994    3995    3987
CQUADX4     4263       1    3987    3995    3996    3988
CQUADX4     4264       1    3988    3996    3997    3989
CQUADX4     4265       1    3989    3997    3998    3990
CQUADX4     4266       1    3991    3999    4000    3992
CQUADX4     4267       1    3992    4000    4001    3993
CQUADX4     4268       1    3993    4001    4002    3994
CQUADX4     4269       1    3994    4002    4003    3995
CQUADX4     4270       1    3995    4003    4004    3996
CQUADX4     4271       1    3996    4004    4005    3997
CQUADX4     4272       1    3997    4005    4006    3998
CQUADX4     4273       1    3999    4007    4008    4000
CQUADX4     4274       1    4000    4008    4009    4001
CQUADX4     4275       1    4001    4009    4010    4002
CQUADX4     4276       1    4002    4010    4011    4003
CQUADX4     4277       1    4003    4011    4012    4004
CQUADX4     4278       1    4004    4012    4013    4005
CQUADX4     4279       1    4005    4013    4014    4006
CQUADX4     4280       1    4007    4015    4016    4008
CQUADX4     4281       1    4008    4016    4017    4009
CQUADX4     4282       1    4009    4017    4018    4010
CQUADX4     4283       1    4010    4018    4019    4011
CQUADX4     4284       1    4011    4019    4020    4012
CQUADX4     4285       1    4012    4020    4021    4013
CQUADX4     4286       1    4013    4021    4022    4014
CQUADX4     4287       1    4015    4023    4024    4016
CQUADX4     4288       1    4016    4024    4025    4017
CQUADX4     4289       1    4017    4025    4026    4018
CQUADX4     4290       1    4018    4026    4027    4019
CQUADX4     4291       1    4019    4027    4028    4020
CQUADX4     4292       1    4020    4028    4029    4021
CQUADX4     4293       1    4021    4029    4030    4022
CQUADX4     4294       1    4023    4031    4032    4024
CQUADX4     4295       1    4024    4032    4033    4025
CQUADX4     4296       1    4025    4033    4034    4026
CQUADX4     4297       1    4026    4034    4035    4027
CQUADX4     4298       1    4027    4035    4036    4028
CQUADX4     4299       1    4028    4036    4037    4029
CQUADX4     4300       1    4029    4037    4038    4030
CQUADX4     4301       1    4031    4039    4040    4032
CQUADX4     4302       1    4032    4040    4041    4033
CQUADX4     4303       1    4033    4041    4042    4034
CQUADX4     4304       1    4034    4042    4043    4035
CQUADX4     4305       1    4035    4043    4044    4036
CQUADX4     4306       1    4036    4044    4045    4037
CQUADX4     4307       1    4037    4045    4046    4038
CQUADX4     4308       1    4039    4047    4048    4040
CQUADX4     4309       1    4040    4048    4049    4041
CQUADX4     4310       1    4041    4049    4050    4042
CQUADX4     4311       1    4042    4050    4051    4043
CQUADX4     4312       1    4043    4051    4052    4044
CQUADX4     4313       1    4044    4052    4053    4045
CQUADX4     4314       1    4045    4053    4054    4046
CQUADX4     4315       1    4047    4055    4056    4048
CQUADX4     4316       1    4048    4056    4057    4049
CQUADX4     4317       1    4049    4057    4058    4050
CQUADX4     4318       1    4050    4058    4059    4051
CQUADX4     4319       1    4051    4059    4060    4052
CQUADX4     4320       1    4052    4060    4061    4053
CQUADX4     4321       1    4053    4061    4062    4054
CQUADX4     4322       1    4055    4063    4064    4056
CQUADX4     4323       1    4056    4064    4065    4057
CQUADX4     4324       1    4057    4065    4066    4058
CQUADX4     4325       1    4058    4066    4067    4059
CQUADX4     4326       1    4059    4067    4068    4060
CQUADX4     4327       1    4060    4068    4069    4061
CQUADX4     4328       1    4061    4069    4070    4062
CQUADX4     4329       1    4063    4071    4072    4064
CQUADX4     4330       1    4064    4072    4073    4065
CQUADX4     4331       1    4065    4073    4074    4066
CQUADX4     4332       1    4066    4074    4075    4067
CQUADX4     4333       1    4067    4075    4076    4068
CQUADX4     4334       1    4068    4076    4077    4069
CQUADX4     4335       1    4069    4077    4078    4070
CQUADX4     4336       1    4071    4079    4080    4072
CQUADX4     4337       1    4072    4080    4081    4073
CQUADX4     4338       1    4073    4081    4082    4074
CQUADX4     4339       1    4074    4082    4083    4075
CQUADX4     4340       1    4075    4083    4084    4076
CQUADX4     4341       1    4076    4084    4085    4077
CQUADX4     4342       1    4077    4085    4086    4078
CQUADX4     4343       1    4079    4087    4088    4080
CQUADX4     4344       1    4080    4088    4089    4081
CQUADX4     4345       1    4081    4089    4090    4082
CQUADX4     4346       1    4082    4090    4091    4083
CQUADX4     4347       1    4083    4091    4092    4084
CQUADX4     4348       1    4084    4092    4093    4085
CQUADX4     4349       1    4085    4093    4094    4086
CQUADX4     4350       1    4087    4095    4096    4088
CQUADX4     4351       1    4088    4096    4097    4089
CQUADX4     4352       1    4089    4097    4098    4090
CQUADX4     4353       1    4090    4098    4099    4091
CQUADX4     4354       1    4091    4099    4100    4092
CQUADX4     4355       1    4092    4100    4101    4093
CQUADX4     4356       1    4093    4101    4102    4094
CQUADX4     4357       1    4095    4103    4104    4096
CQUADX4     4358       1    4096    4104    4105    4097
CQUADX4     4359       1    4097    4105    4106    4098
CQUADX4     4360       1    4098    4106    4107    4099
CQUADX4     4361       1    4099    4107    4108    4100
CQUADX4     4362       1    4100    4108    4109    4101
CQUADX4     4363       1    4101    4109    4110    4102
CQUADX4     4364       1    4103    4111    4112    4104
CQUADX4     4365       1    4104    4112    4113    4105
CQUADX4     4366       1    4105    4113    4114    4106
CQUADX4     4367       1    4106    4114    4115    4107
CQUADX4     4368       1    4107    4115    4116    4108
CQUADX4     4369       1    4108    4116    4117    4109
CQUADX4     4370       1    4109    4117    4118    4110
CQUADX4     4371       1    4111    4119    4120    4112
CQUADX4     4372       1    4112    4120    4121    4113
CQUADX4     4373       1    4113    4121    4122    4114
CQUADX4     4374       1    4114    4122    4123    4115
CQUADX4     4375       1    4115    4123    4124    4116
CQUADX4     4376       1    4116    4124    4125    4117
CQUADX4     4377       1    4117    4125    4126    4118
CQUADX4     4378       1    4119    4127    4128    4120
CQUADX4     4379       1    4120    4128    4129    4121
CQUADX4     4380       1    4121    4129    4130    4122
CQUADX4     4381       1    4122    4130    4131    4123
CQUADX4     4382       1    4123    4131    4132    4124
CQUADX4     4383       1    4124    4132    4133    4125
CQUADX4     4384       1    4125    4133    4134    4126
CQUADX4     4385       1    4127    4135    4136    4128
CQUADX4     4386       1    4128    4136    4137    4129
CQUADX4     4387       1    4129    4137    4138    4130
CQUADX4     4388       1    4130    4138    4139    4131
CQUADX4     4389       1    4131    4139    4140    4132
CQUADX4     4390       1    4132    4140    4141    4133
CQUADX4     4391       1    4133    4141    4142    4134
CQUADX4     4392       1    4135    4143    4144    4136
CQUADX4     4393       1    4136    4144    4145    4137
CQUADX4     4394       1    4137    4145    4146    4138
CQUADX4     4395       1    4138    4146    4147    4139
CQUADX4     4396       1    4139    4147    4148    4140
CQUADX4     4397       1    4140    4148    4149    4141
CQUADX4     4398       1    4141    4149    4150    4142
CQUADX4     4399       1    4143    4151    4152    4144
CQUADX4     4400       1    4144    4152    4153    4145
CQUADX4     4401       1    4145    4153    4154    4146
CQUADX4     4402       1    4146    4154    4155    4147
CQUADX4     4403       1    4147    4155    4156    4148
CQUADX4     4404       1    4148    4156    4157    4149
CQUADX4     4405       1    4149    4157    4158    4150
CQUADX4     4406       1    4151    4159    4160    4152
CQUADX4     4407       1    4152    4160    4161    4153
CQUADX4     4408       1    4153    4161    4162    4154
CQUADX4     4409       1    4154    4162    4163    4155
CQUADX4     4410       1    4155    4163    4164    4156
CQUADX4     4411       1    4156    4164    4165    4157
CQUADX4     4412       1    4157    4165    4166    4158
CQUADX4     4413       1    4159    4167    4168    4160
CQUADX4     4414       1    4160    4168    4169    4161
CQUADX4     4415       1    4161    4169    4170    4162
CQUADX4     4416       1    4162    4170    4171    4163
CQUADX4     4417       1    4163    4171    4172    4164
CQUADX4     4418       1    4164    4172    4173    4165
CQUADX4     4419       1    4165    4173    4174    4166
CQUADX4     4420       1    4167    4175    4176    4168
CQUADX4     4421       1    4168    4176    4177    4169
CQUADX4     4422       1    4169    4177    4178    4170
CQUADX4     4423       1    4170    4178    4179    4171
CQUADX4     4424       1    4171    4179    4180    4172
CQUADX4     4425       1    4172    4180    4181    4173
CQUADX4     4426       1    4173    4181    4182    4174
CQUADX4     4427       1    4175    4183    4184    4176
CQUADX4     4428       1    4176    4184    4185    4177
CQUADX4     4429       1    4177    4185    4186    4178
CQUADX4     4430       1    4178    4186    4187    4179
CQUADX4     4431       1    4179    4187    4188    4180
CQUADX4     4432       1    4180    4188    4189    4181
CQUADX4     4433       1    4181    4189    4190    4182
CQUADX4     4434       1    4183    4191    4192    4184
CQUADX4     4435       1    4184    4192    4193    4185
CQUADX4     4436       1    4185    4193    4194    4186
CQUADX4     4437       1    4186    4194    4195    4187
CQUADX4     4438       1    4187    4195    4196    4188
CQUADX4     4439       1    4188    4196    4197    4189
CQUADX4     4440       1    4189    4197    4198    4190
CQUADX4     4441       1    4191    4199    4200    4192
CQUADX4     4442       1    4192    4200    4201    4193
CQUADX4     4443       1    4193    4201    4202    4194
CQUADX4     4444       1    4194    4202    4203    4195
CQUADX4     4445       1    4195    4203    4204    4196
CQUADX4     4446       1    4196    4204    4205    4197
CQUADX4     4447       1    4197    4205    4206    4198
CQUADX4     4448       1    4199    4207    4208    4200
CQUADX4     4449       1    4200    4208    4209    4201
CQUADX4     4450       1    4201    4209    4210    4202
CQUADX4     4451       1    4202    4210    4211    4203
CQUADX4     4452       1    4203    4211    4212    4204
CQUADX4     4453       1    4204    4212    4213    4205
CQUADX4     4454       1    4205    4213    4214    4206
CQUADX4     4455       1    4207    4215    4216    4208
CQUADX4     4456       1    4208    4216    4217    4209
CQUADX4     4457       1    4209    4217    4218    4210
CQUADX4     4458       1    4210    4218    4219    4211
CQUADX4     4459       1    4211    4219    4220    4212
CQUADX4     4460       1    4212    4220    4221    4213
CQUADX4     4461       1    4213    4221    4222    4214
CQUADX4     4462       1    4215    4223    4224    4216
CQUADX4     4463       1    4216    4224    4225    4217
CQUADX4     4464       1    4217    4225    4226    4218
CQUADX4     4465       1    4218    4226    4227    4219
CQUADX4     4466       1    4219    4227    4228    4220
CQUADX4     4467       1    4220    4228    4229    4221
CQUADX4     4468       1    4221    4229    4230    4222
CQUADX4     4469       1    4223    4231    4232    4224
CQUADX4     4470       1    4224    4232    4233    4225
CQUADX4     4471       1    4225    4233    4234    4226
CQUADX4     4472       1    4226    4234    4235    4227
CQUADX4     4473       1    4227    4235    4236    4228
CQUADX4     4474       1    4228    4236    4237    4229
CQUADX4     4475       1    4229    4237    4238    4230
CQUADX4     4476       1    4231    4239    4240    4232
CQUADX4     4477       1    4232    4240    4241    4233
CQUADX4     4478       1    4233    4241    4242    4234
CQUADX4     4479       1    4234    4242    4243    4235
CQUADX4     4480       1    4235    4243    4244    4236
CQUADX4     4481       1    4236    4244    4245    4237
CQUADX4     4482       1    4237    4245    4246    4238
CQUADX4     4483       1    4239    4247    4248    4240
CQUADX4     4484       1    4240    4248    4249    4241
CQUADX4     4485       1    4241    4249    4250    4242
CQUADX4     4486       1    4242    4250    4251    4243
CQUADX4     4487       1    4243    4251    4252    4244
CQUADX4     4488       1    4244    4252    4253    4245
CQUADX4     4489       1    4245    4253    4254    4246
CQUADX4     4490       1    4247    4255    4256    4248
CQUADX4     4491       1    4248    4256    4257    4249
CQUADX4     4492       1    4249    4257    4258    4250
CQUADX4     4493       1    4250    4258    4259    4251
CQUADX4     4494       1    4251    4259    4260    4252
CQUADX4     4495       1    4252    4260    4261    4253
CQUADX4     4496       1    4253    4261    4262    4254
CQUADX4     4497       1    4255    4263    4264    4256
CQUADX4     4498       1    4256    4264    4265    4257
CQUADX4     4499       1    4257    4265    4266    4258
CQUADX4     4500       1    4258    4266    4267    4259
CQUADX4     4501       1    4259    4267    4268    4260
CQUADX4     4502       1    4260    4268    4269    4261
CQUADX4     4503       1    4261    4269    4270    4262
CQUADX4     4504       1    4263    4271    4272    4264
CQUADX4     4505       1    4264    4272    4273    4265
CQUADX4     4506       1    4265    4273    4274    4266
CQUADX4     4507       1    4266    4274    4275    4267
CQUADX4     4508       1    4267    4275    4276    4268
CQUADX4     4509       1    4268    4276    4277    4269
CQUADX4     4510       1    4269    4277    4278    4270
CQUADX4     4511       1    4271    4279    4280    4272
CQUADX4     4512       1    4272    4280    4281    4273
CQUADX4     4513       1    4273    4281    4282    4274
CQUADX4     4514       1    4274    4282    4283    4275
CQUADX4     4515       1    4275    4283    4284    4276
CQUADX4     4516       1    4276    4284    4285    4277
CQUADX4     4517       1    4277    4285    4286    4278
CQUADX4     4518       1    4279    4287    4288    4280
CQUADX4     4519       1    4280    4288    4289    4281
CQUADX4     4520       1    4281    4289    4290    4282
CQUADX4     4521       1    4282    4290    4291    4283
CQUADX4     4522       1    4283    4291    4292    4284
CQUADX4     4523       1    4284    4292    4293    4285
CQUADX4     4524       1    4285    4293    4294    4286
CQUADX4     4525       1    4287    4295    4296    4288
CQUADX4     4526       1    4288    4296    4297    4289
CQUADX4     4527       1    4289    4297    4298    4290
CQUADX4     4528       1    4290    4298    4299    4291
CQUADX4     4529       1    4291    4299    4300    4292
CQUADX4     4530       1    4292    4300    4301    4293
CQUADX4     4531       1    4293    4301    4302    4294
CQUADX4     4532       1    4295    4303    4304    4296
CQUADX4     4533       1    4296    4304    4305    4297
CQUADX4     4534       1    4297    4305    4306    4298
CQUADX4     4535       1    4298    4306    4307    4299
CQUADX4     4536       1    4299    4307    4308    4300
CQUADX4     4537       1    4300    4308    4309    4301
CQUADX4     4538       1    4301    4309    4310    4302
CQUADX4     4539       1    4303    4311    4312    4304
CQUADX4     4540       1    4304    4312    4313    4305
CQUADX4     4541       1    4305    4313    4314    4306
CQUADX4     4542       1    4306    4314    4315    4307
CQUADX4     4543       1    4307    4315    4316    4308
CQUADX4     4544       1    4308    4316    4317    4309
CQUADX4     4545       1    4309    4317    4318    4310
CQUADX4     4546       1    4311    4319    4320    4312
CQUADX4     4547       1    4312    4320    4321    4313
CQUADX4     4548       1    4313    4321    4322    4314
CQUADX4     4549       1    4314    4322    4323    4315
CQUADX4     4550       1    4315    4323    4324    4316
CQUADX4     4551       1    4316    4324    4325    4317
CQUADX4     4552       1    4317    4325    4326    4318
CQUADX4     4553       1    4319    4327    4328    4320
CQUADX4     4554       1    4320    4328    4329    4321
CQUADX4     4555       1    4321    4329    4330    4322
CQUADX4     4556       1    4322    4330    4331    4323
CQUADX4     4557       1    4323    4331    4332    4324
CQUADX4     4558       1    4324    4332    4333    4325
CQUADX4     4559       1    4325    4333    4334    4326
CQUADX4     4560       1    4327    4335    4336    4328
CQUADX4     4561       1    4328    4336    4337    4329
CQUADX4     4562       1    4329    4337    4338    4330
CQUADX4     4563       1    4330    4338    4339    4331
CQUADX4     4564       1    4331    4339    4340    4332
CQUADX4     4565       1    4332    4340    4341    4333
CQUADX4     4566       1    4333    4341    4342    4334
CQUADX4     4567       1    4335    4343    4344    4336
CQUADX4     4568       1    4336    4344    4345    4337
CQUADX4     4569       1    4337    4345    4346    4338
CQUADX4     4570       1    4338    4346    4347    4339
CQUADX4     4571       1    4339    4347    4348    4340
CQUADX4     4572       1    4340    4348    4349    4341
CQUADX4     4573       1    4341    4349    4350    4342
CQUADX4     4574       1    4343    4351    4352    4344
CQUADX4     4575       1    4344    4352    4353    4345
CQUADX4     4576       1    4345    4353    4354    4346
CQUADX4     4577       1    4346    4354    4355    4347
CQUADX4     4578       1    4347    4355    4356    4348
CQUADX4     4579       1    4348    4356    4357    4349
CQUADX4     4580       1    4349    4357    4358    4350
CQUADX4     4581       1    4351    4359    4360    4352
CQUADX4     4582       1    4352    4360    4361    4353
CQUADX4     4583       1    4353    4361    4362    4354
CQUADX4     4584       1    4354    4362    4363    4355
CQUADX4     4585       1    4355    4363    4364    4356
CQUADX4     4586       1    4356    4364    4365    4357
CQUADX4     4587       1    4357    4365    4366    4358
CQUADX4     4588       1    4359    4367    4368    4360
CQUADX4     4589       1    4360    4368    4369    4361
CQUADX4     4590       1    4361    4369    4370    4362
CQUADX4     4591       1    4362    4370    4371    4363
CQUADX4     4592       1    4363    4371    4372    4364
CQUADX4     4593       1    4364    4372    4373    4365
CQUADX4     4594       1    4365    4373    4374    4366
CQUADX4     4595       1    4367    4375    4376    4368
CQUADX4     4596       1    4368    4376    4377    4369
CQUADX4     4597       1    4369    4377    4378    4370
CQUADX4     4598       1    4370    4378    4379    4371
CQUADX4     4599       1    4371    4379    4380    4372
CQUADX4     4600       1    4372    4380    4381    4373
CQUADX4     4601       1    4373    4381    4382    4374
CQUADX4     4602       1    4375    4383    4384    4376
CQUADX4     4603       1    4376    4384    4385    4377
CQUADX4     4604       1    4377    4385    4386    4378
CQUADX4     4605       1    4378    4386    4387    4379
CQUADX4     4606       1    4379    4387    4388    4380
CQUADX4     4607       1    4380    4388    4389    4381
CQUADX4     4608       1    4381    4389    4390    4382
CQUADX4     4609       1    4383    4391    4392    4384
CQUADX4     4610       1    4384    4392    4393    4385
CQUADX4     4611       1    4385    4393    4394    4386
CQUADX4     4612       1    4386    4394    4395    4387
CQUADX4     4613       1    4387    4395    4396    4388
CQUADX4     4614       1    4388    4396    4397    4389
CQUADX4     4615       1    4389    4397    4398    4390
CQUADX4     4616       1    4391    4399    4400    4392
CQUADX4     4617       1    4392    4400    4401    4393
CQUADX4     4618       1    4393    4401    4402    4394
CQUADX4     4619       1    4394    4402    4403    4395
CQUADX4     4620       1    4395    4403    4404    4396
CQUADX4     4621       1    4396    4404    4405    4397
CQUADX4     4622       1    4397    4405    4406    4398
CQUADX4     4623       1    4399    4407    4408    4400
CQUADX4     4624       1    4400    4408    4409    4401
CQUADX4     4625       1    4401    4409    4410    4402
CQUADX4     4626       1    4402    4410    4411    4403
CQUADX4     4627       1    4403    4411    4412    4404
CQUADX4     4628       1    4404    4412    4413    4405
CQUADX4     4629       1    4405    4413    4414    4406
CQUADX4     4630       1    4407    4415    4416    4408
CQUADX4     4631       1    4408    4416    4417    4409
CQUADX4     4632       1    4409    4417    4418    4410
CQUADX4     4633       1    4410    4418    4419    4411
CQUADX4     4634       1    4411    4419    4420    4412
CQUADX4     4635       1    4412    4420    4421    4413
CQUADX4     4636       1    4413    4421    4422    4414
CQUADX4     4637       1    4415    4423    4424    4416
CQUADX4     4638       1    4416    4424    4425    4417
CQUADX4     4639       1    4417    4425    4426    4418
CQUADX4     4640       1    4418    4426    4427    4419
CQUADX4     4641       1    4419    4427    4428    4420
CQUADX4     4642       1    4420    4428    4429    4421
CQUADX4     4643       1    4421    4429    4430    4422
CQUADX4     4644       1    4423    4431    4432    4424
CQUADX4     4645       1    4424    4432    4433    4425
CQUADX4     4646       1    4425    4433    4434    4426
CQUADX4     4647       1    4426    4434    4435    4427
CQUADX4     4648       1    4427    4435    4436    4428
CQUADX4     4649       1    4428    4436    4437    4429
CQUADX4     4650       1    4429    4437    4438    4430
CQUADX4     4651       1    4431    4439    4440    4432
CQUADX4     4652       1    4432    4440    4441    4433
CQUADX4     4653       1    4433    4441    4442    4434
CQUADX4     4654       1    4434    4442    4443    4435
CQUADX4     4655       1    4435    4443    4444    4436
CQUADX4     4656       1    4436    4444    4445    4437
CQUADX4     4657       1    4437    4445    4446    4438
CQUADX4     4658       1    4439    4447    4448    4440
CQUADX4     4659       1    4440    4448    4449    4441
CQUADX4     4660       1    4441    4449    4450    4442
CQUADX4     4661       1    4442    4450    4451    4443
CQUADX4     4662       1    4443    4451    4452    4444
CQUADX4     4663       1    4444    4452    4453    4445
CQUADX4     4664       1    4445    4453    4454    4446
CQUADX4     4665       1    4447    4455    4456    4448
CQUADX4     4666       1    4448    4456    4457    4449
CQUADX4     4667       1    4449    4457    4458    4450
CQUADX4     4668       1    4450    4458    4459    4451
CQUADX4     4669       1    4451    4459    4460    4452
CQUADX4     4670       1    4452    4460    4461    4453
CQUADX4     4671       1    4453    4461    4462    4454
CQUADX4     4672       1    4455    4463    4464    4456
CQUADX4     4673       1    4456    4464    4465    4457
CQUADX4     4674       1    4457    4465    4466    4458
CQUADX4     4675       1    4458    4466    4467    4459
CQUADX4     4676       1    4459    4467    4468    4460
CQUADX4     4677       1    4460    4468    4469    4461
CQUADX4     4678       1    4461    4469    4470    4462
CQUADX4     4679       1    4463    4471    4472    4464
CQUADX4     4680       1    4464    4472    4473    4465
CQUADX4     4681       1    4465    4473    4474    4466
CQUADX4     4682       1    4466    4474    4475    4467
CQUADX4     4683       1    4467    4475    4476    4468
CQUADX4     4684       1    4468    4476    4477    4469
CQUADX4     4685       1    4469    4477    4478    4470
CQUADX4     4686       1    4471    4479    4480    4472
CQUADX4     4687       1    4472    4480    4481    4473
CQUADX4     4688       1    4473    4481    4482    4474
CQUADX4     4689       1    4474    4482    4483    4475
CQUADX4     4690       1    4475    4483    4484    4476
CQUADX4     4691       1    4476    4484    4485    4477
CQUADX4     4692       1    4477    4485    4486    4478
CQUADX4     4693       1    4479    4487    4488    4480
CQUADX4     4694       1    4480    4488    4489    4481
CQUADX4     4695       1    4481    4489    4490    4482
CQUADX4     4696       1    4482    4490    4491    4483
CQUADX4     4697       1    4483    4491    4492    4484
CQUADX4     4698       1    4484    4492    4493    4485
CQUADX4     4699       1    4485    4493    4494    4486
CQUADX4     4700       1    4487    4495    4496    4488
CQUADX4     4701       1    4488    4496    4497    4489
CQUADX4     4702       1    4489    4497    4498    4490
CQUADX4     4703       1    4490    4498    4499    4491
CQUADX4     4704       1    4491    4499    4500    4492
CQUADX4     4705       1    4492    4500    4501    4493
CQUADX4     4706       1    4493    4501    4502    4494
CQUADX4     4707       1    4495    4503    4504    4496
CQUADX4     4708       1    4496    4504    4505    4497
CQUADX4     4709       1    4497    4505    4506    4498
CQUADX4     4710       1    4498    4506    4507    4499
CQUADX4     4711       1    4499    4507    4508    4500
CQUADX4     4712       1    4500    4508    4509    4501
CQUADX4     4713       1    4501    4509    4510    4502
CQUADX4     4714       1    4503    4511    4512    4504
CQUADX4     4715       1    4504    4512    4513    4505
CQUADX4     4716       1    4505    4513    4514    4506
CQUADX4     4717       1    4506    4514    4515    4507
CQUADX4     4718       1    4507    4515    4516    4508
CQUADX4     4719       1    4508    4516    4517    4509
CQUADX4     4720       1    4509    4517    4518    4510
CQUADX4     4721       1    4511    4519    4520    4512
CQUADX4     4722       1    4512    4520    4521    4513
CQUADX4     4723       1    4513    4521    4522    4514
CQUADX4     4724       1    4514    4522    4523    4515
CQUADX4     4725       1    4515    4523    4524    4516
CQUADX4     4726       1    4516    4524    4525    4517
CQUADX4     4727       1    4517    4525    4526    4518
CQUADX4     4728       1    4519    4527    4528    4520
CQUADX4     4729       1    4520    4528    4529    4521
CQUADX4     4730       1    4521    4529    4530    4522
CQUADX4     4731       1    4522    4530    4531    4523
CQUADX4     4732       1    4523    4531    4532    4524
CQUADX4     4733       1    4524    4532    4533    4525
CQUADX4     4734       1    4525    4533    4534    4526
CQUADX4     4735       1    4527    4535    4536    4528
CQUADX4     4736       1    4528    4536    4537    4529
CQUADX4     4737       1    4529    4537    4538    4530
CQUADX4     4738       1    4530    4538    4539    4531
CQUADX4     4739       1    4531    4539    4540    4532
CQUADX4     4740       1    4532    4540    4541    4533
CQUADX4     4741       1    4533    4541    4542    4534
CQUADX4     4742       1    4535    4543    4544    4536
CQUADX4     4743       1    4536    4544    4545    4537
CQUADX4     4744       1    4537    4545    4546    4538
CQUADX4     4745       1    4538    4546    4547    4539
CQUADX4     4746       1    4539    4547    4548    4540
CQUADX4     4747       1    4540    4548    4549    4541
CQUADX4     4748       1    4541    4549    4550    4542
CQUADX4     4749       1    4543    4551    4552    4544
CQUADX4     4750       1    4544    4552    4553    4545
CQUADX4     4751       1    4545    4553    4554    4546
CQUADX4     4752       1    4546    4554    4555    4547
CQUADX4     4753       1    4547    4555    4556    4548
CQUADX4     4754       1    4548    4556    4557    4549
CQUADX4     4755       1    4549    4557    4558    4550
CQUADX4     4756       1    4551    4559    4560    4552
CQUADX4     4757       1    4552    4560    4561    4553
CQUADX4     4758       1    4553    4561    4562    4554
CQUADX4     4759       1    4554    4562    4563    4555
CQUADX4     4760       1    4555    4563    4564    4556
CQUADX4     4761       1    4556    4564    4565    4557
CQUADX4     4762       1    4557    4565    4566    4558
CQUADX4     4763       1    4559    4567    4568    4560
CQUADX4     4764       1    4560    4568    4569    4561
CQUADX4     4765       1    4561    4569    4570    4562
CQUADX4     4766       1    4562    4570    4571    4563
CQUADX4     4767       1    4563    4571    4572    4564
CQUADX4     4768       1    4564    4572    4573    4565
CQUADX4     4769       1    4565    4573    4574    4566
CQUADX4     4770       1    4567    4575    4576    4568
CQUADX4     4771       1    4568    4576    4577    4569
CQUADX4     4772       1    4569    4577    4578    4570
CQUADX4     4773       1    4570    4578    4579    4571
CQUADX4     4774       1    4571    4579    4580    4572
CQUADX4     4775       1    4572    4580    4581    4573
CQUADX4     4776       1    4573    4581    4582    4574
CQUADX4     4777       1    4575    4583    4584    4576
CQUADX4     4778       1    4576    4584    4585    4577
CQUADX4     4779       1    4577    4585    4586    4578
CQUADX4     4780       1    4578    4586    4587    4579
CQUADX4     4781       1    4579    4587    4588    4580
CQUADX4     4782       1    4580    4588    4589    4581
CQUADX4     4783       1    4581    4589    4590    4582
CQUADX4     4784       1    4583    4591    4592    4584
CQUADX4     4785       1    4584    4592    4593    4585
CQUADX4     4786       1    4585    4593    4594    4586
CQUADX4     4787       1    4586    4594    4595    4587
CQUADX4     4788       1    4587    4595    4596    4588
CQUADX4     4789       1    4588    4596    4597    4589
CQUADX4     4790       1    4589    4597    4598    4590
CQUADX4     4791       1    4591    4599    4600    4592
CQUADX4     4792       1    4592    4600    4601    4593
CQUADX4     4793       1    4593    4601    4602    4594
CQUADX4     4794       1    4594    4602    4603    4595
CQUADX4     4795       1    4595    4603    4604    4596
CQUADX4     4796       1    4596    4604    4605    4597
CQUADX4     4797       1    4597    4605    4606    4598
CQUADX4     4798       1    4599    4607    4608    4600
CQUADX4     4799       1    4600    4608    4609    4601
CQUADX4     4800       1    4601    4609    4610    4602
CQUADX4     4801       1    4602    4610    4611    4603
CQUADX4     4802       1    4603    4611    4612    4604
CQUADX4     4803       1    4604    4612    4613    4605
CQUADX4     4804       1    4605    4613    4614    4606
CQUADX4     4805       1    4607    4615    4616    4608
CQUADX4     4806       1    4608    4616    4617    4609
CQUADX4     4807       1    4609    4617    4618    4610
CQUADX4     4808       1    4610    4618    4619    4611
CQUADX4     4809       1    4611    4619    4620    4612
CQUADX4     4810       1    4612    4620    4621    4613
CQUADX4     4811       1    4613    4621    4622    4614
CQUADX4     4812       1    4615    4623    4624    4616
CQUADX4     4813       1    4616    4624    4625    4617
CQUADX4     4814       1    4617    4625    4626    4618
CQUADX4     4815       1    4618    4626    4627    4619
CQUADX4     4816       1    4619    4627    4628    4620
CQUADX4     4817       1    4620    4628    4629    4621
CQUADX4     4818       1    4621    4629    4630    4622
CQUADX4     4819       1    4623    4631    4632    4624
CQUADX4     4820       1    4624    4632    4633    4625
CQUADX4     4821       1    4625    4633    4634    4626
CQUADX4     4822       1    4626    4634    4635    4627
CQUADX4     4823       1    4627    4635    4636    4628
CQUADX4     4824       1    4628    4636    4637    4629
CQUADX4     4825       1    4629    4637    4638    4630
CQUADX4     4826       1    4631    4639    4640    4632
CQUADX4     4827       1    4632    4640    4641    4633
CQUADX4     4828       1    4633    4641    4642    4634
CQUADX4     4829       1    4634    4642    4643    4635
CQUADX4     4830       1    4635    4643    4644    4636
CQUADX4     4831       1    4636    4644    4645    4637
CQUADX4     4832       1    4637    4645    4646    4638
CQUADX4     4833       1    4639    4647    4648    4640
CQUADX4     4834       1    4640    4648    4649    4641
CQUADX4     4835       1    4641    4649    4650    4642
CQUADX4     4836       1    4642    4650    4651    4643
CQUADX4     4837       1    4643    4651    4652    4644
CQUADX4     4838       1    4644    4652    4653    4645
CQUADX4     4839       1    4645    4653    4654    4646
CQUADX4     4840       1    4647    4655    4656    4648
CQUADX4     4841       1    4648    4656    4657    4649
CQUADX4     4842       1    4649    4657    4658    4650
CQUADX4     4843       1    4650    4658    4659    4651
CQUADX4     4844       1    4651    4659    4660    4652
CQUADX4     4845       1    4652    4660    4661    4653
CQUADX4     4846       1    4653    4661    4662    4654
CQUADX4     4847       1    5503    4974    3711    4965
CQUADX4     4848       1    4974    4975    3719    3711
CQUADX4     4849       1    4975    4976    3727    3719
CQUADX4     4850       1    4976    4977    3735    3727
CQUADX4     4851       1    4977    4978    3743    3735
CQUADX4     4852       1    4978    4979    3751    3743
CQUADX4     4853       1    4979    4980    3759    3751
CQUADX4     4854       1    4980    4981    3767    3759
CQUADX4     4855       1    4981    4982    3775    3767
CQUADX4     4856       1    4982    4983    3783    3775
CQUADX4     4857       1    4983    4984    3791    3783
CQUADX4     4858       1    4984    4985    3799    3791
CQUADX4     4859       1    4985    4986    3807    3799
CQUADX4     4860       1    4986    4987    3815    3807
CQUADX4     4861       1    4987    4988    3823    3815
CQUADX4     4862       1    4988    4989    3831    3823
CQUADX4     4863       1    4989    4990    3839    3831
CQUADX4     4864       1    4990    4991    3847    3839
CQUADX4     4865       1    4991    4992    3855    3847
CQUADX4     4866       1    4992    4993    3863    3855
CQUADX4     4867       1    4993    4994    3871    3863
CQUADX4     4868       1    4994    4995    3879    3871
CQUADX4     4869       1    4995    4996    3887    3879
CQUADX4     4870       1    4996    4997    3895    3887
CQUADX4     4871       1    4997    4998    3903    3895
CQUADX4     4872       1    4998    4999    3911    3903
CQUADX4     4873       1    4999    5000    3919    3911
CQUADX4     4874       1    5000    5001    3927    3919
CQUADX4     4875       1    5001    5002    3935    3927
CQUADX4     4876       1    5002    5003    3943    3935
CQUADX4     4877       1    5003    5004    3951    3943
CQUADX4     4878       1    5004    5005    3959    3951
CQUADX4     4879       1    5005    5006    3967    3959
CQUADX4     4880       1    5006    5007    3975    3967
CQUADX4     4881       1    5007    5008    3983    3975
CQUADX4     4882       1    5008    5009    3991    3983
CQUADX4     4883       1    5009    5010    3999    3991
CQUADX4     4884       1    5010    5011    4007    3999
CQUADX4     4885       1    5011    5012    4015    4007
CQUADX4     4886       1    5012    5013    4023    4015
CQUADX4     4887       1    5013    5014    4031    4023
CQUADX4     4888       1    5014    5015    4039    4031
CQUADX4     4889       1    5015    5016    4047    4039
CQUADX4     4890       1    5016    5017    4055    4047
CQUADX4     4891       1    5017    5018    4063    4055
CQUADX4     4892       1    5018    5019    4071    4063
CQUADX4     4893       1    5019    5020    4079    4071
CQUADX4     4894       1    5020    5021    4087    4079
CQUADX4     4895       1    5021    5022    4095    4087
CQUADX4     4896       1    5022    5023    4103    4095
CQUADX4     4897       1    5023    5024    4111    4103
CQUADX4     4898       1    5024    5025    4119    4111
CQUADX4     4899       1    5025    5026    4127    4119
CQUADX4     4900       1    5026    5027    4135    4127
CQUADX4     4901       1    5027    5028    4143    4135
CQUADX4     4902       1    5028    5029    4151    4143
CQUADX4     4903       1    5029    5030    4159    4151
CQUADX4     4904       1    5030    5031    4167    4159
CQUADX4     4905       1    5031    5032    4175    4167
CQUADX4     4906       1    5032    5033    4183    4175
CQUADX4     4907       1    5033    5034    4191    4183
CQUADX4     4908       1    5034    5035    4199    4191
CQUADX4     4909       1    5035    5036    4207    4199
CQUADX4     4910       1    5036    5037    4215    4207
CQUADX4     4911       1    5037    5038    4223    4215
CQUADX4     4912       1    5038    5039    4231    4223
CQUADX4     4913       1    5039    5040    4239    4231
CQUADX4     4914       1    5040    5041    4247    4239
CQUADX4     4915       1    5041    5042    4255    4247
CQUADX4     4916       1    5042    5043    4263    4255
CQUADX4     4917       1    5043    5044    4271    4263
CQUADX4     4918       1    5044    5045    4279    4271
CQUADX4     4919       1    5045    5046    4287    4279
CQUADX4     4920       1    5046    5047    4295    4287
CQUADX4     4921       1    5047    5048    4303    4295
CQUADX4     4922       1    5048    5049    4311    4303
CQUADX4     4923       1    5049    5050    4319    4311
CQUADX4     4924       1    5050    5051    4327    4319
CQUADX4     4925       1    5051    5052    4335    4327
CQUADX4     4926       1    5052    5053    4343    4335
CQUADX4     4927       1    5053    5054    4351    4343
CQUADX4     4928       1    5054    5055    4359    4351
CQUADX4     4929       1    5055    5056    4367    4359
CQUADX4     4930       1    5056    5057    4375    4367
CQUADX4     4931       1    5057    5058    4383    4375
CQUADX4     4932       1    5058    5059    4391    4383
CQUADX4     4933       1    5059    5060    4399    4391
CQUADX4     4934       1    5060    5061    4407    4399
CQUADX4     4935       1    5061    5062    4415    4407
CQUADX4     4936       1    5062    5063    4423    4415
CQUADX4     4937       1    5063    5064    4431    4423
CQUADX4     4938       1    5064    5065    4439    4431
CQUADX4     4939       1    5065    5066    4447    4439
CQUADX4     4940       1    5066    5067    4455    4447
CQUADX4     4941       1    5067    5068    4463    4455
CQUADX4     4942       1    5068    5069    4471    4463
CQUADX4     4943       1    5069    5070    4479    4471
CQUADX4     4944       1    5070    5071    4487    4479
CQUADX4     4945       1    5071    5072    4495    4487
CQUADX4     4946       1    5072    5073    4503    4495
CQUADX4     4947       1    5073    5074    4511    4503
CQUADX4     4948       1    5074    5075    4519    4511
CQUADX4     4949       1    5075    5076    4527    4519
CQUADX4     4950       1    5076    5077    4535    4527
CQUADX4     4951       1    5077    5078    4543    4535
CQUADX4     4952       1    5078    5079    4551    4543
CQUADX4     4953       1    5079    5080    4559    4551
CQUADX4     4954       1    5080    5081    4567    4559
CQUADX4     4955       1    5081    5082    4575    4567
CQUADX4     4956       1    5082    5083    4583    4575
CQUADX4     4957       1    5083    5084    4591    4583
CQUADX4     4958       1    5084    5085    4599    4591
CQUADX4     4959       1    5085    5086    4607    4599
CQUADX4     4960       1    5086    5087    4615    4607
CQUADX4     4961       1    5087    5088    4623    4615
CQUADX4     4962       1    5088    5089    4631    4623
CQUADX4     4963       1    5089    5090    4639    4631
CQUADX4     4964       1    5090    5091    4647    4639
CQUADX4     4965       1    5091    5092    4655    4647
CQUADX4     4966       1    5092    5504    4966    4655
CQUADX4     4967       1    4655    4966    4967    4656
CQUADX4     4968       1    4656    4967    4968    4657
CQUADX4     4969       1    4657    4968    4969    4658
CQUADX4     4970       1    4658    4969    4970    4659
CQUADX4     4971       1    4659    4970    4971    4660
CQUADX4     4972       1    4660    4971    4972    4661
CQUADX4     4973       1    4661    4972    4973    4662
CQUADX4     4974       1    4662    4973    5501    4839
CQUADX4     4975       1    4654    4662    4839    4840
CQUADX4     4976       1    4646    4654    4840    4841
CQUADX4     4977       1    4638    4646    4841    4842
CQUADX4     4978       1    4630    4638    4842    4843
CQUADX4     4979       1    4622    4630    4843    4844
CQUADX4     4980       1    4614    4622    4844    4845
CQUADX4     4981       1    4606    4614    4845    4846
CQUADX4     4982       1    4598    4606    4846    4847
CQUADX4     4983       1    4590    4598    4847    4848
CQUADX4     4984       1    4582    4590    4848    4849
CQUADX4     4985       1    4574    4582    4849    4850
CQUADX4     4986       1    4566    4574    4850    4851
CQUADX4     4987       1    4558    4566    4851    4852
CQUADX4     4988       1    4550    4558    4852    4853
CQUADX4     4989       1    4542    4550    4853    4854
CQUADX4     4990       1    4534    4542    4854    4855
CQUADX4     4991       1    4526    4534    4855    4856
CQUADX4     4992       1    4518    4526    4856    4857
CQUADX4     4993       1    4510    4518    4857    4858
CQUADX4     4994       1    4502    4510    4858    4859
CQUADX4     4995       1    4494    4502    4859    4860
CQUADX4     4996       1    4486    4494    4860    4861
CQUADX4     4997       1    4478    4486    4861    4862
CQUADX4     4998       1    4470    4478    4862    4863
CQUADX4     4999       1    4462    4470    4863    4864
CQUADX4     5000       1    4454    4462    4864    4865
CQUADX4     5001       1    4446    4454    4865    4866
CQUADX4     5002       1    4438    4446    4866    4867
CQUADX4     5003       1    4430    4438    4867    4868
CQUADX4     5004       1    4422    4430    4868    4869
CQUADX4     5005       1    4414    4422    4869    4870
CQUADX4     5006       1    4406    4414    4870    4871
CQUADX4     5007       1    4398    4406    4871    4872
CQUADX4     5008       1    4390    4398    4872    4873
CQUADX4     5009       1    4382    4390    4873    4874
CQUADX4     5010       1    4374    4382    4874    4875
CQUADX4     5011       1    4366    4374    4875    4876
CQUADX4     5012       1    4358    4366    4876    4877
CQUADX4     5013       1    4350    4358    4877    4878
CQUADX4     5014       1    4342    4350    4878    4879
CQUADX4     5015       1    4334    4342    4879    4880
CQUADX4     5016       1    4326    4334    4880    4881
CQUADX4     5017       1    4318    4326    4881    4882
CQUADX4     5018       1    4310    4318    4882    4883
CQUADX4     5019       1    4302    4310    4883    4884
CQUADX4     5020       1    4294    4302    4884    4885
CQUADX4     5021       1    4286    4294    4885    4886
CQUADX4     5022       1    4278    4286    4886    4887
CQUADX4     5023       1    4270    4278    4887    4888
CQUADX4     5024       1    4262    4270    4888    4889
CQUADX4     5025       1    4254    4262    4889    4890
CQUADX4     5026       1    4246    4254    4890    4891
CQUADX4     5027       1    4238    4246    4891    4892
CQUADX4     5028       1    4230    4238    4892    4893
CQUADX4     5029       1    4222    4230    4893    4894
CQUADX4     5030       1    4214    4222    4894    4895
CQUADX4     5031       1    4206    4214    4895    4896
CQUADX4     5032       1    4198    4206    4896    4897
CQUADX4     5033       1    4190    4198    4897    4898
CQUADX4     5034       1    4182    4190    4898    4899
CQUADX4     5035       1    4174    4182    4899    4900
CQUADX4     5036       1    4166    4174    4900    4901
CQUADX4     5037       1    4158    4166    4901    4902
CQUADX4     5038       1    4150    4158    4902    4903
CQUADX4     5039       1    4142    4150    4903    4904
CQUADX4     5040       1    4134    4142    4904    4905
CQUADX4     5041       1    4126    4134    4905    4906
CQUADX4     5042       1    4118    4126    4906    4907
CQUADX4     5043       1    4110    4118    4907    4908
CQUADX4     5044       1    4102    4110    4908    4909
CQUADX4     5045       1    4094    4102    4909    4910
CQUADX4     5046       1    4086    4094    4910    4911
CQUADX4     5047       1    4078    4086    4911    4912
CQUADX4     5048       1    4070    4078    4912    4913
CQUADX4     5049       1    4062    4070    4913    4914
CQUADX4     5050       1    4054    4062    4914    4915
CQUADX4     5051       1    4046    4054    4915    4916
CQUADX4     5052       1    4038    4046    4916    4917
CQUADX4     5053       1    4030    4038    4917    4918
CQUADX4     5054       1    4022    4030    4918    4919
CQUADX4     5055       1    4014    4022    4919    4920
CQUADX4     5056       1    4006    4014    4920    4921
CQUADX4     5057       1    3998    4006    4921    4922
CQUADX4     5058       1    3990    3998    4922    4923
CQUADX4     5059       1    3982    3990    4923    4924
CQUADX4     5060       1    3974    3982    4924    4925
CQUADX4     5061       1    3966    3974    4925    4926
CQUADX4     5062       1    3958    3966    4926    4927
CQUADX4     5063       1    3950    3958    4927    4928
CQUADX4     5064       1    3942    3950    4928    4929
CQUADX4     5065       1    3934    3942    4929    4930
CQUADX4     5066       1    3926    3934    4930    4931
CQUADX4     5067       1    3918    3926    4931    4932
CQUADX4     5068       1    3910    3918    4932    4933
CQUADX4     5069       1    3902    3910    4933    4934
CQUADX4     5070       1    3894    3902    4934    4935
CQUADX4     5071       1    3886    3894    4935    4936
CQUADX4     5072       1    3878    3886    4936    4937
CQUADX4     5073       1    3870    3878    4937    4938
CQUADX4     5074       1    3862    3870    4938    4939
CQUADX4     5075       1    3854    3862    4939    4940
CQUADX4     5076       1    3846    3854    4940    4941
CQUADX4     5077       1    3838    3846    4941    4942
CQUADX4     5078       1    3830    3838    4942    4943
CQUADX4     5079       1    3822    3830    4943    4944
CQUADX4     5080       1    3814    3822    4944    4945
CQUADX4     5081       1    3806    3814    4945    4946
CQUADX4     5082       1    3798    3806    4946    4947
CQUADX4     5083       1    3790    3798    4947    4948
CQUADX4     5084       1    3782    3790    4948    4949
CQUADX4     5085       1    3774    3782    4949    4950
CQUADX4     5086       1    3766    3774    4950    4951
CQUADX4     5087       1    3758    3766    4951    4952
CQUADX4     5088       1    3750    3758    4952    4953
CQUADX4     5089       1    3742    3750    4953    4954
CQUADX4     5090       1    3734    3742    4954    4955
CQUADX4     5091       1    3726    3734    4955    4956
CQUADX4     5092       1    3718    3726    4956    4957
CQUADX4     5093       1    4958    3718    4957    5502
CQUADX4     5094       1    4959    3717    3718    4958
CQUADX4     5095       1    4960    3716    3717    4959
CQUADX4     5096       1    4961    3715    3716    4960
CQUADX4     5097       1    4962    3714    3715    4961
CQUADX4     5098       1    4963    3713    3714    4962
CQUADX4     5099       1    4964    3712    3713    4963
CQUADX4     5100       1    4965    3711    3712    4964
$*
$* PROPERTY CARDS
$*
$*  Property: PSOLID1
PSOLID         1       1                                   SMECH
$*
$* MATERIAL CARDS
$*
$*  Material: ACERO::ahoraConElCono_fem1::[1]
MAT1           12.0000+8        0.3000007.8500-6
$*
$* LOAD AND CONSTRAINT CARDS
$*
$*  Constraint: UserDefined(1)
SPC            1    4663      15  0.0000
SPC            1    4664      15  0.0000
SPC            1    4665      15  0.0000
SPC            1    4666      15  0.0000
SPC            1    4667      15  0.0000
SPC            1    4668      15  0.0000
SPC            1    4669      15  0.0000
SPC            1    4670      15  0.0000
SPC            1    4671      15  0.0000
SPC            1    4672      15  0.0000
SPC            1    4673      15  0.0000
SPC            1    4674      15  0.0000
SPC            1    4675      15  0.0000
SPC            1    4676      15  0.0000
SPC            1    5093      15  0.0000
SPC            1    5094      15  0.0000
SPC            1    5095      15  0.0000
SPC            1    5096      15  0.0000
SPC            1    5097      15  0.0000
SPC            1    5098      15  0.0000
SPC            1    5099      15  0.0000
SPC            1    5100      15  0.0000
SPC            1    5101      15  0.0000
SPC            1    5102      15  0.0000
SPC            1    5103      15  0.0000
SPC            1    5104      15  0.0000
SPC            1    5105      15  0.0000
SPC            1    5106      15  0.0000
SPC            1    5497      15  0.0000
SPC            1    5498      15  0.0000
SPC            1    5505      15  0.0000
SPC            1    5506      15  0.0000
$*  Constraint: UserDefined(4)
SPC            2    4832       3  0.0000
SPC            2    4969       3  0.0000
$*  Region: Edge Region(BEDGE)9
BEDGE          9    1354    5514    5393            1355    5393    5394+
+                   1356    5394    5395            1357    5395    5396+
+                   1358    5396    5397            1359    5397    5398+
+                   1360    5398    5399            1361    5399    5400+
+                   1362    5400    5401            1363    5401    5402+
+                   1364    5402    5403            1365    5403    5404+
+                   1366    5404    5405            1367    5405    5406+
+                   1368    5406    5407            1369    5407    5408+
+                   1370    5408    5409            1371    5409    5410+
+                   1372    5410    5411            1373    5411    5412+
+                   1374    5412    5413            1375    5413    5414+
+                   1376    5414    5415            1377    5415    5416+
+                   1378    5416    5417            1379    5417    5418+
+                   1380    5418    5419            1381    5419    5420+
+                   1382    5420    5421            1383    5421    5422+
+                   1384    5422    5423            1385    5423    5424+
+                   1386    5424    5425            1387    5425    5426+
+                   1388    5426    5427            1389    5427    5428+
+                   1390    5428    5429            1391    5429    5430+
+                   1392    5430    5431            1393    5431    5432+
+                   1394    5432    5433            1395    5433    5434+
+                   1396    5434    5435            1397    5435    5436+
+                   1398    5436    5437            1399    5437    5438+
+                   1400    5438    5439            1401    5439    5440+
+                   1402    5440    5441            1403    5441    5442+
+                   1404    5442    5443            1405    5443    5444+
+                   1406    5444    5445            1407    5445    5446+
+                   1408    5446    5447            1409    5447    5448+
+                   1410    5448    5449            1411    5449    5450+
+                   1412    5450    5451            1413    5451    5452+
+                   1414    5452    5453            1415    5453    5454+
+                   1416    5454    5455            1417    5455    5456+
+                   1418    5456    5457            1419    5457    5458+
+                   1420    5458    5459            1421    5459    5460+
+                   1422    5460    5461            1423    5461    5462+
+                   1424    5462    5463            1425    5463    5464+
+                   1426    5464    5465            1427    5465    5466+
+                   1428    5466    5467            1429    5467    5468+
+                   1430    5468    5469            1431    5469    5470+
+                   1432    5470    5471            1433    5471    5472+
+                   1434    5472    5473            1435    5473    5474+
+                   1436    5474    5475            1437    5475    5476+
+                   1438    5476    5477            1439    5477    5478+
+                   1440    5478    5479            1441    5479    5480+
+                   1442    5480    5481            1443    5481    5482+
+                   1444    5482    5483            1445    5483    5484+
+                   1446    5484    5485            1447    5485    5486+
+                   1448    5486    5487            1449    5487    5488+
+                   1450    5488    5489            1451    5489    5490+
+                   1452    5490    5491            1453    5491    5492+
+                   1454    5492    5493            1455    5493    5494+
+                   1456    5494    5495            1457    5495    5496+
+                   1458    5496    5500            3819    5274    5514+
+                   4003    5512    5257            4004    5257    5258+
+                   4005    5258    5259            4006    5259    5260+
+                   4007    5260    5261            4008    5261    5262+
+                   4009    5262    5263            4010    5263    5264+
+                   4011    5264    5265            4012    5265    5266+
+                   4013    5266    5267            4014    5267    5268+
+                   4015    5268    5269            4016    5269    5270+
+                   4017    5270    5271            4018    5271    5272+
+                   4019    5272    5273            4020    5273    5274
BCRPARA        9          0.0000    FLEX
$*  Region: Edge Region(BEDGE)10
BEDGE         10    4974    5501    4839            4975    4839    4840+
+                   4976    4840    4841            4977    4841    4842+
+                   4978    4842    4843            4979    4843    4844+
+                   4980    4844    4845            4981    4845    4846+
+                   4982    4846    4847            4983    4847    4848+
+                   4984    4848    4849            4985    4849    4850+
+                   4986    4850    4851            4987    4851    4852+
+                   4988    4852    4853            4989    4853    4854+
+                   4990    4854    4855            4991    4855    4856+
+                   4992    4856    4857            4993    4857    4858+
+                   4994    4858    4859            4995    4859    4860+
+                   4996    4860    4861            4997    4861    4862+
+                   4998    4862    4863            4999    4863    4864+
+                   5000    4864    4865            5001    4865    4866+
+                   5002    4866    4867            5003    4867    4868+
+                   5004    4868    4869            5005    4869    4870+
+                   5006    4870    4871            5007    4871    4872+
+                   5008    4872    4873            5009    4873    4874+
+                   5010    4874    4875            5011    4875    4876+
+                   5012    4876    4877            5013    4877    4878+
+                   5014    4878    4879            5015    4879    4880+
+                   5016    4880    4881            5017    4881    4882+
+                   5018    4882    4883            5019    4883    4884+
+                   5020    4884    4885            5021    4885    4886+
+                   5022    4886    4887            5023    4887    4888+
+                   5024    4888    4889            5025    4889    4890+
+                   5026    4890    4891            5027    4891    4892+
+                   5028    4892    4893            5029    4893    4894+
+                   5030    4894    4895            5031    4895    4896+
+                   5032    4896    4897            5033    4897    4898+
+                   5034    4898    4899            5035    4899    4900+
+                   5036    4900    4901            5037    4901    4902+
+                   5038    4902    4903            5039    4903    4904+
+                   5040    4904    4905            5041    4905    4906+
+                   5042    4906    4907            5043    4907    4908+
+                   5044    4908    4909            5045    4909    4910+
+                   5046    4910    4911            5047    4911    4912+
+                   5048    4912    4913            5049    4913    4914+
+                   5050    4914    4915            5051    4915    4916+
+                   5052    4916    4917            5053    4917    4918+
+                   5054    4918    4919            5055    4919    4920+
+                   5056    4920    4921            5057    4921    4922+
+                   5058    4922    4923            5059    4923    4924+
+                   5060    4924    4925            5061    4925    4926+
+                   5062    4926    4927            5063    4927    4928+
+                   5064    4928    4929            5065    4929    4930+
+                   5066    4930    4931            5067    4931    4932+
+                   5068    4932    4933            5069    4933    4934+
+                   5070    4934    4935            5071    4935    4936+
+                   5072    4936    4937            5073    4937    4938+
+                   5074    4938    4939            5075    4939    4940+
+                   5076    4940    4941            5077    4941    4942+
+                   5078    4942    4943            5079    4943    4944+
+                   5080    4944    4945            5081    4945    4946+
+                   5082    4946    4947            5083    4947    4948+
+                   5084    4948    4949            5085    4949    4950+
+                   5086    4950    4951            5087    4951    4952+
+                   5088    4952    4953            5089    4953    4954+
+                   5090    4954    4955            5091    4955    4956+
+                   5092    4956    4957            5093    4957    5502
BCRPARA       10          0.0000    FLEX
SPCADD       100       1       2
$*  Load: Pressure(1)
PLOADX1        4    13401.0000+51.0000+5    5378    5513  0.0000
PLOADX1        4    14721.0000+51.0000+5    5499    5275  0.0000
PLOADX1        4    14731.0000+51.0000+5    5275    5276  0.0000
PLOADX1        4    14741.0000+51.0000+5    5276    5277  0.0000
PLOADX1        4    14751.0000+51.0000+5    5277    5278  0.0000
PLOADX1        4    14761.0000+51.0000+5    5278    5279  0.0000
PLOADX1        4    14771.0000+51.0000+5    5279    5280  0.0000
PLOADX1        4    14781.0000+51.0000+5    5280    5281  0.0000
PLOADX1        4    14791.0000+51.0000+5    5281    5282  0.0000
PLOADX1        4    14801.0000+51.0000+5    5282    5283  0.0000
PLOADX1        4    14811.0000+51.0000+5    5283    5284  0.0000
PLOADX1        4    14821.0000+51.0000+5    5284    5285  0.0000
PLOADX1        4    14831.0000+51.0000+5    5285    5286  0.0000
PLOADX1        4    14841.0000+51.0000+5    5286    5287  0.0000
PLOADX1        4    14851.0000+51.0000+5    5287    5288  0.0000
PLOADX1        4    14861.0000+51.0000+5    5288    5289  0.0000
PLOADX1        4    14871.0000+51.0000+5    5289    5290  0.0000
PLOADX1        4    14881.0000+51.0000+5    5290    5291  0.0000
PLOADX1        4    14891.0000+51.0000+5    5291    5292  0.0000
PLOADX1        4    14901.0000+51.0000+5    5292    5293  0.0000
PLOADX1        4    14911.0000+51.0000+5    5293    5294  0.0000
PLOADX1        4    14921.0000+51.0000+5    5294    5295  0.0000
PLOADX1        4    14931.0000+51.0000+5    5295    5296  0.0000
PLOADX1        4    14941.0000+51.0000+5    5296    5297  0.0000
PLOADX1        4    14951.0000+51.0000+5    5297    5298  0.0000
PLOADX1        4    14961.0000+51.0000+5    5298    5299  0.0000
PLOADX1        4    14971.0000+51.0000+5    5299    5300  0.0000
PLOADX1        4    14981.0000+51.0000+5    5300    5301  0.0000
PLOADX1        4    14991.0000+51.0000+5    5301    5302  0.0000
PLOADX1        4    15001.0000+51.0000+5    5302    5303  0.0000
PLOADX1        4    15011.0000+51.0000+5    5303    5304  0.0000
PLOADX1        4    15021.0000+51.0000+5    5304    5305  0.0000
PLOADX1        4    15031.0000+51.0000+5    5305    5306  0.0000
PLOADX1        4    15041.0000+51.0000+5    5306    5307  0.0000
PLOADX1        4    15051.0000+51.0000+5    5307    5308  0.0000
PLOADX1        4    15061.0000+51.0000+5    5308    5309  0.0000
PLOADX1        4    15071.0000+51.0000+5    5309    5310  0.0000
PLOADX1        4    15081.0000+51.0000+5    5310    5311  0.0000
PLOADX1        4    15091.0000+51.0000+5    5311    5312  0.0000
PLOADX1        4    15101.0000+51.0000+5    5312    5313  0.0000
PLOADX1        4    15111.0000+51.0000+5    5313    5314  0.0000
PLOADX1        4    15121.0000+51.0000+5    5314    5315  0.0000
PLOADX1        4    15131.0000+51.0000+5    5315    5316  0.0000
PLOADX1        4    15141.0000+51.0000+5    5316    5317  0.0000
PLOADX1        4    15151.0000+51.0000+5    5317    5318  0.0000
PLOADX1        4    15161.0000+51.0000+5    5318    5319  0.0000
PLOADX1        4    15171.0000+51.0000+5    5319    5320  0.0000
PLOADX1        4    15181.0000+51.0000+5    5320    5321  0.0000
PLOADX1        4    15191.0000+51.0000+5    5321    5322  0.0000
PLOADX1        4    15201.0000+51.0000+5    5322    5323  0.0000
PLOADX1        4    15211.0000+51.0000+5    5323    5324  0.0000
PLOADX1        4    15221.0000+51.0000+5    5324    5325  0.0000
PLOADX1        4    15231.0000+51.0000+5    5325    5326  0.0000
PLOADX1        4    15241.0000+51.0000+5    5326    5327  0.0000
PLOADX1        4    15251.0000+51.0000+5    5327    5328  0.0000
PLOADX1        4    15261.0000+51.0000+5    5328    5329  0.0000
PLOADX1        4    15271.0000+51.0000+5    5329    5330  0.0000
PLOADX1        4    15281.0000+51.0000+5    5330    5331  0.0000
PLOADX1        4    15291.0000+51.0000+5    5331    5332  0.0000
PLOADX1        4    15301.0000+51.0000+5    5332    5333  0.0000
PLOADX1        4    15311.0000+51.0000+5    5333    5334  0.0000
PLOADX1        4    15321.0000+51.0000+5    5334    5335  0.0000
PLOADX1        4    15331.0000+51.0000+5    5335    5336  0.0000
PLOADX1        4    15341.0000+51.0000+5    5336    5337  0.0000
PLOADX1        4    15351.0000+51.0000+5    5337    5338  0.0000
PLOADX1        4    15361.0000+51.0000+5    5338    5339  0.0000
PLOADX1        4    15371.0000+51.0000+5    5339    5340  0.0000
PLOADX1        4    15381.0000+51.0000+5    5340    5341  0.0000
PLOADX1        4    15391.0000+51.0000+5    5341    5342  0.0000
PLOADX1        4    15401.0000+51.0000+5    5342    5343  0.0000
PLOADX1        4    15411.0000+51.0000+5    5343    5344  0.0000
PLOADX1        4    15421.0000+51.0000+5    5344    5345  0.0000
PLOADX1        4    15431.0000+51.0000+5    5345    5346  0.0000
PLOADX1        4    15441.0000+51.0000+5    5346    5347  0.0000
PLOADX1        4    15451.0000+51.0000+5    5347    5348  0.0000
PLOADX1        4    15461.0000+51.0000+5    5348    5349  0.0000
PLOADX1        4    15471.0000+51.0000+5    5349    5350  0.0000
PLOADX1        4    15481.0000+51.0000+5    5350    5351  0.0000
PLOADX1        4    15491.0000+51.0000+5    5351    5352  0.0000
PLOADX1        4    15501.0000+51.0000+5    5352    5353  0.0000
PLOADX1        4    15511.0000+51.0000+5    5353    5354  0.0000
PLOADX1        4    15521.0000+51.0000+5    5354    5355  0.0000
PLOADX1        4    15531.0000+51.0000+5    5355    5356  0.0000
PLOADX1        4    15541.0000+51.0000+5    5356    5357  0.0000
PLOADX1        4    15551.0000+51.0000+5    5357    5358  0.0000
PLOADX1        4    15561.0000+51.0000+5    5358    5359  0.0000
PLOADX1        4    15571.0000+51.0000+5    5359    5360  0.0000
PLOADX1        4    15581.0000+51.0000+5    5360    5361  0.0000
PLOADX1        4    15591.0000+51.0000+5    5361    5362  0.0000
PLOADX1        4    15601.0000+51.0000+5    5362    5363  0.0000
PLOADX1        4    15611.0000+51.0000+5    5363    5364  0.0000
PLOADX1        4    15621.0000+51.0000+5    5364    5365  0.0000
PLOADX1        4    15631.0000+51.0000+5    5365    5366  0.0000
PLOADX1        4    15641.0000+51.0000+5    5366    5367  0.0000
PLOADX1        4    15651.0000+51.0000+5    5367    5368  0.0000
PLOADX1        4    15661.0000+51.0000+5    5368    5369  0.0000
PLOADX1        4    15671.0000+51.0000+5    5369    5370  0.0000
PLOADX1        4    15681.0000+51.0000+5    5370    5371  0.0000
PLOADX1        4    15691.0000+51.0000+5    5371    5372  0.0000
PLOADX1        4    15701.0000+51.0000+5    5372    5373  0.0000
PLOADX1        4    15711.0000+51.0000+5    5373    5374  0.0000
PLOADX1        4    15721.0000+51.0000+5    5374    5375  0.0000
PLOADX1        4    15731.0000+51.0000+5    5375    5376  0.0000
PLOADX1        4    15741.0000+51.0000+5    5376    5377  0.0000
PLOADX1        4    15751.0000+51.0000+5    5377    5378  0.0000
PLOADX1        4    26131.0000+51.0000+5    5498    4677  0.0000
PLOADX1        4    26141.0000+51.0000+5    4677    4678  0.0000
PLOADX1        4    26151.0000+51.0000+5    4678    4679  0.0000
PLOADX1        4    26161.0000+51.0000+5    4679    4680  0.0000
PLOADX1        4    26171.0000+51.0000+5    4680    4681  0.0000
PLOADX1        4    26181.0000+51.0000+5    4681    4682  0.0000
PLOADX1        4    26191.0000+51.0000+5    4682    4683  0.0000
PLOADX1        4    26201.0000+51.0000+5    4683    4684  0.0000
PLOADX1        4    26211.0000+51.0000+5    4684    4685  0.0000
PLOADX1        4    26221.0000+51.0000+5    4685    4686  0.0000
PLOADX1        4    26231.0000+51.0000+5    4686    4687  0.0000
PLOADX1        4    26241.0000+51.0000+5    4687    4688  0.0000
PLOADX1        4    26251.0000+51.0000+5    4688    4689  0.0000
PLOADX1        4    26261.0000+51.0000+5    4689    4690  0.0000
PLOADX1        4    26271.0000+51.0000+5    4690    4691  0.0000
PLOADX1        4    26281.0000+51.0000+5    4691    4692  0.0000
PLOADX1        4    26291.0000+51.0000+5    4692    4693  0.0000
PLOADX1        4    26301.0000+51.0000+5    4693    4694  0.0000
PLOADX1        4    26311.0000+51.0000+5    4694    4695  0.0000
PLOADX1        4    26321.0000+51.0000+5    4695    4696  0.0000
PLOADX1        4    26331.0000+51.0000+5    4696    4697  0.0000
PLOADX1        4    26341.0000+51.0000+5    4697    4698  0.0000
PLOADX1        4    26351.0000+51.0000+5    4698    4699  0.0000
PLOADX1        4    26361.0000+51.0000+5    4699    4700  0.0000
PLOADX1        4    26371.0000+51.0000+5    4700    4701  0.0000
PLOADX1        4    26381.0000+51.0000+5    4701    4702  0.0000
PLOADX1        4    26391.0000+51.0000+5    4702    4703  0.0000
PLOADX1        4    26401.0000+51.0000+5    4703    4704  0.0000
PLOADX1        4    26411.0000+51.0000+5    4704    4705  0.0000
PLOADX1        4    26421.0000+51.0000+5    4705    4706  0.0000
PLOADX1        4    26431.0000+51.0000+5    4706    4707  0.0000
PLOADX1        4    26441.0000+51.0000+5    4707    4708  0.0000
PLOADX1        4    26451.0000+51.0000+5    4708    4709  0.0000
PLOADX1        4    26461.0000+51.0000+5    4709    4710  0.0000
PLOADX1        4    26471.0000+51.0000+5    4710    4711  0.0000
PLOADX1        4    26481.0000+51.0000+5    4711    4712  0.0000
PLOADX1        4    26491.0000+51.0000+5    4712    4713  0.0000
PLOADX1        4    26501.0000+51.0000+5    4713    4714  0.0000
PLOADX1        4    26511.0000+51.0000+5    4714    4715  0.0000
PLOADX1        4    26521.0000+51.0000+5    4715    4716  0.0000
PLOADX1        4    26531.0000+51.0000+5    4716    4717  0.0000
PLOADX1        4    26541.0000+51.0000+5    4717    4718  0.0000
PLOADX1        4    26551.0000+51.0000+5    4718    4719  0.0000
PLOADX1        4    26561.0000+51.0000+5    4719    4720  0.0000
PLOADX1        4    26571.0000+51.0000+5    4720    4721  0.0000
PLOADX1        4    26581.0000+51.0000+5    4721    4722  0.0000
PLOADX1        4    26591.0000+51.0000+5    4722    4723  0.0000
PLOADX1        4    26601.0000+51.0000+5    4723    4724  0.0000
PLOADX1        4    26611.0000+51.0000+5    4724    4725  0.0000
PLOADX1        4    26621.0000+51.0000+5    4725    4726  0.0000
PLOADX1        4    26631.0000+51.0000+5    4726    4727  0.0000
PLOADX1        4    26641.0000+51.0000+5    4727    4728  0.0000
PLOADX1        4    26651.0000+51.0000+5    4728    4729  0.0000
PLOADX1        4    26661.0000+51.0000+5    4729    4730  0.0000
PLOADX1        4    26671.0000+51.0000+5    4730    4731  0.0000
PLOADX1        4    26681.0000+51.0000+5    4731    4732  0.0000
PLOADX1        4    26691.0000+51.0000+5    4732    4733  0.0000
PLOADX1        4    26701.0000+51.0000+5    4733    4734  0.0000
PLOADX1        4    26711.0000+51.0000+5    4734    4735  0.0000
PLOADX1        4    26721.0000+51.0000+5    4735    4736  0.0000
PLOADX1        4    26731.0000+51.0000+5    4736    4737  0.0000
PLOADX1        4    26741.0000+51.0000+5    4737    4738  0.0000
PLOADX1        4    26751.0000+51.0000+5    4738    4739  0.0000
PLOADX1        4    26761.0000+51.0000+5    4739    4740  0.0000
PLOADX1        4    26771.0000+51.0000+5    4740    4741  0.0000
PLOADX1        4    26781.0000+51.0000+5    4741    4742  0.0000
PLOADX1        4    26791.0000+51.0000+5    4742    4743  0.0000
PLOADX1        4    26801.0000+51.0000+5    4743    4744  0.0000
PLOADX1        4    26811.0000+51.0000+5    4744    4745  0.0000
PLOADX1        4    26821.0000+51.0000+5    4745    4746  0.0000
PLOADX1        4    26831.0000+51.0000+5    4746    4747  0.0000
PLOADX1        4    26841.0000+51.0000+5    4747    4748  0.0000
PLOADX1        4    26851.0000+51.0000+5    4748    4749  0.0000
PLOADX1        4    26861.0000+51.0000+5    4749    4750  0.0000
PLOADX1        4    26871.0000+51.0000+5    4750    5499  0.0000
PLOADX1        4    38331.0000+51.0000+5    5513    5228  0.0000
PLOADX1        4    38341.0000+51.0000+5    5228    5510  0.0000
PLOADX1        4    38351.0000+51.0000+5    5510    5186  0.0000
PLOADX1        4    38361.0000+51.0000+5    5186    5187  0.0000
PLOADX1        4    38371.0000+51.0000+5    5187    5188  0.0000
PLOADX1        4    38381.0000+51.0000+5    5188    5189  0.0000
PLOADX1        4    38391.0000+51.0000+5    5189    5190  0.0000
PLOADX1        4    38401.0000+51.0000+5    5190    5191  0.0000
PLOADX1        4    38411.0000+51.0000+5    5191    5192  0.0000
PLOADX1        4    38421.0000+51.0000+5    5192    5193  0.0000
PLOADX1        4    38431.0000+51.0000+5    5193    5194  0.0000
PLOADX1        4    38441.0000+51.0000+5    5194    5195  0.0000
PLOADX1        4    38451.0000+51.0000+5    5195    5196  0.0000
PLOADX1        4    38461.0000+51.0000+5    5196    5197  0.0000
PLOADX1        4    38471.0000+51.0000+5    5197    5198  0.0000
PLOADX1        4    38481.0000+51.0000+5    5198    5199  0.0000
PLOADX1        4    38491.0000+51.0000+5    5199    5200  0.0000
PLOADX1        4    38501.0000+51.0000+5    5200    5201  0.0000
PLOADX1        4    38511.0000+51.0000+5    5201    5202  0.0000
PLOADX1        4    38521.0000+51.0000+5    5202    5203  0.0000
PLOADX1        4    38531.0000+51.0000+5    5203    5204  0.0000
PLOADX1        4    38541.0000+51.0000+5    5204    5205  0.0000
PLOADX1        4    38551.0000+51.0000+5    5205    5206  0.0000
PLOADX1        4    38561.0000+51.0000+5    5206    5207  0.0000
PLOADX1        4    38571.0000+51.0000+5    5207    5208  0.0000
PLOADX1        4    38581.0000+51.0000+5    5208    5209  0.0000
PLOADX1        4    38591.0000+51.0000+5    5209    5210  0.0000
PLOADX1        4    38601.0000+51.0000+5    5210    5211  0.0000
PLOADX1        4    38611.0000+51.0000+5    5211    5212  0.0000
PLOADX1        4    38621.0000+51.0000+5    5212    5213  0.0000
PLOADX1        4    38631.0000+51.0000+5    5213    5214  0.0000
PLOADX1        4    38641.0000+51.0000+5    5214    5215  0.0000
PLOADX1        4    38651.0000+51.0000+5    5215    5216  0.0000
PLOADX1        4    38661.0000+51.0000+5    5216    5217  0.0000
PLOADX1        4    38671.0000+51.0000+5    5217    5218  0.0000
PLOADX1        4    38681.0000+51.0000+5    5218    5219  0.0000
PLOADX1        4    38691.0000+51.0000+5    5219    5220  0.0000
PLOADX1        4    38701.0000+51.0000+5    5220    5221  0.0000
PLOADX1        4    38711.0000+51.0000+5    5221    5222  0.0000
PLOADX1        4    38721.0000+51.0000+5    5222    5223  0.0000
PLOADX1        4    38731.0000+51.0000+5    5223    5224  0.0000
PLOADX1        4    38741.0000+51.0000+5    5224    5225  0.0000
PLOADX1        4    38751.0000+51.0000+5    5225    5226  0.0000
PLOADX1        4    38761.0000+51.0000+5    5226    5227  0.0000
PLOADX1        4    38771.0000+51.0000+5    5227    5508  0.0000
PLOADX1        4    38781.0000+51.0000+5    5508    5127  0.0000
PLOADX1        4    38791.0000+51.0000+5    5127    5128  0.0000
PLOADX1        4    38801.0000+51.0000+5    5128    5129  0.0000
PLOADX1        4    38811.0000+51.0000+5    5129    5130  0.0000
PLOADX1        4    38821.0000+51.0000+5    5130    5131  0.0000
PLOADX1        4    38831.0000+51.0000+5    5131    5132  0.0000
PLOADX1        4    38841.0000+51.0000+5    5132    5133  0.0000
PLOADX1        4    38851.0000+51.0000+5    5133    5134  0.0000
PLOADX1        4    38861.0000+51.0000+5    5134    5135  0.0000
PLOADX1        4    38871.0000+51.0000+5    5135    5136  0.0000
PLOADX1        4    38881.0000+51.0000+5    5136    5137  0.0000
PLOADX1        4    38891.0000+51.0000+5    5137    5138  0.0000
PLOADX1        4    38901.0000+51.0000+5    5138    5139  0.0000
PLOADX1        4    38911.0000+51.0000+5    5139    5140  0.0000
PLOADX1        4    38921.0000+51.0000+5    5140    5141  0.0000
PLOADX1        4    38931.0000+51.0000+5    5141    5142  0.0000
PLOADX1        4    38941.0000+51.0000+5    5142    5143  0.0000
PLOADX1        4    38951.0000+51.0000+5    5143    5144  0.0000
PLOADX1        4    38961.0000+51.0000+5    5144    5145  0.0000
PLOADX1        4    38971.0000+51.0000+5    5145    5146  0.0000
PLOADX1        4    38981.0000+51.0000+5    5146    5147  0.0000
PLOADX1        4    38991.0000+51.0000+5    5147    5507  0.0000
PLOADX1        4    39001.0000+51.0000+5    5507    5107  0.0000
PLOADX1        4    39011.0000+51.0000+5    5107    5108  0.0000
PLOADX1        4    39021.0000+51.0000+5    5108    5109  0.0000
PLOADX1        4    39031.0000+51.0000+5    5109    5110  0.0000
PLOADX1        4    39041.0000+51.0000+5    5110    5111  0.0000
PLOADX1        4    39051.0000+51.0000+5    5111    5112  0.0000
PLOADX1        4    39061.0000+51.0000+5    5112    5113  0.0000
PLOADX1        4    39071.0000+51.0000+5    5113    5114  0.0000
PLOADX1        4    39081.0000+51.0000+5    5114    5115  0.0000
PLOADX1        4    39091.0000+51.0000+5    5115    5116  0.0000
PLOADX1        4    39101.0000+51.0000+5    5116    5117  0.0000
PLOADX1        4    39111.0000+51.0000+5    5117    5118  0.0000
PLOADX1        4    39121.0000+51.0000+5    5118    5119  0.0000
PLOADX1        4    39131.0000+51.0000+5    5119    5120  0.0000
PLOADX1        4    39141.0000+51.0000+5    5120    5121  0.0000
PLOADX1        4    39151.0000+51.0000+5    5121    5122  0.0000
PLOADX1        4    39161.0000+51.0000+5    5122    5123  0.0000
PLOADX1        4    39171.0000+51.0000+5    5123    5124  0.0000
PLOADX1        4    39181.0000+51.0000+5    5124    5125  0.0000
PLOADX1        4    39191.0000+51.0000+5    5125    5126  0.0000
PLOADX1        4    39201.0000+51.0000+5    5126    5505  0.0000
ENDDATA 8ce8a8d6
