$*$$$$$$$$$$$$$$$$$$$$$$$$$$$$$$$$$$$$$$$$$$$$$$$$$$$$$$$$$$$$$$$$$
$*
$*                    Simcenter v12.0.2.9 Translator
$*                    for NX Nastran version 12.2
$*
$*             FEM FILE: C:\Users\usuario\Documents\NX\zunchadoSolo_fem.fem
$*             SIM FILE: C:\Users\usuario\Documents\NX\zunchadoSolo_sim.sim
$*        ANALYSIS TYPE: Axisymmetric Structural
$*        SOLUTION NAME: Solution 1
$*        SOLUTION TYPE: SOL 101 Linear Statics - Global Constraints
$*
$*    SOLVER INPUT FILE: zunchadosolo_sim-solution_1.dat
$*        CREATION DATE: 17-Dec-2023
$*        CREATION TIME: 15:33:00
$*             HOSTNAME: DESKTOP-08LFC3S
$*      NASTRAN LICENSE: Desktop Bundle
$*
$*                UNITS: mm (milli-newton)
$*                      ... LENGTH : mm
$*                      ... TIME   : sec
$*                      ... MASS   : kilogram (kg)
$*                      ... TEMPERATURE : deg Celsius
$*                      ... FORCE  : milli-newton
$*                      ... THERMAL ENERGY : mN-mm (micro-joule)
$*
$* IMPORTANT NOTE:
$*     This banner was generated by Simcenter and altering this 
$*     information may compromise the pre and post processing of results
$*
$*$$$$$$$$$$$$$$$$$$$$$$$$$$$$$$$$$$$$$$$$$$$$$$$$$$$$$$$$$$$$$$$$$
$*
$*$$$$$$$$$$$$$$$$$$$$$$$$$$$$$$$$$$$
$*
$* FILE MANAGEMENT
$*
$*$$$$$$$$$$$$$$$$$$$$$$$$$$$$$$$$$$$
$*
$*
$*$$$$$$$$$$$$$$$$$$$$$$$$$$$$$$$$$$$
$*
$* EXECUTIVE CONTROL
$*
$*$$$$$$$$$$$$$$$$$$$$$$$$$$$$$$$$$$$
$*
ID,NASTRAN,zunchadosolo_sim-solution_1
SOL 101
CEND
$*
$*$$$$$$$$$$$$$$$$$$$$$$$$$$$$$$$$$$$
$*
$* CASE CONTROL
$*
$*$$$$$$$$$$$$$$$$$$$$$$$$$$$$$$$$$$$
$*
ECHO = NONE
SPC = 1
BCSET = 100
OUTPUT
BCRESULTS(TRACTION,FORCE,PLOT) = ALL
DISPLACEMENT(PLOT,REAL) = ALL
OLOAD(PLOT,REAL) = ALL
SPCFORCES(PLOT,REAL) = ALL
STRESS(PLOT,REAL,VONMISES,CENTER) = ALL
$*  Step: Subcase - Static Loads 1
SUBCASE 1
  LABEL = Subcase - Static Loads 1
  LOAD = 3
$*
$*$$$$$$$$$$$$$$$$$$$$$$$$$$$$$$$$$$$
$*
$* BULK DATA
$*
$*$$$$$$$$$$$$$$$$$$$$$$$$$$$$$$$$$$$
$*
BEGIN BULK
$*
$* SOLUTION CARDS
$*
BCTADD       100     101
$*  Simulation Object: Edge-to-Edge Contact(1)
BCTSET       101       1       2  0.0000-1.000001.000000
$*
$* PARAM CARDS
$*
PARAM      K6ROT100.0000
PARAM     OIBULK     YES
PARAM    OMACHPR     YES
PARAM       POST      -2
PARAM    POSTEXT     YES
PARAM    UNITSYS   MN-MM
$*
$* GRID CARDS
$*
GRID*                  1               04.6070374298E+020.0000000000E+00+
*       8.4745762712E+00               0
GRID*                  2               04.5236207581E+020.0000000000E+00+
*       8.4745762712E+00               0
GRID*                  3               04.4402040863E+020.0000000000E+00+
*       8.4745762712E+00               0
GRID*                  4               04.3567874146E+020.0000000000E+00+
*       8.4745762712E+00               0
GRID*                  5               04.2733707428E+020.0000000000E+00+
*       8.4745762712E+00               0
GRID*                  6               04.1899540710E+020.0000000000E+00+
*       8.4745762712E+00               0
GRID*                  7               04.1065373993E+020.0000000000E+00+
*       8.4745762712E+00               0
GRID*                  8               04.0231207275E+020.0000000000E+00+
*       8.4745762712E+00               0
GRID*                  9               03.9397040558E+020.0000000000E+00+
*       8.4745762712E+00               0
GRID*                 10               03.8562873840E+020.0000000000E+00+
*       8.4745762712E+00               0
GRID*                 11               03.7728707123E+020.0000000000E+00+
*       8.4745762712E+00               0
GRID*                 12               04.6070374298E+020.0000000000E+00+
*       1.6949152542E+01               0
GRID*                 13               04.5236207581E+020.0000000000E+00+
*       1.6949152542E+01               0
GRID*                 14               04.4402040863E+020.0000000000E+00+
*       1.6949152542E+01               0
GRID*                 15               04.3567874146E+020.0000000000E+00+
*       1.6949152542E+01               0
GRID*                 16               04.2733707428E+020.0000000000E+00+
*       1.6949152542E+01               0
GRID*                 17               04.1899540710E+020.0000000000E+00+
*       1.6949152542E+01               0
GRID*                 18               04.1065373993E+020.0000000000E+00+
*       1.6949152542E+01               0
GRID*                 19               04.0231207275E+020.0000000000E+00+
*       1.6949152542E+01               0
GRID*                 20               03.9397040558E+020.0000000000E+00+
*       1.6949152542E+01               0
GRID*                 21               03.8562873840E+020.0000000000E+00+
*       1.6949152542E+01               0
GRID*                 22               03.7728707123E+020.0000000000E+00+
*       1.6949152542E+01               0
GRID*                 23               04.6070374298E+020.0000000000E+00+
*       2.5423728814E+01               0
GRID*                 24               04.5236207581E+020.0000000000E+00+
*       2.5423728814E+01               0
GRID*                 25               04.4402040863E+020.0000000000E+00+
*       2.5423728814E+01               0
GRID*                 26               04.3567874146E+020.0000000000E+00+
*       2.5423728814E+01               0
GRID*                 27               04.2733707428E+020.0000000000E+00+
*       2.5423728814E+01               0
GRID*                 28               04.1899540710E+020.0000000000E+00+
*       2.5423728814E+01               0
GRID*                 29               04.1065373993E+020.0000000000E+00+
*       2.5423728814E+01               0
GRID*                 30               04.0231207275E+020.0000000000E+00+
*       2.5423728814E+01               0
GRID*                 31               03.9397040558E+020.0000000000E+00+
*       2.5423728814E+01               0
GRID*                 32               03.8562873840E+020.0000000000E+00+
*       2.5423728814E+01               0
GRID*                 33               03.7728707123E+020.0000000000E+00+
*       2.5423728814E+01               0
GRID*                 34               04.6070374298E+020.0000000000E+00+
*       3.3898305085E+01               0
GRID*                 35               04.5236207581E+020.0000000000E+00+
*       3.3898305085E+01               0
GRID*                 36               04.4402040863E+020.0000000000E+00+
*       3.3898305085E+01               0
GRID*                 37               04.3567874146E+020.0000000000E+00+
*       3.3898305085E+01               0
GRID*                 38               04.2733707428E+020.0000000000E+00+
*       3.3898305085E+01               0
GRID*                 39               04.1899540710E+020.0000000000E+00+
*       3.3898305085E+01               0
GRID*                 40               04.1065373993E+020.0000000000E+00+
*       3.3898305085E+01               0
GRID*                 41               04.0231207275E+020.0000000000E+00+
*       3.3898305085E+01               0
GRID*                 42               03.9397040558E+020.0000000000E+00+
*       3.3898305085E+01               0
GRID*                 43               03.8562873840E+020.0000000000E+00+
*       3.3898305085E+01               0
GRID*                 44               03.7728707123E+020.0000000000E+00+
*       3.3898305085E+01               0
GRID*                 45               04.6070374298E+020.0000000000E+00+
*       4.2372881356E+01               0
GRID*                 46               04.5236207581E+020.0000000000E+00+
*       4.2372881356E+01               0
GRID*                 47               04.4402040863E+020.0000000000E+00+
*       4.2372881356E+01               0
GRID*                 48               04.3567874146E+020.0000000000E+00+
*       4.2372881356E+01               0
GRID*                 49               04.2733707428E+020.0000000000E+00+
*       4.2372881356E+01               0
GRID*                 50               04.1899540710E+020.0000000000E+00+
*       4.2372881356E+01               0
GRID*                 51               04.1065373993E+020.0000000000E+00+
*       4.2372881356E+01               0
GRID*                 52               04.0231207275E+020.0000000000E+00+
*       4.2372881356E+01               0
GRID*                 53               03.9397040558E+020.0000000000E+00+
*       4.2372881356E+01               0
GRID*                 54               03.8562873840E+020.0000000000E+00+
*       4.2372881356E+01               0
GRID*                 55               03.7728707123E+020.0000000000E+00+
*       4.2372881356E+01               0
GRID*                 56               04.6070374298E+020.0000000000E+00+
*       5.0847457627E+01               0
GRID*                 57               04.5236207581E+020.0000000000E+00+
*       5.0847457627E+01               0
GRID*                 58               04.4402040863E+020.0000000000E+00+
*       5.0847457627E+01               0
GRID*                 59               04.3567874146E+020.0000000000E+00+
*       5.0847457627E+01               0
GRID*                 60               04.2733707428E+020.0000000000E+00+
*       5.0847457627E+01               0
GRID*                 61               04.1899540710E+020.0000000000E+00+
*       5.0847457627E+01               0
GRID*                 62               04.1065373993E+020.0000000000E+00+
*       5.0847457627E+01               0
GRID*                 63               04.0231207275E+020.0000000000E+00+
*       5.0847457627E+01               0
GRID*                 64               03.9397040558E+020.0000000000E+00+
*       5.0847457627E+01               0
GRID*                 65               03.8562873840E+020.0000000000E+00+
*       5.0847457627E+01               0
GRID*                 66               03.7728707123E+020.0000000000E+00+
*       5.0847457627E+01               0
GRID*                 67               04.6070374298E+020.0000000000E+00+
*       5.9322033898E+01               0
GRID*                 68               04.5236207581E+020.0000000000E+00+
*       5.9322033898E+01               0
GRID*                 69               04.4402040863E+020.0000000000E+00+
*       5.9322033898E+01               0
GRID*                 70               04.3567874146E+020.0000000000E+00+
*       5.9322033898E+01               0
GRID*                 71               04.2733707428E+020.0000000000E+00+
*       5.9322033898E+01               0
GRID*                 72               04.1899540710E+020.0000000000E+00+
*       5.9322033898E+01               0
GRID*                 73               04.1065373993E+020.0000000000E+00+
*       5.9322033898E+01               0
GRID*                 74               04.0231207275E+020.0000000000E+00+
*       5.9322033898E+01               0
GRID*                 75               03.9397040558E+020.0000000000E+00+
*       5.9322033898E+01               0
GRID*                 76               03.8562873840E+020.0000000000E+00+
*       5.9322033898E+01               0
GRID*                 77               03.7728707123E+020.0000000000E+00+
*       5.9322033898E+01               0
GRID*                 78               04.6070374298E+020.0000000000E+00+
*       6.7796610169E+01               0
GRID*                 79               04.5236207581E+020.0000000000E+00+
*       6.7796610169E+01               0
GRID*                 80               04.4402040863E+020.0000000000E+00+
*       6.7796610169E+01               0
GRID*                 81               04.3567874146E+020.0000000000E+00+
*       6.7796610169E+01               0
GRID*                 82               04.2733707428E+020.0000000000E+00+
*       6.7796610169E+01               0
GRID*                 83               04.1899540710E+020.0000000000E+00+
*       6.7796610169E+01               0
GRID*                 84               04.1065373993E+020.0000000000E+00+
*       6.7796610169E+01               0
GRID*                 85               04.0231207275E+020.0000000000E+00+
*       6.7796610169E+01               0
GRID*                 86               03.9397040558E+020.0000000000E+00+
*       6.7796610169E+01               0
GRID*                 87               03.8562873840E+020.0000000000E+00+
*       6.7796610169E+01               0
GRID*                 88               03.7728707123E+020.0000000000E+00+
*       6.7796610169E+01               0
GRID*                 89               04.6070374298E+020.0000000000E+00+
*       7.6271186441E+01               0
GRID*                 90               04.5236207581E+020.0000000000E+00+
*       7.6271186441E+01               0
GRID*                 91               04.4402040863E+020.0000000000E+00+
*       7.6271186441E+01               0
GRID*                 92               04.3567874146E+020.0000000000E+00+
*       7.6271186441E+01               0
GRID*                 93               04.2733707428E+020.0000000000E+00+
*       7.6271186441E+01               0
GRID*                 94               04.1899540710E+020.0000000000E+00+
*       7.6271186441E+01               0
GRID*                 95               04.1065373993E+020.0000000000E+00+
*       7.6271186441E+01               0
GRID*                 96               04.0231207275E+020.0000000000E+00+
*       7.6271186441E+01               0
GRID*                 97               03.9397040558E+020.0000000000E+00+
*       7.6271186441E+01               0
GRID*                 98               03.8562873840E+020.0000000000E+00+
*       7.6271186441E+01               0
GRID*                 99               03.7728707123E+020.0000000000E+00+
*       7.6271186441E+01               0
GRID*                100               04.6070374298E+020.0000000000E+00+
*       8.4745762712E+01               0
GRID*                101               04.5236207581E+020.0000000000E+00+
*       8.4745762712E+01               0
GRID*                102               04.4402040863E+020.0000000000E+00+
*       8.4745762712E+01               0
GRID*                103               04.3567874146E+020.0000000000E+00+
*       8.4745762712E+01               0
GRID*                104               04.2733707428E+020.0000000000E+00+
*       8.4745762712E+01               0
GRID*                105               04.1899540710E+020.0000000000E+00+
*       8.4745762712E+01               0
GRID*                106               04.1065373993E+020.0000000000E+00+
*       8.4745762712E+01               0
GRID*                107               04.0231207275E+020.0000000000E+00+
*       8.4745762712E+01               0
GRID*                108               03.9397040558E+020.0000000000E+00+
*       8.4745762712E+01               0
GRID*                109               03.8562873840E+020.0000000000E+00+
*       8.4745762712E+01               0
GRID*                110               03.7728707123E+020.0000000000E+00+
*       8.4745762712E+01               0
GRID*                111               04.6070374298E+020.0000000000E+00+
*       9.3220338983E+01               0
GRID*                112               04.5236207581E+020.0000000000E+00+
*       9.3220338983E+01               0
GRID*                113               04.4402040863E+020.0000000000E+00+
*       9.3220338983E+01               0
GRID*                114               04.3567874146E+020.0000000000E+00+
*       9.3220338983E+01               0
GRID*                115               04.2733707428E+020.0000000000E+00+
*       9.3220338983E+01               0
GRID*                116               04.1899540710E+020.0000000000E+00+
*       9.3220338983E+01               0
GRID*                117               04.1065373993E+020.0000000000E+00+
*       9.3220338983E+01               0
GRID*                118               04.0231207275E+020.0000000000E+00+
*       9.3220338983E+01               0
GRID*                119               03.9397040558E+020.0000000000E+00+
*       9.3220338983E+01               0
GRID*                120               03.8562873840E+020.0000000000E+00+
*       9.3220338983E+01               0
GRID*                121               03.7728707123E+020.0000000000E+00+
*       9.3220338983E+01               0
GRID*                122               04.6070374298E+020.0000000000E+00+
*       1.0169491525E+02               0
GRID*                123               04.5236207581E+020.0000000000E+00+
*       1.0169491525E+02               0
GRID*                124               04.4402040863E+020.0000000000E+00+
*       1.0169491525E+02               0
GRID*                125               04.3567874146E+020.0000000000E+00+
*       1.0169491525E+02               0
GRID*                126               04.2733707428E+020.0000000000E+00+
*       1.0169491525E+02               0
GRID*                127               04.1899540710E+020.0000000000E+00+
*       1.0169491525E+02               0
GRID*                128               04.1065373993E+020.0000000000E+00+
*       1.0169491525E+02               0
GRID*                129               04.0231207275E+020.0000000000E+00+
*       1.0169491525E+02               0
GRID*                130               03.9397040558E+020.0000000000E+00+
*       1.0169491525E+02               0
GRID*                131               03.8562873840E+020.0000000000E+00+
*       1.0169491525E+02               0
GRID*                132               03.7728707123E+020.0000000000E+00+
*       1.0169491525E+02               0
GRID*                133               04.6070374298E+020.0000000000E+00+
*       1.1016949153E+02               0
GRID*                134               04.5236207581E+020.0000000000E+00+
*       1.1016949153E+02               0
GRID*                135               04.4402040863E+020.0000000000E+00+
*       1.1016949153E+02               0
GRID*                136               04.3567874146E+020.0000000000E+00+
*       1.1016949153E+02               0
GRID*                137               04.2733707428E+020.0000000000E+00+
*       1.1016949153E+02               0
GRID*                138               04.1899540710E+020.0000000000E+00+
*       1.1016949153E+02               0
GRID*                139               04.1065373993E+020.0000000000E+00+
*       1.1016949153E+02               0
GRID*                140               04.0231207275E+020.0000000000E+00+
*       1.1016949153E+02               0
GRID*                141               03.9397040558E+020.0000000000E+00+
*       1.1016949153E+02               0
GRID*                142               03.8562873840E+020.0000000000E+00+
*       1.1016949153E+02               0
GRID*                143               03.7728707123E+020.0000000000E+00+
*       1.1016949153E+02               0
GRID*                144               04.6070374298E+020.0000000000E+00+
*       1.1864406780E+02               0
GRID*                145               04.5236207581E+020.0000000000E+00+
*       1.1864406780E+02               0
GRID*                146               04.4402040863E+020.0000000000E+00+
*       1.1864406780E+02               0
GRID*                147               04.3567874146E+020.0000000000E+00+
*       1.1864406780E+02               0
GRID*                148               04.2733707428E+020.0000000000E+00+
*       1.1864406780E+02               0
GRID*                149               04.1899540710E+020.0000000000E+00+
*       1.1864406780E+02               0
GRID*                150               04.1065373993E+020.0000000000E+00+
*       1.1864406780E+02               0
GRID*                151               04.0231207275E+020.0000000000E+00+
*       1.1864406780E+02               0
GRID*                152               03.9397040558E+020.0000000000E+00+
*       1.1864406780E+02               0
GRID*                153               03.8562873840E+020.0000000000E+00+
*       1.1864406780E+02               0
GRID*                154               03.7728707123E+020.0000000000E+00+
*       1.1864406780E+02               0
GRID*                155               04.6070374298E+020.0000000000E+00+
*       1.2711864407E+02               0
GRID*                156               04.5236207581E+020.0000000000E+00+
*       1.2711864407E+02               0
GRID*                157               04.4402040863E+020.0000000000E+00+
*       1.2711864407E+02               0
GRID*                158               04.3567874146E+020.0000000000E+00+
*       1.2711864407E+02               0
GRID*                159               04.2733707428E+020.0000000000E+00+
*       1.2711864407E+02               0
GRID*                160               04.1899540710E+020.0000000000E+00+
*       1.2711864407E+02               0
GRID*                161               04.1065373993E+020.0000000000E+00+
*       1.2711864407E+02               0
GRID*                162               04.0231207275E+020.0000000000E+00+
*       1.2711864407E+02               0
GRID*                163               03.9397040558E+020.0000000000E+00+
*       1.2711864407E+02               0
GRID*                164               03.8562873840E+020.0000000000E+00+
*       1.2711864407E+02               0
GRID*                165               03.7728707123E+020.0000000000E+00+
*       1.2711864407E+02               0
GRID*                166               04.6070374298E+020.0000000000E+00+
*       1.3559322034E+02               0
GRID*                167               04.5236207581E+020.0000000000E+00+
*       1.3559322034E+02               0
GRID*                168               04.4402040863E+020.0000000000E+00+
*       1.3559322034E+02               0
GRID*                169               04.3567874146E+020.0000000000E+00+
*       1.3559322034E+02               0
GRID*                170               04.2733707428E+020.0000000000E+00+
*       1.3559322034E+02               0
GRID*                171               04.1899540710E+020.0000000000E+00+
*       1.3559322034E+02               0
GRID*                172               04.1065373993E+020.0000000000E+00+
*       1.3559322034E+02               0
GRID*                173               04.0231207275E+020.0000000000E+00+
*       1.3559322034E+02               0
GRID*                174               03.9397040558E+020.0000000000E+00+
*       1.3559322034E+02               0
GRID*                175               03.8562873840E+020.0000000000E+00+
*       1.3559322034E+02               0
GRID*                176               03.7728707123E+020.0000000000E+00+
*       1.3559322034E+02               0
GRID*                177               04.6070374298E+020.0000000000E+00+
*       1.4406779661E+02               0
GRID*                178               04.5236207581E+020.0000000000E+00+
*       1.4406779661E+02               0
GRID*                179               04.4402040863E+020.0000000000E+00+
*       1.4406779661E+02               0
GRID*                180               04.3567874146E+020.0000000000E+00+
*       1.4406779661E+02               0
GRID*                181               04.2733707428E+020.0000000000E+00+
*       1.4406779661E+02               0
GRID*                182               04.1899540710E+020.0000000000E+00+
*       1.4406779661E+02               0
GRID*                183               04.1065373993E+020.0000000000E+00+
*       1.4406779661E+02               0
GRID*                184               04.0231207275E+020.0000000000E+00+
*       1.4406779661E+02               0
GRID*                185               03.9397040558E+020.0000000000E+00+
*       1.4406779661E+02               0
GRID*                186               03.8562873840E+020.0000000000E+00+
*       1.4406779661E+02               0
GRID*                187               03.7728707123E+020.0000000000E+00+
*       1.4406779661E+02               0
GRID*                188               04.6070374298E+020.0000000000E+00+
*       1.5254237288E+02               0
GRID*                189               04.5236207581E+020.0000000000E+00+
*       1.5254237288E+02               0
GRID*                190               04.4402040863E+020.0000000000E+00+
*       1.5254237288E+02               0
GRID*                191               04.3567874146E+020.0000000000E+00+
*       1.5254237288E+02               0
GRID*                192               04.2733707428E+020.0000000000E+00+
*       1.5254237288E+02               0
GRID*                193               04.1899540710E+020.0000000000E+00+
*       1.5254237288E+02               0
GRID*                194               04.1065373993E+020.0000000000E+00+
*       1.5254237288E+02               0
GRID*                195               04.0231207275E+020.0000000000E+00+
*       1.5254237288E+02               0
GRID*                196               03.9397040558E+020.0000000000E+00+
*       1.5254237288E+02               0
GRID*                197               03.8562873840E+020.0000000000E+00+
*       1.5254237288E+02               0
GRID*                198               03.7728707123E+020.0000000000E+00+
*       1.5254237288E+02               0
GRID*                199               04.6070374298E+020.0000000000E+00+
*       1.6101694915E+02               0
GRID*                200               04.5236207581E+020.0000000000E+00+
*       1.6101694915E+02               0
GRID*                201               04.4402040863E+020.0000000000E+00+
*       1.6101694915E+02               0
GRID*                202               04.3567874146E+020.0000000000E+00+
*       1.6101694915E+02               0
GRID*                203               04.2733707428E+020.0000000000E+00+
*       1.6101694915E+02               0
GRID*                204               04.1899540710E+020.0000000000E+00+
*       1.6101694915E+02               0
GRID*                205               04.1065373993E+020.0000000000E+00+
*       1.6101694915E+02               0
GRID*                206               04.0231207275E+020.0000000000E+00+
*       1.6101694915E+02               0
GRID*                207               03.9397040558E+020.0000000000E+00+
*       1.6101694915E+02               0
GRID*                208               03.8562873840E+020.0000000000E+00+
*       1.6101694915E+02               0
GRID*                209               03.7728707123E+020.0000000000E+00+
*       1.6101694915E+02               0
GRID*                210               04.6070374298E+020.0000000000E+00+
*       1.6949152542E+02               0
GRID*                211               04.5236207581E+020.0000000000E+00+
*       1.6949152542E+02               0
GRID*                212               04.4402040863E+020.0000000000E+00+
*       1.6949152542E+02               0
GRID*                213               04.3567874146E+020.0000000000E+00+
*       1.6949152542E+02               0
GRID*                214               04.2733707428E+020.0000000000E+00+
*       1.6949152542E+02               0
GRID*                215               04.1899540710E+020.0000000000E+00+
*       1.6949152542E+02               0
GRID*                216               04.1065373993E+020.0000000000E+00+
*       1.6949152542E+02               0
GRID*                217               04.0231207275E+020.0000000000E+00+
*       1.6949152542E+02               0
GRID*                218               03.9397040558E+020.0000000000E+00+
*       1.6949152542E+02               0
GRID*                219               03.8562873840E+020.0000000000E+00+
*       1.6949152542E+02               0
GRID*                220               03.7728707123E+020.0000000000E+00+
*       1.6949152542E+02               0
GRID*                221               04.6070374298E+020.0000000000E+00+
*       1.7796610169E+02               0
GRID*                222               04.5236207581E+020.0000000000E+00+
*       1.7796610169E+02               0
GRID*                223               04.4402040863E+020.0000000000E+00+
*       1.7796610169E+02               0
GRID*                224               04.3567874146E+020.0000000000E+00+
*       1.7796610169E+02               0
GRID*                225               04.2733707428E+020.0000000000E+00+
*       1.7796610169E+02               0
GRID*                226               04.1899540710E+020.0000000000E+00+
*       1.7796610169E+02               0
GRID*                227               04.1065373993E+020.0000000000E+00+
*       1.7796610169E+02               0
GRID*                228               04.0231207275E+020.0000000000E+00+
*       1.7796610169E+02               0
GRID*                229               03.9397040558E+020.0000000000E+00+
*       1.7796610169E+02               0
GRID*                230               03.8562873840E+020.0000000000E+00+
*       1.7796610169E+02               0
GRID*                231               03.7728707123E+020.0000000000E+00+
*       1.7796610169E+02               0
GRID*                232               04.6070374298E+020.0000000000E+00+
*       1.8644067797E+02               0
GRID*                233               04.5236207581E+020.0000000000E+00+
*       1.8644067797E+02               0
GRID*                234               04.4402040863E+020.0000000000E+00+
*       1.8644067797E+02               0
GRID*                235               04.3567874146E+020.0000000000E+00+
*       1.8644067797E+02               0
GRID*                236               04.2733707428E+020.0000000000E+00+
*       1.8644067797E+02               0
GRID*                237               04.1899540710E+020.0000000000E+00+
*       1.8644067797E+02               0
GRID*                238               04.1065373993E+020.0000000000E+00+
*       1.8644067797E+02               0
GRID*                239               04.0231207275E+020.0000000000E+00+
*       1.8644067797E+02               0
GRID*                240               03.9397040558E+020.0000000000E+00+
*       1.8644067797E+02               0
GRID*                241               03.8562873840E+020.0000000000E+00+
*       1.8644067797E+02               0
GRID*                242               03.7728707123E+020.0000000000E+00+
*       1.8644067797E+02               0
GRID*                243               04.6070374298E+020.0000000000E+00+
*       1.9491525424E+02               0
GRID*                244               04.5236207581E+020.0000000000E+00+
*       1.9491525424E+02               0
GRID*                245               04.4402040863E+020.0000000000E+00+
*       1.9491525424E+02               0
GRID*                246               04.3567874146E+020.0000000000E+00+
*       1.9491525424E+02               0
GRID*                247               04.2733707428E+020.0000000000E+00+
*       1.9491525424E+02               0
GRID*                248               04.1899540710E+020.0000000000E+00+
*       1.9491525424E+02               0
GRID*                249               04.1065373993E+020.0000000000E+00+
*       1.9491525424E+02               0
GRID*                250               04.0231207275E+020.0000000000E+00+
*       1.9491525424E+02               0
GRID*                251               03.9397040558E+020.0000000000E+00+
*       1.9491525424E+02               0
GRID*                252               03.8562873840E+020.0000000000E+00+
*       1.9491525424E+02               0
GRID*                253               03.7728707123E+020.0000000000E+00+
*       1.9491525424E+02               0
GRID*                254               04.6070374298E+020.0000000000E+00+
*       2.0338983051E+02               0
GRID*                255               04.5236207581E+020.0000000000E+00+
*       2.0338983051E+02               0
GRID*                256               04.4402040863E+020.0000000000E+00+
*       2.0338983051E+02               0
GRID*                257               04.3567874146E+020.0000000000E+00+
*       2.0338983051E+02               0
GRID*                258               04.2733707428E+020.0000000000E+00+
*       2.0338983051E+02               0
GRID*                259               04.1899540710E+020.0000000000E+00+
*       2.0338983051E+02               0
GRID*                260               04.1065373993E+020.0000000000E+00+
*       2.0338983051E+02               0
GRID*                261               04.0231207275E+020.0000000000E+00+
*       2.0338983051E+02               0
GRID*                262               03.9397040558E+020.0000000000E+00+
*       2.0338983051E+02               0
GRID*                263               03.8562873840E+020.0000000000E+00+
*       2.0338983051E+02               0
GRID*                264               03.7728707123E+020.0000000000E+00+
*       2.0338983051E+02               0
GRID*                265               04.6070374298E+020.0000000000E+00+
*       2.1186440678E+02               0
GRID*                266               04.5236207581E+020.0000000000E+00+
*       2.1186440678E+02               0
GRID*                267               04.4402040863E+020.0000000000E+00+
*       2.1186440678E+02               0
GRID*                268               04.3567874146E+020.0000000000E+00+
*       2.1186440678E+02               0
GRID*                269               04.2733707428E+020.0000000000E+00+
*       2.1186440678E+02               0
GRID*                270               04.1899540710E+020.0000000000E+00+
*       2.1186440678E+02               0
GRID*                271               04.1065373993E+020.0000000000E+00+
*       2.1186440678E+02               0
GRID*                272               04.0231207275E+020.0000000000E+00+
*       2.1186440678E+02               0
GRID*                273               03.9397040558E+020.0000000000E+00+
*       2.1186440678E+02               0
GRID*                274               03.8562873840E+020.0000000000E+00+
*       2.1186440678E+02               0
GRID*                275               03.7728707123E+020.0000000000E+00+
*       2.1186440678E+02               0
GRID*                276               04.6070374298E+020.0000000000E+00+
*       2.2033898305E+02               0
GRID*                277               04.5236207581E+020.0000000000E+00+
*       2.2033898305E+02               0
GRID*                278               04.4402040863E+020.0000000000E+00+
*       2.2033898305E+02               0
GRID*                279               04.3567874146E+020.0000000000E+00+
*       2.2033898305E+02               0
GRID*                280               04.2733707428E+020.0000000000E+00+
*       2.2033898305E+02               0
GRID*                281               04.1899540710E+020.0000000000E+00+
*       2.2033898305E+02               0
GRID*                282               04.1065373993E+020.0000000000E+00+
*       2.2033898305E+02               0
GRID*                283               04.0231207275E+020.0000000000E+00+
*       2.2033898305E+02               0
GRID*                284               03.9397040558E+020.0000000000E+00+
*       2.2033898305E+02               0
GRID*                285               03.8562873840E+020.0000000000E+00+
*       2.2033898305E+02               0
GRID*                286               03.7728707123E+020.0000000000E+00+
*       2.2033898305E+02               0
GRID*                287               04.6070374298E+020.0000000000E+00+
*       2.2881355932E+02               0
GRID*                288               04.5236207581E+020.0000000000E+00+
*       2.2881355932E+02               0
GRID*                289               04.4402040863E+020.0000000000E+00+
*       2.2881355932E+02               0
GRID*                290               04.3567874146E+020.0000000000E+00+
*       2.2881355932E+02               0
GRID*                291               04.2733707428E+020.0000000000E+00+
*       2.2881355932E+02               0
GRID*                292               04.1899540710E+020.0000000000E+00+
*       2.2881355932E+02               0
GRID*                293               04.1065373993E+020.0000000000E+00+
*       2.2881355932E+02               0
GRID*                294               04.0231207275E+020.0000000000E+00+
*       2.2881355932E+02               0
GRID*                295               03.9397040558E+020.0000000000E+00+
*       2.2881355932E+02               0
GRID*                296               03.8562873840E+020.0000000000E+00+
*       2.2881355932E+02               0
GRID*                297               03.7728707123E+020.0000000000E+00+
*       2.2881355932E+02               0
GRID*                298               04.6070374298E+020.0000000000E+00+
*       2.3728813559E+02               0
GRID*                299               04.5236207581E+020.0000000000E+00+
*       2.3728813559E+02               0
GRID*                300               04.4402040863E+020.0000000000E+00+
*       2.3728813559E+02               0
GRID*                301               04.3567874146E+020.0000000000E+00+
*       2.3728813559E+02               0
GRID*                302               04.2733707428E+020.0000000000E+00+
*       2.3728813559E+02               0
GRID*                303               04.1899540710E+020.0000000000E+00+
*       2.3728813559E+02               0
GRID*                304               04.1065373993E+020.0000000000E+00+
*       2.3728813559E+02               0
GRID*                305               04.0231207275E+020.0000000000E+00+
*       2.3728813559E+02               0
GRID*                306               03.9397040558E+020.0000000000E+00+
*       2.3728813559E+02               0
GRID*                307               03.8562873840E+020.0000000000E+00+
*       2.3728813559E+02               0
GRID*                308               03.7728707123E+020.0000000000E+00+
*       2.3728813559E+02               0
GRID*                309               04.6070374298E+020.0000000000E+00+
*       2.4576271186E+02               0
GRID*                310               04.5236207581E+020.0000000000E+00+
*       2.4576271186E+02               0
GRID*                311               04.4402040863E+020.0000000000E+00+
*       2.4576271186E+02               0
GRID*                312               04.3567874146E+020.0000000000E+00+
*       2.4576271186E+02               0
GRID*                313               04.2733707428E+020.0000000000E+00+
*       2.4576271186E+02               0
GRID*                314               04.1899540710E+020.0000000000E+00+
*       2.4576271186E+02               0
GRID*                315               04.1065373993E+020.0000000000E+00+
*       2.4576271186E+02               0
GRID*                316               04.0231207275E+020.0000000000E+00+
*       2.4576271186E+02               0
GRID*                317               03.9397040558E+020.0000000000E+00+
*       2.4576271186E+02               0
GRID*                318               03.8562873840E+020.0000000000E+00+
*       2.4576271186E+02               0
GRID*                319               03.7728707123E+020.0000000000E+00+
*       2.4576271186E+02               0
GRID*                320               04.6070374298E+020.0000000000E+00+
*       2.5423728814E+02               0
GRID*                321               04.5236207581E+020.0000000000E+00+
*       2.5423728814E+02               0
GRID*                322               04.4402040863E+020.0000000000E+00+
*       2.5423728814E+02               0
GRID*                323               04.3567874146E+020.0000000000E+00+
*       2.5423728814E+02               0
GRID*                324               04.2733707428E+020.0000000000E+00+
*       2.5423728814E+02               0
GRID*                325               04.1899540710E+020.0000000000E+00+
*       2.5423728814E+02               0
GRID*                326               04.1065373993E+020.0000000000E+00+
*       2.5423728814E+02               0
GRID*                327               04.0231207275E+020.0000000000E+00+
*       2.5423728814E+02               0
GRID*                328               03.9397040558E+020.0000000000E+00+
*       2.5423728814E+02               0
GRID*                329               03.8562873840E+020.0000000000E+00+
*       2.5423728814E+02               0
GRID*                330               03.7728707123E+020.0000000000E+00+
*       2.5423728814E+02               0
GRID*                331               04.6070374298E+020.0000000000E+00+
*       2.6271186441E+02               0
GRID*                332               04.5236207581E+020.0000000000E+00+
*       2.6271186441E+02               0
GRID*                333               04.4402040863E+020.0000000000E+00+
*       2.6271186441E+02               0
GRID*                334               04.3567874146E+020.0000000000E+00+
*       2.6271186441E+02               0
GRID*                335               04.2733707428E+020.0000000000E+00+
*       2.6271186441E+02               0
GRID*                336               04.1899540710E+020.0000000000E+00+
*       2.6271186441E+02               0
GRID*                337               04.1065373993E+020.0000000000E+00+
*       2.6271186441E+02               0
GRID*                338               04.0231207275E+020.0000000000E+00+
*       2.6271186441E+02               0
GRID*                339               03.9397040558E+020.0000000000E+00+
*       2.6271186441E+02               0
GRID*                340               03.8562873840E+020.0000000000E+00+
*       2.6271186441E+02               0
GRID*                341               03.7728707123E+020.0000000000E+00+
*       2.6271186441E+02               0
GRID*                342               04.6070374298E+020.0000000000E+00+
*       2.7118644068E+02               0
GRID*                343               04.5236207581E+020.0000000000E+00+
*       2.7118644068E+02               0
GRID*                344               04.4402040863E+020.0000000000E+00+
*       2.7118644068E+02               0
GRID*                345               04.3567874146E+020.0000000000E+00+
*       2.7118644068E+02               0
GRID*                346               04.2733707428E+020.0000000000E+00+
*       2.7118644068E+02               0
GRID*                347               04.1899540710E+020.0000000000E+00+
*       2.7118644068E+02               0
GRID*                348               04.1065373993E+020.0000000000E+00+
*       2.7118644068E+02               0
GRID*                349               04.0231207275E+020.0000000000E+00+
*       2.7118644068E+02               0
GRID*                350               03.9397040558E+020.0000000000E+00+
*       2.7118644068E+02               0
GRID*                351               03.8562873840E+020.0000000000E+00+
*       2.7118644068E+02               0
GRID*                352               03.7728707123E+020.0000000000E+00+
*       2.7118644068E+02               0
GRID*                353               04.6070374298E+020.0000000000E+00+
*       2.7966101695E+02               0
GRID*                354               04.5236207581E+020.0000000000E+00+
*       2.7966101695E+02               0
GRID*                355               04.4402040863E+020.0000000000E+00+
*       2.7966101695E+02               0
GRID*                356               04.3567874146E+020.0000000000E+00+
*       2.7966101695E+02               0
GRID*                357               04.2733707428E+020.0000000000E+00+
*       2.7966101695E+02               0
GRID*                358               04.1899540710E+020.0000000000E+00+
*       2.7966101695E+02               0
GRID*                359               04.1065373993E+020.0000000000E+00+
*       2.7966101695E+02               0
GRID*                360               04.0231207275E+020.0000000000E+00+
*       2.7966101695E+02               0
GRID*                361               03.9397040558E+020.0000000000E+00+
*       2.7966101695E+02               0
GRID*                362               03.8562873840E+020.0000000000E+00+
*       2.7966101695E+02               0
GRID*                363               03.7728707123E+020.0000000000E+00+
*       2.7966101695E+02               0
GRID*                364               04.6070374298E+020.0000000000E+00+
*       2.8813559322E+02               0
GRID*                365               04.5236207581E+020.0000000000E+00+
*       2.8813559322E+02               0
GRID*                366               04.4402040863E+020.0000000000E+00+
*       2.8813559322E+02               0
GRID*                367               04.3567874146E+020.0000000000E+00+
*       2.8813559322E+02               0
GRID*                368               04.2733707428E+020.0000000000E+00+
*       2.8813559322E+02               0
GRID*                369               04.1899540710E+020.0000000000E+00+
*       2.8813559322E+02               0
GRID*                370               04.1065373993E+020.0000000000E+00+
*       2.8813559322E+02               0
GRID*                371               04.0231207275E+020.0000000000E+00+
*       2.8813559322E+02               0
GRID*                372               03.9397040558E+020.0000000000E+00+
*       2.8813559322E+02               0
GRID*                373               03.8562873840E+020.0000000000E+00+
*       2.8813559322E+02               0
GRID*                374               03.7728707123E+020.0000000000E+00+
*       2.8813559322E+02               0
GRID*                375               04.6070374298E+020.0000000000E+00+
*       2.9661016949E+02               0
GRID*                376               04.5236207581E+020.0000000000E+00+
*       2.9661016949E+02               0
GRID*                377               04.4402040863E+020.0000000000E+00+
*       2.9661016949E+02               0
GRID*                378               04.3567874146E+020.0000000000E+00+
*       2.9661016949E+02               0
GRID*                379               04.2733707428E+020.0000000000E+00+
*       2.9661016949E+02               0
GRID*                380               04.1899540710E+020.0000000000E+00+
*       2.9661016949E+02               0
GRID*                381               04.1065373993E+020.0000000000E+00+
*       2.9661016949E+02               0
GRID*                382               04.0231207275E+020.0000000000E+00+
*       2.9661016949E+02               0
GRID*                383               03.9397040558E+020.0000000000E+00+
*       2.9661016949E+02               0
GRID*                384               03.8562873840E+020.0000000000E+00+
*       2.9661016949E+02               0
GRID*                385               03.7728707123E+020.0000000000E+00+
*       2.9661016949E+02               0
GRID*                386               04.6070374298E+020.0000000000E+00+
*       3.0508474576E+02               0
GRID*                387               04.5236207581E+020.0000000000E+00+
*       3.0508474576E+02               0
GRID*                388               04.4402040863E+020.0000000000E+00+
*       3.0508474576E+02               0
GRID*                389               04.3567874146E+020.0000000000E+00+
*       3.0508474576E+02               0
GRID*                390               04.2733707428E+020.0000000000E+00+
*       3.0508474576E+02               0
GRID*                391               04.1899540710E+020.0000000000E+00+
*       3.0508474576E+02               0
GRID*                392               04.1065373993E+020.0000000000E+00+
*       3.0508474576E+02               0
GRID*                393               04.0231207275E+020.0000000000E+00+
*       3.0508474576E+02               0
GRID*                394               03.9397040558E+020.0000000000E+00+
*       3.0508474576E+02               0
GRID*                395               03.8562873840E+020.0000000000E+00+
*       3.0508474576E+02               0
GRID*                396               03.7728707123E+020.0000000000E+00+
*       3.0508474576E+02               0
GRID*                397               04.6070374298E+020.0000000000E+00+
*       3.1355932203E+02               0
GRID*                398               04.5236207581E+020.0000000000E+00+
*       3.1355932203E+02               0
GRID*                399               04.4402040863E+020.0000000000E+00+
*       3.1355932203E+02               0
GRID*                400               04.3567874146E+020.0000000000E+00+
*       3.1355932203E+02               0
GRID*                401               04.2733707428E+020.0000000000E+00+
*       3.1355932203E+02               0
GRID*                402               04.1899540710E+020.0000000000E+00+
*       3.1355932203E+02               0
GRID*                403               04.1065373993E+020.0000000000E+00+
*       3.1355932203E+02               0
GRID*                404               04.0231207275E+020.0000000000E+00+
*       3.1355932203E+02               0
GRID*                405               03.9397040558E+020.0000000000E+00+
*       3.1355932203E+02               0
GRID*                406               03.8562873840E+020.0000000000E+00+
*       3.1355932203E+02               0
GRID*                407               03.7728707123E+020.0000000000E+00+
*       3.1355932203E+02               0
GRID*                408               04.6070374298E+020.0000000000E+00+
*       3.2203389831E+02               0
GRID*                409               04.5236207581E+020.0000000000E+00+
*       3.2203389831E+02               0
GRID*                410               04.4402040863E+020.0000000000E+00+
*       3.2203389831E+02               0
GRID*                411               04.3567874146E+020.0000000000E+00+
*       3.2203389831E+02               0
GRID*                412               04.2733707428E+020.0000000000E+00+
*       3.2203389831E+02               0
GRID*                413               04.1899540710E+020.0000000000E+00+
*       3.2203389831E+02               0
GRID*                414               04.1065373993E+020.0000000000E+00+
*       3.2203389831E+02               0
GRID*                415               04.0231207275E+020.0000000000E+00+
*       3.2203389831E+02               0
GRID*                416               03.9397040558E+020.0000000000E+00+
*       3.2203389831E+02               0
GRID*                417               03.8562873840E+020.0000000000E+00+
*       3.2203389831E+02               0
GRID*                418               03.7728707123E+020.0000000000E+00+
*       3.2203389831E+02               0
GRID*                419               04.6070374298E+020.0000000000E+00+
*       3.3050847458E+02               0
GRID*                420               04.5236207581E+020.0000000000E+00+
*       3.3050847458E+02               0
GRID*                421               04.4402040863E+020.0000000000E+00+
*       3.3050847458E+02               0
GRID*                422               04.3567874146E+020.0000000000E+00+
*       3.3050847458E+02               0
GRID*                423               04.2733707428E+020.0000000000E+00+
*       3.3050847458E+02               0
GRID*                424               04.1899540710E+020.0000000000E+00+
*       3.3050847458E+02               0
GRID*                425               04.1065373993E+020.0000000000E+00+
*       3.3050847458E+02               0
GRID*                426               04.0231207275E+020.0000000000E+00+
*       3.3050847458E+02               0
GRID*                427               03.9397040558E+020.0000000000E+00+
*       3.3050847458E+02               0
GRID*                428               03.8562873840E+020.0000000000E+00+
*       3.3050847458E+02               0
GRID*                429               03.7728707123E+020.0000000000E+00+
*       3.3050847458E+02               0
GRID*                430               04.6070374298E+020.0000000000E+00+
*       3.3898305085E+02               0
GRID*                431               04.5236207581E+020.0000000000E+00+
*       3.3898305085E+02               0
GRID*                432               04.4402040863E+020.0000000000E+00+
*       3.3898305085E+02               0
GRID*                433               04.3567874146E+020.0000000000E+00+
*       3.3898305085E+02               0
GRID*                434               04.2733707428E+020.0000000000E+00+
*       3.3898305085E+02               0
GRID*                435               04.1899540710E+020.0000000000E+00+
*       3.3898305085E+02               0
GRID*                436               04.1065373993E+020.0000000000E+00+
*       3.3898305085E+02               0
GRID*                437               04.0231207275E+020.0000000000E+00+
*       3.3898305085E+02               0
GRID*                438               03.9397040558E+020.0000000000E+00+
*       3.3898305085E+02               0
GRID*                439               03.8562873840E+020.0000000000E+00+
*       3.3898305085E+02               0
GRID*                440               03.7728707123E+020.0000000000E+00+
*       3.3898305085E+02               0
GRID*                441               04.6070374298E+020.0000000000E+00+
*       3.4745762712E+02               0
GRID*                442               04.5236207581E+020.0000000000E+00+
*       3.4745762712E+02               0
GRID*                443               04.4402040863E+020.0000000000E+00+
*       3.4745762712E+02               0
GRID*                444               04.3567874146E+020.0000000000E+00+
*       3.4745762712E+02               0
GRID*                445               04.2733707428E+020.0000000000E+00+
*       3.4745762712E+02               0
GRID*                446               04.1899540710E+020.0000000000E+00+
*       3.4745762712E+02               0
GRID*                447               04.1065373993E+020.0000000000E+00+
*       3.4745762712E+02               0
GRID*                448               04.0231207275E+020.0000000000E+00+
*       3.4745762712E+02               0
GRID*                449               03.9397040558E+020.0000000000E+00+
*       3.4745762712E+02               0
GRID*                450               03.8562873840E+020.0000000000E+00+
*       3.4745762712E+02               0
GRID*                451               03.7728707123E+020.0000000000E+00+
*       3.4745762712E+02               0
GRID*                452               04.6070374298E+020.0000000000E+00+
*       3.5593220339E+02               0
GRID*                453               04.5236207581E+020.0000000000E+00+
*       3.5593220339E+02               0
GRID*                454               04.4402040863E+020.0000000000E+00+
*       3.5593220339E+02               0
GRID*                455               04.3567874146E+020.0000000000E+00+
*       3.5593220339E+02               0
GRID*                456               04.2733707428E+020.0000000000E+00+
*       3.5593220339E+02               0
GRID*                457               04.1899540710E+020.0000000000E+00+
*       3.5593220339E+02               0
GRID*                458               04.1065373993E+020.0000000000E+00+
*       3.5593220339E+02               0
GRID*                459               04.0231207275E+020.0000000000E+00+
*       3.5593220339E+02               0
GRID*                460               03.9397040558E+020.0000000000E+00+
*       3.5593220339E+02               0
GRID*                461               03.8562873840E+020.0000000000E+00+
*       3.5593220339E+02               0
GRID*                462               03.7728707123E+020.0000000000E+00+
*       3.5593220339E+02               0
GRID*                463               04.6070374298E+020.0000000000E+00+
*       3.6440677966E+02               0
GRID*                464               04.5236207581E+020.0000000000E+00+
*       3.6440677966E+02               0
GRID*                465               04.4402040863E+020.0000000000E+00+
*       3.6440677966E+02               0
GRID*                466               04.3567874146E+020.0000000000E+00+
*       3.6440677966E+02               0
GRID*                467               04.2733707428E+020.0000000000E+00+
*       3.6440677966E+02               0
GRID*                468               04.1899540710E+020.0000000000E+00+
*       3.6440677966E+02               0
GRID*                469               04.1065373993E+020.0000000000E+00+
*       3.6440677966E+02               0
GRID*                470               04.0231207275E+020.0000000000E+00+
*       3.6440677966E+02               0
GRID*                471               03.9397040558E+020.0000000000E+00+
*       3.6440677966E+02               0
GRID*                472               03.8562873840E+020.0000000000E+00+
*       3.6440677966E+02               0
GRID*                473               03.7728707123E+020.0000000000E+00+
*       3.6440677966E+02               0
GRID*                474               04.6070374298E+020.0000000000E+00+
*       3.7288135593E+02               0
GRID*                475               04.5236207581E+020.0000000000E+00+
*       3.7288135593E+02               0
GRID*                476               04.4402040863E+020.0000000000E+00+
*       3.7288135593E+02               0
GRID*                477               04.3567874146E+020.0000000000E+00+
*       3.7288135593E+02               0
GRID*                478               04.2733707428E+020.0000000000E+00+
*       3.7288135593E+02               0
GRID*                479               04.1899540710E+020.0000000000E+00+
*       3.7288135593E+02               0
GRID*                480               04.1065373993E+020.0000000000E+00+
*       3.7288135593E+02               0
GRID*                481               04.0231207275E+020.0000000000E+00+
*       3.7288135593E+02               0
GRID*                482               03.9397040558E+020.0000000000E+00+
*       3.7288135593E+02               0
GRID*                483               03.8562873840E+020.0000000000E+00+
*       3.7288135593E+02               0
GRID*                484               03.7728707123E+020.0000000000E+00+
*       3.7288135593E+02               0
GRID*                485               04.6070374298E+020.0000000000E+00+
*       3.8135593220E+02               0
GRID*                486               04.5236207581E+020.0000000000E+00+
*       3.8135593220E+02               0
GRID*                487               04.4402040863E+020.0000000000E+00+
*       3.8135593220E+02               0
GRID*                488               04.3567874146E+020.0000000000E+00+
*       3.8135593220E+02               0
GRID*                489               04.2733707428E+020.0000000000E+00+
*       3.8135593220E+02               0
GRID*                490               04.1899540710E+020.0000000000E+00+
*       3.8135593220E+02               0
GRID*                491               04.1065373993E+020.0000000000E+00+
*       3.8135593220E+02               0
GRID*                492               04.0231207275E+020.0000000000E+00+
*       3.8135593220E+02               0
GRID*                493               03.9397040558E+020.0000000000E+00+
*       3.8135593220E+02               0
GRID*                494               03.8562873840E+020.0000000000E+00+
*       3.8135593220E+02               0
GRID*                495               03.7728707123E+020.0000000000E+00+
*       3.8135593220E+02               0
GRID*                496               04.6070374298E+020.0000000000E+00+
*       3.8983050847E+02               0
GRID*                497               04.5236207581E+020.0000000000E+00+
*       3.8983050847E+02               0
GRID*                498               04.4402040863E+020.0000000000E+00+
*       3.8983050847E+02               0
GRID*                499               04.3567874146E+020.0000000000E+00+
*       3.8983050847E+02               0
GRID*                500               04.2733707428E+020.0000000000E+00+
*       3.8983050847E+02               0
GRID*                501               04.1899540710E+020.0000000000E+00+
*       3.8983050847E+02               0
GRID*                502               04.1065373993E+020.0000000000E+00+
*       3.8983050847E+02               0
GRID*                503               04.0231207275E+020.0000000000E+00+
*       3.8983050847E+02               0
GRID*                504               03.9397040558E+020.0000000000E+00+
*       3.8983050847E+02               0
GRID*                505               03.8562873840E+020.0000000000E+00+
*       3.8983050847E+02               0
GRID*                506               03.7728707123E+020.0000000000E+00+
*       3.8983050847E+02               0
GRID*                507               04.6070374298E+020.0000000000E+00+
*       3.9830508475E+02               0
GRID*                508               04.5236207581E+020.0000000000E+00+
*       3.9830508475E+02               0
GRID*                509               04.4402040863E+020.0000000000E+00+
*       3.9830508475E+02               0
GRID*                510               04.3567874146E+020.0000000000E+00+
*       3.9830508475E+02               0
GRID*                511               04.2733707428E+020.0000000000E+00+
*       3.9830508475E+02               0
GRID*                512               04.1899540710E+020.0000000000E+00+
*       3.9830508475E+02               0
GRID*                513               04.1065373993E+020.0000000000E+00+
*       3.9830508475E+02               0
GRID*                514               04.0231207275E+020.0000000000E+00+
*       3.9830508475E+02               0
GRID*                515               03.9397040558E+020.0000000000E+00+
*       3.9830508475E+02               0
GRID*                516               03.8562873840E+020.0000000000E+00+
*       3.9830508475E+02               0
GRID*                517               03.7728707123E+020.0000000000E+00+
*       3.9830508475E+02               0
GRID*                518               04.6070374298E+020.0000000000E+00+
*       4.0677966102E+02               0
GRID*                519               04.5236207581E+020.0000000000E+00+
*       4.0677966102E+02               0
GRID*                520               04.4402040863E+020.0000000000E+00+
*       4.0677966102E+02               0
GRID*                521               04.3567874146E+020.0000000000E+00+
*       4.0677966102E+02               0
GRID*                522               04.2733707428E+020.0000000000E+00+
*       4.0677966102E+02               0
GRID*                523               04.1899540710E+020.0000000000E+00+
*       4.0677966102E+02               0
GRID*                524               04.1065373993E+020.0000000000E+00+
*       4.0677966102E+02               0
GRID*                525               04.0231207275E+020.0000000000E+00+
*       4.0677966102E+02               0
GRID*                526               03.9397040558E+020.0000000000E+00+
*       4.0677966102E+02               0
GRID*                527               03.8562873840E+020.0000000000E+00+
*       4.0677966102E+02               0
GRID*                528               03.7728707123E+020.0000000000E+00+
*       4.0677966102E+02               0
GRID*                529               04.6070374298E+020.0000000000E+00+
*       4.1525423729E+02               0
GRID*                530               04.5236207581E+020.0000000000E+00+
*       4.1525423729E+02               0
GRID*                531               04.4402040863E+020.0000000000E+00+
*       4.1525423729E+02               0
GRID*                532               04.3567874146E+020.0000000000E+00+
*       4.1525423729E+02               0
GRID*                533               04.2733707428E+020.0000000000E+00+
*       4.1525423729E+02               0
GRID*                534               04.1899540710E+020.0000000000E+00+
*       4.1525423729E+02               0
GRID*                535               04.1065373993E+020.0000000000E+00+
*       4.1525423729E+02               0
GRID*                536               04.0231207275E+020.0000000000E+00+
*       4.1525423729E+02               0
GRID*                537               03.9397040558E+020.0000000000E+00+
*       4.1525423729E+02               0
GRID*                538               03.8562873840E+020.0000000000E+00+
*       4.1525423729E+02               0
GRID*                539               03.7728707123E+020.0000000000E+00+
*       4.1525423729E+02               0
GRID*                540               04.6070374298E+020.0000000000E+00+
*       4.2372881356E+02               0
GRID*                541               04.5236207581E+020.0000000000E+00+
*       4.2372881356E+02               0
GRID*                542               04.4402040863E+020.0000000000E+00+
*       4.2372881356E+02               0
GRID*                543               04.3567874146E+020.0000000000E+00+
*       4.2372881356E+02               0
GRID*                544               04.2733707428E+020.0000000000E+00+
*       4.2372881356E+02               0
GRID*                545               04.1899540710E+020.0000000000E+00+
*       4.2372881356E+02               0
GRID*                546               04.1065373993E+020.0000000000E+00+
*       4.2372881356E+02               0
GRID*                547               04.0231207275E+020.0000000000E+00+
*       4.2372881356E+02               0
GRID*                548               03.9397040558E+020.0000000000E+00+
*       4.2372881356E+02               0
GRID*                549               03.8562873840E+020.0000000000E+00+
*       4.2372881356E+02               0
GRID*                550               03.7728707123E+020.0000000000E+00+
*       4.2372881356E+02               0
GRID*                551               04.6070374298E+020.0000000000E+00+
*       4.3220338983E+02               0
GRID*                552               04.5236207581E+020.0000000000E+00+
*       4.3220338983E+02               0
GRID*                553               04.4402040863E+020.0000000000E+00+
*       4.3220338983E+02               0
GRID*                554               04.3567874146E+020.0000000000E+00+
*       4.3220338983E+02               0
GRID*                555               04.2733707428E+020.0000000000E+00+
*       4.3220338983E+02               0
GRID*                556               04.1899540710E+020.0000000000E+00+
*       4.3220338983E+02               0
GRID*                557               04.1065373993E+020.0000000000E+00+
*       4.3220338983E+02               0
GRID*                558               04.0231207275E+020.0000000000E+00+
*       4.3220338983E+02               0
GRID*                559               03.9397040558E+020.0000000000E+00+
*       4.3220338983E+02               0
GRID*                560               03.8562873840E+020.0000000000E+00+
*       4.3220338983E+02               0
GRID*                561               03.7728707123E+020.0000000000E+00+
*       4.3220338983E+02               0
GRID*                562               04.6070374298E+020.0000000000E+00+
*       4.4067796610E+02               0
GRID*                563               04.5236207581E+020.0000000000E+00+
*       4.4067796610E+02               0
GRID*                564               04.4402040863E+020.0000000000E+00+
*       4.4067796610E+02               0
GRID*                565               04.3567874146E+020.0000000000E+00+
*       4.4067796610E+02               0
GRID*                566               04.2733707428E+020.0000000000E+00+
*       4.4067796610E+02               0
GRID*                567               04.1899540710E+020.0000000000E+00+
*       4.4067796610E+02               0
GRID*                568               04.1065373993E+020.0000000000E+00+
*       4.4067796610E+02               0
GRID*                569               04.0231207275E+020.0000000000E+00+
*       4.4067796610E+02               0
GRID*                570               03.9397040558E+020.0000000000E+00+
*       4.4067796610E+02               0
GRID*                571               03.8562873840E+020.0000000000E+00+
*       4.4067796610E+02               0
GRID*                572               03.7728707123E+020.0000000000E+00+
*       4.4067796610E+02               0
GRID*                573               04.6070374298E+020.0000000000E+00+
*       4.4915254237E+02               0
GRID*                574               04.5236207581E+020.0000000000E+00+
*       4.4915254237E+02               0
GRID*                575               04.4402040863E+020.0000000000E+00+
*       4.4915254237E+02               0
GRID*                576               04.3567874146E+020.0000000000E+00+
*       4.4915254237E+02               0
GRID*                577               04.2733707428E+020.0000000000E+00+
*       4.4915254237E+02               0
GRID*                578               04.1899540710E+020.0000000000E+00+
*       4.4915254237E+02               0
GRID*                579               04.1065373993E+020.0000000000E+00+
*       4.4915254237E+02               0
GRID*                580               04.0231207275E+020.0000000000E+00+
*       4.4915254237E+02               0
GRID*                581               03.9397040558E+020.0000000000E+00+
*       4.4915254237E+02               0
GRID*                582               03.8562873840E+020.0000000000E+00+
*       4.4915254237E+02               0
GRID*                583               03.7728707123E+020.0000000000E+00+
*       4.4915254237E+02               0
GRID*                584               04.6070374298E+020.0000000000E+00+
*       4.5762711864E+02               0
GRID*                585               04.5236207581E+020.0000000000E+00+
*       4.5762711864E+02               0
GRID*                586               04.4402040863E+020.0000000000E+00+
*       4.5762711864E+02               0
GRID*                587               04.3567874146E+020.0000000000E+00+
*       4.5762711864E+02               0
GRID*                588               04.2733707428E+020.0000000000E+00+
*       4.5762711864E+02               0
GRID*                589               04.1899540710E+020.0000000000E+00+
*       4.5762711864E+02               0
GRID*                590               04.1065373993E+020.0000000000E+00+
*       4.5762711864E+02               0
GRID*                591               04.0231207275E+020.0000000000E+00+
*       4.5762711864E+02               0
GRID*                592               03.9397040558E+020.0000000000E+00+
*       4.5762711864E+02               0
GRID*                593               03.8562873840E+020.0000000000E+00+
*       4.5762711864E+02               0
GRID*                594               03.7728707123E+020.0000000000E+00+
*       4.5762711864E+02               0
GRID*                595               04.6070374298E+020.0000000000E+00+
*       4.6610169492E+02               0
GRID*                596               04.5236207581E+020.0000000000E+00+
*       4.6610169492E+02               0
GRID*                597               04.4402040863E+020.0000000000E+00+
*       4.6610169492E+02               0
GRID*                598               04.3567874146E+020.0000000000E+00+
*       4.6610169492E+02               0
GRID*                599               04.2733707428E+020.0000000000E+00+
*       4.6610169492E+02               0
GRID*                600               04.1899540710E+020.0000000000E+00+
*       4.6610169492E+02               0
GRID*                601               04.1065373993E+020.0000000000E+00+
*       4.6610169492E+02               0
GRID*                602               04.0231207275E+020.0000000000E+00+
*       4.6610169492E+02               0
GRID*                603               03.9397040558E+020.0000000000E+00+
*       4.6610169492E+02               0
GRID*                604               03.8562873840E+020.0000000000E+00+
*       4.6610169492E+02               0
GRID*                605               03.7728707123E+020.0000000000E+00+
*       4.6610169492E+02               0
GRID*                606               04.6070374298E+020.0000000000E+00+
*       4.7457627119E+02               0
GRID*                607               04.5236207581E+020.0000000000E+00+
*       4.7457627119E+02               0
GRID*                608               04.4402040863E+020.0000000000E+00+
*       4.7457627119E+02               0
GRID*                609               04.3567874146E+020.0000000000E+00+
*       4.7457627119E+02               0
GRID*                610               04.2733707428E+020.0000000000E+00+
*       4.7457627119E+02               0
GRID*                611               04.1899540710E+020.0000000000E+00+
*       4.7457627119E+02               0
GRID*                612               04.1065373993E+020.0000000000E+00+
*       4.7457627119E+02               0
GRID*                613               04.0231207275E+020.0000000000E+00+
*       4.7457627119E+02               0
GRID*                614               03.9397040558E+020.0000000000E+00+
*       4.7457627119E+02               0
GRID*                615               03.8562873840E+020.0000000000E+00+
*       4.7457627119E+02               0
GRID*                616               03.7728707123E+020.0000000000E+00+
*       4.7457627119E+02               0
GRID*                617               04.6070374298E+020.0000000000E+00+
*       4.8305084746E+02               0
GRID*                618               04.5236207581E+020.0000000000E+00+
*       4.8305084746E+02               0
GRID*                619               04.4402040863E+020.0000000000E+00+
*       4.8305084746E+02               0
GRID*                620               04.3567874146E+020.0000000000E+00+
*       4.8305084746E+02               0
GRID*                621               04.2733707428E+020.0000000000E+00+
*       4.8305084746E+02               0
GRID*                622               04.1899540710E+020.0000000000E+00+
*       4.8305084746E+02               0
GRID*                623               04.1065373993E+020.0000000000E+00+
*       4.8305084746E+02               0
GRID*                624               04.0231207275E+020.0000000000E+00+
*       4.8305084746E+02               0
GRID*                625               03.9397040558E+020.0000000000E+00+
*       4.8305084746E+02               0
GRID*                626               03.8562873840E+020.0000000000E+00+
*       4.8305084746E+02               0
GRID*                627               03.7728707123E+020.0000000000E+00+
*       4.8305084746E+02               0
GRID*                628               04.6070374298E+020.0000000000E+00+
*       4.9152542373E+02               0
GRID*                629               04.5236207581E+020.0000000000E+00+
*       4.9152542373E+02               0
GRID*                630               04.4402040863E+020.0000000000E+00+
*       4.9152542373E+02               0
GRID*                631               04.3567874146E+020.0000000000E+00+
*       4.9152542373E+02               0
GRID*                632               04.2733707428E+020.0000000000E+00+
*       4.9152542373E+02               0
GRID*                633               04.1899540710E+020.0000000000E+00+
*       4.9152542373E+02               0
GRID*                634               04.1065373993E+020.0000000000E+00+
*       4.9152542373E+02               0
GRID*                635               04.0231207275E+020.0000000000E+00+
*       4.9152542373E+02               0
GRID*                636               03.9397040558E+020.0000000000E+00+
*       4.9152542373E+02               0
GRID*                637               03.8562873840E+020.0000000000E+00+
*       4.9152542373E+02               0
GRID*                638               03.7728707123E+020.0000000000E+00+
*       4.9152542373E+02               0
GRID*                639               03.6046250534E+020.0000000000E+00+
*       8.4745762712E+00               0
GRID*                640               03.5182500458E+020.0000000000E+00+
*       8.4745762712E+00               0
GRID*                641               03.4318750381E+020.0000000000E+00+
*       8.4745762712E+00               0
GRID*                642               03.3455000305E+020.0000000000E+00+
*       8.4745762712E+00               0
GRID*                643               03.2591250229E+020.0000000000E+00+
*       8.4745762712E+00               0
GRID*                644               03.1727500153E+020.0000000000E+00+
*       8.4745762712E+00               0
GRID*                645               03.0863750076E+020.0000000000E+00+
*       8.4745762712E+00               0
GRID*                646               03.6046250534E+020.0000000000E+00+
*       1.6949152542E+01               0
GRID*                647               03.5182500458E+020.0000000000E+00+
*       1.6949152542E+01               0
GRID*                648               03.4318750381E+020.0000000000E+00+
*       1.6949152542E+01               0
GRID*                649               03.3455000305E+020.0000000000E+00+
*       1.6949152542E+01               0
GRID*                650               03.2591250229E+020.0000000000E+00+
*       1.6949152542E+01               0
GRID*                651               03.1727500153E+020.0000000000E+00+
*       1.6949152542E+01               0
GRID*                652               03.0863750076E+020.0000000000E+00+
*       1.6949152542E+01               0
GRID*                653               03.6046250534E+020.0000000000E+00+
*       2.5423728814E+01               0
GRID*                654               03.5182500458E+020.0000000000E+00+
*       2.5423728814E+01               0
GRID*                655               03.4318750381E+020.0000000000E+00+
*       2.5423728814E+01               0
GRID*                656               03.3455000305E+020.0000000000E+00+
*       2.5423728814E+01               0
GRID*                657               03.2591250229E+020.0000000000E+00+
*       2.5423728814E+01               0
GRID*                658               03.1727500153E+020.0000000000E+00+
*       2.5423728814E+01               0
GRID*                659               03.0863750076E+020.0000000000E+00+
*       2.5423728814E+01               0
GRID*                660               03.6046250534E+020.0000000000E+00+
*       3.3898305085E+01               0
GRID*                661               03.5182500458E+020.0000000000E+00+
*       3.3898305085E+01               0
GRID*                662               03.4318750381E+020.0000000000E+00+
*       3.3898305085E+01               0
GRID*                663               03.3455000305E+020.0000000000E+00+
*       3.3898305085E+01               0
GRID*                664               03.2591250229E+020.0000000000E+00+
*       3.3898305085E+01               0
GRID*                665               03.1727500153E+020.0000000000E+00+
*       3.3898305085E+01               0
GRID*                666               03.0863750076E+020.0000000000E+00+
*       3.3898305085E+01               0
GRID*                667               03.6046250534E+020.0000000000E+00+
*       4.2372881356E+01               0
GRID*                668               03.5182500458E+020.0000000000E+00+
*       4.2372881356E+01               0
GRID*                669               03.4318750381E+020.0000000000E+00+
*       4.2372881356E+01               0
GRID*                670               03.3455000305E+020.0000000000E+00+
*       4.2372881356E+01               0
GRID*                671               03.2591250229E+020.0000000000E+00+
*       4.2372881356E+01               0
GRID*                672               03.1727500153E+020.0000000000E+00+
*       4.2372881356E+01               0
GRID*                673               03.0863750076E+020.0000000000E+00+
*       4.2372881356E+01               0
GRID*                674               03.6046250534E+020.0000000000E+00+
*       5.0847457627E+01               0
GRID*                675               03.5182500458E+020.0000000000E+00+
*       5.0847457627E+01               0
GRID*                676               03.4318750381E+020.0000000000E+00+
*       5.0847457627E+01               0
GRID*                677               03.3455000305E+020.0000000000E+00+
*       5.0847457627E+01               0
GRID*                678               03.2591250229E+020.0000000000E+00+
*       5.0847457627E+01               0
GRID*                679               03.1727500153E+020.0000000000E+00+
*       5.0847457627E+01               0
GRID*                680               03.0863750076E+020.0000000000E+00+
*       5.0847457627E+01               0
GRID*                681               03.6046250534E+020.0000000000E+00+
*       5.9322033898E+01               0
GRID*                682               03.5182500458E+020.0000000000E+00+
*       5.9322033898E+01               0
GRID*                683               03.4318750381E+020.0000000000E+00+
*       5.9322033898E+01               0
GRID*                684               03.3455000305E+020.0000000000E+00+
*       5.9322033898E+01               0
GRID*                685               03.2591250229E+020.0000000000E+00+
*       5.9322033898E+01               0
GRID*                686               03.1727500153E+020.0000000000E+00+
*       5.9322033898E+01               0
GRID*                687               03.0863750076E+020.0000000000E+00+
*       5.9322033898E+01               0
GRID*                688               03.6046250534E+020.0000000000E+00+
*       6.7796610169E+01               0
GRID*                689               03.5182500458E+020.0000000000E+00+
*       6.7796610169E+01               0
GRID*                690               03.4318750381E+020.0000000000E+00+
*       6.7796610169E+01               0
GRID*                691               03.3455000305E+020.0000000000E+00+
*       6.7796610169E+01               0
GRID*                692               03.2591250229E+020.0000000000E+00+
*       6.7796610169E+01               0
GRID*                693               03.1727500153E+020.0000000000E+00+
*       6.7796610169E+01               0
GRID*                694               03.0863750076E+020.0000000000E+00+
*       6.7796610169E+01               0
GRID*                695               03.6046250534E+020.0000000000E+00+
*       7.6271186441E+01               0
GRID*                696               03.5182500458E+020.0000000000E+00+
*       7.6271186441E+01               0
GRID*                697               03.4318750381E+020.0000000000E+00+
*       7.6271186441E+01               0
GRID*                698               03.3455000305E+020.0000000000E+00+
*       7.6271186441E+01               0
GRID*                699               03.2591250229E+020.0000000000E+00+
*       7.6271186441E+01               0
GRID*                700               03.1727500153E+020.0000000000E+00+
*       7.6271186441E+01               0
GRID*                701               03.0863750076E+020.0000000000E+00+
*       7.6271186441E+01               0
GRID*                702               03.6046250534E+020.0000000000E+00+
*       8.4745762712E+01               0
GRID*                703               03.5182500458E+020.0000000000E+00+
*       8.4745762712E+01               0
GRID*                704               03.4318750381E+020.0000000000E+00+
*       8.4745762712E+01               0
GRID*                705               03.3455000305E+020.0000000000E+00+
*       8.4745762712E+01               0
GRID*                706               03.2591250229E+020.0000000000E+00+
*       8.4745762712E+01               0
GRID*                707               03.1727500153E+020.0000000000E+00+
*       8.4745762712E+01               0
GRID*                708               03.0863750076E+020.0000000000E+00+
*       8.4745762712E+01               0
GRID*                709               03.6046250534E+020.0000000000E+00+
*       9.3220338983E+01               0
GRID*                710               03.5182500458E+020.0000000000E+00+
*       9.3220338983E+01               0
GRID*                711               03.4318750381E+020.0000000000E+00+
*       9.3220338983E+01               0
GRID*                712               03.3455000305E+020.0000000000E+00+
*       9.3220338983E+01               0
GRID*                713               03.2591250229E+020.0000000000E+00+
*       9.3220338983E+01               0
GRID*                714               03.1727500153E+020.0000000000E+00+
*       9.3220338983E+01               0
GRID*                715               03.0863750076E+020.0000000000E+00+
*       9.3220338983E+01               0
GRID*                716               03.6046250534E+020.0000000000E+00+
*       1.0169491525E+02               0
GRID*                717               03.5182500458E+020.0000000000E+00+
*       1.0169491525E+02               0
GRID*                718               03.4318750381E+020.0000000000E+00+
*       1.0169491525E+02               0
GRID*                719               03.3455000305E+020.0000000000E+00+
*       1.0169491525E+02               0
GRID*                720               03.2591250229E+020.0000000000E+00+
*       1.0169491525E+02               0
GRID*                721               03.1727500153E+020.0000000000E+00+
*       1.0169491525E+02               0
GRID*                722               03.0863750076E+020.0000000000E+00+
*       1.0169491525E+02               0
GRID*                723               03.6046250534E+020.0000000000E+00+
*       1.1016949153E+02               0
GRID*                724               03.5182500458E+020.0000000000E+00+
*       1.1016949153E+02               0
GRID*                725               03.4318750381E+020.0000000000E+00+
*       1.1016949153E+02               0
GRID*                726               03.3455000305E+020.0000000000E+00+
*       1.1016949153E+02               0
GRID*                727               03.2591250229E+020.0000000000E+00+
*       1.1016949153E+02               0
GRID*                728               03.1727500153E+020.0000000000E+00+
*       1.1016949153E+02               0
GRID*                729               03.0863750076E+020.0000000000E+00+
*       1.1016949153E+02               0
GRID*                730               03.6046250534E+020.0000000000E+00+
*       1.1864406780E+02               0
GRID*                731               03.5182500458E+020.0000000000E+00+
*       1.1864406780E+02               0
GRID*                732               03.4318750381E+020.0000000000E+00+
*       1.1864406780E+02               0
GRID*                733               03.3455000305E+020.0000000000E+00+
*       1.1864406780E+02               0
GRID*                734               03.2591250229E+020.0000000000E+00+
*       1.1864406780E+02               0
GRID*                735               03.1727500153E+020.0000000000E+00+
*       1.1864406780E+02               0
GRID*                736               03.0863750076E+020.0000000000E+00+
*       1.1864406780E+02               0
GRID*                737               03.6046250534E+020.0000000000E+00+
*       1.2711864407E+02               0
GRID*                738               03.5182500458E+020.0000000000E+00+
*       1.2711864407E+02               0
GRID*                739               03.4318750381E+020.0000000000E+00+
*       1.2711864407E+02               0
GRID*                740               03.3455000305E+020.0000000000E+00+
*       1.2711864407E+02               0
GRID*                741               03.2591250229E+020.0000000000E+00+
*       1.2711864407E+02               0
GRID*                742               03.1727500153E+020.0000000000E+00+
*       1.2711864407E+02               0
GRID*                743               03.0863750076E+020.0000000000E+00+
*       1.2711864407E+02               0
GRID*                744               03.6046250534E+020.0000000000E+00+
*       1.3559322034E+02               0
GRID*                745               03.5182500458E+020.0000000000E+00+
*       1.3559322034E+02               0
GRID*                746               03.4318750381E+020.0000000000E+00+
*       1.3559322034E+02               0
GRID*                747               03.3455000305E+020.0000000000E+00+
*       1.3559322034E+02               0
GRID*                748               03.2591250229E+020.0000000000E+00+
*       1.3559322034E+02               0
GRID*                749               03.1727500153E+020.0000000000E+00+
*       1.3559322034E+02               0
GRID*                750               03.0863750076E+020.0000000000E+00+
*       1.3559322034E+02               0
GRID*                751               03.6046250534E+020.0000000000E+00+
*       1.4406779661E+02               0
GRID*                752               03.5182500458E+020.0000000000E+00+
*       1.4406779661E+02               0
GRID*                753               03.4318750381E+020.0000000000E+00+
*       1.4406779661E+02               0
GRID*                754               03.3455000305E+020.0000000000E+00+
*       1.4406779661E+02               0
GRID*                755               03.2591250229E+020.0000000000E+00+
*       1.4406779661E+02               0
GRID*                756               03.1727500153E+020.0000000000E+00+
*       1.4406779661E+02               0
GRID*                757               03.0863750076E+020.0000000000E+00+
*       1.4406779661E+02               0
GRID*                758               03.6046250534E+020.0000000000E+00+
*       1.5254237288E+02               0
GRID*                759               03.5182500458E+020.0000000000E+00+
*       1.5254237288E+02               0
GRID*                760               03.4318750381E+020.0000000000E+00+
*       1.5254237288E+02               0
GRID*                761               03.3455000305E+020.0000000000E+00+
*       1.5254237288E+02               0
GRID*                762               03.2591250229E+020.0000000000E+00+
*       1.5254237288E+02               0
GRID*                763               03.1727500153E+020.0000000000E+00+
*       1.5254237288E+02               0
GRID*                764               03.0863750076E+020.0000000000E+00+
*       1.5254237288E+02               0
GRID*                765               03.6046250534E+020.0000000000E+00+
*       1.6101694915E+02               0
GRID*                766               03.5182500458E+020.0000000000E+00+
*       1.6101694915E+02               0
GRID*                767               03.4318750381E+020.0000000000E+00+
*       1.6101694915E+02               0
GRID*                768               03.3455000305E+020.0000000000E+00+
*       1.6101694915E+02               0
GRID*                769               03.2591250229E+020.0000000000E+00+
*       1.6101694915E+02               0
GRID*                770               03.1727500153E+020.0000000000E+00+
*       1.6101694915E+02               0
GRID*                771               03.0863750076E+020.0000000000E+00+
*       1.6101694915E+02               0
GRID*                772               03.6046250534E+020.0000000000E+00+
*       1.6949152542E+02               0
GRID*                773               03.5182500458E+020.0000000000E+00+
*       1.6949152542E+02               0
GRID*                774               03.4318750381E+020.0000000000E+00+
*       1.6949152542E+02               0
GRID*                775               03.3455000305E+020.0000000000E+00+
*       1.6949152542E+02               0
GRID*                776               03.2591250229E+020.0000000000E+00+
*       1.6949152542E+02               0
GRID*                777               03.1727500153E+020.0000000000E+00+
*       1.6949152542E+02               0
GRID*                778               03.0863750076E+020.0000000000E+00+
*       1.6949152542E+02               0
GRID*                779               03.6046250534E+020.0000000000E+00+
*       1.7796610169E+02               0
GRID*                780               03.5182500458E+020.0000000000E+00+
*       1.7796610169E+02               0
GRID*                781               03.4318750381E+020.0000000000E+00+
*       1.7796610169E+02               0
GRID*                782               03.3455000305E+020.0000000000E+00+
*       1.7796610169E+02               0
GRID*                783               03.2591250229E+020.0000000000E+00+
*       1.7796610169E+02               0
GRID*                784               03.1727500153E+020.0000000000E+00+
*       1.7796610169E+02               0
GRID*                785               03.0863750076E+020.0000000000E+00+
*       1.7796610169E+02               0
GRID*                786               03.6046250534E+020.0000000000E+00+
*       1.8644067797E+02               0
GRID*                787               03.5182500458E+020.0000000000E+00+
*       1.8644067797E+02               0
GRID*                788               03.4318750381E+020.0000000000E+00+
*       1.8644067797E+02               0
GRID*                789               03.3455000305E+020.0000000000E+00+
*       1.8644067797E+02               0
GRID*                790               03.2591250229E+020.0000000000E+00+
*       1.8644067797E+02               0
GRID*                791               03.1727500153E+020.0000000000E+00+
*       1.8644067797E+02               0
GRID*                792               03.0863750076E+020.0000000000E+00+
*       1.8644067797E+02               0
GRID*                793               03.6046250534E+020.0000000000E+00+
*       1.9491525424E+02               0
GRID*                794               03.5182500458E+020.0000000000E+00+
*       1.9491525424E+02               0
GRID*                795               03.4318750381E+020.0000000000E+00+
*       1.9491525424E+02               0
GRID*                796               03.3455000305E+020.0000000000E+00+
*       1.9491525424E+02               0
GRID*                797               03.2591250229E+020.0000000000E+00+
*       1.9491525424E+02               0
GRID*                798               03.1727500153E+020.0000000000E+00+
*       1.9491525424E+02               0
GRID*                799               03.0863750076E+020.0000000000E+00+
*       1.9491525424E+02               0
GRID*                800               03.6046250534E+020.0000000000E+00+
*       2.0338983051E+02               0
GRID*                801               03.5182500458E+020.0000000000E+00+
*       2.0338983051E+02               0
GRID*                802               03.4318750381E+020.0000000000E+00+
*       2.0338983051E+02               0
GRID*                803               03.3455000305E+020.0000000000E+00+
*       2.0338983051E+02               0
GRID*                804               03.2591250229E+020.0000000000E+00+
*       2.0338983051E+02               0
GRID*                805               03.1727500153E+020.0000000000E+00+
*       2.0338983051E+02               0
GRID*                806               03.0863750076E+020.0000000000E+00+
*       2.0338983051E+02               0
GRID*                807               03.6046250534E+020.0000000000E+00+
*       2.1186440678E+02               0
GRID*                808               03.5182500458E+020.0000000000E+00+
*       2.1186440678E+02               0
GRID*                809               03.4318750381E+020.0000000000E+00+
*       2.1186440678E+02               0
GRID*                810               03.3455000305E+020.0000000000E+00+
*       2.1186440678E+02               0
GRID*                811               03.2591250229E+020.0000000000E+00+
*       2.1186440678E+02               0
GRID*                812               03.1727500153E+020.0000000000E+00+
*       2.1186440678E+02               0
GRID*                813               03.0863750076E+020.0000000000E+00+
*       2.1186440678E+02               0
GRID*                814               03.6046250534E+020.0000000000E+00+
*       2.2033898305E+02               0
GRID*                815               03.5182500458E+020.0000000000E+00+
*       2.2033898305E+02               0
GRID*                816               03.4318750381E+020.0000000000E+00+
*       2.2033898305E+02               0
GRID*                817               03.3455000305E+020.0000000000E+00+
*       2.2033898305E+02               0
GRID*                818               03.2591250229E+020.0000000000E+00+
*       2.2033898305E+02               0
GRID*                819               03.1727500153E+020.0000000000E+00+
*       2.2033898305E+02               0
GRID*                820               03.0863750076E+020.0000000000E+00+
*       2.2033898305E+02               0
GRID*                821               03.6046250534E+020.0000000000E+00+
*       2.2881355932E+02               0
GRID*                822               03.5182500458E+020.0000000000E+00+
*       2.2881355932E+02               0
GRID*                823               03.4318750381E+020.0000000000E+00+
*       2.2881355932E+02               0
GRID*                824               03.3455000305E+020.0000000000E+00+
*       2.2881355932E+02               0
GRID*                825               03.2591250229E+020.0000000000E+00+
*       2.2881355932E+02               0
GRID*                826               03.1727500153E+020.0000000000E+00+
*       2.2881355932E+02               0
GRID*                827               03.0863750076E+020.0000000000E+00+
*       2.2881355932E+02               0
GRID*                828               03.6046250534E+020.0000000000E+00+
*       2.3728813559E+02               0
GRID*                829               03.5182500458E+020.0000000000E+00+
*       2.3728813559E+02               0
GRID*                830               03.4318750381E+020.0000000000E+00+
*       2.3728813559E+02               0
GRID*                831               03.3455000305E+020.0000000000E+00+
*       2.3728813559E+02               0
GRID*                832               03.2591250229E+020.0000000000E+00+
*       2.3728813559E+02               0
GRID*                833               03.1727500153E+020.0000000000E+00+
*       2.3728813559E+02               0
GRID*                834               03.0863750076E+020.0000000000E+00+
*       2.3728813559E+02               0
GRID*                835               03.6046250534E+020.0000000000E+00+
*       2.4576271186E+02               0
GRID*                836               03.5182500458E+020.0000000000E+00+
*       2.4576271186E+02               0
GRID*                837               03.4318750381E+020.0000000000E+00+
*       2.4576271186E+02               0
GRID*                838               03.3455000305E+020.0000000000E+00+
*       2.4576271186E+02               0
GRID*                839               03.2591250229E+020.0000000000E+00+
*       2.4576271186E+02               0
GRID*                840               03.1727500153E+020.0000000000E+00+
*       2.4576271186E+02               0
GRID*                841               03.0863750076E+020.0000000000E+00+
*       2.4576271186E+02               0
GRID*                842               03.6046250534E+020.0000000000E+00+
*       2.5423728814E+02               0
GRID*                843               03.5182500458E+020.0000000000E+00+
*       2.5423728814E+02               0
GRID*                844               03.4318750381E+020.0000000000E+00+
*       2.5423728814E+02               0
GRID*                845               03.3455000305E+020.0000000000E+00+
*       2.5423728814E+02               0
GRID*                846               03.2591250229E+020.0000000000E+00+
*       2.5423728814E+02               0
GRID*                847               03.1727500153E+020.0000000000E+00+
*       2.5423728814E+02               0
GRID*                848               03.0863750076E+020.0000000000E+00+
*       2.5423728814E+02               0
GRID*                849               03.6046250534E+020.0000000000E+00+
*       2.6271186441E+02               0
GRID*                850               03.5182500458E+020.0000000000E+00+
*       2.6271186441E+02               0
GRID*                851               03.4318750381E+020.0000000000E+00+
*       2.6271186441E+02               0
GRID*                852               03.3455000305E+020.0000000000E+00+
*       2.6271186441E+02               0
GRID*                853               03.2591250229E+020.0000000000E+00+
*       2.6271186441E+02               0
GRID*                854               03.1727500153E+020.0000000000E+00+
*       2.6271186441E+02               0
GRID*                855               03.0863750076E+020.0000000000E+00+
*       2.6271186441E+02               0
GRID*                856               03.6046250534E+020.0000000000E+00+
*       2.7118644068E+02               0
GRID*                857               03.5182500458E+020.0000000000E+00+
*       2.7118644068E+02               0
GRID*                858               03.4318750381E+020.0000000000E+00+
*       2.7118644068E+02               0
GRID*                859               03.3455000305E+020.0000000000E+00+
*       2.7118644068E+02               0
GRID*                860               03.2591250229E+020.0000000000E+00+
*       2.7118644068E+02               0
GRID*                861               03.1727500153E+020.0000000000E+00+
*       2.7118644068E+02               0
GRID*                862               03.0863750076E+020.0000000000E+00+
*       2.7118644068E+02               0
GRID*                863               03.6046250534E+020.0000000000E+00+
*       2.7966101695E+02               0
GRID*                864               03.5182500458E+020.0000000000E+00+
*       2.7966101695E+02               0
GRID*                865               03.4318750381E+020.0000000000E+00+
*       2.7966101695E+02               0
GRID*                866               03.3455000305E+020.0000000000E+00+
*       2.7966101695E+02               0
GRID*                867               03.2591250229E+020.0000000000E+00+
*       2.7966101695E+02               0
GRID*                868               03.1727500153E+020.0000000000E+00+
*       2.7966101695E+02               0
GRID*                869               03.0863750076E+020.0000000000E+00+
*       2.7966101695E+02               0
GRID*                870               03.6046250534E+020.0000000000E+00+
*       2.8813559322E+02               0
GRID*                871               03.5182500458E+020.0000000000E+00+
*       2.8813559322E+02               0
GRID*                872               03.4318750381E+020.0000000000E+00+
*       2.8813559322E+02               0
GRID*                873               03.3455000305E+020.0000000000E+00+
*       2.8813559322E+02               0
GRID*                874               03.2591250229E+020.0000000000E+00+
*       2.8813559322E+02               0
GRID*                875               03.1727500153E+020.0000000000E+00+
*       2.8813559322E+02               0
GRID*                876               03.0863750076E+020.0000000000E+00+
*       2.8813559322E+02               0
GRID*                877               03.6046250534E+020.0000000000E+00+
*       2.9661016949E+02               0
GRID*                878               03.5182500458E+020.0000000000E+00+
*       2.9661016949E+02               0
GRID*                879               03.4318750381E+020.0000000000E+00+
*       2.9661016949E+02               0
GRID*                880               03.3455000305E+020.0000000000E+00+
*       2.9661016949E+02               0
GRID*                881               03.2591250229E+020.0000000000E+00+
*       2.9661016949E+02               0
GRID*                882               03.1727500153E+020.0000000000E+00+
*       2.9661016949E+02               0
GRID*                883               03.0863750076E+020.0000000000E+00+
*       2.9661016949E+02               0
GRID*                884               03.6046250534E+020.0000000000E+00+
*       3.0508474576E+02               0
GRID*                885               03.5182500458E+020.0000000000E+00+
*       3.0508474576E+02               0
GRID*                886               03.4318750381E+020.0000000000E+00+
*       3.0508474576E+02               0
GRID*                887               03.3455000305E+020.0000000000E+00+
*       3.0508474576E+02               0
GRID*                888               03.2591250229E+020.0000000000E+00+
*       3.0508474576E+02               0
GRID*                889               03.1727500153E+020.0000000000E+00+
*       3.0508474576E+02               0
GRID*                890               03.0863750076E+020.0000000000E+00+
*       3.0508474576E+02               0
GRID*                891               03.6046250534E+020.0000000000E+00+
*       3.1355932203E+02               0
GRID*                892               03.5182500458E+020.0000000000E+00+
*       3.1355932203E+02               0
GRID*                893               03.4318750381E+020.0000000000E+00+
*       3.1355932203E+02               0
GRID*                894               03.3455000305E+020.0000000000E+00+
*       3.1355932203E+02               0
GRID*                895               03.2591250229E+020.0000000000E+00+
*       3.1355932203E+02               0
GRID*                896               03.1727500153E+020.0000000000E+00+
*       3.1355932203E+02               0
GRID*                897               03.0863750076E+020.0000000000E+00+
*       3.1355932203E+02               0
GRID*                898               03.6046250534E+020.0000000000E+00+
*       3.2203389831E+02               0
GRID*                899               03.5182500458E+020.0000000000E+00+
*       3.2203389831E+02               0
GRID*                900               03.4318750381E+020.0000000000E+00+
*       3.2203389831E+02               0
GRID*                901               03.3455000305E+020.0000000000E+00+
*       3.2203389831E+02               0
GRID*                902               03.2591250229E+020.0000000000E+00+
*       3.2203389831E+02               0
GRID*                903               03.1727500153E+020.0000000000E+00+
*       3.2203389831E+02               0
GRID*                904               03.0863750076E+020.0000000000E+00+
*       3.2203389831E+02               0
GRID*                905               03.6046250534E+020.0000000000E+00+
*       3.3050847458E+02               0
GRID*                906               03.5182500458E+020.0000000000E+00+
*       3.3050847458E+02               0
GRID*                907               03.4318750381E+020.0000000000E+00+
*       3.3050847458E+02               0
GRID*                908               03.3455000305E+020.0000000000E+00+
*       3.3050847458E+02               0
GRID*                909               03.2591250229E+020.0000000000E+00+
*       3.3050847458E+02               0
GRID*                910               03.1727500153E+020.0000000000E+00+
*       3.3050847458E+02               0
GRID*                911               03.0863750076E+020.0000000000E+00+
*       3.3050847458E+02               0
GRID*                912               03.6046250534E+020.0000000000E+00+
*       3.3898305085E+02               0
GRID*                913               03.5182500458E+020.0000000000E+00+
*       3.3898305085E+02               0
GRID*                914               03.4318750381E+020.0000000000E+00+
*       3.3898305085E+02               0
GRID*                915               03.3455000305E+020.0000000000E+00+
*       3.3898305085E+02               0
GRID*                916               03.2591250229E+020.0000000000E+00+
*       3.3898305085E+02               0
GRID*                917               03.1727500153E+020.0000000000E+00+
*       3.3898305085E+02               0
GRID*                918               03.0863750076E+020.0000000000E+00+
*       3.3898305085E+02               0
GRID*                919               03.6046250534E+020.0000000000E+00+
*       3.4745762712E+02               0
GRID*                920               03.5182500458E+020.0000000000E+00+
*       3.4745762712E+02               0
GRID*                921               03.4318750381E+020.0000000000E+00+
*       3.4745762712E+02               0
GRID*                922               03.3455000305E+020.0000000000E+00+
*       3.4745762712E+02               0
GRID*                923               03.2591250229E+020.0000000000E+00+
*       3.4745762712E+02               0
GRID*                924               03.1727500153E+020.0000000000E+00+
*       3.4745762712E+02               0
GRID*                925               03.0863750076E+020.0000000000E+00+
*       3.4745762712E+02               0
GRID*                926               03.6046250534E+020.0000000000E+00+
*       3.5593220339E+02               0
GRID*                927               03.5182500458E+020.0000000000E+00+
*       3.5593220339E+02               0
GRID*                928               03.4318750381E+020.0000000000E+00+
*       3.5593220339E+02               0
GRID*                929               03.3455000305E+020.0000000000E+00+
*       3.5593220339E+02               0
GRID*                930               03.2591250229E+020.0000000000E+00+
*       3.5593220339E+02               0
GRID*                931               03.1727500153E+020.0000000000E+00+
*       3.5593220339E+02               0
GRID*                932               03.0863750076E+020.0000000000E+00+
*       3.5593220339E+02               0
GRID*                933               03.6046250534E+020.0000000000E+00+
*       3.6440677966E+02               0
GRID*                934               03.5182500458E+020.0000000000E+00+
*       3.6440677966E+02               0
GRID*                935               03.4318750381E+020.0000000000E+00+
*       3.6440677966E+02               0
GRID*                936               03.3455000305E+020.0000000000E+00+
*       3.6440677966E+02               0
GRID*                937               03.2591250229E+020.0000000000E+00+
*       3.6440677966E+02               0
GRID*                938               03.1727500153E+020.0000000000E+00+
*       3.6440677966E+02               0
GRID*                939               03.0863750076E+020.0000000000E+00+
*       3.6440677966E+02               0
GRID*                940               03.6046250534E+020.0000000000E+00+
*       3.7288135593E+02               0
GRID*                941               03.5182500458E+020.0000000000E+00+
*       3.7288135593E+02               0
GRID*                942               03.4318750381E+020.0000000000E+00+
*       3.7288135593E+02               0
GRID*                943               03.3455000305E+020.0000000000E+00+
*       3.7288135593E+02               0
GRID*                944               03.2591250229E+020.0000000000E+00+
*       3.7288135593E+02               0
GRID*                945               03.1727500153E+020.0000000000E+00+
*       3.7288135593E+02               0
GRID*                946               03.0863750076E+020.0000000000E+00+
*       3.7288135593E+02               0
GRID*                947               03.6046250534E+020.0000000000E+00+
*       3.8135593220E+02               0
GRID*                948               03.5182500458E+020.0000000000E+00+
*       3.8135593220E+02               0
GRID*                949               03.4318750381E+020.0000000000E+00+
*       3.8135593220E+02               0
GRID*                950               03.3455000305E+020.0000000000E+00+
*       3.8135593220E+02               0
GRID*                951               03.2591250229E+020.0000000000E+00+
*       3.8135593220E+02               0
GRID*                952               03.1727500153E+020.0000000000E+00+
*       3.8135593220E+02               0
GRID*                953               03.0863750076E+020.0000000000E+00+
*       3.8135593220E+02               0
GRID*                954               03.6046250534E+020.0000000000E+00+
*       3.8983050847E+02               0
GRID*                955               03.5182500458E+020.0000000000E+00+
*       3.8983050847E+02               0
GRID*                956               03.4318750381E+020.0000000000E+00+
*       3.8983050847E+02               0
GRID*                957               03.3455000305E+020.0000000000E+00+
*       3.8983050847E+02               0
GRID*                958               03.2591250229E+020.0000000000E+00+
*       3.8983050847E+02               0
GRID*                959               03.1727500153E+020.0000000000E+00+
*       3.8983050847E+02               0
GRID*                960               03.0863750076E+020.0000000000E+00+
*       3.8983050847E+02               0
GRID*                961               03.6046250534E+020.0000000000E+00+
*       3.9830508475E+02               0
GRID*                962               03.5182500458E+020.0000000000E+00+
*       3.9830508475E+02               0
GRID*                963               03.4318750381E+020.0000000000E+00+
*       3.9830508475E+02               0
GRID*                964               03.3455000305E+020.0000000000E+00+
*       3.9830508475E+02               0
GRID*                965               03.2591250229E+020.0000000000E+00+
*       3.9830508475E+02               0
GRID*                966               03.1727500153E+020.0000000000E+00+
*       3.9830508475E+02               0
GRID*                967               03.0863750076E+020.0000000000E+00+
*       3.9830508475E+02               0
GRID*                968               03.6046250534E+020.0000000000E+00+
*       4.0677966102E+02               0
GRID*                969               03.5182500458E+020.0000000000E+00+
*       4.0677966102E+02               0
GRID*                970               03.4318750381E+020.0000000000E+00+
*       4.0677966102E+02               0
GRID*                971               03.3455000305E+020.0000000000E+00+
*       4.0677966102E+02               0
GRID*                972               03.2591250229E+020.0000000000E+00+
*       4.0677966102E+02               0
GRID*                973               03.1727500153E+020.0000000000E+00+
*       4.0677966102E+02               0
GRID*                974               03.0863750076E+020.0000000000E+00+
*       4.0677966102E+02               0
GRID*                975               03.6046250534E+020.0000000000E+00+
*       4.1525423729E+02               0
GRID*                976               03.5182500458E+020.0000000000E+00+
*       4.1525423729E+02               0
GRID*                977               03.4318750381E+020.0000000000E+00+
*       4.1525423729E+02               0
GRID*                978               03.3455000305E+020.0000000000E+00+
*       4.1525423729E+02               0
GRID*                979               03.2591250229E+020.0000000000E+00+
*       4.1525423729E+02               0
GRID*                980               03.1727500153E+020.0000000000E+00+
*       4.1525423729E+02               0
GRID*                981               03.0863750076E+020.0000000000E+00+
*       4.1525423729E+02               0
GRID*                982               03.6046250534E+020.0000000000E+00+
*       4.2372881356E+02               0
GRID*                983               03.5182500458E+020.0000000000E+00+
*       4.2372881356E+02               0
GRID*                984               03.4318750381E+020.0000000000E+00+
*       4.2372881356E+02               0
GRID*                985               03.3455000305E+020.0000000000E+00+
*       4.2372881356E+02               0
GRID*                986               03.2591250229E+020.0000000000E+00+
*       4.2372881356E+02               0
GRID*                987               03.1727500153E+020.0000000000E+00+
*       4.2372881356E+02               0
GRID*                988               03.0863750076E+020.0000000000E+00+
*       4.2372881356E+02               0
GRID*                989               03.6046250534E+020.0000000000E+00+
*       4.3220338983E+02               0
GRID*                990               03.5182500458E+020.0000000000E+00+
*       4.3220338983E+02               0
GRID*                991               03.4318750381E+020.0000000000E+00+
*       4.3220338983E+02               0
GRID*                992               03.3455000305E+020.0000000000E+00+
*       4.3220338983E+02               0
GRID*                993               03.2591250229E+020.0000000000E+00+
*       4.3220338983E+02               0
GRID*                994               03.1727500153E+020.0000000000E+00+
*       4.3220338983E+02               0
GRID*                995               03.0863750076E+020.0000000000E+00+
*       4.3220338983E+02               0
GRID*                996               03.6046250534E+020.0000000000E+00+
*       4.4067796610E+02               0
GRID*                997               03.5182500458E+020.0000000000E+00+
*       4.4067796610E+02               0
GRID*                998               03.4318750381E+020.0000000000E+00+
*       4.4067796610E+02               0
GRID*                999               03.3455000305E+020.0000000000E+00+
*       4.4067796610E+02               0
GRID*               1000               03.2591250229E+020.0000000000E+00+
*       4.4067796610E+02               0
GRID*               1001               03.1727500153E+020.0000000000E+00+
*       4.4067796610E+02               0
GRID*               1002               03.0863750076E+020.0000000000E+00+
*       4.4067796610E+02               0
GRID*               1003               03.6046250534E+020.0000000000E+00+
*       4.4915254237E+02               0
GRID*               1004               03.5182500458E+020.0000000000E+00+
*       4.4915254237E+02               0
GRID*               1005               03.4318750381E+020.0000000000E+00+
*       4.4915254237E+02               0
GRID*               1006               03.3455000305E+020.0000000000E+00+
*       4.4915254237E+02               0
GRID*               1007               03.2591250229E+020.0000000000E+00+
*       4.4915254237E+02               0
GRID*               1008               03.1727500153E+020.0000000000E+00+
*       4.4915254237E+02               0
GRID*               1009               03.0863750076E+020.0000000000E+00+
*       4.4915254237E+02               0
GRID*               1010               03.6046250534E+020.0000000000E+00+
*       4.5762711864E+02               0
GRID*               1011               03.5182500458E+020.0000000000E+00+
*       4.5762711864E+02               0
GRID*               1012               03.4318750381E+020.0000000000E+00+
*       4.5762711864E+02               0
GRID*               1013               03.3455000305E+020.0000000000E+00+
*       4.5762711864E+02               0
GRID*               1014               03.2591250229E+020.0000000000E+00+
*       4.5762711864E+02               0
GRID*               1015               03.1727500153E+020.0000000000E+00+
*       4.5762711864E+02               0
GRID*               1016               03.0863750076E+020.0000000000E+00+
*       4.5762711864E+02               0
GRID*               1017               03.6046250534E+020.0000000000E+00+
*       4.6610169492E+02               0
GRID*               1018               03.5182500458E+020.0000000000E+00+
*       4.6610169492E+02               0
GRID*               1019               03.4318750381E+020.0000000000E+00+
*       4.6610169492E+02               0
GRID*               1020               03.3455000305E+020.0000000000E+00+
*       4.6610169492E+02               0
GRID*               1021               03.2591250229E+020.0000000000E+00+
*       4.6610169492E+02               0
GRID*               1022               03.1727500153E+020.0000000000E+00+
*       4.6610169492E+02               0
GRID*               1023               03.0863750076E+020.0000000000E+00+
*       4.6610169492E+02               0
GRID*               1024               03.6046250534E+020.0000000000E+00+
*       4.7457627119E+02               0
GRID*               1025               03.5182500458E+020.0000000000E+00+
*       4.7457627119E+02               0
GRID*               1026               03.4318750381E+020.0000000000E+00+
*       4.7457627119E+02               0
GRID*               1027               03.3455000305E+020.0000000000E+00+
*       4.7457627119E+02               0
GRID*               1028               03.2591250229E+020.0000000000E+00+
*       4.7457627119E+02               0
GRID*               1029               03.1727500153E+020.0000000000E+00+
*       4.7457627119E+02               0
GRID*               1030               03.0863750076E+020.0000000000E+00+
*       4.7457627119E+02               0
GRID*               1031               03.6046250534E+020.0000000000E+00+
*       4.8305084746E+02               0
GRID*               1032               03.5182500458E+020.0000000000E+00+
*       4.8305084746E+02               0
GRID*               1033               03.4318750381E+020.0000000000E+00+
*       4.8305084746E+02               0
GRID*               1034               03.3455000305E+020.0000000000E+00+
*       4.8305084746E+02               0
GRID*               1035               03.2591250229E+020.0000000000E+00+
*       4.8305084746E+02               0
GRID*               1036               03.1727500153E+020.0000000000E+00+
*       4.8305084746E+02               0
GRID*               1037               03.0863750076E+020.0000000000E+00+
*       4.8305084746E+02               0
GRID*               1038               03.6046250534E+020.0000000000E+00+
*       4.9152542373E+02               0
GRID*               1039               03.5182500458E+020.0000000000E+00+
*       4.9152542373E+02               0
GRID*               1040               03.4318750381E+020.0000000000E+00+
*       4.9152542373E+02               0
GRID*               1041               03.3455000305E+020.0000000000E+00+
*       4.9152542373E+02               0
GRID*               1042               03.2591250229E+020.0000000000E+00+
*       4.9152542373E+02               0
GRID*               1043               03.1727500153E+020.0000000000E+00+
*       4.9152542373E+02               0
GRID*               1044               03.0863750076E+020.0000000000E+00+
*       4.9152542373E+02               0
GRID*               1045               03.6894540405E+020.0000000000E+00+
*       4.9152542373E+02               0
GRID*               1046               03.6894540405E+020.0000000000E+00+
*       4.8305084746E+02               0
GRID*               1047               03.6894540405E+020.0000000000E+00+
*       4.7457627119E+02               0
GRID*               1048               03.6894540405E+020.0000000000E+00+
*       4.6610169492E+02               0
GRID*               1049               03.6894540405E+020.0000000000E+00+
*       4.5762711864E+02               0
GRID*               1050               03.6894540405E+020.0000000000E+00+
*       4.4915254237E+02               0
GRID*               1051               03.6894540405E+020.0000000000E+00+
*       4.4067796610E+02               0
GRID*               1052               03.6894540405E+020.0000000000E+00+
*       4.3220338983E+02               0
GRID*               1053               03.6894540405E+020.0000000000E+00+
*       4.2372881356E+02               0
GRID*               1054               03.6894540405E+020.0000000000E+00+
*       4.1525423729E+02               0
GRID*               1055               03.6894540405E+020.0000000000E+00+
*       4.0677966102E+02               0
GRID*               1056               03.6894540405E+020.0000000000E+00+
*       3.9830508475E+02               0
GRID*               1057               03.6894540405E+020.0000000000E+00+
*       3.8983050847E+02               0
GRID*               1058               03.6894540405E+020.0000000000E+00+
*       3.8135593220E+02               0
GRID*               1059               03.6894540405E+020.0000000000E+00+
*       3.7288135593E+02               0
GRID*               1060               03.6894540405E+020.0000000000E+00+
*       3.6440677966E+02               0
GRID*               1061               03.6894540405E+020.0000000000E+00+
*       3.5593220339E+02               0
GRID*               1062               03.6894540405E+020.0000000000E+00+
*       3.4745762712E+02               0
GRID*               1063               03.6894540405E+020.0000000000E+00+
*       3.3898305085E+02               0
GRID*               1064               03.6894540405E+020.0000000000E+00+
*       3.3050847458E+02               0
GRID*               1065               03.6894540405E+020.0000000000E+00+
*       3.2203389831E+02               0
GRID*               1066               03.6894540405E+020.0000000000E+00+
*       3.1355932203E+02               0
GRID*               1067               03.6894540405E+020.0000000000E+00+
*       3.0508474576E+02               0
GRID*               1068               03.6894540405E+020.0000000000E+00+
*       2.9661016949E+02               0
GRID*               1069               03.6894540405E+020.0000000000E+00+
*       2.8813559322E+02               0
GRID*               1070               03.6894540405E+020.0000000000E+00+
*       2.7966101695E+02               0
GRID*               1071               03.6894540405E+020.0000000000E+00+
*       2.7118644068E+02               0
GRID*               1072               03.6894540405E+020.0000000000E+00+
*       2.6271186441E+02               0
GRID*               1073               03.6894540405E+020.0000000000E+00+
*       2.5423728814E+02               0
GRID*               1074               03.6894540405E+020.0000000000E+00+
*       2.4576271186E+02               0
GRID*               1075               03.6894540405E+020.0000000000E+00+
*       2.3728813559E+02               0
GRID*               1076               03.6894540405E+020.0000000000E+00+
*       2.2881355932E+02               0
GRID*               1077               03.6894540405E+020.0000000000E+00+
*       2.2033898305E+02               0
GRID*               1078               03.6894540405E+020.0000000000E+00+
*       2.1186440678E+02               0
GRID*               1079               03.6894540405E+020.0000000000E+00+
*       2.0338983051E+02               0
GRID*               1080               03.6894540405E+020.0000000000E+00+
*       1.9491525424E+02               0
GRID*               1081               03.6894540405E+020.0000000000E+00+
*       1.8644067797E+02               0
GRID*               1082               03.6894540405E+020.0000000000E+00+
*       1.7796610169E+02               0
GRID*               1083               03.6894540405E+020.0000000000E+00+
*       1.6949152542E+02               0
GRID*               1084               03.6894540405E+020.0000000000E+00+
*       1.6101694915E+02               0
GRID*               1085               03.6894540405E+020.0000000000E+00+
*       1.5254237288E+02               0
GRID*               1086               03.6894540405E+020.0000000000E+00+
*       1.4406779661E+02               0
GRID*               1087               03.6894540405E+020.0000000000E+00+
*       1.3559322034E+02               0
GRID*               1088               03.6894540405E+020.0000000000E+00+
*       1.2711864407E+02               0
GRID*               1089               03.6894540405E+020.0000000000E+00+
*       1.1864406780E+02               0
GRID*               1090               03.6894540405E+020.0000000000E+00+
*       1.1016949153E+02               0
GRID*               1091               03.6894540405E+020.0000000000E+00+
*       1.0169491525E+02               0
GRID*               1092               03.6894540405E+020.0000000000E+00+
*       9.3220338983E+01               0
GRID*               1093               03.6894540405E+020.0000000000E+00+
*       8.4745762712E+01               0
GRID*               1094               03.6894540405E+020.0000000000E+00+
*       7.6271186441E+01               0
GRID*               1095               03.6894540405E+020.0000000000E+00+
*       6.7796610169E+01               0
GRID*               1096               03.6894540405E+020.0000000000E+00+
*       5.9322033898E+01               0
GRID*               1097               03.6894540405E+020.0000000000E+00+
*       5.0847457627E+01               0
GRID*               1098               03.6894540405E+020.0000000000E+00+
*       4.2372881356E+01               0
GRID*               1099               03.6894540405E+020.0000000000E+00+
*       3.3898305085E+01               0
GRID*               1100               03.6894540405E+020.0000000000E+00+
*       2.5423728814E+01               0
GRID*               1101               03.6894540405E+020.0000000000E+00+
*       1.6949152542E+01               0
GRID*               1102               03.6894540405E+020.0000000000E+00+
*       8.4745762712E+00               0
GRID*               1103               03.7728707123E+020.0000000000E+00+
*       0.0000000000E+00               0
GRID*               1104               03.8562873840E+020.0000000000E+00+
*       0.0000000000E+00               0
GRID*               1105               03.9397040558E+020.0000000000E+00+
*       0.0000000000E+00               0
GRID*               1106               04.0231207275E+020.0000000000E+00+
*       0.0000000000E+00               0
GRID*               1107               04.1065373993E+020.0000000000E+00+
*       0.0000000000E+00               0
GRID*               1108               04.1899540710E+020.0000000000E+00+
*       0.0000000000E+00               0
GRID*               1109               04.2733707428E+020.0000000000E+00+
*       0.0000000000E+00               0
GRID*               1110               04.3567874146E+020.0000000000E+00+
*       0.0000000000E+00               0
GRID*               1111               04.4402040863E+020.0000000000E+00+
*       0.0000000000E+00               0
GRID*               1112               04.5236207581E+020.0000000000E+00+
*       0.0000000000E+00               0
GRID*               1113               04.6070374298E+020.0000000000E+00+
*       0.0000000000E+00               0
GRID*               1114               04.6070374298E+020.0000000000E+00+
*       5.0000000000E+02               0
GRID*               1115               04.5236207581E+020.0000000000E+00+
*       5.0000000000E+02               0
GRID*               1116               04.4402040863E+020.0000000000E+00+
*       5.0000000000E+02               0
GRID*               1117               04.3567874146E+020.0000000000E+00+
*       5.0000000000E+02               0
GRID*               1118               04.2733707428E+020.0000000000E+00+
*       5.0000000000E+02               0
GRID*               1119               04.1899540710E+020.0000000000E+00+
*       5.0000000000E+02               0
GRID*               1120               04.1065373993E+020.0000000000E+00+
*       5.0000000000E+02               0
GRID*               1121               04.0231207275E+020.0000000000E+00+
*       5.0000000000E+02               0
GRID*               1122               03.9397040558E+020.0000000000E+00+
*       5.0000000000E+02               0
GRID*               1123               03.8562873840E+020.0000000000E+00+
*       5.0000000000E+02               0
GRID*               1124               03.7728707123E+020.0000000000E+00+
*       5.0000000000E+02               0
GRID*               1125               04.6904541016E+020.0000000000E+00+
*       8.4745762712E+00               0
GRID*               1126               04.6904541016E+020.0000000000E+00+
*       1.6949152542E+01               0
GRID*               1127               04.6904541016E+020.0000000000E+00+
*       2.5423728814E+01               0
GRID*               1128               04.6904541016E+020.0000000000E+00+
*       3.3898305085E+01               0
GRID*               1129               04.6904541016E+020.0000000000E+00+
*       4.2372881356E+01               0
GRID*               1130               04.6904541016E+020.0000000000E+00+
*       5.0847457627E+01               0
GRID*               1131               04.6904541016E+020.0000000000E+00+
*       5.9322033898E+01               0
GRID*               1132               04.6904541016E+020.0000000000E+00+
*       6.7796610169E+01               0
GRID*               1133               04.6904541016E+020.0000000000E+00+
*       7.6271186441E+01               0
GRID*               1134               04.6904541016E+020.0000000000E+00+
*       8.4745762712E+01               0
GRID*               1135               04.6904541016E+020.0000000000E+00+
*       9.3220338983E+01               0
GRID*               1136               04.6904541016E+020.0000000000E+00+
*       1.0169491525E+02               0
GRID*               1137               04.6904541016E+020.0000000000E+00+
*       1.1016949153E+02               0
GRID*               1138               04.6904541016E+020.0000000000E+00+
*       1.1864406780E+02               0
GRID*               1139               04.6904541016E+020.0000000000E+00+
*       1.2711864407E+02               0
GRID*               1140               04.6904541016E+020.0000000000E+00+
*       1.3559322034E+02               0
GRID*               1141               04.6904541016E+020.0000000000E+00+
*       1.4406779661E+02               0
GRID*               1142               04.6904541016E+020.0000000000E+00+
*       1.5254237288E+02               0
GRID*               1143               04.6904541016E+020.0000000000E+00+
*       1.6101694915E+02               0
GRID*               1144               04.6904541016E+020.0000000000E+00+
*       1.6949152542E+02               0
GRID*               1145               04.6904541016E+020.0000000000E+00+
*       1.7796610169E+02               0
GRID*               1146               04.6904541016E+020.0000000000E+00+
*       1.8644067797E+02               0
GRID*               1147               04.6904541016E+020.0000000000E+00+
*       1.9491525424E+02               0
GRID*               1148               04.6904541016E+020.0000000000E+00+
*       2.0338983051E+02               0
GRID*               1149               04.6904541016E+020.0000000000E+00+
*       2.1186440678E+02               0
GRID*               1150               04.6904541016E+020.0000000000E+00+
*       2.2033898305E+02               0
GRID*               1151               04.6904541016E+020.0000000000E+00+
*       2.2881355932E+02               0
GRID*               1152               04.6904541016E+020.0000000000E+00+
*       2.3728813559E+02               0
GRID*               1153               04.6904541016E+020.0000000000E+00+
*       2.4576271186E+02               0
GRID*               1154               04.6904541016E+020.0000000000E+00+
*       2.5423728814E+02               0
GRID*               1155               04.6904541016E+020.0000000000E+00+
*       2.6271186441E+02               0
GRID*               1156               04.6904541016E+020.0000000000E+00+
*       2.7118644068E+02               0
GRID*               1157               04.6904541016E+020.0000000000E+00+
*       2.7966101695E+02               0
GRID*               1158               04.6904541016E+020.0000000000E+00+
*       2.8813559322E+02               0
GRID*               1159               04.6904541016E+020.0000000000E+00+
*       2.9661016949E+02               0
GRID*               1160               04.6904541016E+020.0000000000E+00+
*       3.0508474576E+02               0
GRID*               1161               04.6904541016E+020.0000000000E+00+
*       3.1355932203E+02               0
GRID*               1162               04.6904541016E+020.0000000000E+00+
*       3.2203389831E+02               0
GRID*               1163               04.6904541016E+020.0000000000E+00+
*       3.3050847458E+02               0
GRID*               1164               04.6904541016E+020.0000000000E+00+
*       3.3898305085E+02               0
GRID*               1165               04.6904541016E+020.0000000000E+00+
*       3.4745762712E+02               0
GRID*               1166               04.6904541016E+020.0000000000E+00+
*       3.5593220339E+02               0
GRID*               1167               04.6904541016E+020.0000000000E+00+
*       3.6440677966E+02               0
GRID*               1168               04.6904541016E+020.0000000000E+00+
*       3.7288135593E+02               0
GRID*               1169               04.6904541016E+020.0000000000E+00+
*       3.8135593220E+02               0
GRID*               1170               04.6904541016E+020.0000000000E+00+
*       3.8983050847E+02               0
GRID*               1171               04.6904541016E+020.0000000000E+00+
*       3.9830508475E+02               0
GRID*               1172               04.6904541016E+020.0000000000E+00+
*       4.0677966102E+02               0
GRID*               1173               04.6904541016E+020.0000000000E+00+
*       4.1525423729E+02               0
GRID*               1174               04.6904541016E+020.0000000000E+00+
*       4.2372881356E+02               0
GRID*               1175               04.6904541016E+020.0000000000E+00+
*       4.3220338983E+02               0
GRID*               1176               04.6904541016E+020.0000000000E+00+
*       4.4067796610E+02               0
GRID*               1177               04.6904541016E+020.0000000000E+00+
*       4.4915254237E+02               0
GRID*               1178               04.6904541016E+020.0000000000E+00+
*       4.5762711864E+02               0
GRID*               1179               04.6904541016E+020.0000000000E+00+
*       4.6610169492E+02               0
GRID*               1180               04.6904541016E+020.0000000000E+00+
*       4.7457627119E+02               0
GRID*               1181               04.6904541016E+020.0000000000E+00+
*       4.8305084746E+02               0
GRID*               1182               04.6904541016E+020.0000000000E+00+
*       4.9152542373E+02               0
GRID*               1183               03.0000000000E+020.0000000000E+00+
*       4.9152542373E+02               0
GRID*               1184               03.0000000000E+020.0000000000E+00+
*       4.8305084746E+02               0
GRID*               1185               03.0000000000E+020.0000000000E+00+
*       4.7457627119E+02               0
GRID*               1186               03.0000000000E+020.0000000000E+00+
*       4.6610169492E+02               0
GRID*               1187               03.0000000000E+020.0000000000E+00+
*       4.5762711864E+02               0
GRID*               1188               03.0000000000E+020.0000000000E+00+
*       4.4915254237E+02               0
GRID*               1189               03.0000000000E+020.0000000000E+00+
*       4.4067796610E+02               0
GRID*               1190               03.0000000000E+020.0000000000E+00+
*       4.3220338983E+02               0
GRID*               1191               03.0000000000E+020.0000000000E+00+
*       4.2372881356E+02               0
GRID*               1192               03.0000000000E+020.0000000000E+00+
*       4.1525423729E+02               0
GRID*               1193               03.0000000000E+020.0000000000E+00+
*       4.0677966102E+02               0
GRID*               1194               03.0000000000E+020.0000000000E+00+
*       3.9830508475E+02               0
GRID*               1195               03.0000000000E+020.0000000000E+00+
*       3.8983050847E+02               0
GRID*               1196               03.0000000000E+020.0000000000E+00+
*       3.8135593220E+02               0
GRID*               1197               03.0000000000E+020.0000000000E+00+
*       3.7288135593E+02               0
GRID*               1198               03.0000000000E+020.0000000000E+00+
*       3.6440677966E+02               0
GRID*               1199               03.0000000000E+020.0000000000E+00+
*       3.5593220339E+02               0
GRID*               1200               03.0000000000E+020.0000000000E+00+
*       3.4745762712E+02               0
GRID*               1201               03.0000000000E+020.0000000000E+00+
*       3.3898305085E+02               0
GRID*               1202               03.0000000000E+020.0000000000E+00+
*       3.3050847458E+02               0
GRID*               1203               03.0000000000E+020.0000000000E+00+
*       3.2203389831E+02               0
GRID*               1204               03.0000000000E+020.0000000000E+00+
*       3.1355932203E+02               0
GRID*               1205               03.0000000000E+020.0000000000E+00+
*       3.0508474576E+02               0
GRID*               1206               03.0000000000E+020.0000000000E+00+
*       2.9661016949E+02               0
GRID*               1207               03.0000000000E+020.0000000000E+00+
*       2.8813559322E+02               0
GRID*               1208               03.0000000000E+020.0000000000E+00+
*       2.7966101695E+02               0
GRID*               1209               03.0000000000E+020.0000000000E+00+
*       2.7118644068E+02               0
GRID*               1210               03.0000000000E+020.0000000000E+00+
*       2.6271186441E+02               0
GRID*               1211               03.0000000000E+020.0000000000E+00+
*       2.5423728814E+02               0
GRID*               1212               03.0000000000E+020.0000000000E+00+
*       2.4576271186E+02               0
GRID*               1213               03.0000000000E+020.0000000000E+00+
*       2.3728813559E+02               0
GRID*               1214               03.0000000000E+020.0000000000E+00+
*       2.2881355932E+02               0
GRID*               1215               03.0000000000E+020.0000000000E+00+
*       2.2033898305E+02               0
GRID*               1216               03.0000000000E+020.0000000000E+00+
*       2.1186440678E+02               0
GRID*               1217               03.0000000000E+020.0000000000E+00+
*       2.0338983051E+02               0
GRID*               1218               03.0000000000E+020.0000000000E+00+
*       1.9491525424E+02               0
GRID*               1219               03.0000000000E+020.0000000000E+00+
*       1.8644067797E+02               0
GRID*               1220               03.0000000000E+020.0000000000E+00+
*       1.7796610169E+02               0
GRID*               1221               03.0000000000E+020.0000000000E+00+
*       1.6949152542E+02               0
GRID*               1222               03.0000000000E+020.0000000000E+00+
*       1.6101694915E+02               0
GRID*               1223               03.0000000000E+020.0000000000E+00+
*       1.5254237288E+02               0
GRID*               1224               03.0000000000E+020.0000000000E+00+
*       1.4406779661E+02               0
GRID*               1225               03.0000000000E+020.0000000000E+00+
*       1.3559322034E+02               0
GRID*               1226               03.0000000000E+020.0000000000E+00+
*       1.2711864407E+02               0
GRID*               1227               03.0000000000E+020.0000000000E+00+
*       1.1864406780E+02               0
GRID*               1228               03.0000000000E+020.0000000000E+00+
*       1.1016949153E+02               0
GRID*               1229               03.0000000000E+020.0000000000E+00+
*       1.0169491525E+02               0
GRID*               1230               03.0000000000E+020.0000000000E+00+
*       9.3220338983E+01               0
GRID*               1231               03.0000000000E+020.0000000000E+00+
*       8.4745762712E+01               0
GRID*               1232               03.0000000000E+020.0000000000E+00+
*       7.6271186441E+01               0
GRID*               1233               03.0000000000E+020.0000000000E+00+
*       6.7796610169E+01               0
GRID*               1234               03.0000000000E+020.0000000000E+00+
*       5.9322033898E+01               0
GRID*               1235               03.0000000000E+020.0000000000E+00+
*       5.0847457627E+01               0
GRID*               1236               03.0000000000E+020.0000000000E+00+
*       4.2372881356E+01               0
GRID*               1237               03.0000000000E+020.0000000000E+00+
*       3.3898305085E+01               0
GRID*               1238               03.0000000000E+020.0000000000E+00+
*       2.5423728814E+01               0
GRID*               1239               03.0000000000E+020.0000000000E+00+
*       1.6949152542E+01               0
GRID*               1240               03.0000000000E+020.0000000000E+00+
*       8.4745762712E+00               0
GRID*               1241               03.0863750076E+020.0000000000E+00+
*       0.0000000000E+00               0
GRID*               1242               03.1727500153E+020.0000000000E+00+
*       0.0000000000E+00               0
GRID*               1243               03.2591250229E+020.0000000000E+00+
*       0.0000000000E+00               0
GRID*               1244               03.3455000305E+020.0000000000E+00+
*       0.0000000000E+00               0
GRID*               1245               03.4318750381E+020.0000000000E+00+
*       0.0000000000E+00               0
GRID*               1246               03.5182500458E+020.0000000000E+00+
*       0.0000000000E+00               0
GRID*               1247               03.6046250534E+020.0000000000E+00+
*       0.0000000000E+00               0
GRID*               1248               03.6046250534E+020.0000000000E+00+
*       5.0000000000E+02               0
GRID*               1249               03.5182500458E+020.0000000000E+00+
*       5.0000000000E+02               0
GRID*               1250               03.4318750381E+020.0000000000E+00+
*       5.0000000000E+02               0
GRID*               1251               03.3455000305E+020.0000000000E+00+
*       5.0000000000E+02               0
GRID*               1252               03.2591250229E+020.0000000000E+00+
*       5.0000000000E+02               0
GRID*               1253               03.1727500153E+020.0000000000E+00+
*       5.0000000000E+02               0
GRID*               1254               03.0863750076E+020.0000000000E+00+
*       5.0000000000E+02               0
GRID*               1255               03.6910000610E+020.0000000000E+00+
*       8.4745762712E+00               0
GRID*               1256               03.6910000610E+020.0000000000E+00+
*       1.6949152542E+01               0
GRID*               1257               03.6910000610E+020.0000000000E+00+
*       2.5423728814E+01               0
GRID*               1258               03.6910000610E+020.0000000000E+00+
*       3.3898305085E+01               0
GRID*               1259               03.6910000610E+020.0000000000E+00+
*       4.2372881356E+01               0
GRID*               1260               03.6910000610E+020.0000000000E+00+
*       5.0847457627E+01               0
GRID*               1261               03.6910000610E+020.0000000000E+00+
*       5.9322033898E+01               0
GRID*               1262               03.6910000610E+020.0000000000E+00+
*       6.7796610169E+01               0
GRID*               1263               03.6910000610E+020.0000000000E+00+
*       7.6271186441E+01               0
GRID*               1264               03.6910000610E+020.0000000000E+00+
*       8.4745762712E+01               0
GRID*               1265               03.6910000610E+020.0000000000E+00+
*       9.3220338983E+01               0
GRID*               1266               03.6910000610E+020.0000000000E+00+
*       1.0169491525E+02               0
GRID*               1267               03.6910000610E+020.0000000000E+00+
*       1.1016949153E+02               0
GRID*               1268               03.6910000610E+020.0000000000E+00+
*       1.1864406780E+02               0
GRID*               1269               03.6910000610E+020.0000000000E+00+
*       1.2711864407E+02               0
GRID*               1270               03.6910000610E+020.0000000000E+00+
*       1.3559322034E+02               0
GRID*               1271               03.6910000610E+020.0000000000E+00+
*       1.4406779661E+02               0
GRID*               1272               03.6910000610E+020.0000000000E+00+
*       1.5254237288E+02               0
GRID*               1273               03.6910000610E+020.0000000000E+00+
*       1.6101694915E+02               0
GRID*               1274               03.6910000610E+020.0000000000E+00+
*       1.6949152542E+02               0
GRID*               1275               03.6910000610E+020.0000000000E+00+
*       1.7796610169E+02               0
GRID*               1276               03.6910000610E+020.0000000000E+00+
*       1.8644067797E+02               0
GRID*               1277               03.6910000610E+020.0000000000E+00+
*       1.9491525424E+02               0
GRID*               1278               03.6910000610E+020.0000000000E+00+
*       2.0338983051E+02               0
GRID*               1279               03.6910000610E+020.0000000000E+00+
*       2.1186440678E+02               0
GRID*               1280               03.6910000610E+020.0000000000E+00+
*       2.2033898305E+02               0
GRID*               1281               03.6910000610E+020.0000000000E+00+
*       2.2881355932E+02               0
GRID*               1282               03.6910000610E+020.0000000000E+00+
*       2.3728813559E+02               0
GRID*               1283               03.6910000610E+020.0000000000E+00+
*       2.4576271186E+02               0
GRID*               1284               03.6910000610E+020.0000000000E+00+
*       2.5423728814E+02               0
GRID*               1285               03.6910000610E+020.0000000000E+00+
*       2.6271186441E+02               0
GRID*               1286               03.6910000610E+020.0000000000E+00+
*       2.7118644068E+02               0
GRID*               1287               03.6910000610E+020.0000000000E+00+
*       2.7966101695E+02               0
GRID*               1288               03.6910000610E+020.0000000000E+00+
*       2.8813559322E+02               0
GRID*               1289               03.6910000610E+020.0000000000E+00+
*       2.9661016949E+02               0
GRID*               1290               03.6910000610E+020.0000000000E+00+
*       3.0508474576E+02               0
GRID*               1291               03.6910000610E+020.0000000000E+00+
*       3.1355932203E+02               0
GRID*               1292               03.6910000610E+020.0000000000E+00+
*       3.2203389831E+02               0
GRID*               1293               03.6910000610E+020.0000000000E+00+
*       3.3050847458E+02               0
GRID*               1294               03.6910000610E+020.0000000000E+00+
*       3.3898305085E+02               0
GRID*               1295               03.6910000610E+020.0000000000E+00+
*       3.4745762712E+02               0
GRID*               1296               03.6910000610E+020.0000000000E+00+
*       3.5593220339E+02               0
GRID*               1297               03.6910000610E+020.0000000000E+00+
*       3.6440677966E+02               0
GRID*               1298               03.6910000610E+020.0000000000E+00+
*       3.7288135593E+02               0
GRID*               1299               03.6910000610E+020.0000000000E+00+
*       3.8135593220E+02               0
GRID*               1300               03.6910000610E+020.0000000000E+00+
*       3.8983050847E+02               0
GRID*               1301               03.6910000610E+020.0000000000E+00+
*       3.9830508475E+02               0
GRID*               1302               03.6910000610E+020.0000000000E+00+
*       4.0677966102E+02               0
GRID*               1303               03.6910000610E+020.0000000000E+00+
*       4.1525423729E+02               0
GRID*               1304               03.6910000610E+020.0000000000E+00+
*       4.2372881356E+02               0
GRID*               1305               03.6910000610E+020.0000000000E+00+
*       4.3220338983E+02               0
GRID*               1306               03.6910000610E+020.0000000000E+00+
*       4.4067796610E+02               0
GRID*               1307               03.6910000610E+020.0000000000E+00+
*       4.4915254237E+02               0
GRID*               1308               03.6910000610E+020.0000000000E+00+
*       4.5762711864E+02               0
GRID*               1309               03.6910000610E+020.0000000000E+00+
*       4.6610169492E+02               0
GRID*               1310               03.6910000610E+020.0000000000E+00+
*       4.7457627119E+02               0
GRID*               1311               03.6910000610E+020.0000000000E+00+
*       4.8305084746E+02               0
GRID*               1312               03.6910000610E+020.0000000000E+00+
*       4.9152542373E+02               0
GRID*               1313               03.6894540405E+020.0000000000E+00+
*       5.0000000000E+02               0
GRID*               1314               03.6894540405E+020.0000000000E+00+
*       0.0000000000E+00               0
GRID*               1315               04.6904541016E+020.0000000000E+00+
*       0.0000000000E+00               0
GRID*               1316               04.6904541016E+020.0000000000E+00+
*       5.0000000000E+02               0
GRID*               1317               03.0000000000E+020.0000000000E+00+
*       5.0000000000E+02               0
GRID*               1318               03.0000000000E+020.0000000000E+00+
*       0.0000000000E+00               0
GRID*               1319               03.6910000610E+020.0000000000E+00+
*       0.0000000000E+00               0
GRID*               1320               03.6910000610E+020.0000000000E+00+
*       5.0000000000E+02               0
$*
$* ELEMENT CARDS
$*
$*  Mesh Collector: Solid Axisymmetric ZX Collector(1)
$*  Mesh: 2d_mapped_mesh(1)
CQUADX4        1       1       1      12      13       2
CQUADX4        2       1       2      13      14       3
CQUADX4        3       1       3      14      15       4
CQUADX4        4       1       4      15      16       5
CQUADX4        5       1       5      16      17       6
CQUADX4        6       1       6      17      18       7
CQUADX4        7       1       7      18      19       8
CQUADX4        8       1       8      19      20       9
CQUADX4        9       1       9      20      21      10
CQUADX4       10       1      10      21      22      11
CQUADX4       11       1      12      23      24      13
CQUADX4       12       1      13      24      25      14
CQUADX4       13       1      14      25      26      15
CQUADX4       14       1      15      26      27      16
CQUADX4       15       1      16      27      28      17
CQUADX4       16       1      17      28      29      18
CQUADX4       17       1      18      29      30      19
CQUADX4       18       1      19      30      31      20
CQUADX4       19       1      20      31      32      21
CQUADX4       20       1      21      32      33      22
CQUADX4       21       1      23      34      35      24
CQUADX4       22       1      24      35      36      25
CQUADX4       23       1      25      36      37      26
CQUADX4       24       1      26      37      38      27
CQUADX4       25       1      27      38      39      28
CQUADX4       26       1      28      39      40      29
CQUADX4       27       1      29      40      41      30
CQUADX4       28       1      30      41      42      31
CQUADX4       29       1      31      42      43      32
CQUADX4       30       1      32      43      44      33
CQUADX4       31       1      34      45      46      35
CQUADX4       32       1      35      46      47      36
CQUADX4       33       1      36      47      48      37
CQUADX4       34       1      37      48      49      38
CQUADX4       35       1      38      49      50      39
CQUADX4       36       1      39      50      51      40
CQUADX4       37       1      40      51      52      41
CQUADX4       38       1      41      52      53      42
CQUADX4       39       1      42      53      54      43
CQUADX4       40       1      43      54      55      44
CQUADX4       41       1      45      56      57      46
CQUADX4       42       1      46      57      58      47
CQUADX4       43       1      47      58      59      48
CQUADX4       44       1      48      59      60      49
CQUADX4       45       1      49      60      61      50
CQUADX4       46       1      50      61      62      51
CQUADX4       47       1      51      62      63      52
CQUADX4       48       1      52      63      64      53
CQUADX4       49       1      53      64      65      54
CQUADX4       50       1      54      65      66      55
CQUADX4       51       1      56      67      68      57
CQUADX4       52       1      57      68      69      58
CQUADX4       53       1      58      69      70      59
CQUADX4       54       1      59      70      71      60
CQUADX4       55       1      60      71      72      61
CQUADX4       56       1      61      72      73      62
CQUADX4       57       1      62      73      74      63
CQUADX4       58       1      63      74      75      64
CQUADX4       59       1      64      75      76      65
CQUADX4       60       1      65      76      77      66
CQUADX4       61       1      67      78      79      68
CQUADX4       62       1      68      79      80      69
CQUADX4       63       1      69      80      81      70
CQUADX4       64       1      70      81      82      71
CQUADX4       65       1      71      82      83      72
CQUADX4       66       1      72      83      84      73
CQUADX4       67       1      73      84      85      74
CQUADX4       68       1      74      85      86      75
CQUADX4       69       1      75      86      87      76
CQUADX4       70       1      76      87      88      77
CQUADX4       71       1      78      89      90      79
CQUADX4       72       1      79      90      91      80
CQUADX4       73       1      80      91      92      81
CQUADX4       74       1      81      92      93      82
CQUADX4       75       1      82      93      94      83
CQUADX4       76       1      83      94      95      84
CQUADX4       77       1      84      95      96      85
CQUADX4       78       1      85      96      97      86
CQUADX4       79       1      86      97      98      87
CQUADX4       80       1      87      98      99      88
CQUADX4       81       1      89     100     101      90
CQUADX4       82       1      90     101     102      91
CQUADX4       83       1      91     102     103      92
CQUADX4       84       1      92     103     104      93
CQUADX4       85       1      93     104     105      94
CQUADX4       86       1      94     105     106      95
CQUADX4       87       1      95     106     107      96
CQUADX4       88       1      96     107     108      97
CQUADX4       89       1      97     108     109      98
CQUADX4       90       1      98     109     110      99
CQUADX4       91       1     100     111     112     101
CQUADX4       92       1     101     112     113     102
CQUADX4       93       1     102     113     114     103
CQUADX4       94       1     103     114     115     104
CQUADX4       95       1     104     115     116     105
CQUADX4       96       1     105     116     117     106
CQUADX4       97       1     106     117     118     107
CQUADX4       98       1     107     118     119     108
CQUADX4       99       1     108     119     120     109
CQUADX4      100       1     109     120     121     110
CQUADX4      101       1     111     122     123     112
CQUADX4      102       1     112     123     124     113
CQUADX4      103       1     113     124     125     114
CQUADX4      104       1     114     125     126     115
CQUADX4      105       1     115     126     127     116
CQUADX4      106       1     116     127     128     117
CQUADX4      107       1     117     128     129     118
CQUADX4      108       1     118     129     130     119
CQUADX4      109       1     119     130     131     120
CQUADX4      110       1     120     131     132     121
CQUADX4      111       1     122     133     134     123
CQUADX4      112       1     123     134     135     124
CQUADX4      113       1     124     135     136     125
CQUADX4      114       1     125     136     137     126
CQUADX4      115       1     126     137     138     127
CQUADX4      116       1     127     138     139     128
CQUADX4      117       1     128     139     140     129
CQUADX4      118       1     129     140     141     130
CQUADX4      119       1     130     141     142     131
CQUADX4      120       1     131     142     143     132
CQUADX4      121       1     133     144     145     134
CQUADX4      122       1     134     145     146     135
CQUADX4      123       1     135     146     147     136
CQUADX4      124       1     136     147     148     137
CQUADX4      125       1     137     148     149     138
CQUADX4      126       1     138     149     150     139
CQUADX4      127       1     139     150     151     140
CQUADX4      128       1     140     151     152     141
CQUADX4      129       1     141     152     153     142
CQUADX4      130       1     142     153     154     143
CQUADX4      131       1     144     155     156     145
CQUADX4      132       1     145     156     157     146
CQUADX4      133       1     146     157     158     147
CQUADX4      134       1     147     158     159     148
CQUADX4      135       1     148     159     160     149
CQUADX4      136       1     149     160     161     150
CQUADX4      137       1     150     161     162     151
CQUADX4      138       1     151     162     163     152
CQUADX4      139       1     152     163     164     153
CQUADX4      140       1     153     164     165     154
CQUADX4      141       1     155     166     167     156
CQUADX4      142       1     156     167     168     157
CQUADX4      143       1     157     168     169     158
CQUADX4      144       1     158     169     170     159
CQUADX4      145       1     159     170     171     160
CQUADX4      146       1     160     171     172     161
CQUADX4      147       1     161     172     173     162
CQUADX4      148       1     162     173     174     163
CQUADX4      149       1     163     174     175     164
CQUADX4      150       1     164     175     176     165
CQUADX4      151       1     166     177     178     167
CQUADX4      152       1     167     178     179     168
CQUADX4      153       1     168     179     180     169
CQUADX4      154       1     169     180     181     170
CQUADX4      155       1     170     181     182     171
CQUADX4      156       1     171     182     183     172
CQUADX4      157       1     172     183     184     173
CQUADX4      158       1     173     184     185     174
CQUADX4      159       1     174     185     186     175
CQUADX4      160       1     175     186     187     176
CQUADX4      161       1     177     188     189     178
CQUADX4      162       1     178     189     190     179
CQUADX4      163       1     179     190     191     180
CQUADX4      164       1     180     191     192     181
CQUADX4      165       1     181     192     193     182
CQUADX4      166       1     182     193     194     183
CQUADX4      167       1     183     194     195     184
CQUADX4      168       1     184     195     196     185
CQUADX4      169       1     185     196     197     186
CQUADX4      170       1     186     197     198     187
CQUADX4      171       1     188     199     200     189
CQUADX4      172       1     189     200     201     190
CQUADX4      173       1     190     201     202     191
CQUADX4      174       1     191     202     203     192
CQUADX4      175       1     192     203     204     193
CQUADX4      176       1     193     204     205     194
CQUADX4      177       1     194     205     206     195
CQUADX4      178       1     195     206     207     196
CQUADX4      179       1     196     207     208     197
CQUADX4      180       1     197     208     209     198
CQUADX4      181       1     199     210     211     200
CQUADX4      182       1     200     211     212     201
CQUADX4      183       1     201     212     213     202
CQUADX4      184       1     202     213     214     203
CQUADX4      185       1     203     214     215     204
CQUADX4      186       1     204     215     216     205
CQUADX4      187       1     205     216     217     206
CQUADX4      188       1     206     217     218     207
CQUADX4      189       1     207     218     219     208
CQUADX4      190       1     208     219     220     209
CQUADX4      191       1     210     221     222     211
CQUADX4      192       1     211     222     223     212
CQUADX4      193       1     212     223     224     213
CQUADX4      194       1     213     224     225     214
CQUADX4      195       1     214     225     226     215
CQUADX4      196       1     215     226     227     216
CQUADX4      197       1     216     227     228     217
CQUADX4      198       1     217     228     229     218
CQUADX4      199       1     218     229     230     219
CQUADX4      200       1     219     230     231     220
CQUADX4      201       1     221     232     233     222
CQUADX4      202       1     222     233     234     223
CQUADX4      203       1     223     234     235     224
CQUADX4      204       1     224     235     236     225
CQUADX4      205       1     225     236     237     226
CQUADX4      206       1     226     237     238     227
CQUADX4      207       1     227     238     239     228
CQUADX4      208       1     228     239     240     229
CQUADX4      209       1     229     240     241     230
CQUADX4      210       1     230     241     242     231
CQUADX4      211       1     232     243     244     233
CQUADX4      212       1     233     244     245     234
CQUADX4      213       1     234     245     246     235
CQUADX4      214       1     235     246     247     236
CQUADX4      215       1     236     247     248     237
CQUADX4      216       1     237     248     249     238
CQUADX4      217       1     238     249     250     239
CQUADX4      218       1     239     250     251     240
CQUADX4      219       1     240     251     252     241
CQUADX4      220       1     241     252     253     242
CQUADX4      221       1     243     254     255     244
CQUADX4      222       1     244     255     256     245
CQUADX4      223       1     245     256     257     246
CQUADX4      224       1     246     257     258     247
CQUADX4      225       1     247     258     259     248
CQUADX4      226       1     248     259     260     249
CQUADX4      227       1     249     260     261     250
CQUADX4      228       1     250     261     262     251
CQUADX4      229       1     251     262     263     252
CQUADX4      230       1     252     263     264     253
CQUADX4      231       1     254     265     266     255
CQUADX4      232       1     255     266     267     256
CQUADX4      233       1     256     267     268     257
CQUADX4      234       1     257     268     269     258
CQUADX4      235       1     258     269     270     259
CQUADX4      236       1     259     270     271     260
CQUADX4      237       1     260     271     272     261
CQUADX4      238       1     261     272     273     262
CQUADX4      239       1     262     273     274     263
CQUADX4      240       1     263     274     275     264
CQUADX4      241       1     265     276     277     266
CQUADX4      242       1     266     277     278     267
CQUADX4      243       1     267     278     279     268
CQUADX4      244       1     268     279     280     269
CQUADX4      245       1     269     280     281     270
CQUADX4      246       1     270     281     282     271
CQUADX4      247       1     271     282     283     272
CQUADX4      248       1     272     283     284     273
CQUADX4      249       1     273     284     285     274
CQUADX4      250       1     274     285     286     275
CQUADX4      251       1     276     287     288     277
CQUADX4      252       1     277     288     289     278
CQUADX4      253       1     278     289     290     279
CQUADX4      254       1     279     290     291     280
CQUADX4      255       1     280     291     292     281
CQUADX4      256       1     281     292     293     282
CQUADX4      257       1     282     293     294     283
CQUADX4      258       1     283     294     295     284
CQUADX4      259       1     284     295     296     285
CQUADX4      260       1     285     296     297     286
CQUADX4      261       1     287     298     299     288
CQUADX4      262       1     288     299     300     289
CQUADX4      263       1     289     300     301     290
CQUADX4      264       1     290     301     302     291
CQUADX4      265       1     291     302     303     292
CQUADX4      266       1     292     303     304     293
CQUADX4      267       1     293     304     305     294
CQUADX4      268       1     294     305     306     295
CQUADX4      269       1     295     306     307     296
CQUADX4      270       1     296     307     308     297
CQUADX4      271       1     298     309     310     299
CQUADX4      272       1     299     310     311     300
CQUADX4      273       1     300     311     312     301
CQUADX4      274       1     301     312     313     302
CQUADX4      275       1     302     313     314     303
CQUADX4      276       1     303     314     315     304
CQUADX4      277       1     304     315     316     305
CQUADX4      278       1     305     316     317     306
CQUADX4      279       1     306     317     318     307
CQUADX4      280       1     307     318     319     308
CQUADX4      281       1     309     320     321     310
CQUADX4      282       1     310     321     322     311
CQUADX4      283       1     311     322     323     312
CQUADX4      284       1     312     323     324     313
CQUADX4      285       1     313     324     325     314
CQUADX4      286       1     314     325     326     315
CQUADX4      287       1     315     326     327     316
CQUADX4      288       1     316     327     328     317
CQUADX4      289       1     317     328     329     318
CQUADX4      290       1     318     329     330     319
CQUADX4      291       1     320     331     332     321
CQUADX4      292       1     321     332     333     322
CQUADX4      293       1     322     333     334     323
CQUADX4      294       1     323     334     335     324
CQUADX4      295       1     324     335     336     325
CQUADX4      296       1     325     336     337     326
CQUADX4      297       1     326     337     338     327
CQUADX4      298       1     327     338     339     328
CQUADX4      299       1     328     339     340     329
CQUADX4      300       1     329     340     341     330
CQUADX4      301       1     331     342     343     332
CQUADX4      302       1     332     343     344     333
CQUADX4      303       1     333     344     345     334
CQUADX4      304       1     334     345     346     335
CQUADX4      305       1     335     346     347     336
CQUADX4      306       1     336     347     348     337
CQUADX4      307       1     337     348     349     338
CQUADX4      308       1     338     349     350     339
CQUADX4      309       1     339     350     351     340
CQUADX4      310       1     340     351     352     341
CQUADX4      311       1     342     353     354     343
CQUADX4      312       1     343     354     355     344
CQUADX4      313       1     344     355     356     345
CQUADX4      314       1     345     356     357     346
CQUADX4      315       1     346     357     358     347
CQUADX4      316       1     347     358     359     348
CQUADX4      317       1     348     359     360     349
CQUADX4      318       1     349     360     361     350
CQUADX4      319       1     350     361     362     351
CQUADX4      320       1     351     362     363     352
CQUADX4      321       1     353     364     365     354
CQUADX4      322       1     354     365     366     355
CQUADX4      323       1     355     366     367     356
CQUADX4      324       1     356     367     368     357
CQUADX4      325       1     357     368     369     358
CQUADX4      326       1     358     369     370     359
CQUADX4      327       1     359     370     371     360
CQUADX4      328       1     360     371     372     361
CQUADX4      329       1     361     372     373     362
CQUADX4      330       1     362     373     374     363
CQUADX4      331       1     364     375     376     365
CQUADX4      332       1     365     376     377     366
CQUADX4      333       1     366     377     378     367
CQUADX4      334       1     367     378     379     368
CQUADX4      335       1     368     379     380     369
CQUADX4      336       1     369     380     381     370
CQUADX4      337       1     370     381     382     371
CQUADX4      338       1     371     382     383     372
CQUADX4      339       1     372     383     384     373
CQUADX4      340       1     373     384     385     374
CQUADX4      341       1     375     386     387     376
CQUADX4      342       1     376     387     388     377
CQUADX4      343       1     377     388     389     378
CQUADX4      344       1     378     389     390     379
CQUADX4      345       1     379     390     391     380
CQUADX4      346       1     380     391     392     381
CQUADX4      347       1     381     392     393     382
CQUADX4      348       1     382     393     394     383
CQUADX4      349       1     383     394     395     384
CQUADX4      350       1     384     395     396     385
CQUADX4      351       1     386     397     398     387
CQUADX4      352       1     387     398     399     388
CQUADX4      353       1     388     399     400     389
CQUADX4      354       1     389     400     401     390
CQUADX4      355       1     390     401     402     391
CQUADX4      356       1     391     402     403     392
CQUADX4      357       1     392     403     404     393
CQUADX4      358       1     393     404     405     394
CQUADX4      359       1     394     405     406     395
CQUADX4      360       1     395     406     407     396
CQUADX4      361       1     397     408     409     398
CQUADX4      362       1     398     409     410     399
CQUADX4      363       1     399     410     411     400
CQUADX4      364       1     400     411     412     401
CQUADX4      365       1     401     412     413     402
CQUADX4      366       1     402     413     414     403
CQUADX4      367       1     403     414     415     404
CQUADX4      368       1     404     415     416     405
CQUADX4      369       1     405     416     417     406
CQUADX4      370       1     406     417     418     407
CQUADX4      371       1     408     419     420     409
CQUADX4      372       1     409     420     421     410
CQUADX4      373       1     410     421     422     411
CQUADX4      374       1     411     422     423     412
CQUADX4      375       1     412     423     424     413
CQUADX4      376       1     413     424     425     414
CQUADX4      377       1     414     425     426     415
CQUADX4      378       1     415     426     427     416
CQUADX4      379       1     416     427     428     417
CQUADX4      380       1     417     428     429     418
CQUADX4      381       1     419     430     431     420
CQUADX4      382       1     420     431     432     421
CQUADX4      383       1     421     432     433     422
CQUADX4      384       1     422     433     434     423
CQUADX4      385       1     423     434     435     424
CQUADX4      386       1     424     435     436     425
CQUADX4      387       1     425     436     437     426
CQUADX4      388       1     426     437     438     427
CQUADX4      389       1     427     438     439     428
CQUADX4      390       1     428     439     440     429
CQUADX4      391       1     430     441     442     431
CQUADX4      392       1     431     442     443     432
CQUADX4      393       1     432     443     444     433
CQUADX4      394       1     433     444     445     434
CQUADX4      395       1     434     445     446     435
CQUADX4      396       1     435     446     447     436
CQUADX4      397       1     436     447     448     437
CQUADX4      398       1     437     448     449     438
CQUADX4      399       1     438     449     450     439
CQUADX4      400       1     439     450     451     440
CQUADX4      401       1     441     452     453     442
CQUADX4      402       1     442     453     454     443
CQUADX4      403       1     443     454     455     444
CQUADX4      404       1     444     455     456     445
CQUADX4      405       1     445     456     457     446
CQUADX4      406       1     446     457     458     447
CQUADX4      407       1     447     458     459     448
CQUADX4      408       1     448     459     460     449
CQUADX4      409       1     449     460     461     450
CQUADX4      410       1     450     461     462     451
CQUADX4      411       1     452     463     464     453
CQUADX4      412       1     453     464     465     454
CQUADX4      413       1     454     465     466     455
CQUADX4      414       1     455     466     467     456
CQUADX4      415       1     456     467     468     457
CQUADX4      416       1     457     468     469     458
CQUADX4      417       1     458     469     470     459
CQUADX4      418       1     459     470     471     460
CQUADX4      419       1     460     471     472     461
CQUADX4      420       1     461     472     473     462
CQUADX4      421       1     463     474     475     464
CQUADX4      422       1     464     475     476     465
CQUADX4      423       1     465     476     477     466
CQUADX4      424       1     466     477     478     467
CQUADX4      425       1     467     478     479     468
CQUADX4      426       1     468     479     480     469
CQUADX4      427       1     469     480     481     470
CQUADX4      428       1     470     481     482     471
CQUADX4      429       1     471     482     483     472
CQUADX4      430       1     472     483     484     473
CQUADX4      431       1     474     485     486     475
CQUADX4      432       1     475     486     487     476
CQUADX4      433       1     476     487     488     477
CQUADX4      434       1     477     488     489     478
CQUADX4      435       1     478     489     490     479
CQUADX4      436       1     479     490     491     480
CQUADX4      437       1     480     491     492     481
CQUADX4      438       1     481     492     493     482
CQUADX4      439       1     482     493     494     483
CQUADX4      440       1     483     494     495     484
CQUADX4      441       1     485     496     497     486
CQUADX4      442       1     486     497     498     487
CQUADX4      443       1     487     498     499     488
CQUADX4      444       1     488     499     500     489
CQUADX4      445       1     489     500     501     490
CQUADX4      446       1     490     501     502     491
CQUADX4      447       1     491     502     503     492
CQUADX4      448       1     492     503     504     493
CQUADX4      449       1     493     504     505     494
CQUADX4      450       1     494     505     506     495
CQUADX4      451       1     496     507     508     497
CQUADX4      452       1     497     508     509     498
CQUADX4      453       1     498     509     510     499
CQUADX4      454       1     499     510     511     500
CQUADX4      455       1     500     511     512     501
CQUADX4      456       1     501     512     513     502
CQUADX4      457       1     502     513     514     503
CQUADX4      458       1     503     514     515     504
CQUADX4      459       1     504     515     516     505
CQUADX4      460       1     505     516     517     506
CQUADX4      461       1     507     518     519     508
CQUADX4      462       1     508     519     520     509
CQUADX4      463       1     509     520     521     510
CQUADX4      464       1     510     521     522     511
CQUADX4      465       1     511     522     523     512
CQUADX4      466       1     512     523     524     513
CQUADX4      467       1     513     524     525     514
CQUADX4      468       1     514     525     526     515
CQUADX4      469       1     515     526     527     516
CQUADX4      470       1     516     527     528     517
CQUADX4      471       1     518     529     530     519
CQUADX4      472       1     519     530     531     520
CQUADX4      473       1     520     531     532     521
CQUADX4      474       1     521     532     533     522
CQUADX4      475       1     522     533     534     523
CQUADX4      476       1     523     534     535     524
CQUADX4      477       1     524     535     536     525
CQUADX4      478       1     525     536     537     526
CQUADX4      479       1     526     537     538     527
CQUADX4      480       1     527     538     539     528
CQUADX4      481       1     529     540     541     530
CQUADX4      482       1     530     541     542     531
CQUADX4      483       1     531     542     543     532
CQUADX4      484       1     532     543     544     533
CQUADX4      485       1     533     544     545     534
CQUADX4      486       1     534     545     546     535
CQUADX4      487       1     535     546     547     536
CQUADX4      488       1     536     547     548     537
CQUADX4      489       1     537     548     549     538
CQUADX4      490       1     538     549     550     539
CQUADX4      491       1     540     551     552     541
CQUADX4      492       1     541     552     553     542
CQUADX4      493       1     542     553     554     543
CQUADX4      494       1     543     554     555     544
CQUADX4      495       1     544     555     556     545
CQUADX4      496       1     545     556     557     546
CQUADX4      497       1     546     557     558     547
CQUADX4      498       1     547     558     559     548
CQUADX4      499       1     548     559     560     549
CQUADX4      500       1     549     560     561     550
CQUADX4      501       1     551     562     563     552
CQUADX4      502       1     552     563     564     553
CQUADX4      503       1     553     564     565     554
CQUADX4      504       1     554     565     566     555
CQUADX4      505       1     555     566     567     556
CQUADX4      506       1     556     567     568     557
CQUADX4      507       1     557     568     569     558
CQUADX4      508       1     558     569     570     559
CQUADX4      509       1     559     570     571     560
CQUADX4      510       1     560     571     572     561
CQUADX4      511       1     562     573     574     563
CQUADX4      512       1     563     574     575     564
CQUADX4      513       1     564     575     576     565
CQUADX4      514       1     565     576     577     566
CQUADX4      515       1     566     577     578     567
CQUADX4      516       1     567     578     579     568
CQUADX4      517       1     568     579     580     569
CQUADX4      518       1     569     580     581     570
CQUADX4      519       1     570     581     582     571
CQUADX4      520       1     571     582     583     572
CQUADX4      521       1     573     584     585     574
CQUADX4      522       1     574     585     586     575
CQUADX4      523       1     575     586     587     576
CQUADX4      524       1     576     587     588     577
CQUADX4      525       1     577     588     589     578
CQUADX4      526       1     578     589     590     579
CQUADX4      527       1     579     590     591     580
CQUADX4      528       1     580     591     592     581
CQUADX4      529       1     581     592     593     582
CQUADX4      530       1     582     593     594     583
CQUADX4      531       1     584     595     596     585
CQUADX4      532       1     585     596     597     586
CQUADX4      533       1     586     597     598     587
CQUADX4      534       1     587     598     599     588
CQUADX4      535       1     588     599     600     589
CQUADX4      536       1     589     600     601     590
CQUADX4      537       1     590     601     602     591
CQUADX4      538       1     591     602     603     592
CQUADX4      539       1     592     603     604     593
CQUADX4      540       1     593     604     605     594
CQUADX4      541       1     595     606     607     596
CQUADX4      542       1     596     607     608     597
CQUADX4      543       1     597     608     609     598
CQUADX4      544       1     598     609     610     599
CQUADX4      545       1     599     610     611     600
CQUADX4      546       1     600     611     612     601
CQUADX4      547       1     601     612     613     602
CQUADX4      548       1     602     613     614     603
CQUADX4      549       1     603     614     615     604
CQUADX4      550       1     604     615     616     605
CQUADX4      551       1     606     617     618     607
CQUADX4      552       1     607     618     619     608
CQUADX4      553       1     608     619     620     609
CQUADX4      554       1     609     620     621     610
CQUADX4      555       1     610     621     622     611
CQUADX4      556       1     611     622     623     612
CQUADX4      557       1     612     623     624     613
CQUADX4      558       1     613     624     625     614
CQUADX4      559       1     614     625     626     615
CQUADX4      560       1     615     626     627     616
CQUADX4      561       1     617     628     629     618
CQUADX4      562       1     618     629     630     619
CQUADX4      563       1     619     630     631     620
CQUADX4      564       1     620     631     632     621
CQUADX4      565       1     621     632     633     622
CQUADX4      566       1     622     633     634     623
CQUADX4      567       1     623     634     635     624
CQUADX4      568       1     624     635     636     625
CQUADX4      569       1     625     636     637     626
CQUADX4      570       1     626     637     638     627
CQUADX4      571       1    1315    1125       1    1113
CQUADX4      572       1    1125    1126      12       1
CQUADX4      573       1    1126    1127      23      12
CQUADX4      574       1    1127    1128      34      23
CQUADX4      575       1    1128    1129      45      34
CQUADX4      576       1    1129    1130      56      45
CQUADX4      577       1    1130    1131      67      56
CQUADX4      578       1    1131    1132      78      67
CQUADX4      579       1    1132    1133      89      78
CQUADX4      580       1    1133    1134     100      89
CQUADX4      581       1    1134    1135     111     100
CQUADX4      582       1    1135    1136     122     111
CQUADX4      583       1    1136    1137     133     122
CQUADX4      584       1    1137    1138     144     133
CQUADX4      585       1    1138    1139     155     144
CQUADX4      586       1    1139    1140     166     155
CQUADX4      587       1    1140    1141     177     166
CQUADX4      588       1    1141    1142     188     177
CQUADX4      589       1    1142    1143     199     188
CQUADX4      590       1    1143    1144     210     199
CQUADX4      591       1    1144    1145     221     210
CQUADX4      592       1    1145    1146     232     221
CQUADX4      593       1    1146    1147     243     232
CQUADX4      594       1    1147    1148     254     243
CQUADX4      595       1    1148    1149     265     254
CQUADX4      596       1    1149    1150     276     265
CQUADX4      597       1    1150    1151     287     276
CQUADX4      598       1    1151    1152     298     287
CQUADX4      599       1    1152    1153     309     298
CQUADX4      600       1    1153    1154     320     309
CQUADX4      601       1    1154    1155     331     320
CQUADX4      602       1    1155    1156     342     331
CQUADX4      603       1    1156    1157     353     342
CQUADX4      604       1    1157    1158     364     353
CQUADX4      605       1    1158    1159     375     364
CQUADX4      606       1    1159    1160     386     375
CQUADX4      607       1    1160    1161     397     386
CQUADX4      608       1    1161    1162     408     397
CQUADX4      609       1    1162    1163     419     408
CQUADX4      610       1    1163    1164     430     419
CQUADX4      611       1    1164    1165     441     430
CQUADX4      612       1    1165    1166     452     441
CQUADX4      613       1    1166    1167     463     452
CQUADX4      614       1    1167    1168     474     463
CQUADX4      615       1    1168    1169     485     474
CQUADX4      616       1    1169    1170     496     485
CQUADX4      617       1    1170    1171     507     496
CQUADX4      618       1    1171    1172     518     507
CQUADX4      619       1    1172    1173     529     518
CQUADX4      620       1    1173    1174     540     529
CQUADX4      621       1    1174    1175     551     540
CQUADX4      622       1    1175    1176     562     551
CQUADX4      623       1    1176    1177     573     562
CQUADX4      624       1    1177    1178     584     573
CQUADX4      625       1    1178    1179     595     584
CQUADX4      626       1    1179    1180     606     595
CQUADX4      627       1    1180    1181     617     606
CQUADX4      628       1    1181    1182     628     617
CQUADX4      629       1    1182    1316    1114     628
CQUADX4      630       1     628    1114    1115     629
CQUADX4      631       1     629    1115    1116     630
CQUADX4      632       1     630    1116    1117     631
CQUADX4      633       1     631    1117    1118     632
CQUADX4      634       1     632    1118    1119     633
CQUADX4      635       1     633    1119    1120     634
CQUADX4      636       1     634    1120    1121     635
CQUADX4      637       1     635    1121    1122     636
CQUADX4      638       1     636    1122    1123     637
CQUADX4      639       1     637    1123    1124     638
CQUADX4      640       1     638    1124    1313    1045
CQUADX4      641       1     627     638    1045    1046
CQUADX4      642       1     616     627    1046    1047
CQUADX4      643       1     605     616    1047    1048
CQUADX4      644       1     594     605    1048    1049
CQUADX4      645       1     583     594    1049    1050
CQUADX4      646       1     572     583    1050    1051
CQUADX4      647       1     561     572    1051    1052
CQUADX4      648       1     550     561    1052    1053
CQUADX4      649       1     539     550    1053    1054
CQUADX4      650       1     528     539    1054    1055
CQUADX4      651       1     517     528    1055    1056
CQUADX4      652       1     506     517    1056    1057
CQUADX4      653       1     495     506    1057    1058
CQUADX4      654       1     484     495    1058    1059
CQUADX4      655       1     473     484    1059    1060
CQUADX4      656       1     462     473    1060    1061
CQUADX4      657       1     451     462    1061    1062
CQUADX4      658       1     440     451    1062    1063
CQUADX4      659       1     429     440    1063    1064
CQUADX4      660       1     418     429    1064    1065
CQUADX4      661       1     407     418    1065    1066
CQUADX4      662       1     396     407    1066    1067
CQUADX4      663       1     385     396    1067    1068
CQUADX4      664       1     374     385    1068    1069
CQUADX4      665       1     363     374    1069    1070
CQUADX4      666       1     352     363    1070    1071
CQUADX4      667       1     341     352    1071    1072
CQUADX4      668       1     330     341    1072    1073
CQUADX4      669       1     319     330    1073    1074
CQUADX4      670       1     308     319    1074    1075
CQUADX4      671       1     297     308    1075    1076
CQUADX4      672       1     286     297    1076    1077
CQUADX4      673       1     275     286    1077    1078
CQUADX4      674       1     264     275    1078    1079
CQUADX4      675       1     253     264    1079    1080
CQUADX4      676       1     242     253    1080    1081
CQUADX4      677       1     231     242    1081    1082
CQUADX4      678       1     220     231    1082    1083
CQUADX4      679       1     209     220    1083    1084
CQUADX4      680       1     198     209    1084    1085
CQUADX4      681       1     187     198    1085    1086
CQUADX4      682       1     176     187    1086    1087
CQUADX4      683       1     165     176    1087    1088
CQUADX4      684       1     154     165    1088    1089
CQUADX4      685       1     143     154    1089    1090
CQUADX4      686       1     132     143    1090    1091
CQUADX4      687       1     121     132    1091    1092
CQUADX4      688       1     110     121    1092    1093
CQUADX4      689       1      99     110    1093    1094
CQUADX4      690       1      88      99    1094    1095
CQUADX4      691       1      77      88    1095    1096
CQUADX4      692       1      66      77    1096    1097
CQUADX4      693       1      55      66    1097    1098
CQUADX4      694       1      44      55    1098    1099
CQUADX4      695       1      33      44    1099    1100
CQUADX4      696       1      22      33    1100    1101
CQUADX4      697       1      11      22    1101    1102
CQUADX4      698       1    1103      11    1102    1314
CQUADX4      699       1    1104      10      11    1103
CQUADX4      700       1    1105       9      10    1104
CQUADX4      701       1    1106       8       9    1105
CQUADX4      702       1    1107       7       8    1106
CQUADX4      703       1    1108       6       7    1107
CQUADX4      704       1    1109       5       6    1108
CQUADX4      705       1    1110       4       5    1109
CQUADX4      706       1    1111       3       4    1110
CQUADX4      707       1    1112       2       3    1111
CQUADX4      708       1    1113       1       2    1112
CQUADX4      709       1     639     646     647     640
CQUADX4      710       1     640     647     648     641
CQUADX4      711       1     641     648     649     642
CQUADX4      712       1     642     649     650     643
CQUADX4      713       1     643     650     651     644
CQUADX4      714       1     644     651     652     645
CQUADX4      715       1     646     653     654     647
CQUADX4      716       1     647     654     655     648
CQUADX4      717       1     648     655     656     649
CQUADX4      718       1     649     656     657     650
CQUADX4      719       1     650     657     658     651
CQUADX4      720       1     651     658     659     652
CQUADX4      721       1     653     660     661     654
CQUADX4      722       1     654     661     662     655
CQUADX4      723       1     655     662     663     656
CQUADX4      724       1     656     663     664     657
CQUADX4      725       1     657     664     665     658
CQUADX4      726       1     658     665     666     659
CQUADX4      727       1     660     667     668     661
CQUADX4      728       1     661     668     669     662
CQUADX4      729       1     662     669     670     663
CQUADX4      730       1     663     670     671     664
CQUADX4      731       1     664     671     672     665
CQUADX4      732       1     665     672     673     666
CQUADX4      733       1     667     674     675     668
CQUADX4      734       1     668     675     676     669
CQUADX4      735       1     669     676     677     670
CQUADX4      736       1     670     677     678     671
CQUADX4      737       1     671     678     679     672
CQUADX4      738       1     672     679     680     673
CQUADX4      739       1     674     681     682     675
CQUADX4      740       1     675     682     683     676
CQUADX4      741       1     676     683     684     677
CQUADX4      742       1     677     684     685     678
CQUADX4      743       1     678     685     686     679
CQUADX4      744       1     679     686     687     680
CQUADX4      745       1     681     688     689     682
CQUADX4      746       1     682     689     690     683
CQUADX4      747       1     683     690     691     684
CQUADX4      748       1     684     691     692     685
CQUADX4      749       1     685     692     693     686
CQUADX4      750       1     686     693     694     687
CQUADX4      751       1     688     695     696     689
CQUADX4      752       1     689     696     697     690
CQUADX4      753       1     690     697     698     691
CQUADX4      754       1     691     698     699     692
CQUADX4      755       1     692     699     700     693
CQUADX4      756       1     693     700     701     694
CQUADX4      757       1     695     702     703     696
CQUADX4      758       1     696     703     704     697
CQUADX4      759       1     697     704     705     698
CQUADX4      760       1     698     705     706     699
CQUADX4      761       1     699     706     707     700
CQUADX4      762       1     700     707     708     701
CQUADX4      763       1     702     709     710     703
CQUADX4      764       1     703     710     711     704
CQUADX4      765       1     704     711     712     705
CQUADX4      766       1     705     712     713     706
CQUADX4      767       1     706     713     714     707
CQUADX4      768       1     707     714     715     708
CQUADX4      769       1     709     716     717     710
CQUADX4      770       1     710     717     718     711
CQUADX4      771       1     711     718     719     712
CQUADX4      772       1     712     719     720     713
CQUADX4      773       1     713     720     721     714
CQUADX4      774       1     714     721     722     715
CQUADX4      775       1     716     723     724     717
CQUADX4      776       1     717     724     725     718
CQUADX4      777       1     718     725     726     719
CQUADX4      778       1     719     726     727     720
CQUADX4      779       1     720     727     728     721
CQUADX4      780       1     721     728     729     722
CQUADX4      781       1     723     730     731     724
CQUADX4      782       1     724     731     732     725
CQUADX4      783       1     725     732     733     726
CQUADX4      784       1     726     733     734     727
CQUADX4      785       1     727     734     735     728
CQUADX4      786       1     728     735     736     729
CQUADX4      787       1     730     737     738     731
CQUADX4      788       1     731     738     739     732
CQUADX4      789       1     732     739     740     733
CQUADX4      790       1     733     740     741     734
CQUADX4      791       1     734     741     742     735
CQUADX4      792       1     735     742     743     736
CQUADX4      793       1     737     744     745     738
CQUADX4      794       1     738     745     746     739
CQUADX4      795       1     739     746     747     740
CQUADX4      796       1     740     747     748     741
CQUADX4      797       1     741     748     749     742
CQUADX4      798       1     742     749     750     743
CQUADX4      799       1     744     751     752     745
CQUADX4      800       1     745     752     753     746
CQUADX4      801       1     746     753     754     747
CQUADX4      802       1     747     754     755     748
CQUADX4      803       1     748     755     756     749
CQUADX4      804       1     749     756     757     750
CQUADX4      805       1     751     758     759     752
CQUADX4      806       1     752     759     760     753
CQUADX4      807       1     753     760     761     754
CQUADX4      808       1     754     761     762     755
CQUADX4      809       1     755     762     763     756
CQUADX4      810       1     756     763     764     757
CQUADX4      811       1     758     765     766     759
CQUADX4      812       1     759     766     767     760
CQUADX4      813       1     760     767     768     761
CQUADX4      814       1     761     768     769     762
CQUADX4      815       1     762     769     770     763
CQUADX4      816       1     763     770     771     764
CQUADX4      817       1     765     772     773     766
CQUADX4      818       1     766     773     774     767
CQUADX4      819       1     767     774     775     768
CQUADX4      820       1     768     775     776     769
CQUADX4      821       1     769     776     777     770
CQUADX4      822       1     770     777     778     771
CQUADX4      823       1     772     779     780     773
CQUADX4      824       1     773     780     781     774
CQUADX4      825       1     774     781     782     775
CQUADX4      826       1     775     782     783     776
CQUADX4      827       1     776     783     784     777
CQUADX4      828       1     777     784     785     778
CQUADX4      829       1     779     786     787     780
CQUADX4      830       1     780     787     788     781
CQUADX4      831       1     781     788     789     782
CQUADX4      832       1     782     789     790     783
CQUADX4      833       1     783     790     791     784
CQUADX4      834       1     784     791     792     785
CQUADX4      835       1     786     793     794     787
CQUADX4      836       1     787     794     795     788
CQUADX4      837       1     788     795     796     789
CQUADX4      838       1     789     796     797     790
CQUADX4      839       1     790     797     798     791
CQUADX4      840       1     791     798     799     792
CQUADX4      841       1     793     800     801     794
CQUADX4      842       1     794     801     802     795
CQUADX4      843       1     795     802     803     796
CQUADX4      844       1     796     803     804     797
CQUADX4      845       1     797     804     805     798
CQUADX4      846       1     798     805     806     799
CQUADX4      847       1     800     807     808     801
CQUADX4      848       1     801     808     809     802
CQUADX4      849       1     802     809     810     803
CQUADX4      850       1     803     810     811     804
CQUADX4      851       1     804     811     812     805
CQUADX4      852       1     805     812     813     806
CQUADX4      853       1     807     814     815     808
CQUADX4      854       1     808     815     816     809
CQUADX4      855       1     809     816     817     810
CQUADX4      856       1     810     817     818     811
CQUADX4      857       1     811     818     819     812
CQUADX4      858       1     812     819     820     813
CQUADX4      859       1     814     821     822     815
CQUADX4      860       1     815     822     823     816
CQUADX4      861       1     816     823     824     817
CQUADX4      862       1     817     824     825     818
CQUADX4      863       1     818     825     826     819
CQUADX4      864       1     819     826     827     820
CQUADX4      865       1     821     828     829     822
CQUADX4      866       1     822     829     830     823
CQUADX4      867       1     823     830     831     824
CQUADX4      868       1     824     831     832     825
CQUADX4      869       1     825     832     833     826
CQUADX4      870       1     826     833     834     827
CQUADX4      871       1     828     835     836     829
CQUADX4      872       1     829     836     837     830
CQUADX4      873       1     830     837     838     831
CQUADX4      874       1     831     838     839     832
CQUADX4      875       1     832     839     840     833
CQUADX4      876       1     833     840     841     834
CQUADX4      877       1     835     842     843     836
CQUADX4      878       1     836     843     844     837
CQUADX4      879       1     837     844     845     838
CQUADX4      880       1     838     845     846     839
CQUADX4      881       1     839     846     847     840
CQUADX4      882       1     840     847     848     841
CQUADX4      883       1     842     849     850     843
CQUADX4      884       1     843     850     851     844
CQUADX4      885       1     844     851     852     845
CQUADX4      886       1     845     852     853     846
CQUADX4      887       1     846     853     854     847
CQUADX4      888       1     847     854     855     848
CQUADX4      889       1     849     856     857     850
CQUADX4      890       1     850     857     858     851
CQUADX4      891       1     851     858     859     852
CQUADX4      892       1     852     859     860     853
CQUADX4      893       1     853     860     861     854
CQUADX4      894       1     854     861     862     855
CQUADX4      895       1     856     863     864     857
CQUADX4      896       1     857     864     865     858
CQUADX4      897       1     858     865     866     859
CQUADX4      898       1     859     866     867     860
CQUADX4      899       1     860     867     868     861
CQUADX4      900       1     861     868     869     862
CQUADX4      901       1     863     870     871     864
CQUADX4      902       1     864     871     872     865
CQUADX4      903       1     865     872     873     866
CQUADX4      904       1     866     873     874     867
CQUADX4      905       1     867     874     875     868
CQUADX4      906       1     868     875     876     869
CQUADX4      907       1     870     877     878     871
CQUADX4      908       1     871     878     879     872
CQUADX4      909       1     872     879     880     873
CQUADX4      910       1     873     880     881     874
CQUADX4      911       1     874     881     882     875
CQUADX4      912       1     875     882     883     876
CQUADX4      913       1     877     884     885     878
CQUADX4      914       1     878     885     886     879
CQUADX4      915       1     879     886     887     880
CQUADX4      916       1     880     887     888     881
CQUADX4      917       1     881     888     889     882
CQUADX4      918       1     882     889     890     883
CQUADX4      919       1     884     891     892     885
CQUADX4      920       1     885     892     893     886
CQUADX4      921       1     886     893     894     887
CQUADX4      922       1     887     894     895     888
CQUADX4      923       1     888     895     896     889
CQUADX4      924       1     889     896     897     890
CQUADX4      925       1     891     898     899     892
CQUADX4      926       1     892     899     900     893
CQUADX4      927       1     893     900     901     894
CQUADX4      928       1     894     901     902     895
CQUADX4      929       1     895     902     903     896
CQUADX4      930       1     896     903     904     897
CQUADX4      931       1     898     905     906     899
CQUADX4      932       1     899     906     907     900
CQUADX4      933       1     900     907     908     901
CQUADX4      934       1     901     908     909     902
CQUADX4      935       1     902     909     910     903
CQUADX4      936       1     903     910     911     904
CQUADX4      937       1     905     912     913     906
CQUADX4      938       1     906     913     914     907
CQUADX4      939       1     907     914     915     908
CQUADX4      940       1     908     915     916     909
CQUADX4      941       1     909     916     917     910
CQUADX4      942       1     910     917     918     911
CQUADX4      943       1     912     919     920     913
CQUADX4      944       1     913     920     921     914
CQUADX4      945       1     914     921     922     915
CQUADX4      946       1     915     922     923     916
CQUADX4      947       1     916     923     924     917
CQUADX4      948       1     917     924     925     918
CQUADX4      949       1     919     926     927     920
CQUADX4      950       1     920     927     928     921
CQUADX4      951       1     921     928     929     922
CQUADX4      952       1     922     929     930     923
CQUADX4      953       1     923     930     931     924
CQUADX4      954       1     924     931     932     925
CQUADX4      955       1     926     933     934     927
CQUADX4      956       1     927     934     935     928
CQUADX4      957       1     928     935     936     929
CQUADX4      958       1     929     936     937     930
CQUADX4      959       1     930     937     938     931
CQUADX4      960       1     931     938     939     932
CQUADX4      961       1     933     940     941     934
CQUADX4      962       1     934     941     942     935
CQUADX4      963       1     935     942     943     936
CQUADX4      964       1     936     943     944     937
CQUADX4      965       1     937     944     945     938
CQUADX4      966       1     938     945     946     939
CQUADX4      967       1     940     947     948     941
CQUADX4      968       1     941     948     949     942
CQUADX4      969       1     942     949     950     943
CQUADX4      970       1     943     950     951     944
CQUADX4      971       1     944     951     952     945
CQUADX4      972       1     945     952     953     946
CQUADX4      973       1     947     954     955     948
CQUADX4      974       1     948     955     956     949
CQUADX4      975       1     949     956     957     950
CQUADX4      976       1     950     957     958     951
CQUADX4      977       1     951     958     959     952
CQUADX4      978       1     952     959     960     953
CQUADX4      979       1     954     961     962     955
CQUADX4      980       1     955     962     963     956
CQUADX4      981       1     956     963     964     957
CQUADX4      982       1     957     964     965     958
CQUADX4      983       1     958     965     966     959
CQUADX4      984       1     959     966     967     960
CQUADX4      985       1     961     968     969     962
CQUADX4      986       1     962     969     970     963
CQUADX4      987       1     963     970     971     964
CQUADX4      988       1     964     971     972     965
CQUADX4      989       1     965     972     973     966
CQUADX4      990       1     966     973     974     967
CQUADX4      991       1     968     975     976     969
CQUADX4      992       1     969     976     977     970
CQUADX4      993       1     970     977     978     971
CQUADX4      994       1     971     978     979     972
CQUADX4      995       1     972     979     980     973
CQUADX4      996       1     973     980     981     974
CQUADX4      997       1     975     982     983     976
CQUADX4      998       1     976     983     984     977
CQUADX4      999       1     977     984     985     978
CQUADX4     1000       1     978     985     986     979
CQUADX4     1001       1     979     986     987     980
CQUADX4     1002       1     980     987     988     981
CQUADX4     1003       1     982     989     990     983
CQUADX4     1004       1     983     990     991     984
CQUADX4     1005       1     984     991     992     985
CQUADX4     1006       1     985     992     993     986
CQUADX4     1007       1     986     993     994     987
CQUADX4     1008       1     987     994     995     988
CQUADX4     1009       1     989     996     997     990
CQUADX4     1010       1     990     997     998     991
CQUADX4     1011       1     991     998     999     992
CQUADX4     1012       1     992     999    1000     993
CQUADX4     1013       1     993    1000    1001     994
CQUADX4     1014       1     994    1001    1002     995
CQUADX4     1015       1     996    1003    1004     997
CQUADX4     1016       1     997    1004    1005     998
CQUADX4     1017       1     998    1005    1006     999
CQUADX4     1018       1     999    1006    1007    1000
CQUADX4     1019       1    1000    1007    1008    1001
CQUADX4     1020       1    1001    1008    1009    1002
CQUADX4     1021       1    1003    1010    1011    1004
CQUADX4     1022       1    1004    1011    1012    1005
CQUADX4     1023       1    1005    1012    1013    1006
CQUADX4     1024       1    1006    1013    1014    1007
CQUADX4     1025       1    1007    1014    1015    1008
CQUADX4     1026       1    1008    1015    1016    1009
CQUADX4     1027       1    1010    1017    1018    1011
CQUADX4     1028       1    1011    1018    1019    1012
CQUADX4     1029       1    1012    1019    1020    1013
CQUADX4     1030       1    1013    1020    1021    1014
CQUADX4     1031       1    1014    1021    1022    1015
CQUADX4     1032       1    1015    1022    1023    1016
CQUADX4     1033       1    1017    1024    1025    1018
CQUADX4     1034       1    1018    1025    1026    1019
CQUADX4     1035       1    1019    1026    1027    1020
CQUADX4     1036       1    1020    1027    1028    1021
CQUADX4     1037       1    1021    1028    1029    1022
CQUADX4     1038       1    1022    1029    1030    1023
CQUADX4     1039       1    1024    1031    1032    1025
CQUADX4     1040       1    1025    1032    1033    1026
CQUADX4     1041       1    1026    1033    1034    1027
CQUADX4     1042       1    1027    1034    1035    1028
CQUADX4     1043       1    1028    1035    1036    1029
CQUADX4     1044       1    1029    1036    1037    1030
CQUADX4     1045       1    1031    1038    1039    1032
CQUADX4     1046       1    1032    1039    1040    1033
CQUADX4     1047       1    1033    1040    1041    1034
CQUADX4     1048       1    1034    1041    1042    1035
CQUADX4     1049       1    1035    1042    1043    1036
CQUADX4     1050       1    1036    1043    1044    1037
CQUADX4     1051       1    1319    1255     639    1247
CQUADX4     1052       1    1255    1256     646     639
CQUADX4     1053       1    1256    1257     653     646
CQUADX4     1054       1    1257    1258     660     653
CQUADX4     1055       1    1258    1259     667     660
CQUADX4     1056       1    1259    1260     674     667
CQUADX4     1057       1    1260    1261     681     674
CQUADX4     1058       1    1261    1262     688     681
CQUADX4     1059       1    1262    1263     695     688
CQUADX4     1060       1    1263    1264     702     695
CQUADX4     1061       1    1264    1265     709     702
CQUADX4     1062       1    1265    1266     716     709
CQUADX4     1063       1    1266    1267     723     716
CQUADX4     1064       1    1267    1268     730     723
CQUADX4     1065       1    1268    1269     737     730
CQUADX4     1066       1    1269    1270     744     737
CQUADX4     1067       1    1270    1271     751     744
CQUADX4     1068       1    1271    1272     758     751
CQUADX4     1069       1    1272    1273     765     758
CQUADX4     1070       1    1273    1274     772     765
CQUADX4     1071       1    1274    1275     779     772
CQUADX4     1072       1    1275    1276     786     779
CQUADX4     1073       1    1276    1277     793     786
CQUADX4     1074       1    1277    1278     800     793
CQUADX4     1075       1    1278    1279     807     800
CQUADX4     1076       1    1279    1280     814     807
CQUADX4     1077       1    1280    1281     821     814
CQUADX4     1078       1    1281    1282     828     821
CQUADX4     1079       1    1282    1283     835     828
CQUADX4     1080       1    1283    1284     842     835
CQUADX4     1081       1    1284    1285     849     842
CQUADX4     1082       1    1285    1286     856     849
CQUADX4     1083       1    1286    1287     863     856
CQUADX4     1084       1    1287    1288     870     863
CQUADX4     1085       1    1288    1289     877     870
CQUADX4     1086       1    1289    1290     884     877
CQUADX4     1087       1    1290    1291     891     884
CQUADX4     1088       1    1291    1292     898     891
CQUADX4     1089       1    1292    1293     905     898
CQUADX4     1090       1    1293    1294     912     905
CQUADX4     1091       1    1294    1295     919     912
CQUADX4     1092       1    1295    1296     926     919
CQUADX4     1093       1    1296    1297     933     926
CQUADX4     1094       1    1297    1298     940     933
CQUADX4     1095       1    1298    1299     947     940
CQUADX4     1096       1    1299    1300     954     947
CQUADX4     1097       1    1300    1301     961     954
CQUADX4     1098       1    1301    1302     968     961
CQUADX4     1099       1    1302    1303     975     968
CQUADX4     1100       1    1303    1304     982     975
CQUADX4     1101       1    1304    1305     989     982
CQUADX4     1102       1    1305    1306     996     989
CQUADX4     1103       1    1306    1307    1003     996
CQUADX4     1104       1    1307    1308    1010    1003
CQUADX4     1105       1    1308    1309    1017    1010
CQUADX4     1106       1    1309    1310    1024    1017
CQUADX4     1107       1    1310    1311    1031    1024
CQUADX4     1108       1    1311    1312    1038    1031
CQUADX4     1109       1    1312    1320    1248    1038
CQUADX4     1110       1    1038    1248    1249    1039
CQUADX4     1111       1    1039    1249    1250    1040
CQUADX4     1112       1    1040    1250    1251    1041
CQUADX4     1113       1    1041    1251    1252    1042
CQUADX4     1114       1    1042    1252    1253    1043
CQUADX4     1115       1    1043    1253    1254    1044
CQUADX4     1116       1    1044    1254    1317    1183
CQUADX4     1117       1    1037    1044    1183    1184
CQUADX4     1118       1    1030    1037    1184    1185
CQUADX4     1119       1    1023    1030    1185    1186
CQUADX4     1120       1    1016    1023    1186    1187
CQUADX4     1121       1    1009    1016    1187    1188
CQUADX4     1122       1    1002    1009    1188    1189
CQUADX4     1123       1     995    1002    1189    1190
CQUADX4     1124       1     988     995    1190    1191
CQUADX4     1125       1     981     988    1191    1192
CQUADX4     1126       1     974     981    1192    1193
CQUADX4     1127       1     967     974    1193    1194
CQUADX4     1128       1     960     967    1194    1195
CQUADX4     1129       1     953     960    1195    1196
CQUADX4     1130       1     946     953    1196    1197
CQUADX4     1131       1     939     946    1197    1198
CQUADX4     1132       1     932     939    1198    1199
CQUADX4     1133       1     925     932    1199    1200
CQUADX4     1134       1     918     925    1200    1201
CQUADX4     1135       1     911     918    1201    1202
CQUADX4     1136       1     904     911    1202    1203
CQUADX4     1137       1     897     904    1203    1204
CQUADX4     1138       1     890     897    1204    1205
CQUADX4     1139       1     883     890    1205    1206
CQUADX4     1140       1     876     883    1206    1207
CQUADX4     1141       1     869     876    1207    1208
CQUADX4     1142       1     862     869    1208    1209
CQUADX4     1143       1     855     862    1209    1210
CQUADX4     1144       1     848     855    1210    1211
CQUADX4     1145       1     841     848    1211    1212
CQUADX4     1146       1     834     841    1212    1213
CQUADX4     1147       1     827     834    1213    1214
CQUADX4     1148       1     820     827    1214    1215
CQUADX4     1149       1     813     820    1215    1216
CQUADX4     1150       1     806     813    1216    1217
CQUADX4     1151       1     799     806    1217    1218
CQUADX4     1152       1     792     799    1218    1219
CQUADX4     1153       1     785     792    1219    1220
CQUADX4     1154       1     778     785    1220    1221
CQUADX4     1155       1     771     778    1221    1222
CQUADX4     1156       1     764     771    1222    1223
CQUADX4     1157       1     757     764    1223    1224
CQUADX4     1158       1     750     757    1224    1225
CQUADX4     1159       1     743     750    1225    1226
CQUADX4     1160       1     736     743    1226    1227
CQUADX4     1161       1     729     736    1227    1228
CQUADX4     1162       1     722     729    1228    1229
CQUADX4     1163       1     715     722    1229    1230
CQUADX4     1164       1     708     715    1230    1231
CQUADX4     1165       1     701     708    1231    1232
CQUADX4     1166       1     694     701    1232    1233
CQUADX4     1167       1     687     694    1233    1234
CQUADX4     1168       1     680     687    1234    1235
CQUADX4     1169       1     673     680    1235    1236
CQUADX4     1170       1     666     673    1236    1237
CQUADX4     1171       1     659     666    1237    1238
CQUADX4     1172       1     652     659    1238    1239
CQUADX4     1173       1     645     652    1239    1240
CQUADX4     1174       1    1241     645    1240    1318
CQUADX4     1175       1    1242     644     645    1241
CQUADX4     1176       1    1243     643     644    1242
CQUADX4     1177       1    1244     642     643    1243
CQUADX4     1178       1    1245     641     642    1244
CQUADX4     1179       1    1246     640     641    1245
CQUADX4     1180       1    1247     639     640    1246
$*
$* PROPERTY CARDS
$*
$*  Property: PSOLID1
PSOLID         1       1                                   SMECH
$*
$* MATERIAL CARDS
$*
$*  Material: ACERO::zunchadoSolo_fem::[1]
MAT1           12.0000+8        0.300000  0.0000
$*
$* LOAD AND CONSTRAINT CARDS
$*
$*  Constraint: UserDefined(1)
SPC            1    1103       3  0.0000
SPC            1    1104       3  0.0000
SPC            1    1105       3  0.0000
SPC            1    1106       3  0.0000
SPC            1    1107       3  0.0000
SPC            1    1108       3  0.0000
SPC            1    1109       3  0.0000
SPC            1    1110       3  0.0000
SPC            1    1111       3  0.0000
SPC            1    1112       3  0.0000
SPC            1    1113       3  0.0000
SPC            1    1241       3  0.0000
SPC            1    1242       3  0.0000
SPC            1    1243       3  0.0000
SPC            1    1244       3  0.0000
SPC            1    1245       3  0.0000
SPC            1    1246       3  0.0000
SPC            1    1247       3  0.0000
SPC            1    1314       3  0.0000
SPC            1    1315       3  0.0000
SPC            1    1318       3  0.0000
SPC            1    1319       3  0.0000
$*  Region: Edge Region(BEDGE)1
BEDGE          1    1051    1319    1255            1052    1255    1256+
+                   1053    1256    1257            1054    1257    1258+
+                   1055    1258    1259            1056    1259    1260+
+                   1057    1260    1261            1058    1261    1262+
+                   1059    1262    1263            1060    1263    1264+
+                   1061    1264    1265            1062    1265    1266+
+                   1063    1266    1267            1064    1267    1268+
+                   1065    1268    1269            1066    1269    1270+
+                   1067    1270    1271            1068    1271    1272+
+                   1069    1272    1273            1070    1273    1274+
+                   1071    1274    1275            1072    1275    1276+
+                   1073    1276    1277            1074    1277    1278+
+                   1075    1278    1279            1076    1279    1280+
+                   1077    1280    1281            1078    1281    1282+
+                   1079    1282    1283            1080    1283    1284+
+                   1081    1284    1285            1082    1285    1286+
+                   1083    1286    1287            1084    1287    1288+
+                   1085    1288    1289            1086    1289    1290+
+                   1087    1290    1291            1088    1291    1292+
+                   1089    1292    1293            1090    1293    1294+
+                   1091    1294    1295            1092    1295    1296+
+                   1093    1296    1297            1094    1297    1298+
+                   1095    1298    1299            1096    1299    1300+
+                   1097    1300    1301            1098    1301    1302+
+                   1099    1302    1303            1100    1303    1304+
+                   1101    1304    1305            1102    1305    1306+
+                   1103    1306    1307            1104    1307    1308+
+                   1105    1308    1309            1106    1309    1310+
+                   1107    1310    1311            1108    1311    1312+
+                   1109    1312    1320
BCRPARA        1          0.0000    FLEX
$*  Region: Edge Region(BEDGE)2
BEDGE          2     640    1313    1045             641    1045    1046+
+                    642    1046    1047             643    1047    1048+
+                    644    1048    1049             645    1049    1050+
+                    646    1050    1051             647    1051    1052+
+                    648    1052    1053             649    1053    1054+
+                    650    1054    1055             651    1055    1056+
+                    652    1056    1057             653    1057    1058+
+                    654    1058    1059             655    1059    1060+
+                    656    1060    1061             657    1061    1062+
+                    658    1062    1063             659    1063    1064+
+                    660    1064    1065             661    1065    1066+
+                    662    1066    1067             663    1067    1068+
+                    664    1068    1069             665    1069    1070+
+                    666    1070    1071             667    1071    1072+
+                    668    1072    1073             669    1073    1074+
+                    670    1074    1075             671    1075    1076+
+                    672    1076    1077             673    1077    1078+
+                    674    1078    1079             675    1079    1080+
+                    676    1080    1081             677    1081    1082+
+                    678    1082    1083             679    1083    1084+
+                    680    1084    1085             681    1085    1086+
+                    682    1086    1087             683    1087    1088+
+                    684    1088    1089             685    1089    1090+
+                    686    1090    1091             687    1091    1092+
+                    688    1092    1093             689    1093    1094+
+                    690    1094    1095             691    1095    1096+
+                    692    1096    1097             693    1097    1098+
+                    694    1098    1099             695    1099    1100+
+                    696    1100    1101             697    1101    1102+
+                    698    1102    1314
BCRPARA        2          0.0000    FLEX
$*  Load: Pressure(1)
PLOADX1        3    11161.0000+51.0000+5    1317    1183  0.0000
PLOADX1        3    11171.0000+51.0000+5    1183    1184  0.0000
PLOADX1        3    11181.0000+51.0000+5    1184    1185  0.0000
PLOADX1        3    11191.0000+51.0000+5    1185    1186  0.0000
PLOADX1        3    11201.0000+51.0000+5    1186    1187  0.0000
PLOADX1        3    11211.0000+51.0000+5    1187    1188  0.0000
PLOADX1        3    11221.0000+51.0000+5    1188    1189  0.0000
PLOADX1        3    11231.0000+51.0000+5    1189    1190  0.0000
PLOADX1        3    11241.0000+51.0000+5    1190    1191  0.0000
PLOADX1        3    11251.0000+51.0000+5    1191    1192  0.0000
PLOADX1        3    11261.0000+51.0000+5    1192    1193  0.0000
PLOADX1        3    11271.0000+51.0000+5    1193    1194  0.0000
PLOADX1        3    11281.0000+51.0000+5    1194    1195  0.0000
PLOADX1        3    11291.0000+51.0000+5    1195    1196  0.0000
PLOADX1        3    11301.0000+51.0000+5    1196    1197  0.0000
PLOADX1        3    11311.0000+51.0000+5    1197    1198  0.0000
PLOADX1        3    11321.0000+51.0000+5    1198    1199  0.0000
PLOADX1        3    11331.0000+51.0000+5    1199    1200  0.0000
PLOADX1        3    11341.0000+51.0000+5    1200    1201  0.0000
PLOADX1        3    11351.0000+51.0000+5    1201    1202  0.0000
PLOADX1        3    11361.0000+51.0000+5    1202    1203  0.0000
PLOADX1        3    11371.0000+51.0000+5    1203    1204  0.0000
PLOADX1        3    11381.0000+51.0000+5    1204    1205  0.0000
PLOADX1        3    11391.0000+51.0000+5    1205    1206  0.0000
PLOADX1        3    11401.0000+51.0000+5    1206    1207  0.0000
PLOADX1        3    11411.0000+51.0000+5    1207    1208  0.0000
PLOADX1        3    11421.0000+51.0000+5    1208    1209  0.0000
PLOADX1        3    11431.0000+51.0000+5    1209    1210  0.0000
PLOADX1        3    11441.0000+51.0000+5    1210    1211  0.0000
PLOADX1        3    11451.0000+51.0000+5    1211    1212  0.0000
PLOADX1        3    11461.0000+51.0000+5    1212    1213  0.0000
PLOADX1        3    11471.0000+51.0000+5    1213    1214  0.0000
PLOADX1        3    11481.0000+51.0000+5    1214    1215  0.0000
PLOADX1        3    11491.0000+51.0000+5    1215    1216  0.0000
PLOADX1        3    11501.0000+51.0000+5    1216    1217  0.0000
PLOADX1        3    11511.0000+51.0000+5    1217    1218  0.0000
PLOADX1        3    11521.0000+51.0000+5    1218    1219  0.0000
PLOADX1        3    11531.0000+51.0000+5    1219    1220  0.0000
PLOADX1        3    11541.0000+51.0000+5    1220    1221  0.0000
PLOADX1        3    11551.0000+51.0000+5    1221    1222  0.0000
PLOADX1        3    11561.0000+51.0000+5    1222    1223  0.0000
PLOADX1        3    11571.0000+51.0000+5    1223    1224  0.0000
PLOADX1        3    11581.0000+51.0000+5    1224    1225  0.0000
PLOADX1        3    11591.0000+51.0000+5    1225    1226  0.0000
PLOADX1        3    11601.0000+51.0000+5    1226    1227  0.0000
PLOADX1        3    11611.0000+51.0000+5    1227    1228  0.0000
PLOADX1        3    11621.0000+51.0000+5    1228    1229  0.0000
PLOADX1        3    11631.0000+51.0000+5    1229    1230  0.0000
PLOADX1        3    11641.0000+51.0000+5    1230    1231  0.0000
PLOADX1        3    11651.0000+51.0000+5    1231    1232  0.0000
PLOADX1        3    11661.0000+51.0000+5    1232    1233  0.0000
PLOADX1        3    11671.0000+51.0000+5    1233    1234  0.0000
PLOADX1        3    11681.0000+51.0000+5    1234    1235  0.0000
PLOADX1        3    11691.0000+51.0000+5    1235    1236  0.0000
PLOADX1        3    11701.0000+51.0000+5    1236    1237  0.0000
PLOADX1        3    11711.0000+51.0000+5    1237    1238  0.0000
PLOADX1        3    11721.0000+51.0000+5    1238    1239  0.0000
PLOADX1        3    11731.0000+51.0000+5    1239    1240  0.0000
PLOADX1        3    11741.0000+51.0000+5    1240    1318  0.0000
ENDDATA 6261eec7
